832

Na       27.27148438    -27.68785667    -64.48438263
Na       78.02434540     43.75460815    -71.19963837
Na       30.39068222     30.36942291    -69.12492371
Na       34.15235901    115.41632843   -131.23153687
Na       -6.26430368     60.94362640    -30.74398804
Na       27.55862427    -20.21224403     82.05366516
Na      -51.56935883     23.93587112     37.29725647
Na        7.10103607     13.76203251    -47.59113312
Na      -29.82353020    -77.97338104     26.94837379
Na       95.74782562     27.06048584     34.01525497
Na      -47.19487000     47.11166382     51.18510437
Na       34.19984055     41.03581238     -3.02760816
Na       91.90534210     50.64186478    -13.56170082
Na      -72.05375671    -33.33569717     37.58169937
Na      -44.88587570   -135.38705444     16.89323425
Na       47.36146927     13.72127819    -64.54716492
Na      129.55294800     -9.87694550     -6.18815517
Na       14.15344715     34.45335007     24.02947998
Na      -17.20580864    -50.82649612     82.04891205
Na       -7.16020012    -75.08306885     91.90399933
Na      180.25540161     37.36939240     60.80448151
Na       88.55995941     75.11658478    -50.94621658
Na       -3.18115258    -20.86314011     -9.76821423
Na       -0.22291304     64.86032867     41.08300400
Na      -41.01125717    -54.41276550     37.13891602
Na       88.65619659    148.71276855     58.00915527
Na       43.90087128    -34.37341690    -16.97685814
Na       82.02082825    -47.90752411     -6.44373703
Na       81.59671783     13.36211491     48.25620270
Na       30.71348381     44.29935074     57.19680405
Na       44.06190872     54.71201706    -37.93361664
Na       36.94574738     -3.19068718      6.98099518
Na      -26.85347748    101.92213440     48.38397980
Na       20.36764717     41.30494690     37.59894562
Na       61.43706131     37.32534027     82.18265533
Na       23.74246979     81.60543060    -30.64163589
Na       64.82867432     10.53859425    -54.93836594
Na       78.28614044    -37.05472183     57.48966980
Na       67.79566193     27.01330948     74.25061035
Na       34.34273529   -113.68229675      7.41080713
Na       67.57370758      0.08886249   -112.21400452
Na       58.57944489    -23.10801697     36.71519852
Na       37.29231644      7.24216986    -31.08961678
Na       47.80913544     46.96752548    -16.99577141
Na        0.42744169    -48.40023041     98.90666962
Na        6.49515057     71.08016968     48.28855133
Na       40.71857452     30.47865295   -122.27297974
Na       -7.21301651     23.51574516     88.28668213
Na      -47.42064285     20.44614220    -64.56386566
Na       40.82108307     67.33980560    -88.64179230
Na       51.03022003    -24.33402824    -16.93448830
Na       71.82187653    -22.87547302    -44.20855331
Na       54.76762772     -5.88304329     51.74048996
Na       -7.06322718      6.68390179    -47.95549011
Na       -0.00917236     27.21971703     21.04346657
Na      101.59273529     61.20886230     57.77804565
Na       44.90592575    -50.87503433    104.51644135
Na       92.40621185    129.45901489      3.40899420
Na      -50.82490158     10.20347309     26.92499161
Na       36.63174438     80.70542145     -3.73956418
Na       16.73252296     34.80976868     44.35765076
Na       -6.87953711     13.57123375     88.75706482
Na      126.08786774    -43.80857086     68.35178375
Na      -85.33382416    -50.93565750     34.02343750
Na     -153.85084534     34.14194107    -78.68055725
Na       61.46404648    -47.38828278    -81.45706177
Na       37.49099731     57.50794983     85.98395538
Na       34.79721832     34.02112961     74.84022522
Na      -40.92287445     43.78135681     13.79275036
Na       23.59660530     -3.25190663     81.78525543
Na       17.74341011     -0.17116629    -51.14045334
Na       -3.34829259     85.35292053    -51.21984100
Na       31.11108589     21.10487366    -30.44830704
Na      133.05007935     30.58952332     16.87969971
Na       37.86178589     10.10158920     20.05735397
Na      -37.45357513     58.28411865     13.82183743
Na      -27.26654243    -16.93706322     27.16953087
Na      129.64302063    -57.80584717     67.94129181
Na       54.46217346     24.09935760    108.71738434
Na      -20.20362663      3.98319435    -20.27353668
Na      -13.29288197     27.06886673     14.27297688
Na       -3.39411688    -38.14155197     14.01487160
Na      -34.90015411    -37.44290924    -19.95119095
Na       41.44845963     12.98956013    -30.25064659
Na      -16.56121254    -17.25151825     60.92319489
Na        9.91999912    126.10579681     78.79298401
Na      -10.02645588    -44.11518860    -88.54548645
Na        3.17915130     14.26394272    -30.12073708
Na       61.50948334    -67.51641083    -40.55782700
Na       98.57498169    -68.76262665    -64.05964661
Na       98.75577545     44.29700089     -6.59601068
Na       61.03424835    -14.49633598     47.84181976
Na       34.15254974      3.57044053    -68.01899719
Na      -16.37519646     50.75926971    -34.19495392
Na       27.10092545    -37.01742554     33.67716980
Na       51.29459763     34.25900269     30.98128128
Na        4.62276697    -23.83023262     20.35713768
Na       40.24564362     -3.28725481     54.05875015
Na      -28.02895927     17.09073448     20.51735687
Na       47.54765701     23.45379639     54.78968811
Na     -136.58047485     37.92463303    -47.46622849
Na      -50.85504532     -3.22657537     40.99869919
Na      -65.02621460    139.55873108     -0.66231573
Na      -10.33257198    -14.12190628     10.54037952
Na       23.42187881     64.25754547     95.28037262
Na       50.84684372    -10.43402767    -30.88381195
Na       80.80086517     41.46466064     85.49276733
Na        3.93133163     37.84564972    -40.86439133
Na       -9.69482040     16.50179482    -26.82816124
Na       68.33769226    -75.04302216     68.17140961
Na       -0.04612869    -48.34278870     61.46873474
Na      146.77827454     54.10658264      3.00938153
Na      -19.89016533    -40.82463455     64.95400238
Na       62.09876251     44.59465027     68.03342438
Na      -17.56550407     24.24367714    -24.04834938
Na      -71.67849731     13.27902031    -37.23457718
Na       30.45165443     30.13804245     57.45115280
Na        0.25011346     -7.30123997     44.55390930
Na       33.84695053     -7.17478609    -81.40527344
Na       85.72891235     36.88400269    -37.70753098
Na      -47.69015503    -47.87516785    -84.91822815
Na      -13.86208153     23.34037209      7.43027115
Na       47.62559128     74.63955688     14.43413830
Na       64.64954376      9.40053177     40.56191254
Na       27.09114075    -20.91580963     57.93018341
Na      -30.34369659    -37.46306610    -64.18853760
Na       88.87725830     61.32876205    -37.34689331
Na       54.13806534      0.00139223     64.31053925
Na      -64.41214752     24.45661163    -41.12727737
Na      129.12969971    -54.44084167     78.29753876
Na       36.30101776     16.66907692    -20.30457687
Na      -37.97727203     84.99121094     57.90671921
Na      -24.06891823    -64.83377075    -87.76510620
Na      -23.98271179    -26.66621399    -10.50620937
Na       23.49203682     68.17884827    -58.01584244
Na        3.00297356     23.75097275     82.17256927
Na       30.98963547     78.39094543    -37.22291565
Na      -27.97190857    -34.14577484      3.96866655
Na      -98.87508392     44.32474518    -80.98809052
Na       68.22408295    -30.78046608     40.97514343
Na        3.74600649    -19.67953300     -3.16735291
Na      -81.28028870     -3.31007457     34.37883377
Na      101.73676300    -17.03484726     88.20190430
Na       64.69165039     71.37854004     37.61710739
Na       23.56905746     57.89624405     20.13106537
Na       71.47598267     44.34908295     44.71516418
Na       -9.53194618    -47.26814270     78.32172394
Na      149.78192139     41.64577103    -19.80131912
Na       34.20898056    -20.15404701    -68.65531921
Na      101.71211243     17.40617752     67.84401703
Na      -44.56489563     56.91951370    -13.17728996
Na      -91.07412720     20.51927185     51.00711823
Na       13.80078316    -13.52849483      3.65263653
Na       -8.90291595    -98.70288086     16.95464325
Na      -43.91720581     74.68587494    -91.82649231
Na       74.72051239     30.18775558     34.36951828
Na      -24.30430031    -37.09671021     33.99602890
Na        0.11097074     47.82926559     64.83028412
Na      163.23869324     20.95817375     34.32617569
Na      -30.55311584    -44.19245911      3.57073736
Na      -50.59347153    -30.42811012     61.32997513
Na       34.69328690     -6.51989889     74.58783722
Na      -13.63329411     34.30041885    -17.57619476
Na       47.30247116     13.56833935     13.44007683
Na      -17.16275024     78.14894104    -64.89884186
Na       50.68974686     67.42247772     64.54856110
Na      -20.54825211     32.85532761      9.98715305
Na       14.48096466    -88.27819824    -57.52679062
Na       74.77534485     -6.70684290    -36.94865799
Na       20.43526649    -27.03114510     40.55933380
Na       58.00508118    -67.96907806     17.36539650
Na       61.07628632   -135.87765503     23.54090500
Na      -41.09239578    -88.89165497     40.78683090
Na       17.03096771    -17.55091667    109.33674622
Na      -81.94202423     40.59469223    -30.63321304
Na      -41.28563309    -34.06778717     60.60241318
Na      -13.52484989    -17.86133575     27.03388023
Na       51.54371643     88.28026581     23.92885208
Na      -33.61633682    -19.98968506     47.96793747
Na       20.15422630    116.06359100     17.27906990
Na      -10.25813007    -78.02391052     60.88097000
Na        0.60943836     30.42487717    -54.34783936
Na       23.94857407    -71.25039673     26.93604469
Na       40.82601547     27.07088280     81.66500854
Na       95.24772644      6.04977465    152.71141052
Na      105.46665955     -3.51736712    -44.43799210
Na      -17.52088928    -54.94983292     91.59691620
Na       -6.80036354    -51.36840057     94.72989655
Na        7.37160683     23.56504250     68.64249420
Na       74.04914093    -31.94419289     48.42389297
Na      -91.79123688     77.81415558     53.61713409
Na      -10.12755013    -80.63615417      9.62787342
Na       40.70926285    -61.02145767    -53.99728394
Na       -3.28691864     51.18910217     71.85668945
Na       23.29901505      9.97918797     71.56672668
Na      -33.96952820     33.47102737     81.85327148
Na       10.09942722   -132.23960876    106.01690674
Na       39.99568939    -88.21795654     37.31080627
Na      -10.81675243     78.41093445    119.05167389
Na       99.22540283    -10.24469090     10.05541801
Na       24.40935326     77.63883972     13.78870583
Na      -88.51028442     94.48013306    -27.48391151
Na      -33.85894012     26.72895050     -0.05527810
Na       -0.55457062     40.93211746     67.02446747
Na      -43.67035675     23.88769722    -43.98099136
Na      -24.09357071    -54.89157486    -23.59785461
Na      -47.90512085     67.78282166     17.58599854
Na      129.42987061    -17.47303391    109.82855988
Na       42.65290833    -61.42399216     84.80899811
Na      -30.12624168    -24.68815804     68.35935211
Na       88.66566467   -108.56138611     89.18251038
Na       41.09104919     -7.65182829     44.22366333
Na       84.71182251     13.58138180    -23.29359245
Na       61.70663452     10.26288033    -47.77385330
Na       20.13798523    -23.96009254     20.46463013
Na        3.07912946    -37.65680695     37.97621155
Na      -81.35271454    108.64608765     33.64310837
Na       40.82429123     43.74628448     74.75122833
Na       47.31766891     95.77878571     23.91949654
Na      -16.48587608    -51.14349747     74.45540619
Na       96.03751373     13.76909637    -37.53866577
Na       30.91498184    -20.30211449     36.93346786
Na       10.63610649     13.71527672     51.16373062
Na       44.36731720     78.23486328    -20.37342262
Na      -33.95036316     -0.48091689     71.00033569
Na        7.17140150     -3.67367744    109.26990509
Na      116.03300476     -3.53317666     74.18369293
Na       51.93997574     72.21551514    -27.52830696
Na       75.17247772     16.85276794      0.21299584
Na       24.04914665     -7.20355558     37.34378815
Na      -91.27176666     17.27755165    -30.20079803
Na      -48.01529694    -64.75201416     27.17709351
Na       71.46567535      3.41629148     17.15044022
Na       78.07904053     24.15988731     61.44569397
Na      -29.24411392     54.28722000     58.19207001
Na      -27.06022072    -40.70653915     16.63199043
Na       24.01930428     74.79773712     44.42918015
Na      -27.81582451     41.82666397     35.20822906
Na      129.14906311     -1.19160581    -60.93674469
Na       85.50380707    102.66777039    -71.57212830
Na      -23.70525169      9.86009884    139.23693848
Na      -27.06231117    -51.67222977     41.26137924
Na       68.01604462    -91.66583252     33.77961731
Na      -43.00260925    -40.44339752     37.45662689
Na        3.41387081     10.37328243     92.35571289
Na      -81.41722870    101.77914429      0.21146174
Na       10.64926052    -75.57703400    -37.63977814
Na       20.50675774     64.89566803    -40.55532074
Na      -31.05362511     10.28906059     34.43942642
Na      -58.06132889     36.97409058    -17.01466179
Na       32.36190796     63.98339844    -33.50371552
Na       27.01382446     27.12724876     28.06897545
Na        6.46951675    -54.45863724     71.33663177
Na      -30.63765335     -9.97421741      6.96136045
Na       43.26411819      9.68787289     36.99921799
Na        6.55381489     54.33458328     26.99578667
Na       -6.50012493    -98.67713165     20.46661949
Na       61.15537643    -27.66099548    -13.70571136
Na       91.92510223    -98.52117157     57.84842300
Na       85.21943665     30.71756172     51.39485550
Na       84.91542053    -16.01790237     23.95529175
Na       71.35075378     48.21530914     17.01604652
Na       65.08235931    105.54806519     78.57939148
Na      -30.51616287    -57.96981812    -30.93964005
Na      -65.02216339     44.25325012      3.50572300
Na        0.04012389    -13.37372780    -26.50341034
Na       47.35456848    -13.35464287     47.93305969
Na      -40.59448624    -51.45334244      6.43565416
Na       70.80496216     27.59497261     23.85378647
Na       58.22623444    -68.26130676      9.95960140
Na       30.79019547    -50.87340927      6.29073906
Na        6.64241552     18.66665840    -47.87972260
Na      125.76686096     50.01916885     58.21226883
Na       24.32118416     47.82191086     24.19717979
Na       -6.57118511    -34.86761475      6.22263193
Na       14.01938248     98.99079132    -27.07438850
Na       26.81436157     84.55405426     47.25771332
Na      119.32846832     98.78291321      3.72675061
Na      -95.51037598      3.07850480     -7.06081247
Na       65.04015350      3.18685341     10.09207916
Na      -19.95438576     85.43343353     -6.87701702
Na      136.02876282    -92.22118378    -40.08492279
Na       92.13559723      9.79571342     64.45330048
Na       13.40365314    -23.95742226    -27.37335777
Na       23.12403107     50.96507263    -33.65534210
Na       34.09203720    155.94482422    -17.03129196
Na       31.14457703    -48.47942734    -24.06602287
Na      -44.60094070      6.53714657     64.78829193
Na       68.48081970    -61.20862579     74.94866180
Na       34.10994339     81.44516754     31.17620468
Na       37.13817596     71.35649872     -7.14322853
Na       81.89823914     20.63897514    -13.09999657
Na       71.16800690     44.82217789    -13.13162708
Na      -26.47569847    -20.03624153     -3.52554679
Na      -71.26602936    -88.47277832    -30.53849411
Na       31.19519997    -64.78546906     13.90966892
Na      -11.43696690    -29.95890236    -61.65889740
Na       50.63485336    -58.14772797    -78.39039612
Na       30.51553917     17.28160095     17.26955605
Na      -23.96741295      0.64036399      9.96915913
Na       64.93554688    -44.16093063     23.49296570
Na       51.71398544    -16.67288780    -61.88729477
Na       34.27407837    -16.49910736     40.94008636
Na        6.82380819     21.13545036    -14.05147552
Na       71.46385193     64.75543976     23.99926949
Na       -6.68608904     26.72673035      4.22796917
Na      -67.84648132     92.80925751   -129.36445618
Na       78.54164124     67.18910980     44.00830460
Na        6.95688486     13.90418339      0.69396770
Na      -51.21478271     75.03524017    -23.59150887
Na       95.49358368      9.73365116    -32.57661819
Na       85.35152435     -6.43090725    -37.45513535
Na       84.68496704    -28.48288727     -3.32933879
Na        0.29593793     34.58722305    -17.06136322
Na      -23.41672516    159.65423584    -78.26353455
Na      -40.91891479     10.82109928     40.99979019
Na      101.91885376    -54.88757706    -45.07829666
Na       23.83880806     91.96033478     -3.44140744
Na      125.49277496    -18.93334007      3.58758068
Na       34.10016632    -78.07161713    -27.73419571
Na       10.05391312     37.03360748     98.02941895
Na       23.95601463     -0.41137895      9.97236538
Na       64.91144562     67.56945801    -23.62094116
Na       77.75343323    -50.96286774     24.15481377
Na      -98.51597595    -10.61315727     16.43271446
Na      -40.93554306      0.31318158    -64.48346710
Na       20.84782982    139.18992615     81.12513733
Na       27.57083130    -48.00962830     40.64574432
Na       81.86460114    -27.23281860     24.16758347
Na       40.81294632     12.57211590     65.07749176
Na      -27.25029945    -24.04849625      6.70486069
Na      204.42030334    -40.33786774    135.82156372
Na       28.00373650     10.10137749     -6.56194925
Na      -54.33681870     23.18030930    102.53492737
Na       47.93010330     74.53701019    -30.20821953
Na       29.67448044     44.60438156     81.64956665
Na      -64.27248383     13.45024872     57.60634613
Na      -36.85678482     51.39024734     17.11409760
Na       51.10614014      6.44240046    -16.72905540
Na       30.86134720    -16.88386154    -47.63383102
Na      -33.82881546    -74.93496704     13.70915699
Na       48.29358292     40.55984497     30.73128319
Na       58.13872910    -21.37255096     17.09830284
Na      -50.63727188     78.47438049     75.83644104
Na       74.96466064    -61.12446976      3.03469777
Na      149.27493286     88.50605011    -20.68569374
Na       82.36315155    -27.97608566   -149.18884277
Na      150.05863953     60.92780304      2.88541460
Na      115.51116180    -81.66389465    -34.28035736
Na      123.00141144     60.85686493     -6.65227461
Na       41.07554626    -54.71767807    -78.09436035
Na      -10.84004402     -2.96174955     -3.93218756
Sn        3.55952263     13.92614555      7.08831120
Sn        3.19503498     27.52372551      6.64810991
Sn       17.27340126     13.80177784      6.94792223
Sn       17.45733452     27.22060966      6.67134428
Sn        3.21220136     -0.14370781     20.43580246
Sn        3.41647720     13.68055820     20.49730492
Sn       16.72764587      0.61690915     20.06874657
Sn       17.04226494     13.73205376     20.79577637
Sn        3.63214064     -0.10391835     13.27913761
Sn        3.60249925     13.87666321     13.44612598
Sn       16.70472336      0.83091825     13.19592190
Sn       16.71124268     14.19194317     13.68150330
Sn        3.51768780     13.53143978      0.21517859
Sn        3.45961499     27.39460564      0.05927645
Sn       17.03941536     13.37996960      0.13650244
Sn       16.98164368     26.58120728     -0.17954326
Sn       10.96817589      6.50353146     20.24078751
Sn       10.60786247     20.31553650     20.62099838
Sn       24.56881332      6.55059242     20.65778160
Sn       23.82992172     20.49707985     20.46210480
Sn        9.95881748      6.47571516      6.49649096
Sn        9.84215832     20.53510284      6.56988430
Sn       23.25806427      6.90976715      7.01828575
Sn       23.54554939     20.68468475      6.72780561
Sn       10.30900955      7.07776117     26.82413673
Sn       10.36103058     20.38903809     27.53876305
Sn       24.39373970      7.00740433     27.23766136
Sn       24.10135460     20.85808945     27.63944626
Sn       10.50379944      6.25404501     13.46117496
Sn       10.04769611     20.24018860     13.68589020
Sn       24.59619141      6.32287884     13.83495998
Sn       23.81006241     19.99281502     13.66934490
Sn       10.00318336     -0.41029179     20.30918312
Sn        9.58757401     13.44055939     20.30442047
Sn       23.58340645     -0.30203408     20.29017830
Sn       23.44377327     14.03989315     20.40770721
Sn       10.50143242     13.82976437      6.62578773
Sn       10.73864079     27.42733383      6.64604235
Sn       23.89758110     13.59989834      6.91963530
Sn       23.85029411     27.40365219      6.66134214
Sn       10.39755821     13.23118305     13.81197357
Sn       10.46508694     26.78473854     13.41134453
Sn       23.60013580     13.16765118     13.36875343
Sn       24.20146561     26.51430893     13.76610279
Sn       10.06809425      0.25682276     -0.20033911
Sn       10.29084206     13.81596947      0.11292972
Sn       23.57876778      0.02252510      0.25385872
Sn       23.66605377     13.73719215     -0.17949532
Sn        3.42977643      7.18620062      6.44819021
Sn        3.16142797     20.59236336      6.93709612
Sn       16.63927841      6.88847733      6.62170124
Sn       16.71534920     20.35453606      6.94157791
Sn        3.69198132      6.44179058     20.48004532
Sn        3.90282154     20.33914375     20.45600700
Sn       17.44309616      6.64261198     20.46395493
Sn       17.42401695     20.54479599     20.52415657
Sn        3.39957285      6.53611898     -0.23133075
Sn        3.47024822     20.43852043      0.23804635
Sn       17.05498314      6.37537050      0.32872424
Sn       17.47471428     19.92077065      0.23914272
Sn        3.66094446      7.18765593     13.42235565
Sn        3.60299397     20.52413559     13.81492805
Sn       17.09251213      7.01514721     13.46765995
Sn       17.18980789     21.29334259     13.77045345
S         2.13842201      5.27162409      1.26872432
S         2.05997252     19.25284576      1.77396989
S        15.17709255      4.96449757      1.04117465
S        15.97889423     18.30752945      1.48180044
S         5.31813192      8.66618824     14.51012039
S         5.09707737     22.13345718     15.10949230
S        18.76217651      8.40955067     14.99113274
S        18.49731636     22.69493294     14.94686413
S        11.94595718     12.37285042      8.11165619
S        12.09760571     25.88177109      7.93237305
S        25.30243301     12.14012337      8.33914471
S        25.33644867     25.98142433      8.00875092
S         8.66513538      0.81037694     21.85434532
S         8.48143959     15.16963196     21.76326370
S        22.38098907      1.30963933     21.77724838
S        21.92683220     15.42645454     21.76050949
S         4.81066036      5.25975227     25.21549034
S         4.49415684     18.59360504     26.05864143
S        18.70874786      5.26236773     26.00049591
S        19.09590912     18.91637039     26.11214066
S         2.15235758      8.55458546     12.06412601
S         2.14609480     21.84281731     12.38619709
S        15.79749584      8.60902023     12.55926228
S        15.42990685     22.38423157     12.40755939
S         8.55963421     11.94834137     18.98652267
S         8.48017788     25.68800354     18.84710503
S        22.25641251     12.30281067     18.93034172
S        22.33907318     25.43365860     18.84910393
S        12.14293671      1.07713532      4.89162874
S        11.66352558     14.92535782      4.92518902
S        25.40101814      1.83284271      5.62208223
S        25.30101776     15.39899254      5.86918592
S         8.73020267     11.98468590     15.28195000
S         9.07349110     25.60186005     14.99970245
S        22.08966064     11.85990143     15.09703541
S        22.37089539     25.23278999     14.93517780
S        11.36405945      1.44592297      1.36492789
S        11.50489330     15.23232365      1.45275402
S        24.91884041      1.50319672      1.51942217
S        24.93407249     15.38357353      1.06746924
S         5.21100235      5.63435555     21.86912155
S         5.27108002     19.14035225     21.93526268
S        19.40092468      5.30681801     21.62044334
S        18.62153816     19.03232956     21.94476318
S         1.78052044      8.02556324      7.69190931
S         1.94982791     22.01370811      8.33038521
S        15.14436913      8.28041744      7.68816328
S        15.47056866     21.81428146      8.34020042
S        11.14103699     11.78339958     11.81400204
S        12.06294441     25.58472443     12.08654976
S        24.81934166     11.40108395     12.34214783
S        25.33909607     25.31370163     12.04891396
S         8.56179714      2.04443121     26.13035202
S         9.00332069     15.33701420     26.16095543
S        22.37186241      1.24849033     25.56372833
S        22.17686462     14.90785980     25.47132874
S         2.25436330      5.61657286      5.08577061
S         1.49857986     19.50933266      5.58855677
S        14.97472382      5.10548115      5.23268652
S        15.48585320     18.93732262      5.73480892
S         5.40703297      7.58909798     18.70074463
S         5.39458323     21.64374161     18.76677322
S        18.71658325      8.39307022     19.49522400
S        18.44037056     21.80040932     18.95185089
S        11.63743114      8.63244247     25.35339165
S        11.51663589     21.93787193     25.98940659
S        25.86618805      8.38199806     25.63438034
S        25.30479050     22.18227386     25.99272919
S         8.86500931      4.86243582     12.19963646
S         8.50728798     19.17659569     12.17139244
S        22.75619698      4.96643257     12.46204662
S        22.56050682     18.70468712     12.02206135
S         1.89286292      1.41976345     18.80529594
S         1.62905157     14.80451298     19.27221489
S        15.31248856      2.04441977     18.68006134
S        15.67287350     14.80036926     19.14164734
S         4.80462742     12.74724483      5.52604580
S         4.96577168     26.12934685      5.92878485
S        18.49162865     12.30521679      5.40521240
S        18.62224960     25.59592438      5.44142818
S         9.14652252      8.63190269      1.05042315
S         8.98687267     21.85232544      1.98608279
S        22.79099083      8.23169899      1.39934218
S        22.34940910     21.84065247      1.66952765
S        11.91084290      5.03230953     14.88051796
S        11.28405857     18.65600586     14.85310173
S        25.68825722      4.72279692     15.49304962
S        25.21758461     18.53135681     15.20866489
S         4.66369724      1.76085365      8.16131306
S         5.16581535     14.95077038      8.43098450
S        18.66941452      1.43728089      7.98311472
S        18.56287956     14.72023487      8.60224247
S         1.91245842     12.53820515     22.24849319
S         1.72435403     25.67739868     21.71631050
S        15.50379944     12.07930183     21.81796074
S        15.31469440     26.42033005     21.53694344
S         5.04121685      1.17532825     11.84115601
S         5.23411942     15.20863533     12.10901642
S        18.24148178      2.40296149     11.70939827
S        18.35400009     15.38255787     12.42004967
S         1.90429103     12.21134663     26.32774734
S         1.78351772     25.82879448     26.24347687
S        15.58152390     11.75356388     26.23769760
S        15.06957340     25.46176529     25.60036278
S         9.02894115      8.27688694      4.84027338
S         8.70140553     21.98076057      5.23082829
S        22.34329605      8.32729435      5.48145628
S        22.19088554     21.93106461      5.38502884
S        12.34671307      5.21923780     18.78744316
S        11.53137970     18.92396545     19.08276367
S        25.57837105      5.24248886     18.90645981
S        25.51651764     19.39534187     19.11059761
S         2.56893992      1.79171455     14.59152317
S         2.30770850     15.28285503     15.04953671
S        15.56440544      1.93068111     15.05416775
S        15.89413357     15.51557827     15.63272953
S         4.74747801     12.05097008      1.77910936
S         4.78334141     26.15849113      1.37540174
S        18.21648788     11.65736675      1.41181719
S        18.45268440     25.11942291      1.10605037
S        12.36535263      7.84928465     21.91561127
S        12.21447372     21.63097763     21.95714760
S        25.77387238      8.10678482     22.21360207
S        25.31727982     22.11735344     21.59764099
S         8.64916992      5.52588797      8.33238602
S         8.67709160     19.11036491      8.47715187
S        21.66186714      5.33783150      7.63131905
S        22.30314827     19.28726006      8.30774117
S         1.99151707      1.19480264      1.45318687
S         2.04599047     14.78911686      1.64858401
S        15.76148415      1.14605856      1.02865183
S        15.46497345     14.49336433      1.75468767
S         4.85172272     12.54393005     15.06147766
S         4.78832531     26.01265526     15.12095070
S        18.28459358     12.82974625     15.30448341
S        18.26597786     26.62763977     14.55145836
S         2.23318934     12.08111095      8.32606697
S         2.03075790     26.31313896      8.31008434
S        15.69254780     12.13051224      8.55418396
S        16.30236435     25.99722862      8.39415932
S         4.78265858      1.03897595     21.75022697
S         4.98699427     14.81980133     21.77359009
S        18.34849930      1.28465044     21.80787849
S        18.47391891     15.49256420     21.90949440
S         4.65832376      1.03353882     25.33001328
S         5.13248491     14.62016296     25.98418999
S        18.38326645      0.85727990     25.47665787
S        18.61516953     14.71066666     26.07672310
S         2.13937497     12.35867596     12.52300739
S         1.93407714     26.00418472     11.98938942
S        15.37274742     12.55930424     12.67684364
S        15.39676666     26.19742584     12.14556026
S         4.44924021     12.04476833     19.15044212
S         4.57412958     25.38092804     19.22355652
S        18.44313622     12.42289162     19.25674820
S        18.23101807     26.10102463     19.04816628
S         1.81991708      1.43272412      4.99199915
S         1.99282885     15.18883610      5.82935476
S        16.09596062      1.29880822      5.29367924
S        15.68931389     15.39190292      5.66045523
S         9.07285786      7.36996984     14.97804832
S         8.87525654     21.62080383     15.35923100
S        22.91135788      7.61429071     15.29655647
S        22.54071617     21.48778534     15.05646896
S        11.60810757      5.91160774      1.24845123
S        11.83882332     19.12118530      1.63135850
S        25.30550003      5.46182537      1.72730744
S        25.54917908     19.61459732      1.84586370
S         9.39781475      5.17334795     21.54465675
S         8.96042538     19.19088745     22.02764511
S        22.85798645      5.35988045     21.94954872
S        22.47495270     19.42368507     22.35618973
S        11.24176693      7.96173620      8.00353527
S        11.09332466     21.80068398      8.34992981
S        24.88990402      8.12522888      8.24792099
S        24.89275360     21.92157364      8.21471691
S        11.89824772      7.63103914     11.85307884
S        11.50040531     21.56352425     12.26936340
S        25.62359619      7.84068394     12.39315510
S        25.51144028     21.15973854     12.44373512
S         8.84093571      5.61217213     25.70480919
S         8.80105305     19.01938438     26.20028496
S        22.83610725      5.29847670     26.04297066
S        22.74575996     19.29386902     26.33173752
S        11.10079479      5.24113274      5.07773876
S        11.43979454     19.08710861      5.36163855
S        24.77676964      5.34052229      5.54123545
S        24.93762016     19.05733490      5.64188623
S         9.57881069      8.02602196     18.75434494
S         9.29389954     21.74356079     18.95971870
S        23.20165062      8.22003174     19.43376923
S        22.55680275     22.09538651     18.82784271
S        11.86849785     12.43582916     25.99896431
S        11.39188862     26.25745773     25.45869064
S        25.17082977     12.24079800     25.60328865
S        25.29717636     26.02122116     26.11485291
S         9.16649628      1.08374846     12.07760620
S         9.11316299     14.70941925     12.65587902
S        22.95603752      0.94224197     12.42305851
S        22.16105270     14.80357647     12.05972862
S        11.33161640      1.16452241     18.74096680
S        11.29503059     14.74690723     19.31136894
S        24.98290825      1.23948920     19.16431618
S        24.86491776     15.32614803     19.20794868
S         9.10322952     12.07536030      5.75272989
S         8.89732552     26.24495506      5.63406754
S        22.67476463     11.90340996      5.59298897
S        23.08363342     25.83125687      5.13614798
S         8.96837425     12.39105034      1.80233109
S         8.62210464     25.99157524      1.31218219
S        22.19298744     12.36248207      1.45552182
S        22.49552917     25.75397110      1.61074007
S        11.70942879      1.00803828     15.06551361
S        12.02358246     14.32470131     15.15493774
S        25.46868134      0.41210344     15.57157993
S        25.24036217     14.34286404     14.88630867
S         9.58570957      1.60352504      8.04453278
S         9.35550117     14.83854675      8.58972454
S        22.59902191      1.33675110      8.25374603
S        22.70542145     15.07863712      8.56886768
S        11.20317554     12.41844082     21.96755409
S        11.43947315     25.68063927     21.62621498
S        24.78148842     12.44813442     21.95594788
S        25.06627083     25.72488403     21.48006248
S         4.61530161      5.58974981     11.95435143
S         4.76172256     18.86151314     12.30794716
S        18.27860641      5.47276783     12.33528519
S        18.41749573     19.73605537     12.57316113
S         2.12400436      8.13595963     25.67618179
S         2.47629452     21.80756760     25.88535118
S        15.72742844      7.97954750     26.10845375
S        15.82932854     21.27780724     26.37877464
S         4.71076107      8.50998306      5.06729078
S         4.92900801     21.73316956      5.51231384
S        18.39365196      8.46940517      5.22629023
S        18.37308884     21.48014259      5.51490498
S         2.54551625      4.81508303     19.11775589
S         2.59859467     18.81000137     19.25486374
S        16.33034134      5.30299044     18.85857964
S        15.94686127     19.23099518     19.18246651
S         2.40757871      5.85124207     14.81198120
S         2.11726117     19.34892082     15.36747742
S        15.92837524      5.70528460     15.30943871
S        15.73096371     19.76359367     15.17796803
S         4.85692120      8.01192093      1.27652168
S         4.92325211     21.78024101      1.72664833
S        18.61841011      7.98608255      1.67330778
S        18.28935623     21.59682274      1.66000748
S         2.66784477      8.27013016     21.37403297
S         2.46471977     21.95069695     21.65127754
S        16.40522766      8.39365768     21.85084915
S        16.01950645     21.94496536     22.06379318
S         5.02603054      5.56408882      7.70167303
S         4.55778217     19.00857544      8.29201603
S        18.23801231      5.77065992      8.04858780
S        18.44611740     18.81714249      8.42562866
S         1.36294401      2.48050737      9.04601955
P         0.02461498      3.72254157     10.23552322
S        -1.27684569      4.79479265      8.92487907
S        -1.00659382      2.25417590     11.33538914
S         1.23163307      4.86304617     11.33217525
S         1.44975364     16.20988274      8.85832977
P         0.18217599     17.37092590     10.20771790
S        -1.37293577     18.17618561      8.90899754
S        -1.28878450     15.95898342     11.42620564
S         1.37090528     18.47422600     11.47179031
P        13.56005096      3.67533946     10.22154045
S        14.91392708      2.44977164      8.84117985
S        12.50460434      4.74667597      8.88666725
S        12.73220348      2.36846066     11.43728733
S        14.69626331      4.87320948     11.48683643
S        14.92608929     16.13503456      8.98698425
P        13.64218712     17.25056458     10.15097332
S        12.33492947     18.39684868      8.82171726
S        12.69332695     15.97397995     11.42275238
S        14.81331158     18.42968178     11.48868275
S         8.07560062      9.05184937     22.64270782
P         6.90153742     10.32477856     23.97094345
S         5.55700207     11.40837479     22.80457687
S         5.85242987      8.82627201     25.05119514
S         8.08270359     11.40534496     25.16817856
S         8.05457497     22.73182297     22.56566048
S         5.66223335     25.02530861     22.84633446
P         6.93342304     23.77131271     23.97202110
S         5.83279037     22.49776077     25.10726738
S         7.98733616     25.05868149     25.14635658
S        21.62656212      9.24675846     22.60443115
P        20.53542137     10.19573402     24.00959015
S        19.25455475     11.35013771     22.71791840
S        19.43429565      8.86510277     25.14920235
S        21.69308090     11.35449409     25.15777779
S        21.76152611     22.82356644     22.67418289
P        20.55403137     23.85194778     24.00142670
S        19.13778877     24.91118240     22.87512207
S        19.35090065     22.56843948     25.02337265
S        21.74030495     24.93249702     25.06453705
S        26.24962234     11.40844345     18.23434258
S        28.64155197      8.56271648     18.11985016
S        28.51699448     11.30627537     16.06812096
P        27.49358177      9.91731358     17.09211731
S        26.24581337      8.90225506     15.77925110
S        26.24616623     24.62089348     18.51782799
S        28.51064110     22.49884224     18.23366165
S        28.79495430     24.74949646     15.80459690
P        27.38575745     23.73582458     17.05444717
S        26.20637512     22.57287788     15.68186760
S        12.81417084     11.12162209     18.47506332
S        14.74413586      8.76167870     18.30130959
P        13.78970528      9.95543480     16.98682976
S        15.04149151     11.38542271     15.81518173
S        12.68102932      8.87414265     15.71171474
S        12.61587715     24.63972473     18.35411835
S        14.86486721     22.39471626     18.21853447
S        15.16144943     24.91718674     15.88756752
P        13.88940048     23.63882065     16.94113731
S        12.54233265     22.58418465     15.88718605
S         5.34738398      4.37905741      4.58178806
S         7.80050564      2.28486633      4.74572325
S         7.91710854      4.65545559      2.25079513
P         6.72444057      3.30329800      3.31888342
S         5.70321894      1.88837516      2.35426116
S         5.22922182     18.09537506      4.30321169
S         8.15752029     15.88399696      4.65903473
S         7.87151241     18.16981506      2.47488976
S         5.57819319     15.61027431      2.34219790
P         6.65380669     16.82233429      3.47751617
S        19.07277489      4.47581148      4.49512339
S        21.43621063      2.23462558      4.75641251
S        21.36333656      4.64325094      2.28751063
P        20.28591156      3.24444437      3.42505932
S        19.40660286      1.91091704      2.29095936
S        18.94837952     18.10954857      4.59416056
S        21.54809952     15.94508266      4.63934088
S        21.54644585     18.14330864      2.36632752
P        20.16686058     16.95855522      3.41476727
S        19.35099792     15.42993641      2.24011874
S         5.84228230      2.23521376     18.20314217
P         6.85414553      3.59649038     16.94483757
S         8.00395203      4.68038654     18.24808884
S         7.84253550      2.14363980     15.70748138
S         5.61938810      4.65183020     15.75755692
S         5.67758608     15.80867863     18.13037682
P         6.81286621     17.06140327     17.03259468
S         8.10087681     18.36770630     18.05075455
S         7.97692299     15.81232357     15.77986336
S         5.59264660     18.32634354     15.87050438
P        20.48890305      3.41049981     17.01434326
S        19.28518295      2.18866992     18.14477539
S        21.70711899      4.84145308     18.13658524
S        21.53301048      2.15879345     15.71333981
S        19.22276688      4.70181465     15.85442638
S        19.25112152     16.10477448     18.20473099
P        20.45015717     17.04842758     16.96083832
S        21.70038033     18.18507385     18.17914009
S        21.71271706     15.91115379     15.63121796
S        19.12128448     18.12658310     15.88572216
S        25.98846817      9.05164909      4.71758699
P        27.30105400     10.16595840      3.46593285
S        28.73653412     11.24074078      4.67418528
S        28.21903038      8.91341877      2.12840629
S        26.19224739     11.25577736      2.19586873
S        26.03269577     22.75412750      4.83530426
S        28.65901566     24.78820229      4.70657349
P        27.29890060     23.63308525      3.43069839
S        28.31348801     22.53154182      2.07845664
S        26.13315964     24.98956108      2.12974739
S        12.43657207      9.01239872      4.65617847
P        13.59744263     10.16815948      3.50190330
S        15.03890991     11.24528217      4.52914810
S        14.65334606      8.83640194      2.20721889
S        12.63404465     11.36537838      2.28875518
S        15.06408787     24.84247398      4.65050554
S        12.44499588     22.70120430      4.62088537
P        13.75852585     23.74541092      3.34601569
S        14.58359146     22.47357559      2.26837158
S        12.51459694     24.93767548      2.29212117
P         6.67570829     10.25408745      9.90246391
S         7.79908323     11.39726639      8.80265713
S         5.21000051      9.13950825      9.12779331
S         5.63602591     11.51457500     11.31786728
S         7.71464634      8.89554405     11.27483177
P         6.51844311     23.96538734     10.11159420
S         7.78633213     24.75891876      8.69970894
S         5.31168842     22.75699615      8.87173176
S         5.67066908     25.12482452     11.51965809
S         7.74297953     22.67213631     11.23003864
S        21.52251625     11.28659821      8.79792213
S        18.83455276      9.14838791      9.08735752
S        19.18886757     11.54410839     11.35379696
P        20.16451073     10.22811031     10.06206036
S        21.39472771      8.99289227     11.12990665
S        21.51752853     24.93620872      8.80671883
P        20.26366234     23.83916283     10.05519390
S        18.73880768     22.79195404      9.09993553
S        19.08870697     25.20412445     11.29717922
S        21.49984169     22.50251770     11.17178249
S        14.91881847      4.36982298     22.49356842
S        12.38139725      2.27572107     22.73205376
S        12.48086739      4.72349739     25.18536758
P        13.54842472      3.54183698     23.90966606
S        14.68488216      2.16334629     25.09496117
S        14.93690300     18.07354736     22.72296333
S        12.10518169     15.91183853     22.82430267
S        12.47036743     18.28005600     24.94700432
P        13.69215012     17.09601784     23.80945587
S        14.81467819     15.78470230     25.10848236
S         1.22997022      4.42652178     22.61450005
S        -1.32780671      2.29544544     22.66394615
S        -1.09342110      4.81784058     25.06081009
S         1.16880357      2.17649508     25.09468079
P        -0.03612437      3.35144258     23.98421860
S         1.07443857     18.10471153     22.56948662
S        -1.27908969     15.85243988     22.61928558
S        -0.99296409     18.43379974     25.11787224
S         1.03183544     15.73257256     25.22871017
P         0.11225092     17.02004814     23.87923241
