832

Na        7.19329643    -14.18006706   -123.38367462
Na      -47.63061905    -30.63271904     -6.91376448
Na      177.33894348     26.75459862    241.70320129
Na       62.57405853    -95.43940735    -92.32729340
Na     -129.62023926     50.75287247    -48.12604904
Na     -108.53275299    211.53785706    -33.65978241
Na       81.58651733   -146.50637817     13.86250973
Na     -173.03446960     -6.47217274    159.52497864
Na       51.28536224     20.60385132     44.66518402
Na       37.84019089    -17.08917236     20.24489403
Na      109.19992065     80.67922974    191.29934692
Na       -3.76962781   -101.97106171     37.59953690
Na      -10.32858181    -98.59872437   -178.96966553
Na      -91.23182678     71.70734406    -67.95755005
Na       20.18300819   -135.86929321    -16.76228714
Na      -26.95583153    -34.60728836     -9.97487450
Na      -44.08610153     81.64083099    -17.17971420
Na       23.82136154     12.57469463    -16.66191483
Na      -37.33024979     34.00227356     44.20522308
Na       24.21549225    -68.45844269    -37.70183563
Na        3.23515344    -37.42030334    -74.74906158
Na       17.06127739    133.58883667    119.16487122
Na        3.81880188    261.92315674    108.88372803
Na        3.45641971     -7.05931664      3.30870008
Na      -47.11249924    231.64001465     78.47885895
Na       98.59114838    -64.34725952    -20.38366508
Na      -50.76614380    -23.97301483     13.97515202
Na       81.38700867    -74.74945068    -37.30148315
Na       61.03530121     58.18473053    -74.53186798
Na      156.53010559    122.10968018     54.29606247
Na       61.43766403    115.20021057      0.55778253
Na       19.74281883     74.55184937     34.05245972
Na       92.29759979    -51.40428162     43.32936096
Na      153.19137573      6.48200274     30.60770988
Na      -23.90778542    -54.42996979     78.27503967
Na       33.75409698     16.63126373    -74.75152588
Na      -45.04296494    -31.20007324    -45.12145615
Na      -27.36210823      7.79701281    -71.17049408
Na       64.62313080     78.25814819    142.68247986
Na       40.99488449     18.40121651    -95.08608246
Na       -7.52600002     -3.42783332    115.63037109
Na       40.58937454    -14.23587513     -3.53410196
Na       44.44650269     23.59540939     44.71364594
Na      159.59396362    115.07450867     30.65402985
Na      -68.11380005    -55.04242325     68.54907990
Na       82.00555420     71.33819580     47.20056152
Na     -109.86177063     51.58985901    129.61575317
Na       67.90267181    -89.02845001     43.75196075
Na      -20.16083908     43.91878128     54.67106247
Na      -41.02081299   -177.54978943    135.65379333
Na      142.67492676    -40.78132629    -61.50518036
Na       -3.75222707     85.47790527    -99.29499817
Na       -3.17342877     68.34932709      3.22877979
Na     -108.75778198     64.05832672     -6.38118505
Na       74.74938965     -6.36808586    221.66723633
Na      -16.97687340     98.22692871      3.18143249
Na      -24.00176811    -24.05583000      3.47205544
Na      -13.33318233    139.71470642    -54.04607010
Na      -84.61318207    -91.53012085     -9.26912785
Na       67.77630615    102.27689362    -44.32839203
Na        6.98275471     81.97810364    -13.56619358
Na     -146.37727356     17.13791275    -85.20227814
Na      -59.46798325    106.06809998    -60.88552856
Na      -37.21783066    -71.49734497    -74.79197693
Na      -47.91088867    116.30475616     34.51406097
Na      -54.71578598     81.43240356     77.97200012
Na      -74.81765747    -37.82979584     67.41021729
Na       10.02741432    -44.20442200     58.98523331
Na      105.81273651     78.28533936     27.74860191
Na      -27.26810074    -51.44557190    224.37936401
Na      112.08750153    -24.08411026    102.15476990
Na      -60.93544388   -214.64112854     67.91422272
Na      133.49307251    -71.36016846   -142.98809814
Na      -20.30650520     -7.04708052    -13.81035900
Na       27.21426392     37.45839310   -101.96366882
Na        7.47247267     -9.73918724    -60.72706223
Na       34.46490860    -47.59327316     78.08009338
Na       -6.32193613     13.49523640   -129.20571899
Na       89.19814301    118.12265778    -27.34780121
Na     -159.87583923    -24.08399391    133.68292236
Na      136.01318359    -60.58617401     -3.27117109
Na      193.37123108    -96.02033234    -23.33602905
Na      139.94065857    -37.62754440     23.77469254
Na       81.21650696     47.89887238     64.23460388
Na      -17.29533005    146.57142639    -14.32208252
Na      136.13217163    -41.02763748    -17.01057053
Na       54.71647263     47.03641129     13.23651028
Na     -126.37847137   -116.44563293     57.93020248
Na      166.50596619    -64.21466827    -13.94331264
Na      -61.42363739    101.63406372      0.52300173
Na       54.14423752   -102.30657196     58.18358231
Na      -54.19616318     75.58115387    -27.27126503
Na       40.90695953     71.49711609     -0.03181686
Na     -126.00300598     50.31129074     30.57563972
Na      105.98692322   -132.41694641    -41.66793060
Na       31.14278603     -2.59067822    152.67959595
Na      -91.43613434     16.62901115    129.15962219
Na       54.19130325    -40.88857651    -85.40393829
Na       64.69324493      3.50585961     62.05612183
Na       64.27729034     47.68615341   -173.62330627
Na       -3.45089316     47.86123276    105.70803070
Na       64.62206268     39.97419357    -17.04256058
Na      -88.51453400   -129.16050720     98.91264343
Na       16.71147728   -156.60188293     64.65600586
Na       23.85815430     50.43753433     95.21678925
Na       26.81372643    105.39112091    115.82767487
Na       16.91349411    -24.52190018    -50.99396896
Na       77.44777679      9.90126514    139.97297668
Na       10.92044353     54.40982056    -85.08612823
Na      -64.86345673     26.92299843     99.07731628
Na       85.01588440   -201.08927917     30.72862434
Na      -89.03182220    224.77197266    -13.14005184
Na       37.15692520     85.20463562   -159.93194580
Na     -181.68968201    108.86275482    126.01008606
Na       13.03806210    -58.63381577    176.28399658
Na       19.84052467     41.06126785   -115.83715820
Na       95.21917725     23.11124420     54.09769821
Na       47.03699493     47.55022430    -44.36104202
Na       13.67737293    -71.53932953    -20.15995598
Na      128.75927734     55.12767792     -6.86787224
Na     -203.79718018   -136.68518066   -136.31210327
Na      -41.55540848    -24.90436935     47.52482224
Na      119.86351776    -16.96560287    -53.95584488
Na       47.66330719    -10.45465183    -68.37670898
Na       23.65445328    -37.71022415     50.00075912
Na      228.24290466    -23.38623238     26.89501190
Na      -10.09147358      3.72904587     61.23519897
Na      -67.74483490    -14.39939594     33.50503540
Na       40.72788239    -30.66672707     48.06069183
Na      -63.99403381    -30.53093147     20.95666695
Na      -92.17956543    -23.89581299     44.71375275
Na      104.65066528    -57.34500504     84.89077759
Na      125.94434357    -85.33872223     29.71738243
Na       40.48110199    -75.26628876    -20.65691185
Na      -23.92280197     -3.53815222    -74.83662415
Na      129.29830933     27.00228500     -9.87577629
Na      244.27867126     40.12914658     69.37052155
Na       43.91021729     85.24351501     48.28251648
Na       20.33522606      0.28533500    -74.90354919
Na      -64.71075439    205.99356079     98.49681091
Na       19.70383072     37.74028397     95.24590302
Na       44.22792816    112.14237213     27.39319420
Na      -40.51653290    -91.89370728     -7.42728233
Na      157.26429749     81.30953217   -105.90563965
Na      126.13607025    118.90769196    -37.28392792
Na      272.59384155    -20.23980331   -109.65265656
Na       -6.84525013    -23.53141403    115.53735352
Na       68.23580170     87.95519257     47.90721130
Na      -31.08081055     30.58881187    -30.61671257
Na     -112.86105347    118.54559326     12.94771481
Na       85.54723358     10.53455544    -40.62047958
Na       70.80960083    -88.43589783    -44.42937469
Na      -22.96279907     37.79856873     84.97779846
Na        3.87955499    -37.26410294    -88.50460052
Na      122.16431427    -23.97614861    -40.44857407
Na      129.78079224    -50.54236984     -6.33307171
Na       95.46135712    118.48180389    -33.90125275
Na      -23.21999359     27.38158798   -118.81871033
Na      -47.42384338     12.89520645      3.35524058
Na      135.72395325      5.25235701     41.18193436
Na       50.74443054    -26.94766235    125.82917786
Na       30.81145477    -85.45759583     30.34169388
Na       54.19387817    115.48387909     88.77009583
Na      146.65295410    -37.56204605     34.38436127
Na      -27.17525482     84.84724426    109.52252960
Na      166.64552307    -30.69206619     -3.57563972
Na       34.02019501    157.33441162      3.67609644
Na      139.32804871    -19.91747665    -98.62876892
Na      -97.63922119     33.99940109     23.82412910
Na      -16.42194176   -118.98281860     -0.36704811
Na       78.13716125   -129.30519104    -10.14789009
Na      115.18609619    -54.35510635     47.77283478
Na      116.15045929     -6.60686588     46.24072647
Na       74.70025635     35.16065979    142.84547424
Na       31.97710609      2.87902832    -26.79172516
Na      152.63946533    -20.50319481     78.36550903
Na      -65.18479156     -3.64498568    105.30303192
Na      248.44375610    -13.69123745     24.07938385
Na       70.58536530     37.80732346     20.11504364
Na     -112.70124054     17.03470993     69.35279846
Na      -54.67023087     27.90206337     20.37494278
Na      166.28909302     61.32725906    -23.70292664
Na      -10.63971043    -57.80504227     60.77887726
Na     -108.82024384    -26.37043190     13.35709381
Na       94.94863129      6.83174562   -122.15712738
Na       64.90429688    123.22373199    132.58917236
Na      132.58749390    -30.49452209    208.16572571
Na      -91.59570312    122.14656830     -2.95934725
Na     -129.53451538     73.78891754     37.82291412
Na       58.12802505     37.13884354    -36.98959351
Na       51.38503647    -10.52247238    119.15544891
Na      -24.21316528    153.21144104    -37.80005646
Na       34.10976791    204.27070618    -75.04603577
Na       -6.31834555     13.35191154     99.09587860
Na        0.00016606    203.81407166      0.23195180
Na       54.64216995    -44.29621124     13.34438038
Na     -160.19015503     50.86135483    -34.67575073
Na       78.79697418    112.69036865     75.40252686
Na      112.42379761    -17.44928932    106.41615295
Na       40.64609146    -40.73343658    -23.90549278
Na      -47.67029953    -74.79638672      3.87396216
Na      -27.38451767    235.12991333     61.07350922
Na      -47.38413620     85.85339355    203.99722290
Na       50.45519638      3.46652055    -26.86973572
Na        6.96644640   -129.55574036     20.68552589
Na        6.26194191     95.33692932     37.09310150
Na       85.03007507    -75.31696320   -173.25468445
Na       67.84253693     57.43327332     61.47880173
Na       64.03270721     57.85149384    -58.05392456
Na       20.74502754    -81.68557739   -166.48587036
Na       68.06778717    108.54814911    -47.73045731
Na      -23.72962189     85.00146484     37.46663666
Na      176.77610779    102.50952148    -20.74873161
Na       10.42514515    -29.93385887     44.32043076
Na      112.12083435    -26.46189880    -71.66003418
Na       51.20299911     92.43212891     50.89971161
Na      106.61994934    -30.23777199     24.09392166
Na      -98.84471130    112.26223755     92.25225830
Na      138.82653809     10.94915104    -71.32547760
Na      -57.52260590     71.51536560    189.75502014
Na      -89.78696442   -111.03880310     -1.49404192
Na       -9.72041321     44.38443756     10.45564842
Na      132.55477905    -29.53760719    -44.02169800
Na        6.58370686     74.56011200     54.59874344
Na      -54.65362167    -41.23787308    209.52532959
Na     -112.64688873     71.59017181    -20.55286789
Na       71.02623749     51.22233582     14.01902008
Na      122.74610901    -82.31202698    -71.20476532
Na      -88.34846497    156.16877747    106.02600861
Na       34.28759766    217.17718506     57.83826828
Na      -40.60330200      6.35001373     57.40185165
Na      184.23973083     47.86650085     75.03619385
Na       81.80491638     23.84548187   -122.29387665
Na        5.96346664    -20.73556709    -98.43463135
Na      -98.26861572     44.33257294    -88.14140320
Na      -13.54899216     81.26914215     72.94039917
Na       29.98769188    -50.74676514     71.46432495
Na      -91.86025238    255.19644165     57.98276901
Na       91.52541351    153.82241821     23.72786903
Na       47.90269470      7.46729422     -6.23846817
Na      -60.78915405     65.03947449     20.28313637
Na     -189.90417480    -27.39261436     31.47720909
Na      -20.80880737     20.18137360    115.93455505
Na      -98.31401062   -146.34121704     -9.76152039
Na        4.06989002     77.46994019    -27.58948326
Na       95.47255707   -197.21492004     20.26894569
Na       92.22296143    -75.14859772     10.22883511
Na       47.41033936    -13.57791615     40.12625122
Na        6.80768061     35.18278503    149.67703247
Na      -34.03524017     78.69262695     13.54954910
Na      -16.82476234     37.18466568     23.73802185
Na      -71.86848450    211.48678589     -3.37085152
Na      -88.16324615    108.58944702   -122.12555695
Na     -125.38887787    -71.67358398    179.78329468
Na       91.94050598     16.19167328    -16.87873840
Na       34.20037842   -108.43209076     91.20284271
Na       41.12959671     13.25814915     10.13403702
Na       61.43188858    -44.27685928    -48.28715515
Na     -152.81672668    -47.18337631     85.30525970
Na     -102.49033356     30.66228676    -60.83459091
Na     -102.00839996     82.21256256    -75.46304321
Na      136.18806458    129.27655029    -23.33713531
Na       47.91167831    -61.22980118     98.77429962
Na       31.03908348    -10.47119141     91.34908295
Na      -91.62235260    129.17846680   -200.71484375
Na      -13.36562347    146.87794495    -13.88070202
Na     -149.16017151    -88.56309509    105.38645172
Na       68.54022217     81.66965485   -160.11305237
Na       40.39225006    207.59570312    -48.45063019
Na       72.07295227     54.39722443    112.43283081
Na       23.28991699    -71.38591766    -20.10763550
Na      -13.94400501     95.87713623     48.31227875
Na       17.08660698    146.16494751    -57.37620926
Na       92.03475189     51.13797760    -32.61658478
Na      143.24925232   -111.97454071    135.94116211
Na      180.51005554    111.71770477    -44.06324005
Na      -57.48841476    -48.19717407     -3.21581364
Na       92.19992828   -181.14938354     90.99632263
Na      129.36622620     88.67284393    -50.60719299
Na      -91.43864441    163.00140381    -85.19066620
Na      -67.85282135     64.56680298    -55.23376083
Na      119.81005859     -1.20953643    -50.80590439
Na      -26.73284721     85.27858734     19.27787399
Na      106.13271332    -26.32700920   -126.42343903
Na     -108.55115509     27.33195877     10.07717609
Na        2.97325611     78.94364166    -44.30888748
Na       19.66082573    -40.96337128    -23.32689095
Na      -10.30153561    101.37236786     57.65346146
Na     -128.84800720    -80.50782013    -27.36289787
Na     -163.39855957     71.96226501    -53.99991608
Na        3.28818679    129.48225403     37.41732788
Na      -85.28968811     54.85415268     24.10377312
Na      159.93472290    -24.03641319    115.18997955
Na       33.81098938     74.97373199    -58.13109589
Na        6.70067024     67.73394012   -135.95414734
Na       75.24143219     34.47149277    -53.58349991
Na      -34.39667130    -64.62327576     34.17159271
Na       59.82109451     42.57787323    205.92140198
Na      130.12936401    -36.89009094     48.10401535
Na       50.54982376   -126.07886505     16.97840691
Na      -47.58203506     -3.74166584     68.18833923
Na      -91.97550964     58.34268570     68.03472137
Na      167.96112061     10.33275890   -115.25847626
Na       37.47854614    -92.53069305     95.75759125
Na      125.59566498     17.03614807     27.29800987
Na      -50.70002365    -33.81560135     44.40624619
Na     -118.94695282     10.11155510    -27.15169525
Na      -17.24731064     88.14302826     44.54589844
Na      -89.01232147      2.65076590    108.66725922
Na      -17.06736755   -112.76780701    122.25355530
Na      177.13031006    -12.70624065    122.34305573
Na       71.05046844     97.52915192    -51.22005844
Na       58.27642059    -44.79555511    109.24483490
Na      -37.30894852    111.84373474     78.81587982
Na       30.25053215    160.64649963     13.87453079
Na      102.35299683     68.68455505     37.47656631
Na       -3.31437755     58.06232834    -91.35659027
Na       74.61141968   -129.54135132    -71.33282471
Na      -40.80835724    -47.43001175      0.16962394
Na       95.01984406     74.89478302     29.90620422
Na       84.95279694     19.65409088    -30.85103798
Na      -77.19109344    -47.55566406     51.27099991
Na     -186.78298950     26.54715729      3.39292002
Na       76.44763947     13.00539589    -31.36167336
Na       30.84312248     64.48666382     88.75521851
Na      -34.05319214   -119.89381409     -0.11146702
Na      -68.04274750     23.72100258     34.53533554
Na       71.25614166    -95.23230743     10.20339584
Na      -71.43892670    -84.59200287     -0.76370496
Na      115.02843475     88.88365936     43.79314423
Na      -58.17116928    105.84266663    -47.94337463
Na      227.24969482    193.62615967     19.40558434
Na      149.73001099   -128.25823975    119.29548645
Na       20.41548157     24.09136200    -54.00461197
Na      -23.77210045    -23.75486755    115.66680145
Na      -88.15531921     37.13677979   -136.26316833
Na     -115.61682129    -20.53380013    -84.86965179
Na       47.39386749    129.09864807    122.79613495
Na       37.33187485     -7.35069084     10.14042473
Na      143.12707520     81.97115326     51.05404282
Na       54.94681549    -20.40662384     50.65333939
Na       23.28252792    -89.00607300     37.58036423
Na      -19.79800987    -17.08048630     47.74354935
Na      -57.87972260    208.20422363    -50.77960587
Na       -0.59949952   -122.95317841    -23.11694908
Na      -57.97772598    -60.02181625    -49.96060181
Na      -23.99741364     67.38256836     16.59809494
Na     -108.72676086     13.57416821     34.14257812
Na      106.80065155    -17.13101006    218.56394958
Na      -67.81066132    -47.60826111    -10.23325253
Na      -85.03714752    -80.78782654     30.32025719
Na       13.70751476     95.23716736   -118.77969360
Sn        3.18169379     13.35686398      7.32030439
Sn        3.29064107     27.55897903      6.93090200
Sn       17.33953476     13.95438576      6.95638657
Sn       17.26008606     27.17451477      6.93234921
Sn        3.18807483     -0.15490377     20.42497063
Sn        2.86547017     13.80972290     20.50060654
Sn       16.44452095      0.09044809     20.83337212
Sn       16.57250595     13.71794319     20.55723763
Sn        3.65494418      0.61717874     13.70993710
Sn        3.46262479     14.09558773     12.84533501
Sn       16.84370232      0.57867545     13.75002861
Sn       17.02620697     13.66314030     13.65210724
Sn        3.16377664     13.29355621      0.31229410
Sn        3.48474932     26.81605339      0.02623390
Sn       16.92731285     13.46900654      0.22882369
Sn       17.27678299     26.78158188      0.22438939
Sn       10.32126331      6.83088684     20.55191040
Sn       10.55002880     20.66524315     20.37465858
Sn       23.92736435      6.94687223     20.67280960
Sn       24.37024689     21.03441620     20.99213219
Sn        9.91195965      6.58175611      6.76517534
Sn       10.06855774     20.11327744      6.76242447
Sn       23.80372810      6.80965328      6.90440655
Sn       23.37308693     20.55662727      7.29062271
Sn       10.31890678      6.99817371     27.13199997
Sn       10.37990665     20.50657845     26.95160484
Sn       23.92825699      6.86446953     27.32743645
Sn       24.05716133     20.70850372     27.56529999
Sn       10.06510067      6.71070433     13.44911575
Sn       10.42113686     19.65707397     13.47173214
Sn       23.59343147      6.62738800     13.90388012
Sn       24.07058144     19.86057472     13.97902298
Sn       10.04128647     -0.25025153     20.24387550
Sn       10.14628696     13.75801468     20.62759399
Sn       23.55984879      0.43191230     20.50525665
Sn       23.93995476     14.15751362     20.42694855
Sn       10.46062183     13.24320793      6.38608789
Sn       10.30394363     27.28633499      6.53260612
Sn       23.79165459     13.57075787      6.87122488
Sn       24.14597511     27.38191223      6.45068693
Sn       10.50065327     13.47309971     13.81208038
Sn       10.22070312     27.01037216     13.34132576
Sn       23.57362938     13.19157410     13.42058563
Sn       24.20106506     26.70875359     13.89617634
Sn       10.62082767      0.54167742     -0.31443670
Sn       10.00742245     13.98340988      0.00107167
Sn       23.97644424      0.42571416     -0.10701334
Sn       24.09357071     13.81147194     -0.31574029
Sn        3.21030617      6.83742380      7.06289101
Sn        3.07475996     20.73056602      6.89390182
Sn       16.97825050      6.92771053      6.73553705
Sn       16.38731194     20.92216492      6.50151920
Sn        3.77951455      7.32256651     20.86181831
Sn        3.84514785     20.28290176     20.39448929
Sn       17.49207115      6.98471069     20.40162086
Sn       17.35244942     20.27045822     20.54922676
Sn        3.87928176      5.82928133      0.22945046
Sn        3.64178538     20.01840782      0.13424869
Sn       17.23053932      6.73130941      0.16477707
Sn       17.09860420     20.56908989     -0.14591727
Sn        2.96643376      6.99950075     13.73580837
Sn        3.18323994     21.01379776     13.57063103
Sn       16.85097122      7.31110907     13.71117401
Sn       17.26549149     20.95458984     13.58604240
S         2.42654800      4.27916527      1.14144027
S         2.10789227     18.84212303      1.54399621
S        15.87968254      5.08060026      1.82270777
S        15.47630596     19.11168098      1.13381290
S         4.04938936      8.31498432     15.43421936
S         4.54116344     21.93419838     15.11799622
S        18.16393661      8.66255188     14.99452305
S        18.75864029     22.42302704     15.20614815
S        11.36269379     11.81409931      8.15814400
S        11.33597851     25.80658722      8.02223969
S        25.45428467     12.62245941      8.49238968
S        25.41461563     26.06335640      7.78749800
S         8.69823265      1.39772201     21.48393822
S         8.47317028     15.21422672     21.85918236
S        21.97172737      1.31493855     22.31490326
S        22.03663826     14.95912266     21.66191864
S         5.55164528      5.12363815     26.14445877
S         5.13171911     18.60815620     25.73073959
S        18.87591743      5.12169790     26.39532661
S        18.39514542     18.87398148     25.80677032
S         1.95435584      8.72438335     12.28712177
S         1.61271679     22.16825485     12.34169102
S        15.26545715      8.46141434     12.25274467
S        16.15640259     22.09309959     11.90427208
S         9.11231327     12.12566280     19.23509979
S         8.44139290     25.56145668     19.08363724
S        22.77104759     12.39456367     18.95875549
S        22.33108711     26.34584999     18.82468796
S        11.94670296      1.22586417      5.05383492
S        11.86838818     14.79930305      5.12119579
S        25.55878830      1.49932206      5.18048429
S        25.34719467     15.07959175      5.52601242
S         9.24590683     11.90189266     15.03114605
S         8.80794621     25.47520065     14.52798843
S        22.17613220     11.96053028     15.23114586
S        22.56749153     25.41482735     15.02327061
S        11.92158318      1.70714235      1.11337411
S        12.07475853     15.13814735      1.02560031
S        25.54803467      1.47673297      1.26713133
S        25.50175858     15.28806114      1.34947240
S         5.13605261      5.45597696     22.14597893
S         5.34433603     18.88336945     21.74454117
S        19.00738907      5.75025177     21.73956490
S        18.47118759     18.63999939     21.84376335
S         1.68371177      8.32174397      8.30542946
S         1.48960018     22.05266571      8.08215904
S        15.48304558      8.21367931      7.98714066
S        15.34357262     21.99008751      8.10167789
S        11.86896801     12.14131165     12.07367992
S        11.61570930     25.33460617     11.81709290
S        25.26443100     11.78643894     12.40691662
S        25.53987503     25.22352600     12.46128654
S         9.29967785      1.72740102     25.28121376
S         8.69394493     15.30200386     25.61064720
S        22.41237259      1.78357112     25.87710762
S        22.58845520     15.08974743     25.53886414
S         2.07259154      5.46209049      5.45848417
S         1.77121377     19.14777756      5.53168011
S        15.45319748      5.35829020      5.17384958
S        15.15870285     19.07475090      5.39822149
S         5.27043629      8.10345745     18.94162560
S         5.22886992     21.79444313     19.10743141
S        18.98354721      8.44394588     19.11675262
S        18.85282516     21.91307640     19.33052063
S        11.69477749      8.56448841     25.89081383
S        11.67033768     22.10068703     25.54132652
S        24.63919640      8.47197628     25.62003899
S        25.38347054     22.07954597     25.98748016
S         8.50097179      5.67637968     11.73602772
S         8.70048332     18.21823692     12.16904545
S        22.08570099      5.29635477     12.36963654
S        22.31236649     18.63082504     12.71409988
S         1.97662222      1.26670504     18.76740456
S         1.92561746     15.22966957     18.94448280
S        15.22867393      1.49117935     19.37948036
S        15.57342625     15.01976490     18.83939743
S         4.70128536     12.25648212      5.60890961
S         4.74204159     26.43688393      5.63415623
S        18.51509666     12.15870667      5.79847240
S        18.72921562     25.90790367      5.68434715
S         8.88244438      8.13452339      1.61608326
S         8.80634212     21.40943336      1.14564919
S        22.93269920      8.50543022      1.51365340
S        22.12469292     21.76773262      1.94157529
S        11.47284985      5.07010889     14.06522655
S        11.44148350     18.47801590     15.27523422
S        24.75159073      5.25245810     15.42068005
S        25.33577347     18.58606720     15.64747047
S         5.18007851      1.73849237      8.09324741
S         4.93523121     15.06885052      7.94252920
S        18.40174484      1.53635395      8.34600449
S        18.78580093     15.41222763      8.11580753
S         1.63940835     12.34405804     21.96044159
S         1.59495461     25.66642189     21.35659790
S        15.26294899     12.21531010     21.76194954
S        15.61716652     25.53167725     22.13127518
S         5.11159468      2.03164554     12.18633842
S         4.74841452     15.76209831     11.66595173
S        18.46384811      1.84380174     12.66904926
S        18.27678871     15.02523994     11.84532452
S         1.91108680     11.79341030     26.14017296
S         2.07483912     25.27155685     25.98433876
S        15.82908916     11.70960236     25.88772011
S        16.15068817     25.27953339     26.01889229
S         8.63875771      8.01761723      5.35050678
S         8.50192165     21.47623062      5.44577456
S        22.32994461      7.85283518      5.42061138
S        21.59843254     21.81081390      6.26823807
S        11.68150711      5.38436747     19.06974411
S        11.83531380     19.07825470     18.61540604
S        25.18775177      5.77450752     18.84157562
S        25.35951233     19.28350639     19.76967812
S         2.19268203      1.49801672     15.51531124
S         2.26416898     15.28922749     14.34026432
S        15.11396122      1.51008952     14.99215794
S        15.92920780     15.54682255     14.47599125
S         5.12956524     11.71277332      1.23218787
S         4.90102911     25.37646484      1.44790554
S        18.11357117     11.96330166      1.92527354
S        18.70432663     25.51933479      1.90426314
S        11.76866817      8.34850407     21.83680534
S        12.05888844     21.63011169     22.10029602
S        25.74215317      8.00661373     21.96977425
S        25.94929695     22.50511360     22.19705391
S         8.31355095      5.73039389      8.24819565
S         8.59247017     18.60647011      7.90685463
S        22.17236137      5.64206934      8.24653053
S        22.09615707     18.52315140      8.23190212
S         2.25428367      0.74395657      1.62552154
S         1.87256157     14.96629429      1.30858529
S        15.75095654      0.95606434      1.52055073
S        15.30321312     14.81997395      1.18589056
S         4.88204622     12.85382462     14.50165939
S         5.04620981     26.10695457     14.60795021
S        18.54949760     12.76772881     15.28246021
S        18.13714409     26.45544815     15.17478466
S         1.87712955     12.03274441      8.44682884
S         2.12054801     26.19182777      8.47136402
S        15.75420094     12.34422493      8.25275326
S        15.44218922     25.75156593      7.94691706
S         4.58322906      1.31541836     21.89022827
S         4.53610325     15.01325130     21.98459053
S        17.99688530      1.60529995     22.03258133
S        18.16266441     14.81438732     22.25253868
S         5.06708860      0.77953923     25.66540718
S         4.90912914     14.75984764     26.18636131
S        18.90846634      0.51742345     25.99336815
S        18.25332642     14.74271393     26.00849152
S         1.57553613     12.57992649     12.13055897
S         1.97434282     26.58208656     12.36143875
S        15.48541832     12.46218586     12.35043335
S        15.60362530     26.16318893     12.27363682
S         4.36088991     12.38930893     19.40665054
S         4.91585684     25.76919746     19.38802528
S        18.19400597     12.29882145     19.14975548
S        18.17091560     25.85300064     19.29249001
S         2.10917401      1.70226014      5.42068100
S         2.01978850     15.13444233      5.56735420
S        15.93261719      1.25242233      5.54665947
S        15.84308243     15.23058414      5.63784695
S         8.82932377      7.86947346     15.24217796
S         9.23419285     21.25244331     14.71899700
S        21.98122787      7.99334145     14.98624706
S        22.67142868     21.47843742     14.99085045
S        11.66054344      5.68781757      1.21922064
S        11.43477535     19.10684204      1.50074422
S        25.43463516      5.39057064      1.42216074
S        25.32187462     19.17593765      1.28527725
S         9.21803570      4.90351105     21.64101219
S         9.13776684     19.25208282     21.94568253
S        22.61989784      5.27127171     21.79571724
S        22.87618065     19.18410683     22.28571129
S        11.58548641      7.84599352      7.82201958
S        11.20964622     21.81525993      7.90617323
S        24.95839882      8.28683662      8.35481834
S        24.89893341     22.13497543      8.27140331
S        11.29825592      8.05211258     11.98540401
S        11.69769287     21.30551529     12.00430202
S        25.41126823      7.33388376     12.48645878
S        24.91405678     21.04694939     12.08386230
S         8.93129444      5.84736443     25.58459282
S         8.85832024     18.99676514     25.73620987
S        22.22812462      5.46484232     25.85045624
S        22.42657852     19.62540627     26.04448128
S        11.20789814      4.76519299      5.34525347
S        11.64625072     19.23269272      5.30170584
S        25.21942329      5.35547876      5.42010117
S        24.78048325     19.21302986      6.20939112
S         8.84887505      8.26352692     19.23281670
S         9.78306580     22.39897156     19.05123329
S        22.64563560      8.43089485     19.27464294
S        22.87050247     22.04225540     19.41584969
S        11.26843739     12.37552929     25.46646690
S        12.00213909     26.08699226     25.64805794
S        25.56862450     12.21375465     25.74629593
S        25.60219765     26.34644127     25.45465088
S         8.64272213      1.10715616     12.03546143
S         9.02060604     14.46466827     11.97927570
S        22.78811073      0.41064039     11.94233894
S        22.29627609     14.53975868     11.97217178
S        11.17459965      0.95628196     18.44475937
S        11.46892834     14.69416904     18.81706047
S        24.76142883      1.94371700     19.29513741
S        25.31066513     15.09978580     18.61245728
S         8.76831722     12.07681179      5.30809975
S         8.30016327     25.49509621      5.28159523
S        22.92605782     12.10980129      5.27386904
S        22.39195251     26.47373581      5.23147249
S         8.50556564     12.35309887      1.36109006
S         8.97107601     26.56353188      1.00212657
S        22.74043655     12.23212528      1.11371946
S        22.88581276     25.86505699      1.27397442
S        11.52497768      0.85376865     15.23586750
S        11.77236462     14.54733849     15.61767864
S        25.07011795      1.43073058     14.82727718
S        25.00702095     14.77594090     14.51542091
S         8.90790558      1.25007951      8.11695099
S         9.18933296     15.05610561      7.98832035
S        22.53658485      1.35754633      8.06775665
S        22.65899658     14.98956013      8.69522858
S        11.45382214     12.39010334     22.06589127
S        11.79994392     25.99947166     21.72095490
S        25.09551430     12.43536472     21.90262985
S        24.81038094     26.01639366     21.66355896
S         4.72230482      5.87711334     12.69057846
S         4.63229752     19.86061668     12.27527428
S        18.25728607      5.97406530     12.28301716
S        18.39080048     19.29210091     12.26308441
S         2.54141092      7.42503452     25.57710457
S         2.41174078     21.25057411     25.70922470
S        15.72000504      8.09836483     26.07402229
S        15.51446342     21.60815048     25.57202148
S         4.66439104      8.31532955      5.74692965
S         4.41829157     21.81597137      5.12398767
S        18.15760612      8.05858803      5.07898474
S        17.96957779     22.00200462      5.04918242
S         2.25002146      5.52131939     19.36013985
S         2.19500399     19.02417564     18.95806503
S        16.19149971      5.31636667     19.01143074
S        15.79454517     18.95325661     19.37338066
S         1.74644887      5.47485733     15.34344196
S         2.20927024     19.33354568     15.12593269
S        15.32235909      5.61050606     14.78972149
S        15.71149921     19.90478134     15.08242512
S         4.73127842      7.49550152      1.56331336
S         4.90793657     21.50083923      1.43508184
S        18.41929817      8.26540661      1.63328481
S        18.37017822     21.55723381      1.66570592
S         2.59306931      8.67408848     22.33841133
S         2.52581453     21.97923851     21.92656898
S        16.13768387      8.42173958     21.87545204
S        15.65533161     21.59368896     21.64235497
S         4.64923477      5.18320179      8.30575085
S         4.39119291     19.08432579      8.23566055
S        18.54745483      5.64249468      7.92841196
S        17.75504875     19.33632469      8.20879745
S         1.29916012      2.54657769      8.96488094
P         0.08472243      3.59523273     10.17951488
S        -1.11856699      4.71363115      9.04872131
S        -1.11884582      2.25262499     11.36015606
S         1.19132829      5.00266457     11.31880951
S         1.34299541     16.11145210      8.79999638
P         0.06388248     17.17687225     10.18129921
S        -1.18263638     18.40500832      8.84319592
S        -0.97077990     16.00313950     11.53208160
S         1.08362734     18.48712730     11.51556778
P        13.69430828      3.67599630     10.23776722
S        15.08444881      2.52154851      9.04917336
S        12.21057796      4.70908499      8.99782372
S        12.46610928      2.34468651     11.26400661
S        14.95617390      4.86216402     11.32529068
S        15.04828835     16.15758896      8.99302292
P        13.72278881     17.15145302     10.06816578
S        12.33443546     18.33906555      9.08087730
S        12.49476910     16.03213310     11.36535263
S        14.81230640     18.50249672     11.36087227
S         7.98378277      9.06218338     22.66711044
P         7.05766010     10.28214264     23.80687141
S         5.69202614     11.36996555     22.98407555
S         5.87328815      8.90263844     25.05984116
S         7.86782885     11.39823723     25.11412048
S         8.24710274     22.69769478     22.68889809
S         5.53177929     25.01182556     23.07426071
P         6.96425581     23.79024887     23.93980789
S         5.66417408     22.52165604     24.97360611
S         8.06409454     25.06410217     24.95997238
S        21.77399254      9.22955608     22.48111534
P        20.48130798     10.25292873     23.94332695
S        19.29248238     11.33848095     22.78153419
S        19.28977776      8.80614281     25.28787422
S        21.70451546     11.38706493     25.14281273
S        21.79963112     22.83325386     22.61202049
P        20.51999855     23.84093094     23.94373322
S        19.15534973     24.84535599     22.91593552
S        19.33213615     22.64546204     25.05029488
S        21.73627663     24.92225266     25.11469460
S        26.18823242     11.01895523     18.25079346
S        28.60134125      8.85577011     18.16513824
S        28.73071289     11.16809845     15.95368767
P        27.56103134     10.01191616     17.12511444
S        26.06854248      9.04548264     15.80007076
S        26.19978333     24.70471001     18.23029900
S        28.62924385     22.34275055     18.17944527
S        28.72700500     24.85940170     16.01368523
P        27.53839493     23.70874214     17.02982521
S        26.05465889     22.56141090     15.83830738
S        12.88052845     11.21433067     18.38649559
S        14.80406952      8.59065628     18.39085960
P        13.80325222      9.98761654     17.00137901
S        14.80222130     11.36677551     15.84302330
S        12.78092384      8.94001770     15.66883659
S        12.73185921     24.71122551     18.18766785
S        15.02447224     22.41211510     18.26201248
S        15.07920933     24.94379807     15.99070263
P        13.75364780     23.45081902     17.07493210
S        12.48011684     22.65028000     15.77778339
S         5.47309637      4.57137299      4.52464628
S         7.87670660      2.25542974      4.71506166
S         7.70640087      4.56382036      2.41250849
P         6.67890167      3.36233401      3.43991828
S         5.75600243      1.76010489      2.16343617
S         5.36631823     18.17329597      4.48152304
S         7.84332895     15.68055630      4.67365265
S         7.78718615     18.30913162      2.28030872
S         5.84062576     15.40733814      2.37281489
P         6.65275955     17.01813507      3.44753075
S        18.98226929      4.32128572      4.37098026
S        21.50741196      2.26652312      4.71242523
S        21.48223305      4.64692640      2.34843063
P        20.35940552      3.31863618      3.40787029
S        19.23602295      1.95820332      2.41477346
S        18.95418930     17.99375725      4.46942234
S        21.68288040     16.00616264      4.80692244
S        21.45824242     18.06629944      2.31278205
P        20.20660973     16.82408714      3.51046753
S        19.26021576     15.69155025      2.15837741
S         5.83792448      2.18297553     18.37388039
P         6.77567196      3.47344518     16.97692108
S         7.86662102      4.69374990     18.15658951
S         7.86847210      2.20871544     15.61466503
S         5.81094313      4.74448681     15.74014187
S         5.60662174     15.82516956     18.47813988
P         6.68978643     17.14737892     17.13042068
S         8.11872101     18.24591637     18.20874405
S         7.97032166     16.03450203     15.44561768
S         5.77125978     18.12641525     15.60450077
P        20.40670013      3.51664996     16.84351349
S        19.38307190      2.15444207     18.19182587
S        21.68313408      4.70309782     18.10833549
S        21.49905396      2.22651362     15.86368752
S        19.26222420      4.70414019     15.85029697
S        19.52029228     15.81530762     18.30000687
P        20.30818748     17.13584709     16.98641777
S        21.55958557     18.21928596     18.13971710
S        21.47866631     15.86979866     15.73001480
S        19.36409950     18.33874702     15.70636654
S        26.02403641      9.12800026      4.59970474
P        27.30951691     10.02105236      3.37132239
S        28.62262535     11.25249004      4.51488638
S        28.42475128      8.69649124      2.26808763
S        26.05669212     11.52457905      2.42475891
S        26.07063675     22.72560120      4.79775095
S        28.60262299     24.78142357      4.72675753
P        27.33800125     23.81919670      3.36907578
S        28.29841614     22.40283966      2.08813691
S        26.12891769     24.97378922      2.19696259
S        12.43957424      8.83604813      4.77296686
P        13.77246857     10.16326332      3.41384053
S        15.02160168     11.30101490      4.60338354
S        14.50571060      8.83970261      2.25559282
S        12.62691689     11.48742390      2.13442278
S        15.05784798     24.97930145      4.63296223
S        12.29162979     22.69796562      4.69524622
P        13.73719692     23.71278954      3.43714762
S        14.66538048     22.41464806      2.05338788
S        12.61301517     24.89452171      2.36225700
P         6.62141228     10.31383705     10.15137863
S         7.86111069     11.47488594      8.76505470
S         5.15634871      9.16111660      9.18254662
S         5.54332924     11.53808880     11.11924648
S         7.85141659      8.71508503     11.21586037
P         6.55632925     23.82900810     10.12275314
S         7.76626062     24.83468819      8.68729591
S         5.33041763     22.90276909      9.00070477
S         5.56933689     25.14251328     11.38223076
S         7.80905724     22.56464386     11.24012566
S        21.34848976     11.49911022      8.82219219
S        18.83686256      9.05646896      9.15607929
S        19.28382111     11.57280159     11.22117805
P        20.39053345     10.28081131      9.99774361
S        21.25315857      8.79269791     11.23166275
S        21.53350258     25.00175285      8.88846207
P        20.25532722     23.92355728     10.03812885
S        18.68434143     22.57674789      9.04692078
S        19.19291496     25.28443909     11.32360840
S        21.44217682     22.49034309     11.13311005
S        14.97824478      4.55801010     22.63238525
S        12.19394207      2.25786448     22.80041313
S        12.66670895      4.58519125     25.05031776
P        13.51449108      3.37605214     23.74350548
S        14.65984821      2.29146481     25.18334198
S        14.85309315     18.03604698     22.59957123
S        12.27516079     15.97391510     22.85104942
S        12.41572666     18.31147385     24.97484970
P        13.71526623     17.15105629     23.87948036
S        14.76082134     15.67553902     25.10964394
S         1.33820450      4.57347536     22.63420868
S        -1.49820244      2.26550698     22.86235809
S        -1.09568083      4.62310123     24.94444275
S         1.09834802      2.13864422     25.15834045
P         0.10350438      3.47108912     23.81297684
S         1.25367105     18.11651611     22.43019867
S        -1.23521471     15.81263542     22.61947060
S        -0.99099731     18.37660599     25.17625427
S         1.05794895     15.71291256     25.22692871
P        -0.14778656     17.12859917     23.96463585
