832

Na     -123.01434326      6.57964659     64.40955353
Na       57.75234222     -2.44999290     41.30944443
Na     -129.34948730   -176.17149353     68.20433807
Na      -68.09054565     82.04707336    -54.33105469
Na     -169.54617310   -200.54872131     74.94033051
Na       67.99679565    -60.46947479     47.55658722
Na       64.44135284    139.40635681     14.32001209
Na      -44.14605713   -251.84779358     51.40637589
Na       78.36210632    -98.28949738     54.30504990
Na       20.61552238     92.09796906    -68.40096283
Na        6.82805347   -105.71472931    -27.69956017
Na       34.40987396    -41.09550858     99.67276001
Na      -78.33448792    -65.00685883    -29.30172729
Na        8.04236603     66.41196442   -114.59415436
Na     -106.10349274     -7.58178949     50.82369232
Na     -207.93763733    159.74906921      3.70523047
Na     -136.34681702    116.65240479    -71.65193176
Na       64.17424011    -64.85953522    -13.80721760
Na     -235.54298401    -71.90772247     26.42434692
Na       92.00763702    105.16027832    -92.37706757
Na      115.80373383     27.03638268    -91.89489746
Na       44.74666595     44.45322037    150.29011536
Na      -37.39775848    -50.97934723     13.63604069
Na      150.19601440     20.52207947    -58.30211639
Na      149.38658142    135.88563538     98.34056091
Na      -87.92906189    -67.79414368    197.85476685
Na       17.67323875   -180.61169434    -41.65293884
Na     -118.93573761    -13.78498840    -44.02696609
Na      -85.03239441     28.13237762    -84.81316376
Na       10.85784912     51.16604996    210.75738525
Na      -37.52009583     84.60810852   -119.00101471
Na       68.64969635    -94.75757599    -37.72821808
Na       27.24928665    -77.59851837    101.90729523
Na       21.14743233     -7.18042088    -61.17549896
Na     -201.57788086    -44.59973526    118.69747925
Na       24.47038841    -44.33591461     61.04643631
Na      -58.05623245    -10.29048157     51.13345337
Na      122.37940216     30.61851883     27.48298645
Na       54.86743546    -50.35685730     14.09315300
Na      -54.12794495    -66.35911560     47.95661163
Na      145.75332642     79.23143768      0.39609459
Na     -115.05988312     47.06428146    -71.28390503
Na      156.50746155     91.85792542    190.87384033
Na       57.92944336      6.30786276    -51.14966583
Na     -108.24645996     64.53125000    -55.19454956
Na       10.39209938    -44.10223770    -10.88264370
Na     -149.50921631    135.24818420    132.43679810
Na       -0.10035876    -37.55057907      0.35564545
Na      115.87455750    -61.42144394    232.90422058
Na       50.58509064    -14.29249191     23.71883011
Na      -64.66205597    -74.91131592     91.54726410
Na       34.43046570     48.04313278    -30.54143143
Na      -61.76211929    -47.49015808    125.97993469
Na     -112.13285065    155.54718018    -10.26043987
Na        0.99547040     94.26742554    -35.45016479
Na       37.20458603     33.72541428    -23.67605400
Na       20.28400040    110.48011017    -58.07955170
Na      -91.81793213     -3.57496762    -74.83219910
Na       65.41558075    -26.96729279     10.87153053
Na      143.03388977    160.04676819    -62.67551804
Na      -75.19287109      3.84094882     68.26676178
Na      -24.10571289     92.21889496    -40.37369537
Na      139.55493164    -47.17525864    -37.06861115
Na        7.04840755    -40.61733627     64.06990814
Na       40.85002899     13.12278175    -61.07751846
Na      -17.21299934    122.21447754     51.26841354
Na      -40.64921188     95.88951874     88.96848297
Na        0.53633571    160.26416016    109.09041595
Na       71.74745941     -0.04103465    -17.16306877
Na     -108.35776520    -37.77893448     60.83032608
Na       20.29787636     74.91239166     13.58192348
Na      -51.33707809    -30.76436424     51.44229889
Na      -65.02812195    -88.15364838    -17.25918961
Na      -37.70336533   -139.53994751     23.40357590
Na     -170.30767822     51.21958160     61.20848465
Na      -37.07133102     64.94311523    -50.11161423
Na      224.32942200    142.28804016    -26.51443291
Na      132.08702087     77.72034454   -101.44525909
Na       74.50923920     -7.29214382    -75.11531830
Na       84.93016052   -140.49870300     27.32568550
Na      -31.34239388   -159.21154785     55.05717850
Na      108.85335541    -88.74283600    -37.97485733
Na       54.66823578   -149.68153381     13.32795620
Na      -80.82958221    190.88301086    -71.22949982
Na      215.08148193     23.70411301   -152.90348816
Na       64.63870239    -30.54440308    -96.30538940
Na       37.19079208     -3.51939464    -47.35518265
Na       91.42616272   -173.27001953     74.73916626
Na     -160.44491577     68.87852478      9.94372845
Na      217.53254700    -40.83609390    -92.15909576
Na       84.86873627    -64.97576141    -10.41469288
Na       64.50209808     64.65884399   -101.97902679
Na        0.10995267     13.63602543    214.30555725
Na      -36.96066284     99.13317108    -71.36174011
Na      112.43366241    -71.88921356      3.35063887
Na      -91.76509094   -109.09753418    -10.25329971
Na       13.39175510    129.05667114     27.10210419
Na       16.97507477    -33.87731171     85.19037628
Na        7.07201290    164.00076294     34.62172318
Na      -42.68660736    -16.81431580     78.60099792
Na       -2.60470557    -17.68482018   -204.09854126
Na      -27.13851738    -27.62638664    -30.41490936
Na      129.55940247    190.28991699    113.05421448
Na      -31.01230812    -23.29468727     23.97219276
Na      -48.32380676     98.46880341    157.17733765
Na      -33.77528381    -20.32388306    -78.10725403
Na       61.11603928     14.23006058    -30.90250778
Na      -19.49481773   -115.88869476     57.84753418
Na      159.90295410     60.99751282    -98.71496582
Na      118.61441803     12.87702942     37.67456436
Na      156.93586731    115.79833984    -88.19387054
Na       65.44625092     44.22673035    -74.54769897
Na     -105.33110809    160.11488342     71.66213989
Na        6.76302528     54.18666458    -14.20242119
Na       78.05338287      5.99635220    -37.55546188
Na        2.82807851   -156.49308777    118.96389008
Na      -47.46016693      7.68018007    122.38185120
Na      -40.48203659    149.89506531     10.36685371
Na      116.14909363    -37.51718140    -20.15745544
Na      -47.84137344    -13.47066689    142.08970642
Na       40.95428848    -75.16971588    207.49450684
Na      -63.98575592    -57.81743240     17.14373398
Na      105.91091919   -115.48856354     30.75612640
Na      -91.90975189     -1.14808905     57.51879501
Na      -88.31002045    -24.60803604     13.35535145
Na       58.73529434    162.93362427    -44.29439545
Na       40.46152496   -119.47517395     54.62689972
Na     -139.22476196     91.74631500     -7.02718782
Na      -41.32850647     88.13310242   -102.00991058
Na      132.53041077    -50.95021820     74.19055176
Na       -6.85169077    -85.39735413     27.24579239
Na      -10.63472080    145.97787476    245.30989075
Na      105.12093353     96.19474030     44.46503448
Na       -3.29048586     85.06161499    -50.62363815
Na      -50.52743149   -159.23832703    -43.69233704
Na      126.11071777   -132.70420837    -34.26241302
Na       98.73339844     30.66666412     92.28937531
Na      -20.22570610      7.50823641     90.42401886
Na      -20.15177536    190.29800415   -105.32703400
Na      118.73691559    -50.57692337      0.61245763
Na       64.22541046     64.50166321   -122.90229034
Na      -65.38625336    -30.81368065     74.41795349
Na       40.96411133    210.70330811    -23.62385941
Na     -152.06765747   -108.69483185      3.41054511
Na       54.39407349   -129.55500793     84.97625732
Na      -94.96005249     57.30448151     60.75320816
Na      211.24842834    -60.02904892    -64.57859039
Na      156.08511353     81.29026031    -61.04275131
Na      -61.30745697    176.75654602    166.79269409
Na       88.27436829    177.03819275    -54.15493774
Na     -153.93145752     -5.61136675     64.17818451
Na      -26.96445656    191.50265503   -105.15705109
Na       -4.05253458    -37.41326904     54.77713776
Na     -156.99301147    -88.88507843     64.92966461
Na      -27.61084175    118.76908875    115.95211029
Na      -64.83849335    193.92613220    -47.85496521
Na       11.33600712     85.25852203    -33.88926697
Na     -224.74751282    -82.27271271    -13.50677490
Na      -95.24324799    -43.85283279    -19.97653580
Na      -57.80190277     61.31570816     24.01834488
Na      -67.23973846    -23.61722755     46.40027618
Na       43.94738007     61.69997787    -51.06451035
Na       20.25616264   -102.02202606    172.01481628
Na       82.17008209    -20.22688293     -4.40621710
Na      -41.56911850    -61.49227905    147.03260803
Na     -126.00425720    -27.19524574     -3.80184388
Na       24.12866592    -23.95928764    -44.38143539
Na       -0.18545049    -53.81159592    -47.50089645
Na     -159.57194519     44.66126251     10.18962383
Na     -146.89604187      0.59811580    132.66790771
Na        6.83481026     34.13538742    -23.11253166
Na     -122.15202332    217.71417236   -153.80712891
Na       30.86916542    122.62217712     51.11560822
Na       19.74323654     23.82346916    -60.71696854
Na       -6.90982294   -115.98846436    -28.04345512
Na       24.06418037    -44.30876541     -3.86378503
Na      -57.08584976    -81.50021362     10.15898418
Na      -67.89773560    184.28153992     13.66964149
Na       -2.58029771    -58.52047729    -40.30835342
Na      126.81511688     92.14868927     43.74441147
Na      -71.75402832     30.89072990    -29.79800606
Na      -62.25229263     16.81309128     27.24042320
Na       68.94921875    -95.35181427   -166.98228455
Na      -44.29435349     61.33913422     17.15504646
Na     -176.97653198   -129.77258301     84.63597107
Na       65.24198151    105.80937958     51.14704895
Na      220.48483276     64.68342590    -47.21350098
Na      -16.44333649     91.85557556    -89.12052155
Na      -47.75887299    -49.75641632    -74.85655212
Na      -16.27294540    -20.55689240    -31.08690643
Na      -64.15306091     41.21172333    -51.29904175
Na       -6.62900352    -13.16172695    128.86328125
Na       43.50376129    126.04574585   -187.03862000
Na     -163.39302063      0.11705223    -37.33103561
Na       -3.38342476    -44.02309799    -17.00261688
Na       64.96901703     71.60506439   -159.84870911
Na      112.05934906     78.70872498     37.23509598
Na     -160.25862122     21.01718712    -43.94008636
Na       32.13362122    118.81745148    -33.45269775
Na       88.25295258     -4.04533815    -47.84792709
Na      -40.25982285    -40.59333038    -77.88433075
Na     -108.50700378     60.98003769     94.59597015
Na       61.29444885    -10.46087742    -54.33727264
Na       18.02030563   -112.21400452     13.42835426
Na      -30.92329025    112.40506744    142.71684265
Na       30.33868408      3.03403997     56.92639923
Na     -262.52426147    126.49887085     27.09646416
Na      -47.61467361     57.96262360     -6.96343851
Na       -6.87060165     -0.01783965    125.91572571
Na     -101.88500977   -183.02774048    -61.10604477
Na     -101.98725128    237.83125305    -61.42928314
Na      268.76782227    -33.83232498     -3.44648767
Na       70.99637604     44.13782883    108.51335907
Na      -10.47653580     30.97347641    139.37542725
Na        6.99909401     54.89086151     23.74619293
Na       51.60031891     25.15254784     78.72617340
Na       -2.22895980    -40.85038757    -71.39604950
Na      -13.51620007    -68.40623474     55.16208267
Na      -58.01959229     37.57860565    -64.80504608
Na       68.70192719     64.28584290    -88.44475555
Na     -272.34500122    -64.82180786    -12.33329010
Na       13.35127640    214.35301208     34.72585297
Na      -51.32620239    105.45410919   -156.75993347
Na       27.31796265    102.19979095     -3.66112471
Na     -143.04377747    177.14125061     44.15427780
Na       27.60446358    -26.75239754    -40.88651657
Na      -23.87152290    -27.13485909     51.45986557
Na      163.46186829     -6.84505367      9.67464161
Na       -7.21154785      3.38450313      0.07032941
Na       50.69634628    -43.70486450    -23.66557884
Na      105.35269165      2.55161309    122.48822784
Na      -16.54976082    -44.10208893    -44.47958755
Na     -132.87522888    153.42698669    -68.48396301
Na      -95.60230255    261.98330688    -94.99216461
Na      108.42845917    -53.01765060    -81.67034149
Na       -6.36557961    -75.17863464     94.34731293
Na      -33.92606735    -13.63670063     13.25103378
Na      -30.09159279     27.31895447     57.98416138
Na        3.48703599    -37.06166458    -47.98882294
Na      -88.60884094    207.80427551    -14.33845711
Na      -71.69687653    115.81897736     65.05519104
Na       40.39364243    -53.78311920   -177.57609558
Na       26.71548271     40.78675461     58.49984360
Na       41.15568542     62.07770157     68.44686890
Na      258.30300903     23.83846855    -40.87720871
Na      -17.62613106    -40.65960312    -92.38494873
Na       47.79015732    -98.51167297     47.35728455
Na        7.57416725    108.63991547    -17.13971710
Na      111.22473907    112.27214050     81.45324707
Na       57.46847534     71.23461914     30.31503296
Na       72.27038574    129.10797119     16.81638718
Na      -10.53497219    -78.39543152     -0.88670886
Na      -23.56593513    -95.62458038     30.66393471
Na      -88.97329712   -132.74736023    -20.29355049
Na      -92.79365540   -146.41815186   -156.18856812
Na       27.51054573     61.60822296     81.59581757
Na      153.91535950    157.18807983     50.91245651
Na       26.97610283    -26.91249084    -88.12216187
Na        3.67278481    -61.62558746   -146.10575867
Na       17.41312408    -37.38632584    101.40296173
Na      -44.13483810    -64.81950378   -173.47927856
Na       85.13245392   -125.53038788     64.69756317
Na      139.82902527   -173.47126770     -6.62363625
Na      -50.64093018      3.28077841   -112.33298492
Na       47.54212189    -27.39038658    162.63027954
Na      -88.66023254      6.92387724     -3.49041605
Na       -3.85089278     71.68717957     64.45253754
Na       74.64034271    -95.94662476    108.43978882
Na      -40.65327835    113.08406830     41.35314560
Na      -51.28582001     94.88936615     98.27197266
Na      -26.89246750    -84.82975006    203.71934509
Na      -10.63583755    105.06610870    -54.20121002
Na      -81.47400665     10.26859188     47.88466263
Na      -57.30300903    125.97956848    197.54185486
Na      115.60254669      7.25944042    -91.70835876
Na      122.80944824    -82.69197083     60.30512238
Na       33.74415970     26.59140015    -27.31656647
Na        6.69922590     37.61279297     27.53543472
Na      -95.76028442    -42.72028351    122.70269775
Na      194.65972900     91.74139404    -10.04905415
Na      -81.71786499     47.38843536    -78.59381866
Na       58.44417191    163.36672974      3.32352948
Na       13.05477905    105.16468811      0.18478623
Na       -0.36659783     -2.98218322     33.95544434
Na       -3.49713326    143.14015198    -78.36186218
Na      -33.96021652    -75.07367706      0.57444918
Na      -68.28615570   -163.46820068     -7.27985048
Na       84.41429901      3.46403170   -183.45289612
Na       23.75171280    -30.71256638    -92.04907990
Na      142.59318542    238.22750854      6.33023787
Na       71.40547180    -20.03320885    -37.43268967
Na      145.94589233     98.52227020    -71.50784302
Na     -105.23715210   -159.91001892     19.78573418
Na      138.67686462    282.69473267   -139.62042236
Na       34.02260208     47.36786652     82.07793427
Na       72.29255676    -37.23783875   -140.46598816
Na     -108.59819031    -16.69214821    148.77909851
Na     -165.47283936    -37.35557938    102.13029480
Na      139.25143433   -115.28256989    -23.78309059
Na     -108.48248291    132.81336975    -34.14241791
Na      108.97831726    156.50735474     81.71385193
Na       88.16516113    146.69737244   -149.74732971
Na       75.39746857     -4.12540340    -13.40707779
Na      -40.57339478   -211.64091492    -33.36780167
Na      -61.30564880    -71.98155975   -101.90466309
Na      -44.41189575    -13.29707718    -50.81268311
Na       85.23571014      0.66824055     -9.83759212
Na      132.68251038    -36.94411469    112.58128357
Na       47.80953979     20.69753838    112.44792938
Na      -81.78466034     95.38619995     -0.10531171
Na      -10.81760311     23.72711563    -44.25496674
Na     -102.74403381    108.81480408   -278.97933960
Na       47.95294189   -121.56520081    -57.80173492
Na       37.40505600    -50.95407867   -183.76847839
Na     -153.83549500    -24.30981255    -70.96730804
Na       -3.29005527     54.25843811    -64.68340302
Na       -0.24795592     41.50914383   -100.90209198
Na       70.59156036    -44.30456924    -30.34194183
Na     -185.67753601     50.44225693     21.08300400
Na      -27.80957413    -77.50746918      6.32158899
Na      126.64673615    -44.54044342    -87.96627045
Na       23.89297867     78.03843689     74.66603851
Na       23.84027290     -3.43733168    -50.92767334
Na      299.32727051     61.14247513    180.38996887
Na     -265.72369385    173.46893311    -20.36291695
Na      -41.04497528    254.99118042    -27.07630539
Na      159.43197632    -30.23241234    -54.34160233
Na      211.14077759    -54.06055069   -180.74105835
Na       27.36807251    156.17033386    -68.57581329
Na      -53.88588715    102.14888763    -88.40560913
Na       64.89586639    119.19686890      3.40345502
Na       75.20391846    -13.32004261    119.21862030
Na      228.10827637    235.57496643     23.56658363
Na      -89.17358398    -10.36480141    -47.35107040
Na       10.97053623      3.57474589     71.84484863
Na      -40.73416138    101.87384033    -47.68086243
Na      -23.08223343     78.16116333    112.36996460
Na      116.26217651    -75.57256317     51.23313141
Na      -64.18258667    -58.07743073    -23.89022636
Na      -77.75054932    -74.49436951    -30.31897926
Na      -16.84373856     30.37231445    -78.02238464
Na       61.49283600   -112.02276611    -12.66775131
Na     -173.85943604    142.17958069    133.20579529
Na      186.98954773    -37.62740707    -12.69647503
Na      -40.70443344     98.37322235    -34.57456970
Na       26.48294067    -60.88977051     88.42211151
Na      -91.56937408    -39.91785049    -37.47186661
Na      231.17338562     61.37828827    136.02673340
Na     -207.30546570    102.31765747     71.91478729
Na       33.46987915    105.11283875     81.85503387
Na       75.34896088      3.64955950     47.47344971
Na      -95.20306396     19.98644447    -10.19459438
Sn        3.49141502     13.72887325      6.73791122
Sn        3.71367288     27.32880592      6.57639599
Sn       17.31312752     13.22582150      7.00513649
Sn       17.37788582     27.22293282      6.70657063
Sn        2.85745168      0.07198232     20.49229622
Sn        3.63107777     13.58183479     20.33803558
Sn       16.74456024     -0.17121336     20.46064568
Sn       17.04709625     13.46592808     20.53964615
Sn        3.82920623      1.04467618     13.80927563
Sn        3.56531191     13.71847343     13.23500061
Sn       17.20680046     -0.12922731     13.26494789
Sn       16.80515289     13.60202217     13.81426907
Sn        3.50948524     13.31101513     -0.17291190
Sn        3.18981218     27.07436371     -0.16785593
Sn       16.68748474     13.28150272     -0.19861813
Sn       16.63245964     26.96796036     -0.15402196
Sn       10.30364037      6.96637487     20.31562233
Sn       10.13585663     20.64479446     20.67257500
Sn       23.94536018      6.94827366     20.21096611
Sn       24.26089668     19.95599747     19.99918175
Sn       10.09457874      6.86948586      6.90230942
Sn        9.94597530     20.42474747      6.76872778
Sn       23.62328148      7.10442114      6.80171776
Sn       23.44818878     20.26387787      6.54854393
Sn       10.18699074      6.92649078     27.16973305
Sn        9.88867378     20.94754791     27.19307137
Sn       23.77270317      7.38313913     27.09845352
Sn       23.86563683     20.37347984     27.14126968
Sn       10.36243534      6.80647945     14.08970356
Sn       10.58114338     20.43360329     13.41656780
Sn       23.77585411      5.89649820     13.77698803
Sn       23.96952057     20.04462433     13.39745617
Sn       10.09741306      0.11585640     20.08373642
Sn       10.27283764     13.87159538     20.43429375
Sn       23.34062767     -0.00441232     20.47675514
Sn       23.76938057     13.63525391     20.31757927
Sn       10.37513065     13.54954052      6.69628859
Sn       10.53446102     27.08064270      7.17881203
Sn       24.01819229     13.69319916      6.51168299
Sn       24.04613304     27.37339211      7.01227713
Sn        9.97070217     13.51390076     13.32715034
Sn       10.17078304     27.48336792     14.19339466
Sn       23.70317841     13.39802647     13.49093628
Sn       23.91395187     26.71820641     13.65816212
Sn       10.12770081      0.57843125     -0.16866864
Sn       10.14540291     13.57864475      0.29284409
Sn       23.63526535      0.77718806      0.22686216
Sn       23.73120308     13.84918594     -0.07639743
Sn        2.88793182      6.72767115      6.64585209
Sn        2.91340542     20.50131035      6.77378511
Sn       17.21546364      6.91526747      6.71045113
Sn       16.86504555     20.55825424      6.93652773
Sn        3.47893238      6.99141121     20.41551399
Sn        3.73169327     20.24755287     20.48611450
Sn       17.24624634      6.67079449     20.58455467
Sn       17.08095551     20.21204567     20.18545723
Sn        3.10437489      6.93901634      0.14833574
Sn        3.45932984     19.78273010     -0.04101748
Sn       17.03064156      6.50038147      0.13962379
Sn       17.02244377     20.29517365      0.10479328
Sn        3.30585217      7.18289995     13.88909054
Sn        3.28707790     21.15373802     13.87003326
Sn       17.63472748      6.75536251     13.73905087
Sn       17.17489052     21.07610703     13.69172192
S         1.61055946      5.56179953      1.40950668
S         1.89512289     18.55948067      1.22010219
S        15.55695248      4.67005014      1.12259805
S        15.62402725     18.80801201      1.44578695
S         4.98087883      8.86879539     15.02806282
S         4.60895729     22.64138985     15.23611450
S        18.73830986      8.37647915     15.00615025
S        18.64179993     22.39160728     15.22111702
S        11.92645359     12.32660007      8.31158924
S        11.76128960     25.75341415      8.72145653
S        25.57036972     12.15977097      8.17017269
S        25.86718941     26.26271439      7.98624659
S         8.64128208      1.94066167     21.77203941
S         8.03251457     14.60539341     21.34823990
S        21.76361084      1.34659421     21.64540100
S        22.27581024     15.03052521     21.61061668
S         4.50509644      5.31012535     26.08801651
S         5.01406908     18.66173363     25.51869011
S        18.35076332      5.30738354     25.87091064
S        18.30459404     18.57904053     25.63701439
S         2.04438734      8.63696289     12.15218639
S         2.15479159     22.55791855     12.19911098
S        16.14560890      7.95155525     12.27569580
S        15.89166355     22.40929794     12.30915833
S         9.24308014     12.23396397     19.00040054
S         8.33370495     25.93046570     19.36360359
S        22.60452271     12.49653625     18.49337578
S        22.05950546     25.88938332     19.01315117
S        11.77355766      1.44748211      5.81484604
S        11.93475628     14.94295025      5.36090422
S        25.26610374      1.67979538      5.43466139
S        25.74880981     15.45788956      5.53296852
S         8.55887413     12.38619328     14.68671417
S         8.87970734     25.97973824     15.43426704
S        22.20216942     12.24625206     15.20149994
S        22.32952309     25.45947647     15.02003002
S        11.65545177      2.01597023      1.52268088
S        11.41997051     15.19174385      1.46346366
S        24.66629601      2.28035164      1.76367545
S        25.19401932     15.19418716      1.28585911
S         5.10730505      5.51359892     21.60968018
S         5.08143330     18.88929176     21.99045372
S        18.70340538      4.93307495     21.76155281
S        18.60392570     19.03034592     21.42042351
S         1.44073725      7.91266489      8.06283379
S         1.48206866     22.02172661      7.79154396
S        15.20036316      8.05809116      8.14478493
S        15.11052799     21.89785004      8.19358444
S        11.25247288     11.84962463     12.13740349
S        11.70050240     25.99569321     12.85419369
S        25.43130493     12.02757263     12.56784439
S        25.36547279     25.42032433     12.22640514
S         8.75508022      1.76154709     25.68233681
S         8.76315784     14.95006561     25.97783279
S        22.30864906      2.02337980     25.62899780
S        22.41682816     15.21759987     25.54862213
S         1.66825366      5.48749924      5.11247349
S         1.73217380     18.79215622      5.16108799
S        15.33400822      5.55744839      5.07967901
S        15.58544350     19.00871277      5.37792492
S         5.29254103      8.16906166     19.02645493
S         4.96809530     21.64945412     18.92178726
S        18.62885475      8.24428463     19.30144882
S        18.72181129     22.03245735     19.24891090
S        11.70319462      8.32256603     25.89298439
S        11.45388985     22.25594521     25.90820503
S        25.18164635      8.58760357     25.63031578
S        25.15388680     22.07728386     25.99745178
S         8.88955975      5.40326500     12.89588547
S         9.13010883     18.98379898     12.39683151
S        22.50135231      4.56691885     11.95492935
S        22.66753769     18.50390434     12.26976490
S         1.72688305      1.22239876     18.82375717
S         2.29137659     15.19699478     18.96911430
S        15.51413345      1.39841008     18.89898872
S        15.44810009     14.73577404     18.90841866
S         4.74222422     11.96060753      5.60939264
S         5.21445751     25.83869934      5.50564384
S        18.89170837     12.27155209      5.22868347
S        18.48316765     25.53791046      5.45205307
S         9.00257874      8.61616611      1.38900518
S         8.52752399     22.56457901      1.26209843
S        22.16747284      8.36153507      1.46131635
S        23.01649094     21.93220520      1.54532969
S        11.71692085      5.24275970     15.41237926
S        11.92913628     18.86481857     15.01635170
S        25.00192261      4.50693321     15.30445671
S        25.60100555     18.78640366     14.61936474
S         4.95232821      1.68547773      8.07507801
S         5.11017227     15.05013180      7.81780863
S        18.40234566      1.32246614      8.31445885
S        18.67074585     14.67144680      8.65190887
S         1.96000302     12.24165916     21.42707253
S         1.78365755     25.93093872     21.97798538
S        15.47885132     12.05779076     21.77681351
S        15.37053394     25.79096794     21.73142624
S         5.41460371      1.83807051     12.46106243
S         4.81882858     15.46193504     11.98671627
S        18.66320801      1.36928093     12.09273434
S        18.15796852     15.17888069     12.31210995
S         1.96656251     12.50955582     25.42484474
S         2.02793407     25.40545082     25.72790146
S        15.25487328     12.01312065     25.77143097
S        15.45029354     25.71298027     25.56720352
S         8.52649593      8.29760838      5.90987349
S         8.47723389     21.97276688      5.46501160
S        22.26774597      8.52750778      5.19329214
S        22.32530975     22.03538322      5.40576267
S        11.88583469      5.71641731     18.90160561
S        11.68494701     18.93734741     19.51444626
S        25.68969917      5.54976225     18.92107964
S        26.16922379     19.06797028     18.95526123
S         2.06679487      2.34110332     14.86114693
S         2.42053366     15.23707867     14.82676888
S        15.68786716      1.11622715     14.73186398
S        15.85114098     15.48255062     14.96888161
S         4.47681618     11.60732460      1.51038909
S         4.53262615     25.46754646      1.27336192
S        18.48837280     12.05457115      1.52120674
S        18.22514534     25.15291023      1.10080171
S        11.68303299      8.46110249     21.72099304
S        11.80989075     21.70244026     22.22220230
S        25.43007088      8.21351051     21.89041328
S        25.43248367     21.89140701     21.55318832
S         8.58069706      5.69480419      8.58545208
S         8.88517857     18.83749390      8.12353706
S        22.52198410      5.67795372      8.26428509
S        22.03876877     18.48904228      7.23861504
S         1.82367015      1.18489206      1.31648517
S         2.32460856     14.46487045      1.40401042
S        15.78616428      1.30042052      1.45527625
S        15.70066261     14.54806614      1.72053111
S         5.14972639     12.41268253     14.67290401
S         4.99378967     26.72102165     15.55323505
S        18.74318886     12.31182003     14.52274227
S        18.45797157     25.82168198     15.04126835
S         2.32937193     12.55704975      8.44857979
S         2.34913802     25.96542168      8.24557781
S        15.57232094     12.23328018      8.63812542
S        15.72282219     25.99217606      8.08411312
S         4.61138678      1.41930366     21.90431404
S         4.64344501     14.77668762     22.12301445
S        18.08111572      1.48266542     21.59796143
S        18.46967697     15.03417969     21.74475670
S         4.95842075      1.36656380     25.68628883
S         4.99263239     14.87654209     25.90518761
S        18.29084969      0.83534849     25.37862396
S        18.11384773     14.76551151     25.81849670
S         2.06947303     12.29250813     11.87714291
S         2.41009045     26.76328850     12.45596218
S        15.08315754     12.16696930     12.73291016
S        15.46958160     26.01631927     12.01060295
S         4.52885246     12.07891750     18.86923981
S         4.38930368     25.71436882     19.52627945
S        18.31548691     12.47798729     18.85841560
S        18.18999481     25.79093361     19.00460815
S         2.70156026      1.41795731      4.96455908
S         2.08872628     14.98327827      5.24863529
S        16.01493454      1.20280612      5.29197264
S        16.14813614     14.82822037      5.72125816
S         8.96036530      8.41436958     15.42309666
S         9.12327766     21.83340454     14.95020294
S        22.36087227      7.50432777     14.91733837
S        22.68339920     21.45244598     14.97367382
S        11.55034065      5.61072159      1.40701675
S        10.91467571     19.58139420      1.67108691
S        25.27501106      5.90054035      1.40321648
S        25.25201988     19.07737541      1.46867788
S         9.27304554      5.41788673     21.92541122
S         8.65861607     19.19419098     22.24130249
S        22.83822823      5.46867800     21.79213905
S        23.14477348     18.52111626     21.60194969
S        11.39565849      8.34293842      8.36575031
S        11.42153454     21.88436317      7.94564581
S        24.49521637      8.54702663      8.73961544
S        24.54851532     21.53129768      8.63737965
S        11.77512360      7.64382505     12.33242512
S        11.92689610     22.12112236     12.23877716
S        25.35644531      7.28488398     12.31333065
S        25.65756035     21.13964653     11.86032486
S         8.67688465      5.44267416     26.06797409
S         8.70741463     19.27088356     25.87121201
S        22.48592949      5.85900736     25.72812653
S        22.57955742     18.78001976     25.82851982
S        11.16570663      5.29957819      5.29247713
S        11.38615036     19.10756683      5.52551556
S        24.62789726      5.59726572      5.29877758
S        25.14141083     19.04238319      5.36914396
S         8.79637051      8.11639881     18.76040077
S         8.66952038     22.05632591     19.41903687
S        22.75843620      8.20595837     18.72429466
S        22.85073471     21.39393997     18.64170647
S        11.65600681     12.25234985     26.01578140
S        11.71539497     26.09489441     26.23867989
S        25.05702209     12.45055771     25.68925095
S        25.48344421     26.47678947     26.50976753
S         8.82532501      1.31916869     12.38763046
S         8.87633133     14.88232136     11.83106327
S        22.79420471      0.88555455     12.03469753
S        22.31404305     14.82859612     11.94622612
S        11.58089828      1.34671402     18.54412270
S        11.58687496     15.41333580     19.23565865
S        25.04228210      1.14547956     19.13352585
S        25.45327187     14.95440674     19.11342049
S         8.80186558     12.18437862      5.70089102
S         8.91023254     26.01968384      5.68944740
S        22.50472260     12.27770233      5.56568384
S        22.91496086     25.72022438      5.68453121
S         8.68571854     12.45918179      1.84993804
S         8.65535355     26.68635750      1.57613742
S        22.32664490     12.51807117      1.58622503
S        22.10816956     26.52778435      1.51742291
S        11.94843864      1.52277422     15.10806370
S        11.58543301     14.39923191     15.04105854
S        25.17638588      1.06618881     14.72373009
S        25.29923820     14.93646145     14.82845211
S         9.20075226      1.39600611      8.56021118
S         9.14385223     15.20151329      7.89653349
S        22.74156570      1.36201978      8.63751888
S        22.84066200     14.84550190      8.41316795
S        11.61291599     12.32720566     22.05094719
S        11.45664978     26.00909615     21.70236015
S        25.12244034     12.29050446     21.80514145
S        25.25070572     26.10321045     22.01851845
S         4.91014528      6.35142326     12.18542767
S         4.55421495     19.75078392     12.32874107
S        18.59472275      5.29661608     12.07160568
S        18.36962891     19.48539352     12.26692104
S         2.17307162      8.26245117     25.46146202
S         2.15288949     21.36502457     25.73045158
S        15.58391666      7.79547215     25.92842674
S        15.48561859     21.37609291     25.95157814
S         4.16326237      8.01010990      5.20421934
S         4.37774420     21.90679359      5.48284340
S        18.60366821      8.41809273      5.36788654
S        18.33025932     21.68903732      5.45568848
S         2.08638692      5.86572838     18.94272423
S         2.35170269     18.72520638     19.06431580
S        15.97603035      5.57499266     18.90596390
S        16.04391479     18.86768150     18.65015984
S         1.95844865      6.06160164     15.48773956
S         2.21530843     18.92803383     14.99881554
S        15.75519180      5.81435347     15.08095264
S        15.56449890     19.57138824     15.00160122
S         4.75465918      8.01982880      1.58059013
S         4.82830238     21.37073517      1.24239290
S        18.32311249      7.92902374      1.49045515
S        18.61626625     21.71007347      1.17905855
S         2.50507522      8.76756382     21.70147324
S         2.35273886     22.19343567     21.73418427
S        15.93587685      8.09187508     22.03516579
S        15.85444832     21.64925766     21.94919205
S         4.27657795      5.61664581      8.28730965
S         4.31087494     19.02881622      8.30476856
S        18.12442589      5.16153097      7.98021317
S        18.20547676     18.79880905      8.14845753
S         1.35067880      2.54006505      9.13108158
P        -0.03779550      3.62502503     10.10320759
S        -1.22664583      4.83622980      8.96766186
S        -0.97688067      2.25182867     11.37056446
S         1.22427166      4.85859680     11.29696941
S         1.30721545     16.15424156      8.86931419
P        -0.00784644     17.26722336     10.25655651
S        -1.11813521     18.31231880      8.91147041
S        -0.98122209     15.97382450     11.42144203
S         1.13463628     18.47906685     11.41591930
P        13.66541004      3.58877277     10.12283897
S        15.07456017      2.70526361      9.00930786
S        12.34456158      4.53245449      9.11171818
S        12.36717033      2.45766640     11.31821537
S        14.95893288      4.82635498     11.30807114
S        14.87449169     16.18757820      8.97840309
P        13.57699108     17.20465279     10.20628834
S        12.46887302     18.33588409      8.89615536
S        12.65732002     15.93941689     11.37191486
S        14.82994938     18.51701355     11.42022896
S         8.19560528      9.08370399     22.71670532
P         6.83830452     10.11190319     23.90439606
S         5.63062954     11.55388260     22.97471809
S         5.80903387      8.81499195     25.07899094
S         7.99354649     11.44489193     24.96053123
S         8.00863647     22.80263329     22.51018715
S         5.72589064     24.86001587     22.89984131
P         6.91917562     23.73563766     23.83264923
S         5.74423981     22.54230690     25.12333488
S         8.07193089     25.14307976     25.26688576
S        21.76787186      9.20885849     22.59833717
P        20.49592972     10.21334839     23.91365814
S        19.18535614     11.29110241     22.85380363
S        19.40670013      9.01110554     25.11634445
S        21.68671417     11.28841114     25.15351295
S        21.74850082     22.63908386     22.72622299
P        20.29938889     23.75180626     23.87612343
S        19.28031349     25.24506950     22.85794640
S        19.62445259     22.41824341     25.10651207
S        21.58322906     25.03001976     25.06757164
S        26.27201653     11.08271408     18.33053398
S        28.53812027      8.80329895     18.21565056
S        28.80437469     11.34663963     15.95422173
P        27.43701744      9.94472885     16.95327377
S        26.09411240      8.92055607     15.83527756
S        26.42411041     24.81376648     18.00041771
S        28.50688171     22.13479042     18.19973755
S        28.46714592     25.08381653     16.06993866
P        27.52579689     23.57551956     17.07079506
S        26.22472382     22.56458473     15.95206547
S        12.50643063     11.13797569     18.18803024
S        15.01773643      8.61146545     18.14582634
P        13.95845413     10.08437920     17.17091560
S        14.94198799     11.14146328     15.90593243
S        12.65166569      9.12740612     15.88566113
S        12.41205406     24.88755989     18.34026146
S        15.06379795     22.21838379     18.02076340
S        15.15118790     24.78773308     15.90295029
P        13.76386070     23.69071960     17.13491058
S        12.67875195     22.59200287     15.89625168
S         5.24705982      4.47109604      4.52975512
S         8.01492882      2.31972027      4.71548891
S         7.93988752      4.57355976      2.35202456
P         6.68492794      3.26805472      3.41683698
S         5.60450888      1.87742305      2.24067998
S         5.34006310     18.08286667      4.44132805
S         8.03072262     15.98351860      4.70878839
S         7.85121250     18.15530014      2.41639638
S         5.63180590     15.57857037      2.23617315
P         6.63583899     16.78010368      3.45334148
S        19.05377388      4.34168673      4.51594067
S        21.52820778      2.38912392      4.84041548
S        21.44343948      4.54802799      2.29355168
P        20.26193428      3.21887946      3.39268041
S        19.27666664      2.01046205      2.21137476
S        19.08695030     18.03895378      4.52014494
S        21.45109940     15.91529083      4.85983419
S        21.40320587     18.30288315      2.23575282
P        20.31305885     16.77425385      3.41671753
S        19.31144714     15.54877663      2.22233105
S         5.64531851      2.17643452     18.00666237
P         6.89779806      3.63327670     16.89608574
S         8.17427254      4.71342230     18.04082680
S         8.01790237      2.09671426     15.93672562
S         5.42849874      4.68896484     15.97914791
S         5.82582331     15.88276100     18.28905106
P         6.79093409     17.19282150     17.09162521
S         8.09415436     18.15772629     18.25778008
S         7.87103081     15.93073368     15.65818119
S         5.57820988     18.21688461     15.56946373
P        20.45831490      3.40451789     16.96140099
S        19.30940628      2.25611830     18.27593422
S        21.63991737      4.72302866     18.16172409
S        21.58721161      2.21983171     15.65525913
S        19.24108887      4.69753075     15.80735207
S        19.45110321     15.81726456     18.28132248
P        20.49442863     17.08595467     16.95819283
S        21.53306580     18.34387779     18.20952415
S        21.46303368     15.75867748     15.66542816
S        19.29553795     18.37151909     15.74709320
S        25.95981026      9.06841278      4.57112122
P        27.27439117     10.18281174      3.23590326
S        28.84987259     11.20286655      4.60548258
S        28.41106606      8.75371552      2.38265896
S        25.94128609     11.42031288      2.37898540
S        26.00765991     22.66008759      4.81701612
S        28.66137314     24.75795555      4.57806635
P        27.22630882     23.77243614      3.49458241
S        28.36880112     22.49289703      2.12667584
S        26.17064476     25.01788139      2.16661429
S        12.53783989      8.96131420      4.75497341
P        13.65402985     10.13100338      3.51110792
S        14.85877800     11.33790779      4.59573460
S        14.58642578      8.70040226      2.08621240
S        12.72516918     11.49572754      2.23548937
S        15.20914364     24.76353645      4.56618309
S        12.45250225     22.64843369      4.56391144
P        13.60115433     23.77053070      3.47594738
S        14.73228741     22.43862343      2.37064672
S        12.36535358     25.08006668      2.20563245
P         6.53842592     10.20193577     10.19513798
S         7.77094269     11.15360260      8.86017895
S         5.11390162      9.21534634      8.83023930
S         5.62471199     11.57883644     11.33245754
S         7.98281097      9.04948330     11.21755981
P         6.64520311     23.74655914     10.01916981
S         7.78858280     24.95226288      8.77082634
S         5.17933655     22.79214287      8.98027134
S         5.68326855     25.12294006     11.37310982
S         7.73803568     22.65690994     11.28620815
S        21.40812683     11.25792599      8.66039658
S        18.91560364      9.26735306      9.05814934
S        19.07289505     11.57605362     11.36803150
P        20.18836784     10.35314274     10.04860783
S        21.52099609      8.74987602     11.29540253
S        21.56318283     25.09908485      8.79012012
P        20.24489403     23.89807892     10.10848522
S        18.75907516     22.63863182      9.17381382
S        19.13863754     25.25727654     11.23867130
S        21.40211678     22.38290024     11.12153339
S        15.02460957      4.52319098     22.67143059
S        12.26100540      2.18044400     22.93592453
S        12.43353367      4.80049801     24.97686005
P        13.60222340      3.46229291     23.93915367
S        14.69484997      2.10509181     24.89325523
S        14.84747410     18.00711060     22.57949829
S        12.26547718     15.90985775     22.64487839
S        12.56204033     18.31133652     25.09899330
P        13.58894062     17.09628105     23.91744423
S        14.75183678     15.82158279     25.17506790
S         1.24060369      4.40201664     22.83726311
S        -1.34515882      2.31149077     22.87030029
S        -1.18985128      4.87781048     24.82188416
S         1.34401536      1.99575114     24.95631981
P        -0.11072614      3.48522878     23.93056488
S         1.21095073     18.12483406     22.58750534
S        -1.28406358     15.85217094     22.71236229
S        -1.06647229     18.46703720     25.05255699
S         1.10762620     15.70070553     25.11130142
P        -0.02628457     16.99807739     23.95338249
