832

Na      102.15280151    -91.09748077    -40.65039444
Na      -34.16321564     54.79109192     -7.42358112
Na      -77.80236053    166.98104858    -58.07963562
Na       13.62132454     -3.37344670     34.11761475
Na       40.63634109    -40.13919067    -19.39477730
Na      115.23381805    -13.99083328     20.50772095
Na        3.44678950     60.92942047    -51.34106064
Na        7.05012274     68.03063965     54.56945419
Na        0.28949347    -17.74251366     40.46941376
Na     -179.91667175     10.14741135    -81.68723297
Na      -61.37768936     61.05829239     30.53270912
Na       54.18863297    -51.32193756    102.25656128
Na       -3.04502678     24.23337173     26.96423531
Na      -78.79096222    -17.01513290     78.41492462
Na      -30.20243645    -33.85964584     71.42696381
Na       91.98236847     78.65007019    -26.82687187
Na       70.82199860    -98.20384216     92.07727051
Na       27.57720947     74.16834259     57.68370819
Na       41.29634857    -54.29538727     16.84698296
Na       30.00347710     16.59626961     57.55392075
Na       30.73221207    -10.66530609    -57.32280731
Na      -33.78390121    -27.38603783    -64.99244690
Na      -20.66048431    -37.39770126     13.73048306
Na       78.83904266     -6.93919277     -3.42594981
Na      -31.03669357      3.66584134     60.71900558
Na        0.47742146    -30.89929199     74.85516357
Na       92.02022552     10.99032116      3.71220374
Na      -71.78057098     84.82518768     60.64947891
Na       30.42580414     -0.07597976    -37.27439880
Na       54.72660828     26.73149300     13.85305691
Na       30.07974243     85.04906464     47.10822296
Na        9.99969482     16.78156090    -40.42282486
Na       41.77060318    -88.38756561    -57.92822647
Na      -17.26745987     13.93201447    -50.53773499
Na      -23.25180054      3.61006761     88.26718903
Na       54.28268051     30.79775810     13.43582344
Na      -10.09766388    -33.80323029     17.01259613
Na       -3.00005126     71.02098083      3.50168276
Na      108.96913910    -10.36496258     54.52219772
Na      -81.49966431     75.32035828     78.05395508
Na       37.49754333    -44.05931091    -44.31259537
Na       65.71384430      9.97681808     74.77667999
Na       17.21140289    132.10086060     85.87066650
Na        0.59838700   -109.25959778      9.81518459
Na        7.05529404     68.17153168      7.73718548
Na       13.76965904     39.96432114     68.50356293
Na       30.02452469     24.25145340    -44.73172760
Na      110.84972382    -40.71859360     16.91404915
Na       81.19705963      0.80438781    -51.36132812
Na       47.61836624      7.27412510     98.69537354
Na      -16.24004936    -30.33567238      6.14086962
Na      102.64625549     20.17635918     19.82101059
Na       -4.11090660     61.99707794      9.79727268
Na      -94.87056732     35.11570740     13.77649212
Na       51.06018066    -16.79419518     64.82561493
Na     -116.02148438     67.39122009     99.09086609
Na      -89.98503113     65.49279785     20.22466469
Na       27.12543488    -20.46291924    -70.79074860
Na       67.92646027    -27.37716103     20.92584610
Na       40.75695419      3.23683715    -26.91710663
Na      -51.18268967     71.51152802     34.41385269
Na       47.03620911     64.34458923     58.31171417
Na      -45.00373459     33.87690735    -65.10224152
Na       -9.57707977    -47.27810669    -30.32070923
Na        9.87272263    -24.00499535     -7.61289835
Na       37.69647598    -37.04698944    -23.71168518
Na      105.87306213     61.40373611     16.90812683
Na       33.99124146     53.95900726    -74.25024414
Na       44.06678391     58.03546143   -146.44519043
Na      131.99177551     51.39307785     -6.75418329
Na       67.89348602     26.93560791     37.16187286
Na       54.53626251    -41.91829300     64.37533569
Na      -20.72668839    -23.61508942     20.76995468
Na      -54.15938187    -20.20220947    -81.52678680
Na      -67.78773499    -75.41073608     44.37197113
Na       27.37928391     73.34526825    -38.00807571
Na       10.95319271     91.79228210     50.72763443
Na      -78.37653351     -2.78906393     60.57629776
Na       41.00773621    -20.63578606    -26.77934265
Na      -11.58585739    132.94654846     10.32311821
Na      -54.64535141     10.52033043    -20.25019455
Na       -2.83619118     40.85995483     92.64765930
Na       -0.49122825    -24.78607178     61.56093979
Na      -44.66787720     78.12387085    -95.54046631
Na       47.77670670     54.66018677     37.69762802
Na      -18.49314690     -0.42142224     37.58229065
Na       43.60870743    111.98943329    -27.48984337
Na        3.13473392    -43.96044159     10.68548489
Na      -43.97214890     44.10171890     -6.34578419
Na       54.81563187    -13.83038330     54.57363892
Na      -78.01630402    -68.02054596    -43.93820572
Na      -44.62312317     51.04539490      3.08251119
Na      -30.60657692    -44.43974686     88.25955963
Na       47.73491287     48.54921341    -10.37214470
Na       74.98576355    -10.52559471    -47.12559891
Na       43.61287689     37.42090988     33.85683823
Na       47.52994156     85.47107697     75.16320801
Na      -13.78078365     47.29505539     71.17839813
Na       43.12095642     68.39530945     37.39251328
Na       23.53494835    119.61492920     26.84393692
Na        9.94034576    -44.14066315     17.19771957
Na      -50.93368149     54.57784653    -78.23609924
Na      -16.29012108     -6.71381617    -30.58547211
Na       30.80561256     23.70742416    -27.44182587
Na      142.25329590    -87.52189636     30.62517548
Na      -33.51184082    116.43565369    -61.27470016
Na       -3.15213418     44.06829834     34.69498062
Na       67.75402069    115.04590607      3.68713760
Na       33.29526520    115.83185577    -58.43701935
Na      -17.09135437     47.00566101    125.63297272
Na       24.08592415    -44.04998398     -9.76518822
Na       67.90369415     47.14438629     40.38042450
Na      -47.99433899    122.52238464    122.37513733
Na      -47.52071762    102.20400238    -95.42123413
Na       30.96752167     72.10074615     41.35975266
Na      -91.92771912    -20.29036713     37.54964066
Na      -50.85490036    -64.30875397     75.07199860
Na       33.31496429     12.64402580    -36.97819901
Na      -50.65684509     16.78918648    -98.30076599
Na       30.68576050     57.95321655    -13.69432926
Na      -10.18499374     -9.85254955     64.98552704
Na       -6.59717846     27.08627510    -23.76333427
Na      170.03369141    -85.12973022      6.65921307
Na       71.90385437    167.13133240     74.29220581
Na       -0.13463138      7.01073742     88.12274170
Na       34.47683716      0.05515220      3.29189038
Na       10.82070923     68.22000885   -139.54614258
Na       88.49063110     27.02720070     -9.92813778
Na      -20.41879272    -47.38624573    -36.76851654
Na      -17.58579254     43.98923111    -30.51359749
Na      193.68594360     57.82793045    -54.93278503
Na      -17.63446236     88.76918793    -44.15703201
Na       -0.69173646     44.13352585     19.93994904
Na       98.92928314      0.05135191     16.26302147
Na       54.80961990     -9.33531666     61.29611969
Na       71.39937592     44.71856689     -6.93033028
Na       78.58445740     57.52880859    152.97073364
Na      -33.43265533     13.83589363    -51.05583191
Na       74.80078125    -99.28827667    -47.59651184
Na       74.24598694     23.68356705     40.66679764
Na        7.31070328    -33.63127899     16.91541290
Na       -0.46146512    -50.79497147     27.33191299
Na      -36.19618988    -30.47831154     -6.26459169
Na       86.36370087     74.82251740     23.79734802
Na      -30.68744278    105.57830048    -17.57412910
Na      -28.07597542     40.92397308     51.10374069
Na       67.53809357    -58.05600357     67.26303101
Na      105.35363770     10.18774414     48.65280533
Na       67.82160187     61.58673096    -20.45911980
Na       20.63805962    -85.12271118    -20.79834938
Na       -9.76043510     85.33267212     -3.44779444
Na       84.57553864     64.46010590    -61.25103760
Na       30.91909981     30.96136093    118.69316864
Na        6.42364025      6.75684309      3.56688595
Na        6.39658785    -87.86491394     54.21759033
Na      -23.88056755     20.64183617     64.49716949
Na       36.72892761    -47.65639877     77.75209045
Na        2.66671515     13.60035515    105.68061066
Na       92.06512451     31.46178055    -57.58573914
Na       67.93434906     30.94670486     33.85757446
Na      105.59022522    -58.23008347     33.79404449
Na      -19.68677330    184.30665588     20.67550278
Na       26.99249840    -68.59970093    -67.35977936
Na        3.29529405     98.70142365    -64.56122589
Na       68.54550934    140.31349182     68.32017517
Na      -54.60961533     14.14402390     57.98369598
Na      -50.59122849     71.16184998   -163.09672546
Na       81.82343292     88.41052246    -58.03745651
Na       23.84494972    -19.69024467    -58.23519897
Na      -13.51270103     47.73854065    -47.53268433
Na      161.04032898     54.76337051     64.76222229
Na      -85.26843262    -37.97518921    -68.63511658
Na      -43.68905640    -37.52518463     -9.99775696
Na       27.15310860    -36.98053741    -13.60408211
Na       81.92313385     -3.39025307    -13.30158234
Na      -43.98019028     98.66307831     37.92508316
Na      -43.40498734    -36.92991257     54.53206635
Na      -71.60262299     -3.42764711    -57.59805679
Na       40.20481110     37.52767181    -19.96013451
Na      -41.96253586    108.53250122     24.00041580
Na      -26.98204994    -74.81832123    101.72429657
Na      -57.42533493    -47.08180237     58.06896210
Na     -101.98246002     46.71920776     64.91907501
Na       44.09077454     63.22407913    -10.66545296
Na      101.91812134   -108.47890472    109.33792114
Na     -146.33200073   -146.70060730     61.83811569
Na       74.58448792    106.04242706     26.74121857
Na      -51.26053619     51.26074982     50.37744522
Na       -3.90702128     -3.65167403    -23.83402443
Na       60.91677094    -17.36371994     48.08774185
Na      -13.66092396    -65.45342255    -40.59080887
Na      -70.99485779    -78.51589203     13.22345352
Na       81.78474426     33.67852783    -23.84897995
Na      -17.23983765     84.69696808    -17.24323463
Na       91.81333160     -3.17068648     19.78792191
Na      102.16240692     47.77270508     -3.90546799
Na      -34.11310959    -14.07017040     54.81054688
Na        0.30789062     33.62064743    -10.35690498
Na       85.44457245    -58.66668701     44.36149216
Na       44.14532471    -57.63236618    -13.24227142
Na       33.99803925    -74.88860321     95.32643890
Na      -54.38945389     -6.76518440    109.16989899
Na      -61.01998138     -6.41751528     68.12263489
Na       51.36328506    -23.41045570     84.54416656
Na       50.83000946    -50.67223358    -17.67711449
Na      -50.79191971     27.12738419    -57.43609619
Na       88.58377075     37.44178009    -49.26686859
Na     -142.74746704     91.65233612     27.33314705
Na       67.80449677   -129.15716553     37.10808945
Na       44.13952255     66.92664337      3.52782798
Na      -84.97025299     19.61575890    -71.22135162
Na      101.60752106    122.68150330     -3.17143941
Na       -6.58018923     47.69339371    -23.99296570
Na        0.09303761     54.05940247    -58.47824478
Na       -4.48034525     40.32145691     78.05730438
Na     -118.67794037     77.75283051     44.44043350
Na       21.17361069     34.23926544     13.09526253
Na        3.99103475    -16.89716148    -37.98770523
Na      -71.48009491    -81.76163483    -91.86562347
Na       71.99078369      3.85617089    -70.99701691
Na       34.31414032    -48.14631653    -98.30781555
Na      -74.92168427     33.18783188     27.57909584
Na       19.87076187     95.38868713    -16.50639725
Na       74.65119934    -13.44359016    -34.23373032
Na      -27.55482864    -33.38957596     91.71504974
Na      -71.25386810     91.93863678     13.81933403
Na       71.66839600     50.62157440     27.65652275
Na       71.40688324    -65.80877686     85.04482269
Na      -14.26025772    -13.51843548     -6.15427208
Na        7.05450630    -44.00886917    -13.83746052
Na       98.79579926    -62.19448853    -23.72907066
Na       33.56892014     40.93408203    -85.41628265
Na      -38.02540970     27.41713333     10.02137661
Na       47.99755859     37.56896210    -13.34292412
Na       60.95896149     51.05286026     13.50305843
Na      -31.15791321     31.36996078    101.61611938
Na       -6.75701809    -27.36433411      6.92035913
Na      136.01312256     23.53313637     61.66827393
Na       47.47574234     34.30067444     10.09578514
Na      -54.61404419    -43.71289062    -60.83140945
Na     -116.16940308     55.30667877    -30.51694870
Na       10.39326572    -20.62237358     30.74863625
Na       10.07839489    -17.17495918   -129.26469421
Na       71.24179077    -31.23221397     24.48697662
Na      -67.48852539     27.89772034     67.67851257
Na      -44.05232239     72.13844299     34.94066238
Na       17.25042343      3.36969876     33.81174469
Na      -33.55770111     44.94121552    -33.46972656
Na      -51.53598404    -51.42918015    -37.47423935
Na       61.36689377    -64.56735992    -88.47206879
Na      105.36468506   -132.08781433    -54.39330292
Na       34.95137024     74.44907379    -85.19998932
Na       84.61963654   -142.50849915     30.36670303
Na      115.10298157     82.04686737     47.60997009
Na       84.95619202     57.74065018    -51.82394028
Na      152.98152161    -27.38477898     50.85398865
Na       10.20109177     23.07263756    -37.56127548
Na       -6.89446068     33.82173538    -81.81585693
Na       -3.18707705    -57.50796127    -57.74396515
Na       47.94570160      3.79095221     13.80991840
Na       30.93802261      0.31460512     37.35338974
Na      -10.68056583     67.95761108    125.57476807
Na       94.80776978    -13.01499653     -9.74427986
Na      177.41712952    -27.26757622    -50.14283752
Na       -2.98439264     23.08437729    -69.07456970
Na      -13.34691143   -116.07061768    -23.55027008
Na      -47.46757507     -3.15313172    -53.69075394
Na       44.73792648     31.11528969    123.01344299
Na       30.81223297     -3.31920505    -67.95822906
Na      -26.86393356     95.83113861    143.58714294
Na      -17.46121597    112.42520905      0.47647560
Na        9.31415272    149.65032959     37.47753525
Na        0.30529588    -27.72351646    -21.34678650
Na      -81.17927551     75.03514099     -7.15152931
Na        3.40471554     34.54295349    -44.91316223
Na       95.64444733     10.76537991    109.06032562
Na        6.78363752     27.47126389     41.30727005
Na      -13.18464565    -30.55284882     47.65484238
Na      112.43809509      9.99964905     29.97370720
Na      -13.63186836    -40.43938446    -27.44788551
Na      102.52684021      0.28400782    -13.51974392
Na       16.74040031     77.98100281    -20.47371483
Na      -11.87690830   -152.89126587    156.28309631
Na       47.83238220     16.61937714     54.31648636
Na      102.59508514     30.91116333     -0.66023946
Na     -139.57646179     98.66506958    -36.92573166
Na      116.29344940     57.32923889    -20.08846664
Na       51.16040802    -98.20384979    -23.65580177
Na       51.29804993    -10.06376839     81.45823669
Na      -24.27988625     34.06459045    -10.38069344
Na      113.07823944    -40.89745331     31.01436234
Na        7.36389923     -6.99348831     33.96780014
Na      -19.77522850    -78.14373016     13.50203228
Na      -22.74425125     78.36418152    -33.74750137
Na      -27.75073624     40.93011475     -7.41305637
Na       54.44191742    109.28956604     26.85542297
Na      -99.48758698     74.50537109     30.77422523
Na      -13.58658218     22.87087250    109.01455688
Na       47.46830368    101.73389435     60.90237045
Na       33.96262360    125.76892090      7.00233126
Na      -54.17291260    -71.49029541    -27.68637276
Na      -54.28565216     -6.20843983    -75.26979828
Na      -10.13095379    -21.18833542     57.44467545
Na        0.25295958     23.67137527     54.38104248
Na      116.63806152     16.81236649    -81.54718781
Na      -10.07120895     37.47592926     50.42843246
Na      -85.32451630    -22.81325531     50.93955231
Na       16.26758385     44.46155548    -37.14752197
Na       40.34460068     41.46063995     84.79771423
Na      -13.39714909     19.47378922     48.07915115
Na     -122.10482025    -48.03493500     47.79536438
Na       68.32419586    115.96800995    -30.55346680
Na       17.30086899    -80.92210388     30.65617371
Na       74.53878021    -48.13642502    -20.44571304
Na       -3.45388126    -27.51413155     44.23151398
Na       17.05285263    119.50977325     13.54516697
Na       44.00782013    -17.47441673      0.29395157
Na      -43.83345795     27.36994553     57.71226120
Na      132.43547058     16.46950912     51.15646744
Na      -29.77977753     64.31797028    -39.95299530
Na     -139.15867615    -68.34555817     44.19067001
Na       14.19319344     43.74335480    -21.40452766
Na       40.67828369     30.19999504    102.28264618
Na      -78.24236298    119.30473328      6.90690565
Na      -54.29142380     -6.38921642     13.73404694
Na      -20.55177116     58.00674438     80.99030304
Na      -20.22603416     10.03819656      0.15613340
Na       17.19348526     43.95769882     -0.71402895
Na      -23.31431580    -44.53152466    -54.37642670
Na       90.58425903     13.71157265     43.96523285
Na      -67.40094757     46.17459488      0.12400991
Na       -3.21507764    111.98118591     13.66958237
Na       54.72653580     81.78701782    -37.57168579
Na      -34.20987701     13.88413715    -12.89344215
Na       -7.63495398     -6.71807289     64.73500824
Na       20.18738937    129.18066406     53.94515610
Na       17.23358345    -64.36474609     50.72978592
Na       24.21377945     19.89902306    -78.49269104
Na       24.09882164    -53.82225037     50.91344833
Na      -40.81871033    102.55580139    -44.45957184
Na       -0.11460657     -0.01882884    -61.53397751
Na       65.98260498     30.55854607    -10.63028812
Na       -6.93971252    -41.24729538     34.76771545
Na      116.05085754    -19.68124580     34.45243454
Na       -3.92771173    105.09809113    -37.99420929
Na      -37.75310898    -13.33713818     -3.23196459
Na       64.78868103    -58.45470047    -44.52811813
Na       14.06873512     54.01301575    109.06233215
Na      -37.24960327     17.05553055    -67.44400024
Na      -46.87161255     27.40127182     77.89336395
Na        6.90152645     26.83902168     -0.17021950
Na       -3.10063291    -27.34110641     57.67741013
Sn        3.85330033     13.79710102      7.02637863
Sn        3.64420962     27.60780907      6.48376656
Sn       16.90259552     13.15292358      7.26844740
Sn       17.21481514     26.98900795      6.77017879
Sn        3.20022249     -0.24462181     20.49570847
Sn        2.98624802     13.72200871     20.38582420
Sn       16.73002052     -0.01674002     20.16924477
Sn       16.39302444     13.68433285     20.40579414
Sn        3.57798076     -0.10015419     13.56713295
Sn        3.06410861     13.61550140     13.58767605
Sn       17.43399620      0.36286449     13.22154999
Sn       17.06099319     13.83143616     13.67759991
Sn        3.64404893     13.41195393      0.19761179
Sn        3.34729671     27.22001648      0.10077043
Sn       17.32078743     13.38937473      0.63133234
Sn       17.09340477     26.82844734      0.06424128
Sn       10.68741989      6.68579626     20.13184357
Sn       10.77258682     20.31975555     20.27937698
Sn       24.28637505      7.09929037     20.36104774
Sn       24.15402794     20.36368942     20.31356812
Sn        9.99960041      7.00404930      6.62367821
Sn       10.32397842     20.79961395      6.82616377
Sn       23.46872520      6.64786720      6.68701553
Sn       24.07210159     20.23915863      6.59962273
Sn       10.29239750      6.88894653     27.02463531
Sn       10.17687702     20.64262581     27.32359314
Sn       23.95262146      7.40460682     27.41680908
Sn       24.15159035     20.68419266     27.12302971
Sn       10.59303951      6.94869995     13.65799046
Sn       10.17078495     20.18537331     13.70193672
Sn       24.04014206      6.18267441     13.47358990
Sn       23.69303322     19.63016701     13.83663273
Sn        9.94753170      0.04585078     20.35750580
Sn        9.60881710     13.39028168     20.25990105
Sn       23.57142067      0.23877220     20.41403770
Sn       23.34602356     13.64819908     20.51501465
Sn       10.65914154     13.58657742      6.79278135
Sn       10.54451370     27.15725899      6.90352774
Sn       23.78031921     13.73587132      6.75717163
Sn       24.07621765     27.07770348      6.59408045
Sn       10.16412830     13.58212471     13.42409611
Sn       10.08734608     27.20991898     13.39549923
Sn       23.77530289     13.03941536     13.81162262
Sn       23.98308754     26.33710670     13.35367298
Sn       10.29656124      0.02371851     -0.42150682
Sn       10.24634552     13.68278027      0.12870665
Sn       23.66730309      0.55154592     -0.14245367
Sn       24.29585266     13.71882439      0.16631737
Sn        3.11429214      7.18094873      6.51088572
Sn        3.50338674     20.64553452      6.84427547
Sn       16.69635391      6.72933102      6.72140694
Sn       17.21461296     20.36461830      7.07578325
Sn        3.81217957      6.83529854     20.09447098
Sn        4.08097982     20.70221901     20.04723358
Sn       17.52264214      6.91987753     20.06491089
Sn       17.12431335     20.69641685     20.31500435
Sn        3.61257219      6.82986689     -0.13939120
Sn        3.29907537     20.25633812     -0.30485371
Sn       17.20026970      6.29619646      0.03122695
Sn       17.21492195     19.63575935     -0.08843900
Sn        3.05272055      6.88520479     13.36933231
Sn        3.26309156     20.83021736     13.31888866
Sn       17.48393631      7.45181227     13.67255688
Sn       16.61327744     20.56217957     13.51101208
S         2.15409017      5.21788263      1.08162916
S         2.14424062     18.71734047      1.19852340
S        15.61516666      4.95121622      1.67534411
S        16.12549973     18.23029709      1.55527914
S         4.37144470      8.03631783     14.92665195
S         4.99266911     22.13940239     14.70727062
S        19.05627060      8.95588589     14.93880463
S        18.23409081     21.77771568     14.97917461
S        11.63780308     12.14308548      8.43152237
S        11.52822876     25.32109261      8.45702553
S        24.93409538     12.26670074      8.08391285
S        25.23373604     25.56777382      7.79243088
S         8.21126842      1.53137994     21.23131561
S         8.18650532     14.89845562     21.79918861
S        22.09097481      1.67486143     21.82089996
S        21.94846916     15.17608738     21.79962158
S         4.65006733      5.30248833     25.66804886
S         4.84085798     18.61766243     25.96978569
S        18.62190056      4.88599348     25.96443558
S        18.78760719     18.47338676     25.50633240
S         2.11586881      8.31426716     11.59866142
S         1.65287018     22.24401665     12.21630096
S        15.88901901      8.49070740     12.21863937
S        15.56279469     22.18309593     12.44818878
S         8.34239864     12.01621819     18.73271751
S         8.54314613     26.07024956     19.00313950
S        21.97432709     12.13609791     19.16660881
S        22.12094116     26.18894196     18.94549179
S        12.11749935      1.18710482      5.60382986
S        12.21833515     14.82429314      5.42267036
S        25.33670807      1.45404339      4.85745955
S        25.33595467     15.19410992      5.86923933
S         8.68131828     12.14382267     14.68516731
S         8.66763592     25.47463226     14.53789425
S        22.24677277     12.01596832     15.53828907
S        22.24028969     24.94586182     14.51064014
S        11.81117630      1.31912076      1.06629288
S        11.03676510     15.33092117      1.67877722
S        25.22434616      1.66658962      1.15009475
S        25.44633484     15.42097092      1.56069875
S         4.78223419      5.08509302     21.52374268
S         5.55490065     19.05501556     21.68579674
S        18.99909592      5.53010941     21.92611694
S        18.45669937     19.13101768     21.71704102
S         1.43428862      8.44203377      7.92444038
S         1.79808366     22.02014542      8.35796738
S        15.49110222      8.06866646      8.19372940
S        15.64699268     21.72885132      8.26464558
S        11.59346771     12.04489517     12.33249092
S        11.29667759     25.89849472     11.62318516
S        25.32103729     11.59193897     12.57449245
S        25.41081047     24.93295288     11.80370140
S         8.96864414      1.78806388     25.53865433
S         8.70674515     14.74278259     25.71074295
S        22.09841537      1.47848189     25.47649384
S        22.97867775     15.14214134     25.80426598
S         1.81458116      5.42322493      5.35699034
S         2.21364760     19.32360268      5.35074472
S        15.36786556      5.42765141      5.21196842
S        15.80208015     19.02038574      5.71457911
S         4.90780258      8.47842693     18.83386803
S         5.51339388     21.98309708     18.53962326
S        18.74778748      8.72625828     19.04983139
S        18.77468872     21.85721588     19.23673248
S        12.08327770      8.38133621     26.16103554
S        11.54571533     22.00148582     25.78800583
S        25.19095230      8.62691212     25.90442467
S        25.15481758     22.00848961     25.62703514
S         9.00226879      5.27170801     12.50349712
S         8.50275612     18.86599922     12.37070751
S        22.82854462      4.76160002     12.11076927
S        22.22264862     18.73567963     12.18875504
S         1.73926342      1.10992908     19.00648689
S         1.68823910     15.39068699     19.12557411
S        15.54214954      1.95292282     18.95167732
S        14.93671703     15.22048378     19.11569595
S         5.14936972     12.17145348      5.95786428
S         4.89455318     26.24648476      4.93910933
S        18.73679733     12.22920132      5.80154324
S        18.40416718     25.37393379      5.38819408
S         8.87491512      8.42332554      0.95625591
S         8.51312351     21.91695595      1.48647738
S        22.64496040      8.31028175      1.74638903
S        22.56222725     21.93994331      1.22934151
S        12.00098419      5.40619040     14.87218094
S        11.51196194     18.63848305     15.00697708
S        25.56320763      5.05055475     15.40042305
S        25.19718933     18.21493912     14.96751022
S         5.07806730      1.72000301      7.93001509
S         5.11059475     15.33589554      8.35186005
S        18.51909828      1.12400317      8.00601292
S        18.08701897     14.70687389      9.07570744
S         2.22307181     12.23629856     22.06617737
S         1.78859949     25.48018837     21.62134743
S        15.55755901     12.27772236     22.11168289
S        15.47885895     25.81005287     21.73123932
S         4.83434820      1.72664225     12.55117989
S         4.69568110     15.37976456     12.53561687
S        19.03861427      2.13786292     12.43877506
S        18.51040840     15.34029293     12.31389046
S         2.52534318     11.77511883     26.18746948
S         2.03687811     25.69097900     26.06178856
S        15.90706253     12.13421440     26.46941185
S        15.93258953     25.47141266     25.68026733
S         9.09299469      8.49134254      5.02912426
S         8.68268299     21.94855309      5.59562635
S        21.71812630      7.75828934      5.43886328
S        22.67125702     21.60379410      5.19425964
S        12.24528122      5.22197580     18.84934998
S        12.07028294     18.88633347     18.74453354
S        25.56454468      5.60162115     18.79101372
S        25.70593643     19.01794434     18.94742393
S         2.09863591      1.25959527     14.95820427
S         1.89118266     15.28962231     14.79663372
S        15.83008385      1.99776638     14.54519939
S        15.58113003     15.17173100     15.02285957
S         4.89300776     11.69923878      1.70213580
S         4.83648443     26.04224777      1.45663655
S        18.55542946     11.70806408      1.96936142
S        18.46426773     25.65792084      1.72780752
S        12.19314384      7.64292002     21.87373161
S        12.29915428     21.69938087     21.53328133
S        25.94416046      8.56321430     21.42134285
S        25.56778526     21.78391075     21.71876335
S         8.67592812      5.60593557      8.26251888
S         9.27005482     20.06444931      8.79957294
S        22.21065521      5.32605648      8.05080128
S        22.72297287     18.98756981      8.13894939
S         1.60514498      1.36164665      1.57005489
S         2.16330028     15.02771950      1.12963092
S        15.64494705      1.21770751      1.28202152
S        15.52388477     14.35516644      1.82470644
S         4.75805140     12.13972569     14.86583996
S         4.69331503     25.93902969     15.16305733
S        18.38948441     12.33215618     15.23598194
S        18.90428352     26.11605644     14.74424458
S         2.29477549     12.55918121      8.42658424
S         2.12107444     26.31270218      7.59507132
S        15.25899315     11.85852146      8.45996666
S        15.66948891     25.58211899      8.25604820
S         4.38610029      1.24233615     21.98355103
S         4.30619097     15.14513874     21.53469086
S        18.30693245      1.11812317     21.53944778
S        18.00560570     15.09071636     21.62508392
S         4.80111504      1.49404156     25.97074699
S         4.96516514     14.46902466     25.61335754
S        18.55394745      0.90304571     25.62976456
S        18.56955147     14.55699921     26.16255951
S         1.65254891     12.15259933     12.41031742
S         2.01698041     26.22861862     12.12046528
S        15.76141548     12.52364063     12.40355015
S        15.87749863     26.13755417     12.19007397
S         3.85795212     12.21754169     18.82494354
S         4.34499788     25.75282860     18.71807480
S        17.65574265     12.27274132     18.61831284
S        18.18393135     26.42644691     18.45635414
S         2.20772195      1.79647839      5.08417034
S         2.48405504     14.97726917      5.40695381
S        15.86526489      1.31350207      5.40923405
S        15.97661304     14.59103870      5.55765152
S         8.86023426      8.49987507     15.03454590
S         8.73134327     21.68478203     14.76742268
S        22.86386108      7.70400763     14.99245262
S        22.62689209     21.28632736     15.15367126
S        11.41997337      5.57656336      1.39712405
S        11.24675655     19.66829872      2.15679073
S        25.21343803      5.52432108      1.44837308
S        25.41129875     19.40868568      1.25779009
S         8.94345474      5.50458574     21.42426682
S         9.57383728     18.99217796     21.88622665
S        22.85679626      5.87647867     21.74405289
S        22.57691574     19.27249527     21.89616585
S        11.48784924      8.05921078      8.58775520
S        12.11223698     22.17407990      8.09211254
S        25.03779602      8.10164452      7.91688538
S        25.05961990     21.91295433      8.53156185
S        11.53226566      8.15114594     11.90998077
S        11.29271317     21.47065163     12.19306183
S        25.26891518      7.79825497     11.94958687
S        25.47543526     20.65417290     12.30963993
S         8.82214737      5.42903519     25.91612625
S         9.06470871     19.14922714     25.95519066
S        22.64932823      5.91453934     25.88067055
S        22.64477539     19.24426651     25.96064568
S        11.39738941      5.21167135      5.49178743
S        11.71842861     19.12598038      5.61522961
S        25.04129028      5.53214169      5.26498938
S        25.61120796     18.60273933      5.19739771
S         9.72795200      8.53853035     19.06921196
S         9.44448376     21.43207169     18.88063431
S        22.98970222      8.68483543     19.12823486
S        22.73893166     21.91797829     19.17654037
S        11.71481609     12.43243122     25.86149025
S        11.77372074     25.68172073     26.13929367
S        25.83506775     12.31947613     25.93560219
S        25.18896866     26.43814850     25.62811089
S         8.77911186      1.90292680     12.00905514
S         8.80236626     15.15411663     12.37611675
S        22.92020226      0.65590411     11.83495426
S        22.05423546     13.97300911     12.29632568
S        11.43029022      1.26543915     18.89056015
S        10.95230198     14.84697437     19.25285149
S        24.92811012      1.61434412     18.97260857
S        24.79172516     14.97181988     18.92025948
S         9.02151108     12.23679924      5.76258707
S         9.18339252     25.70141411      5.37163877
S        22.56866837     12.22437000      5.11355543
S        22.50489998     25.83830070      5.27870464
S         9.01113033     12.57369995      1.82474840
S         8.75855923     25.99912834      1.04898989
S        22.58416367     12.48085880      1.37693727
S        22.56579208     26.52081108      1.53768814
S        11.67619133      0.97081035     15.09978580
S        12.00327110     14.83927059     15.26049328
S        25.03526878      0.94655430     14.88307571
S        25.09791946     14.84286880     14.45485210
S         8.94369411      1.23994148      8.07564735
S         9.37140274     15.20062923      8.01572227
S        23.17063904      1.10265899      8.40626335
S        22.35704803     14.93390942      8.30004692
S        11.21798515     11.96739960     21.60867691
S        11.25769806     25.71526718     21.77250290
S        24.87401009     12.46735001     21.83320427
S        24.82546997     25.97508812     21.84369278
S         4.76300669      5.66406488     11.82513905
S         4.63222885     19.39935112     12.18661976
S        18.72383118      5.94916201     12.31725216
S        18.20842552     19.54999161     12.06777763
S         2.02723527      8.36533642     25.92839622
S         1.94515014     21.53542709     25.68641853
S        15.65010834      7.48889399     25.74557877
S        15.37810516     20.78179169     26.20772171
S         4.88222933      8.02485371      5.24350595
S         4.90966129     21.81756783      5.39209843
S        18.19769859      7.78636456      5.37770796
S        18.71043777     21.68428230      5.49132156
S         2.13562989      5.44692039     18.77039146
S         2.77052164     19.29915237     18.69628143
S        16.31341743      5.84005070     18.35667992
S        15.67187405     19.02806473     19.01417351
S         1.72001243      5.41867876     14.75050545
S         2.01966381     19.39110374     14.78441238
S        15.85856247      6.19179249     15.03437805
S        15.14251041     19.06002045     14.88648605
S         4.99953699      7.90892696      1.33774650
S         4.50714159     22.17877769      1.22768736
S        18.64949989      7.92280197      1.34710360
S        18.27585030     21.10541344      1.47441542
S         2.15638018      7.93485832     21.38482857
S         2.66440463     21.70927811     21.81131935
S        16.09476662      7.92184734     21.59885597
S        15.89897728     22.06003189     21.71011543
S         4.67492247      5.87596703      7.92588377
S         5.01714993     18.95692444      8.38504601
S        18.19655991      5.46307755      8.42874908
S        18.75693703     18.83742332      8.19399834
S         1.24643588      2.54073024      9.01952648
P         0.03176790      3.73108315     10.10696983
S        -1.20867932      4.72316027      8.85628414
S        -0.91408271      2.32242441     11.41881943
S         1.18055427      4.79795694     11.46801281
S         1.41660988     16.26677322      8.94643593
P         0.05743659     17.25494385     10.24505806
S        -1.17835450     18.31545258      8.97458076
S        -1.17373586     15.91176033     11.45687962
S         1.21491349     18.43732452     11.25135517
P        13.76334667      3.71788788     10.13644409
S        14.82578278      2.37186146      9.07168102
S        12.34766674      4.81541729      8.94219017
S        12.69323635      2.23131156     11.27328205
S        14.78393459      4.97842741     11.44701767
S        14.93803024     16.10774040      9.06795788
P        13.53640556     17.27347374     10.31666851
S        12.49254417     18.58311272      8.87166500
S        12.68250084     15.71035099     11.42681503
S        14.75676441     18.51220894     11.19364262
S         8.19960308      9.12921810     22.46186256
P         6.93407536     10.19023323     24.05114937
S         5.59943151     11.32421112     22.89297867
S         5.66564798      8.91737556     25.11276054
S         8.07162189     11.45100212     25.12158012
S         8.06313229     22.80887413     22.72116089
S         5.59638166     25.04748344     22.80397606
P         6.94963789     23.85334778     23.97275925
S         5.73849535     22.34283066     25.10286713
S         8.12326241     25.03513908     25.03690338
S        21.56404877      8.99606228     22.61998558
P        20.57690620     10.19274235     23.93277931
S        19.34729958     11.51121044     22.87817955
S        19.61844444      8.85633087     25.06471443
S        21.43862724     11.45577812     25.14064789
S        21.75309372     22.72516060     22.58719254
P        20.62026978     23.80072594     23.79871368
S        19.19793320     24.95851517     22.96637154
S        19.22902107     22.42947960     25.11202240
S        21.74648857     25.17200851     25.16744614
S        26.30515671     11.17245102     18.28818703
S        28.40292358      8.71471310     18.03079796
S        28.63839340     11.27879715     15.97360039
P        27.45675468     10.03788567     17.07563400
S        26.34308434      8.89725971     15.92490196
S        26.08681488     24.78555107     18.21216393
S        28.67812538     22.30259132     18.07189560
S        28.77822685     24.85441589     16.03253365
P        27.56733131     23.69855118     17.09706497
S        26.03957558     22.53555870     15.88018894
S        12.64627361     11.20628166     18.35116005
S        14.97787666      8.72358322     18.23844719
P        13.84097004      9.91968632     16.98591995
S        15.01243877     11.25805569     15.95561123
S        12.59471989      8.98947811     15.75892735
S        12.58132839     24.81971359     18.19880867
S        14.94988728     22.24620438     18.07914352
S        15.06295490     24.93190575     15.97692108
P        13.88932419     23.62060165     17.12513161
S        12.59042645     22.55558968     15.91480064
S         5.22110081      4.50634193      4.46215534
S         8.06715202      2.21871901      4.68603039
S         7.88561296      4.53631878      2.32316232
P         6.61290598      3.30563855      3.51018381
S         5.70208979      1.94411397      2.27642989
S         5.40326738     18.01251793      4.51105070
S         8.04408169     16.03869629      4.86416674
S         7.86414957     18.14226532      2.27598476
S         5.61177874     15.62631321      2.07762003
P         6.56391764     16.75987816      3.52980804
S        18.85015297      4.48221731      4.48581266
S        21.61880684      2.19170022      4.75238085
S        21.41391182      4.50103569      2.12292647
P        20.21189117      3.19820666      3.66045856
S        19.46755981      2.13431644      2.24149776
S        18.90418816     17.84625244      4.71618271
S        21.41880989     16.11166763      4.71936035
S        21.60509872     18.00163078      2.19063282
P        20.33174896     17.01438522      3.42842817
S        19.30655479     15.61439419      2.20057511
S         5.57047749      2.26028585     18.39937592
P         6.74456739      3.29160333     16.96009445
S         8.07222652      4.76605511     18.14838791
S         8.02525234      2.35245872     15.54265690
S         5.74605036      4.62678194     15.81111050
S         5.62069130     15.78409004     18.01926804
P         6.74033451     17.13711357     17.03696632
S         8.28804588     18.40050888     18.06558228
S         7.93166304     15.87991619     15.85152054
S         5.57769680     18.17740250     15.89090252
P        20.40167618      3.41903043     17.06799889
S        19.22914886      2.26114130     18.19885826
S        21.68960571      4.67372036     17.99755669
S        21.62557411      2.33485675     15.71764660
S        19.28800774      4.61277246     15.88323879
S        19.19330597     15.80540752     18.11433792
P        20.47412300     16.94047928     16.98493576
S        21.71635056     18.43134308     17.96493530
S        21.63464546     15.84112644     15.81907368
S        19.21805382     18.35398483     15.97918606
S        25.98894119      9.07507992      4.59866667
P        27.27477455     10.17136669      3.48357916
S        28.76987267     11.28873920      4.65106964
S        28.30229950      8.76812935      2.15837836
S        26.10054970     11.32441425      2.29088664
S        25.98247337     22.78936005      4.79044867
S        28.56736565     24.86913109      4.67719698
P        27.40802574     23.63449097      3.40071177
S        28.32118988     22.43073845      2.02793288
S        26.16191673     24.97284317      2.28347015
S        12.45900154      9.24573135      4.75580931
P        13.70246983     10.11655235      3.45308590
S        15.00877762     11.11414814      4.73625231
S        14.70734310      8.87834930      2.04641676
S        12.48629665     11.27108383      2.18997836
S        15.08484936     24.74701500      4.48059368
S        12.40716076     22.64232635      4.62671137
P        13.66708469     23.80887413      3.44015336
S        14.73202515     22.46099663      2.34200382
S        12.47156525     25.04328728      2.29164028
P         6.52606297     10.24265862     10.07127190
S         7.81883335     11.16348362      8.82514286
S         5.17152214      9.25781918      8.95765877
S         5.57371521     11.51875019     11.35017204
S         7.94023752      9.01788044     11.22711277
P         6.79723501     23.71517754     10.13004971
S         7.63995123     24.77374077      8.78530598
S         5.16636372     22.96951103      8.87569427
S         5.51981831     25.19473267     11.34836578
S         7.91623116     22.61658669     11.29394054
S        21.57364845     11.09801769      8.76903248
S        18.87338829      9.19664383      9.06049824
S        19.08453178     11.51847553     11.52974415
P        20.12469292     10.33294296      9.93768597
S        21.44755936      9.05758190     11.12985229
S        21.50534058     24.97661591      8.80029011
P        20.21532631     23.88068962     10.03178692
S        18.70188522     22.75393677      9.04764271
S        19.15829849     25.18918419     11.29573345
S        21.52605438     22.47495270     11.25456142
S        14.86649418      4.55645466     22.55554581
S        12.25771046      2.26071143     22.71786118
S        12.53570080      4.80517626     25.06447983
P        13.67121506      3.29124451     23.94038200
S        14.68744755      2.15210938     25.13839340
S        14.98926926     18.04697227     22.71817970
S        12.19358540     15.91499710     22.85171700
S        12.54995918     18.22134018     24.98727989
P        13.54800224     17.05402374     23.82481575
S        14.73355961     15.90739632     25.03074074
S         1.19170058      4.42536783     22.57731628
S        -1.36746287      2.42276216     22.69133377
S        -1.01394737      4.59014559     25.04928970
S         1.15473211      2.22362757     25.31175423
P        -0.02315942      3.40775824     23.78156090
S         1.12929332     18.06396675     22.55541801
S        -1.18377686     15.83067608     22.61836052
S        -0.88666797     18.36149597     25.18877029
S         0.96941566     15.83493137     25.19842529
P        -0.08862937     17.05364609     23.85270500
