832

Na       20.70559502    -20.57071495     23.44668961
Na       -3.32149434     27.23300743     78.35216522
Na       64.63585663      0.23556244    -30.26289558
Na       40.94951630    -34.28451920     -0.38192096
Na        7.36234188      3.41086221     20.36723900
Na       41.05080414     20.22331619     16.81176567
Na       37.92278671      0.34543580    -16.81200600
Na       23.61903191     14.30768204     30.78320503
Na       -0.12690735    -37.64327621     40.95372391
Na       34.41862869     -6.67674208     17.06711388
Na       40.79351807    -23.79195976     27.50017166
Na       13.71124554     -6.84607172     40.83828735
Na      -61.63282776    -20.50614166      6.19552946
Na       -6.46618557     68.12980652    -20.47233772
Na       37.56523895      9.99913788     23.88955116
Na       13.09007359     27.46817589     47.77322769
Na       58.12476730    -30.82412529     17.54855728
Na      -37.14010239     48.59817123     17.17139816
Na       26.98946381    -13.82597256     23.91769981
Na       13.29640770    -23.70526123     41.07688522
Na       44.55236435     34.24586487     17.07718658
Na        3.50061798    -23.72495461     34.35169220
Na        6.31697416    -17.02910042     74.74523163
Na        0.04041517     20.31529617     40.57447052
Na       17.23711967     -3.77515650      2.30165076
Na       37.77455139      3.65338826     57.83345795
Na       -6.76565027    -10.11287212    -13.76738644
Na       45.09298325     10.14577770     30.80238914
Na       64.22145081     13.51310349     64.50675201
Na       50.49848557     58.34987640     23.76716423
Na       16.87003326    -16.76215935     20.51321030
Na       17.18911171    -13.21435165     17.14820480
Na       30.84086990      0.27084646    -16.85633087
Na       12.98410130     -9.87614632     20.64977264
Na        6.29429007    -23.91933250     -0.06241284
Na       50.80663681     44.26887131     -6.98604012
Na       81.84946442    -24.35781288    -13.40973854
Na      -10.24167824    -19.80696678    -44.44826889
Na        1.59626281     10.32489014     20.27791214
Na       -3.50714946     36.92471695    -10.69770336
Na        3.02928472     10.10441399     23.27126312
Na       20.32983017     53.85335541    -33.70030212
Na       61.30830002     -9.90393734    -20.02830315
Na       63.11796951    -13.44274044    -37.27095795
Na      -16.95990753    -16.61761284     34.11038589
Na      -29.72105789     -0.32784918     30.40207863
Na       -3.11862922     40.32970428     44.44685745
Na       20.45299721     55.31578827     37.20167542
Na        3.03426743    -20.17561531     16.99701118
Na        6.78714561      6.71193647     37.27454376
Na       20.20777512     47.57493591      9.87555313
Na       33.98597717     61.42660141    -10.53667736
Na      -27.02401543     37.23093033     13.46783543
Na       54.65357971     30.64625168     27.33098793
Na       34.31709290      0.06305899     34.26689911
Na       30.58951950     -3.21137166    -20.66691589
Na       23.55349159      5.73020983    -10.21784115
Na        3.10065174     47.38899994     30.64564705
Na       24.18805122     23.59869385     10.45322609
Na       -2.77954340     23.22464371     13.76917362
Na       -0.29876989     33.48242188     16.77163124
Na       23.45505142    -16.73833275      3.78285289
Na       13.65487576    -57.91773224      6.86376047
Na       13.70979595     -0.20526981     31.04997253
Na       51.29793167     -3.18717837     -3.59915352
Na        6.38687181     13.47021198     20.26036263
Na       -6.59617615      7.02264023     71.19380188
Na       37.75845337     26.80958176     71.82865906
Na        6.73260450     27.36209297     13.51937675
Na       -7.32040739     13.54620075     47.55430222
Na       13.40583801     13.48339653     65.14508057
Na       20.44242287      0.80300093     13.48420429
Na       17.62607765      3.95246649     10.08667088
Na       27.02915192    -57.38311386      6.89384174
Na       64.69203186     -3.01136541     19.53766441
Na       -3.23090410    -10.67248821     16.85112953
Na       -7.02210808    -20.94606972      0.59195691
Na       13.97674751      7.47004986     13.76393700
Na       74.95000458     30.37396622     54.04453278
Na       14.27244282    -58.28140259     -0.20832209
Na      -23.60250854     10.27845097     -9.63405228
Na       -3.30681276     17.28371429    -24.76086044
Na       10.42818642    -30.64778137     -3.97648025
Na       -6.65084457     19.94807625    -26.73083305
Na        6.98846865    -47.54781342     74.74688721
Na       44.43708420    -40.94157028     23.89427185
Na       17.20628166    -30.70254517     -2.80170250
Na       34.24448013     50.91061783     -7.06469774
Na        0.36835828    -47.19643784     23.40193558
Na       37.06100845     23.94055748     34.36562729
Na        6.91072845    -16.42355919      0.17866381
Na       30.53625488    -30.39039040     10.19999027
Na       10.07643795     30.84803772    -16.67114258
Na      -14.10879230     40.78248596     -3.46339512
Na       54.60083771    -16.32001686     33.86371994
Na       33.45698166     81.83052063     20.54058647
Na        2.95949769     10.66827774     10.30210209
Na      -17.33764267     44.09287262     -3.67811131
Na       20.72030067     13.50128937    -10.28488922
Na       17.54350853     23.83052635     47.81305313
Na       16.60499763     51.37758255     10.45100784
Na        0.73338455     20.06283188     -6.85642910
Na       71.28353882    -30.57162285      6.59218502
Na        2.60491133     -3.22980881     13.78306389
Na      -23.21210480      6.76907873     -3.27533674
Na      -14.10481548    -10.12674236     33.82526398
Na       20.32734489     57.63870239     20.53068352
Na       -3.57439661     30.19944572     10.67365932
Na       50.79376984     37.58616638    -19.79619980
Na       20.59620476     -3.86437082      0.21983711
Na       23.46281052    -27.59583092      9.68314457
Na       40.66274261    -14.79194736     14.03785229
Na      -27.51827621     -0.40241528     27.73048782
Na       13.39896679    -13.40622425     20.42954636
Na       53.97530365     26.75255013     -6.78884363
Na       40.75777435     27.35019875     13.99298763
Na      -30.18308449     30.88996887      7.30512762
Na      -10.70973396     47.53697586    -16.84418106
Na       34.56208038     13.75004101      3.59373379
Na      -19.90870285     20.21914864     -3.66021752
Na      -40.80068970     -3.52319288     68.00043488
Na       47.64030457     13.64857769    -30.58739281
Na        3.00564456    -10.41491318    -10.07556820
Na       20.18560600      9.84292507     54.88505554
Na       30.86137581    -16.74803925     14.06310749
Na        6.99374628     27.44742584     24.26695442
Na       13.35512733    -48.03090286      3.24436569
Na      -17.44247818     30.41299438     13.77924633
Na        7.06266689     -6.68216276      0.35671785
Na      -16.65538979    -17.32672691     -7.26965809
Na       58.34843826     26.98674011      3.67812061
Na       13.75034904     14.00351048      7.17828798
Na        3.67421126    -13.75967503     10.46911049
Na        3.80802774     16.81369019     20.21743011
Na       19.45948029     27.46553230     17.06071091
Na       20.26474190     16.87191772      7.07299757
Na       10.51174927    -17.19017029    -17.14609909
Na       37.44866180      3.89006448     -0.13584717
Na        7.00771475     13.26931190     34.57919312
Na       23.33276939     -3.29855466    -20.49851036
Na        7.23004484     -6.94167566     47.77218628
Na       16.30933380     37.99122620     10.26335812
Na        6.73399830     64.09125519    -20.68099213
Na       24.27881241     31.13323593     54.27015305
Na      -16.83410645    -17.15065002     68.03295898
Na      -30.28591919     30.46889687      3.25453925
Na       -6.60609818      0.02302871    -20.60897255
Na      -51.03149414     67.68450165      3.64003778
Na       33.94587708    -20.13471985     -0.06212158
Na      -23.75319290    -23.78668976     20.43344116
Na       30.24784088     54.12939835     -9.91701984
Na       17.11652565     27.54153061     -3.39064360
Na       30.42398453     30.45637321     -3.11698461
Na       -7.22464895     40.63504410      3.33366680
Na      -34.02556229     40.59953308      0.15592059
Na       30.73493958     -3.94312525     30.33423424
Na      -16.72366142    -37.30527878    -10.33597374
Na        3.19898891    -37.92694855     27.23504066
Na       54.08527374    -13.64105701     47.04340363
Na       30.84641457     31.14066696     65.12651825
Na        3.66413331    -17.53719902     -0.01602060
Na       -6.54611397     24.58769989     13.68535042
Na       41.40264130     13.51451969      3.48155308
Na        3.34993482    -10.07318687      6.63714123
Na       40.62612915     34.28499985      6.78745747
Na      -31.53370667      6.44411755      3.05487895
Na       26.96964836    -37.43436432    -27.24679565
Na       40.11505890     47.56491470     10.30160332
Na        3.48959613     -9.85357285     40.93306351
Na       -3.61736917    -24.05929947    -13.18751526
Na       40.28561783     13.71470261    -10.23851585
Na       -9.67326260    109.19956207     30.65288734
Na       41.20150375     54.66789246     37.08088684
Na       54.68283463    -31.16280937    -33.66788483
Na      -37.48933792    -10.22878933     -6.15849543
Na       16.89357758     30.37579727     26.94202995
Na      -37.30527115     33.65745926      3.44315028
Na        6.73369980     31.05743790    -46.85301590
Na       -3.75632882     16.26594734     37.47602081
Na       40.71969604     17.20249557     55.10815430
Na       68.28662109    -27.73564720     23.98381615
Na        6.58187056     20.43611336     31.04693222
Na       27.28746605      6.08982801     13.11729527
Na        3.37996268     37.59857941      6.90871000
Na       30.62878609     40.46452713     51.26082993
Na       16.75007248     -9.55242825     13.49445724
Na       24.12772942     33.85740662     23.89000511
Na        3.84188700     -6.78980827     -3.21427965
Na       44.22349167     13.88576031     64.69602203
Na       37.81736755     -6.50660467     17.08272934
Na       27.48226738    -19.76898193     10.28606606
Na       37.21899796     13.54261589     23.72130775
Na       10.16213226    -24.00715065     17.35401917
Na        9.46991920     37.33242416     16.93976784
Na        3.57945824      7.06278944     37.67160416
Na       24.25723648      6.30405998      9.88611221
Na      -30.67669296     16.62826347     13.66698933
Na       -7.02319479     64.82151794     -6.83489704
Na      -10.29131031      3.79302454     20.97018051
Na       58.07857895     44.51070786     37.58044052
Na       47.73767471     47.66186905     24.15801430
Na       27.37683105     13.50476933     13.93329144
Na        7.21214151    -20.43985558     -3.49708152
Na       44.00327682     30.62480164     30.42292213
Na       40.33781052     20.28660202      6.55762720
Na       14.37034225     20.50596619     20.56995964
Na       40.98680878    -10.48014355     41.05027008
Na        6.92027760     54.59144592     16.87119293
Na       -0.45193124     47.85039139      6.71523523
Na       17.13940048     10.09196472     27.45661926
Na       20.75467873     21.23499680     44.06909180
Na       78.45436096     51.51136017     -9.65649128
Na      -16.66630554     33.72774506     37.17716599
Na      -10.61977196     44.61418152     16.81595421
Na       27.66534233     -0.17512143     64.09828186
Na       23.34279633     13.40591431     -3.32895660
Na        0.16307658      6.35084009     30.67698860
Na      -10.68923855     16.71707916     30.32643127
Na       41.27711487     34.03953552     -6.45376158
Na        3.86323810     51.39090347     -5.68779707
Na       23.71390533     17.03293800     60.51719666
Na        0.28824231     41.10639572    -16.98316383
Na       10.47283077    -27.36448479      3.43901873
Na        6.53450012    -13.50975513     24.42663956
Na       27.46304512     13.04964828      0.29750896
Na       27.63611412    -13.33921337      6.96042395
Na      -24.12877083     30.60870934     57.90063858
Na       27.62989044     20.74950790     10.21302319
Na       20.92664719    -27.32489014     30.51395798
Na       17.06015396    -50.71189880     44.41530609
Na       51.76514816    -34.17563248     -3.27968884
Na       27.58040428    -34.86309433     17.27037048
Na       -9.83658218    -43.94770050     17.07914162
Na        6.65568256     -3.23378348     27.35187531
Na       -3.65032053     -7.33155441    -17.12920952
Na       40.62588120     37.74954605     -0.19777836
Na       54.48631287      0.35766038     17.05098724
Na       16.61855125     16.87708282      6.95361090
Na       37.30731964    -23.52103806     -3.67921948
Na        7.01337910     70.98239899     27.35268021
Na      -54.56221771     16.85837746     20.56607819
Na       13.72217464    -16.86296272     34.27991486
Na       41.12799072      7.24153137     37.56397247
Na       47.65825653      3.51708937      7.04815197
Na       58.46951294     36.70367813     30.47679329
Na       14.45956421      0.01284300     44.46621704
Na      -20.33959770     -0.10948767     27.59467316
Na       54.57606125     -9.87374210     61.18950272
Na       -7.20743656      0.32798591     23.66469383
Na        0.06522696     27.08981514     23.66899300
Na       27.78710747    -24.38764381      6.22635555
Na       16.80738068     43.92677307     26.87481117
Na      -81.95735931     34.31418991     34.22072983
Na      -24.08346939      3.46104884     44.05490112
Na       44.41046143     17.27489853      9.92967224
Na       27.06602097     20.14689064     -0.39970925
Na      -47.43908310    -13.64731789     10.40179348
Na      -23.82997513     16.95077133     -3.23313951
Na       47.70357132      6.70571852      9.68223858
Na       17.04553795     64.66307068      6.82778358
Na       -7.14550877     -3.67358494    -20.67528343
Na      -30.46971321     10.33056450    -30.68655777
Na       47.43386841    -10.49031925    -33.64874268
Na       36.91732788     30.60247993     33.41646957
Na      -26.54779625    -33.78247070     -3.77002430
Na        6.45853901     16.60377312    -40.85948563
Na      -30.13644409     -6.68586445    -37.45298767
Na       17.11071205     -7.11468744      3.46715045
Na       21.09904289     20.39596558     20.93095970
Na      -10.13348198     92.21215057    -13.45944405
Na       13.86117458     60.66127014     17.43335533
Na       30.57872200     53.49280167     51.33969116
Na       -3.49562550     44.22574997     23.73898315
Na       37.30211639     50.66875076    -12.93297577
Na       33.84923935     23.29846954     33.77054596
Na       57.76508331     13.63669395    -37.30160522
Na      -12.77571392     20.57106590     77.96819305
Na       -3.74015951     55.05306244     16.63007736
Na       11.03610229      6.78491926    -30.52947998
Na       75.09429932     20.52177429     13.39501953
Na      -27.08613586     41.00848389    -23.42868233
Na      -47.14046097    -27.34874916      3.64537334
Na       -0.11678194     37.37765884     27.29482841
Na       -3.10488176     36.89260864    -16.08805656
Na       13.23957443     30.64375305      6.92157316
Na       47.76232529     32.88250351    -41.07104874
Na       -4.03566074    -61.60568237     30.65293884
Na       20.68416977    -20.19270515     -7.03363514
Na       13.58035564      7.19106865     27.25763893
Na       10.46138382     24.19780159     -0.15046577
Na       13.67520714    -27.50715065     55.06160355
Na       20.43607330     40.39676285     13.60210609
Na      -16.81304359     44.32463455    -23.81829453
Na        9.98650265     37.99170303     27.08669853
Na      -41.07047272      3.26903057     20.18936157
Na      -33.75298309     40.87971115    -44.45352173
Na        6.73343420      7.04639387     31.02051735
Na       20.37741470     47.45957565     32.67145157
Na      -23.48106766    -30.70951653     -1.02554369
Na       10.16167641     20.48019409     30.54636574
Na       16.94132233      6.54410028     23.96728516
Na        3.61567068     16.54386330     30.61411667
Na       -3.58179975    -16.85752869     27.29394150
Na       34.28587341     39.85638809    -13.77782822
Na       24.05674553     78.23427582      3.38168406
Na       17.30532455     27.32052994     10.24174213
Na       44.05735016     58.39930344     40.94775772
Na       16.84885025     30.43229485      6.56586838
Na       -7.03959322     -0.58085483     54.19345474
Na      -30.53316307     -3.03038573    -27.53073502
Na        6.48469162     51.25984192     40.98720169
Na       38.07033157     20.06871605     24.04776955
Na        3.74936223     20.18592453    -10.44106293
Na        0.19233331      7.09733772     47.14684677
Na       24.32364082    -16.79360008     19.88077164
Na       10.08831692    -10.26051044     37.22486496
Na       10.39119911     34.05749130    -10.42082119
Na       -0.10737075     34.24623489     27.34786606
Na       33.85878372     20.36147499    -17.42898750
Na       68.33607483     47.10800552     30.49339867
Na       17.58089447     -2.69238591     71.51702118
Na       37.58448029     43.77559280     13.52655983
Na       -0.14503919     47.33648300     30.49155617
Na       13.64491177     41.22787857     -0.25288361
Na      -27.34255791     -1.00335538     41.34881973
Na       14.10110855     -3.60568476     -6.77464104
Na      -20.17616653      0.43562970    -17.02701187
Na       74.63000488     44.06719971     27.27671432
Na       16.93038750     10.22527504     51.37367630
Na      -71.26357269     23.90405846     30.67362404
Na      -10.04211235     19.09822655     23.88544273
Na        3.08470631     33.51097870      3.42526960
Na        9.95498848     75.17017365     10.13516426
Na       -3.29475951     40.24009705     37.20920563
Na       10.69630909     -9.73392582     -0.38397554
Na        3.43526435    -33.42967224    -16.97858429
Na       27.31513405     23.53989220     -0.11295588
Na       -6.35058498     36.91183472     13.56219387
Na       61.34633255     20.30270195    -13.81176376
Na       10.51260567     -3.10174465    -16.95331573
Na       35.36669540     44.11869431    -34.21464157
Na       10.30371666     13.65008545     31.01864624
Na       -3.19750118      3.55116820     20.45996094
Na       33.30527115      3.66911483     13.37610531
Na      -41.05930710     37.74972153     20.89772797
Na        6.73553467    -19.23281670    -14.08953381
Na       44.49862671     -2.65491462    -13.98657894
Na       21.52287292     23.86855888     20.10170364
Na       27.65404892      0.42113039    -23.68614197
Na       27.24599838    -23.68601227     -6.92825460
Na      -17.05638123      8.65090942     30.48279953
Na       20.01123810      9.76330757     33.71054840
Sn        3.91604805     13.67462921      6.96497107
Sn        4.02877760     27.26001930      7.03759336
Sn       17.36544991     13.65208054      6.64908171
Sn       16.78729820     27.35954475      6.76837206
Sn        3.07767272      0.05636134     20.67242432
Sn        2.99648380     13.79425907     20.83200645
Sn       16.83613968      0.26099578     20.39044762
Sn       16.68531418     13.71999073     20.57972145
Sn        3.26893425      0.25332701     13.81870937
Sn        3.48406768     13.83272457     13.67462826
Sn       16.87386513      0.58831650     13.54035378
Sn       16.94854927     14.01685143     13.71417618
Sn        3.37646461     13.03527832      0.24877195
Sn        3.23100376     26.92238045      0.13019484
Sn       17.16674614     13.22208405     -0.04122712
Sn       17.10839272     26.82571411      0.07021471
Sn       10.42014790      6.79480362     20.61817360
Sn       10.81770802     20.55128288     20.46191025
Sn       24.24968147      7.00566769     20.27244377
Sn       24.26551056     20.28745461     20.51781273
Sn        9.97579098      6.87625742      6.66058826
Sn        9.70453167     20.46388245      6.69904566
Sn       23.68161392      6.99168015      6.66399813
Sn       23.54164314     20.49626541      6.57287741
Sn       10.06530285      7.32280827     27.29980087
Sn       10.30560112     20.77664757     27.39523506
Sn       23.76317406      6.99949789     27.21817398
Sn       23.87866402     20.61999512     27.30481339
Sn       10.02459335      6.52599049     13.30287552
Sn       10.10522270     20.08236313     13.50049877
Sn       23.87443733      6.42823315     13.47879696
Sn       23.86432838     20.04214859     13.54592514
Sn        9.65132523     -0.02587249     20.35628319
Sn        9.92306232     13.46223354     20.22819138
Sn       23.49929428     -0.13331312     20.16022682
Sn       23.53464508     13.59677601     20.37761497
Sn       10.37154388     14.24092484      6.89350367
Sn       10.37468338     27.30846977      6.84433794
Sn       24.21851349     13.71505547      6.87169170
Sn       24.26984787     27.52387619      6.45389843
Sn       10.18506241     13.53680420     13.22720432
Sn       10.14041996     26.96838760     13.75282764
Sn       23.92449188     13.34511566     13.63181877
Sn       24.04703331     26.73508263     13.51762009
Sn       10.47902679      0.35446909      0.06327393
Sn       10.02590656     14.15709400      0.12972222
Sn       23.81391335      0.46941894     -0.25978035
Sn       24.01861191     14.04316139     -0.03575215
Sn        3.25572443      6.76865244      6.99889040
Sn        3.05308223     20.54377174      6.99671888
Sn       16.57246208      6.78029251      6.75067949
Sn       16.54114151     20.45603943      6.89143181
Sn        3.74841404      6.68251419     20.40131760
Sn        4.08018446     20.54686928     20.25553703
Sn       17.30012703      7.07376719     20.29863358
Sn       17.72154427     20.44536972     20.26791382
Sn        3.18321443      6.25224161      0.04154370
Sn        3.35536098     19.88191986     -0.10040221
Sn       16.87695694      6.53895283      0.18230572
Sn       17.29639053     20.08103943      0.06237792
Sn        3.43376303      7.03964901     13.79284382
Sn        3.38066816     20.58241272     13.50529480
Sn       17.36791611      7.27168131     13.50295162
Sn       17.41611862     20.92358017     13.60520840
S         1.53660417      4.92126894      1.42779350
S         1.71090364     18.74884605      1.39328647
S        15.40447140      5.05898046      1.47601831
S        15.65127659     18.66396332      1.39417422
S         4.80099010      8.36229229     15.01330376
S         4.47503042     22.26927948     14.75254536
S        18.61097717      8.65838623     15.03064537
S        18.86114883     22.45481110     14.90785122
S        11.68088722     12.62112045      8.26830101
S        11.83338451     26.31470871      8.47559929
S        25.82920456     12.44529629      8.15964603
S        25.29936218     25.92461777      7.81427097
S         8.33818436      1.34820366     21.92841911
S         8.44563866     14.57474613     21.61742592
S        22.05161095      1.29624641     21.60786819
S        21.99629402     14.99103451     21.91687012
S         4.51414299      4.93672800     25.80007744
S         4.99711227     18.52568626     25.82359123
S        18.46035957      5.15066671     26.19109726
S        18.67843246     18.50376701     26.08152771
S         2.29843044      8.63895416     12.29513741
S         1.88362098     21.92659950     12.18133545
S        15.92988968      8.60339355     12.18463802
S        15.82724857     22.22697067     12.22509098
S         8.43927097     11.90478039     18.94839668
S         8.15277672     25.87709236     19.08353996
S        22.20443916     12.17150402     19.02742767
S        22.15569115     26.01671791     18.64085770
S        11.62580204      1.73403740      5.35456085
S        12.03129292     15.04722500      5.31448364
S        25.56639099      1.91410482      5.09345055
S        25.64694977     15.16806889      5.47822571
S         9.22817135     11.97264385     14.88968277
S         8.38503265     25.65742683     14.78604889
S        22.53227043     12.00366497     15.07510853
S        22.78646851     25.56964302     15.04097939
S        11.66555309      1.80626297      1.65405309
S        11.83094120     15.21254158      1.46817696
S        25.05823898      1.82363784      1.16460204
S        25.68270111     14.84581089      1.45369387
S         5.25678110      5.50787973     21.87803841
S         5.27742338     19.23730469     21.90355873
S        18.74599266      5.84103107     21.67746353
S        18.71516228     18.84648895     21.85101509
S         1.97459400      8.31571770      8.35619450
S         1.85952771     22.11888123      8.20954227
S        15.41026878      8.35094833      8.24640942
S        15.06656837     21.70037842      8.39206886
S        11.51518250     12.02974129     11.94221401
S        11.60755253     25.42729950     12.75917625
S        25.71743584     12.21035767     11.98624611
S        25.21165276     25.32148933     12.12539768
S         8.95617294      1.86478758     26.03871536
S         8.96721745     15.64885330     25.59207535
S        22.56148720      1.93576801     25.52145195
S        22.51856232     15.25826263     25.85861206
S         1.59290397      5.48346615      5.76758766
S         1.66650128     19.12986946      5.49646807
S        15.25907230      5.26266479      5.57239962
S        15.42805958     18.90649414      5.35732651
S         5.17352962      8.07954407     18.96245766
S         5.60086823     21.74616814     18.91352272
S        18.76850510      8.40715694     18.86178017
S        19.25611115     21.84771729     19.00720024
S        11.54190922      8.82905006     25.96292496
S        11.61778450     22.12804031     25.79500008
S        25.17380524      8.46119499     25.84191322
S        25.37597466     21.95421600     25.80107689
S         8.43900585      5.28534651     12.07457542
S         8.85016060     18.61693192     11.91634178
S        22.37380600      4.89722109     11.93698978
S        22.25908470     18.77090454     12.20661068
S         1.63918531      1.42237043     19.23906326
S         1.70560384     15.27858925     19.35157776
S        15.54337311      2.01018214     19.29226494
S        15.41931438     15.31325912     19.40293884
S         5.24990320     12.10504913      5.44564486
S         5.19438267     25.53072166      5.61179399
S        18.88622284     12.19087505      5.46042728
S        18.66563606     25.96736526      5.46160746
S         8.47199440      8.78837204      1.06534946
S         8.87499714     22.14062309      1.56095648
S        22.16879272      8.43886662      1.41662669
S        22.65830803     22.05119514      1.34418929
S        11.16677380      5.06653595     14.76457500
S        11.62308216     18.57081795     14.70017719
S        25.33341789      5.03837776     14.99591541
S        25.33310509     18.74454117     14.98757172
S         5.32320786      1.55327880      8.57472897
S         5.26717043     15.17430210      8.15194988
S        18.30776596      1.63839519      8.14455318
S        18.66986275     14.86012363      8.35205460
S         1.56631017     12.50177574     22.23604202
S         1.56371391     25.70126343     21.88547325
S        15.16948128     12.29998779     22.08783531
S        15.36332798     25.91272354     21.48707771
S         4.89567184      1.60923910     12.38354206
S         4.80126858     15.15580082     12.12058353
S        18.39401817      1.77782404     11.95066833
S        18.30781746     15.41727734     12.35797119
S         2.15740132     11.66055870     25.92380524
S         1.66904747     25.59297752     26.05824280
S        15.58989620     11.97572041     25.76415062
S        15.59544182     25.61886597     25.91995621
S         8.43826008      8.22401810      5.37855196
S         8.36420727     21.78140831      5.31361675
S        22.12493515      8.38972855      5.54717684
S        22.32317924     22.26541901      5.25042295
S        11.80672932      5.55183458     19.16099167
S        12.24828434     19.37622070     19.03868484
S        25.39148140      5.48366880     18.81386566
S        25.50121498     18.82311821     19.20911217
S         2.16197896      1.39235973     15.55347538
S         2.22334266     15.31449604     14.99159718
S        15.32808590      1.98952329     14.88652134
S        15.55679893     15.13540268     15.44215584
S         4.63353157     11.57163429      1.73214030
S         4.63683701     25.33377838      1.37429988
S        18.47662163     11.85400581      1.61501276
S        18.53919792     25.46512794      1.49579835
S        11.71528244      8.23030186     21.99204636
S        12.28191471     21.88167953     21.71243858
S        25.53170013      8.17506981     21.86670303
S        25.80411339     21.54552650     21.84706879
S         8.79721069      5.47109175      8.14158630
S         8.58389378     19.23038101      8.39162922
S        22.01313400      5.52132225      7.94685793
S        22.22746849     18.96174812      7.81290627
S         1.94213748      1.00237823      1.61615157
S         2.16596103     14.75418568      1.63345373
S        15.76157284      0.88807505      1.57385814
S        15.73685837     14.74101543      1.26605308
S         4.99071646     12.63466358     15.25811195
S         4.67805052     25.87819099     15.15173435
S        18.27917862     12.47949791     15.09826374
S        18.38941956     26.55597687     14.89025879
S         2.05284429     12.30138969      8.24386215
S         2.68865180     25.83464813      8.43897152
S        15.82202625     12.29727268      8.00215721
S        15.84372044     26.01072502      8.41753292
S         4.38353395      1.44590878     22.19623947
S         4.70292759     14.95105076     22.29581451
S        18.57621574      1.45042396     21.79640579
S        18.05973816     14.96995163     21.99557686
S         4.60694647      0.94570160     25.87326050
S         4.83366489     14.41856766     26.23588943
S        18.59707069      1.07042670     25.97028160
S        18.66571617     14.63396835     25.85903931
S         2.23588419     12.23803425     12.36959553
S         1.92640114     26.34782410     12.32556820
S        15.59740734     12.72877026     12.07862759
S        15.23680592     26.34884071     12.29836082
S         4.31678438     12.27053356     19.33980942
S         4.46501732     25.79413795     19.36643982
S        18.20762062     12.03094482     19.03470039
S        18.36579323     26.10088348     19.17127037
S         2.83532143      1.47989392      5.57623148
S         2.49779534     15.06430340      5.50399876
S        15.44496536      1.51754427      5.16439533
S        15.89126587     14.93085670      5.36996841
S         8.87763119      7.92129612     14.82069492
S         8.82051754     21.34116936     15.01681709
S        22.43549347      7.93442297     14.70023060
S        22.60837173     21.68602753     14.82779503
S        11.50471497      5.69570017      1.44361532
S        11.79906940     19.19222260      1.35575223
S        25.30394554      5.73168421      1.37991905
S        25.39196014     19.27401543      1.47592795
S         8.78709030      5.33126211     21.77838326
S         9.41808033     18.98448753     21.82496834
S        22.59026718      5.59699583     21.54352951
S        22.84618950     18.91766930     22.15406036
S        11.12119102      8.34320450      8.24499416
S        11.24426365     21.95944214      8.13396358
S        24.86419678      8.20704460      8.28043365
S        24.90097809     21.96969414      8.05339622
S        11.53482151      7.94101667     12.11687756
S        11.52575397     21.70471954     12.13143539
S        25.45483780      7.91287947     12.30912590
S        25.20585060     21.22859001     11.88639641
S         8.93341827      5.93056774     25.76377106
S         8.88468647     19.50133705     25.87563324
S        22.44608116      5.55370188     26.00790405
S        22.53229713     19.12115097     26.04243469
S        11.27983189      5.36086798      5.43507004
S        11.10630703     18.79080582      5.62497282
S        25.05855560      5.60626411      5.23603964
S        24.99050331     19.07981682      5.24678898
S         9.04519272      8.04589844     19.08904076
S         9.25831604     21.88029671     18.96315956
S        23.14803505      8.10553074     18.55429649
S        23.01902199     21.66236305     19.04515839
S        11.43817425     12.86863422     25.87236023
S        11.77064800     26.08375931     26.01438904
S        25.40143967     12.31202793     25.99843407
S        25.41252708     26.24684143     25.72338676
S         9.03523827      1.11758220     12.30486202
S         8.66076374     14.99292946     12.22905540
S        22.68819427      0.83580792     12.06518173
S        22.41071129     14.47244740     12.20964813
S        11.12841892      1.39704955     19.10635948
S        11.03686714     15.09116745     18.96450424
S        25.02088928      1.37018907     18.71861649
S        24.75404739     15.00575924     18.83138275
S         8.99956322     12.56026649      5.74655581
S         9.18166542     25.87662888      5.44992065
S        22.83448410     12.38147545      5.53478718
S        22.91609383     25.99231148      5.00891018
S         8.46481800     12.87509537      1.34040248
S         9.13770390     26.04458427      1.38215697
S        22.59182358     12.54953480      1.64932203
S        22.44378662     26.19636345      1.04004657
S        11.23178864      1.07863057     15.48149681
S        11.80091858     14.64332962     14.56720066
S        25.60439491      1.07206964     14.64844036
S        25.23430634     14.92000008     14.84188461
S         9.00352287      1.44339645      8.36193180
S         8.72684669     15.34148788      8.28995991
S        22.77283096      1.59654331      7.81991196
S        22.70643616     15.24350548      8.12098598
S        11.68293953     12.32988167     21.55611610
S        11.01600933     25.90489960     21.79530525
S        24.98271561     12.42156219     21.81042480
S        24.64005661     25.74986076     21.78761864
S         4.90882063      5.84717989     12.22541904
S         4.65787792     19.18828201     12.15002155
S        18.45681000      5.73486567     11.86673450
S        18.38579750     19.16882324     12.24139309
S         1.97117662      7.89502096     25.93006897
S         1.96467268     21.55551338     25.94050980
S        15.80051994      8.17750740     26.07495117
S        15.82730675     21.41325951     25.99579620
S         4.43413162      8.15302277      5.28413343
S         4.43205595     21.78511810      5.34451151
S        17.97379494      8.20491219      5.33583689
S        18.01280212     21.70336342      5.50377274
S         2.28286886      5.25680780     18.96036148
S         2.98310065     18.90968132     18.97232437
S        15.85405159      5.54656935     19.06576920
S        16.26404572     19.05451393     18.98612976
S         1.76006889      5.88558197     15.06646919
S         2.07574892     19.14984703     14.81179142
S        15.61866760      6.01611614     14.94370842
S        15.95549011     19.58934784     15.17584610
S         4.61482430      7.56628323      1.55929255
S         4.75373554     21.03124237      1.46349561
S        18.27547455      7.89488029      1.57397330
S        18.72871971     21.41035652      1.48845577
S         2.24961972      8.15176678     21.49611092
S         2.76020145     21.79686165     21.96143341
S        16.09433937      8.40104389     22.04254723
S        16.33031845     21.76489067     21.86569977
S         4.68503761      5.40232229      8.53251648
S         4.15484858     19.10632896      8.42649174
S        18.17823410      5.49030304      8.07582760
S        17.98276520     19.01890945      8.27895641
S         1.25663495      2.58480501      9.04030991
P         0.01880533      3.62968278     10.18740940
S        -1.17752039      4.69927073      8.94069386
S        -0.95180947      2.36302352     11.32966614
S         1.18944442      4.83512163     11.37426949
S         1.36668634     16.06160927      8.96270752
P        -0.02300505     17.26313591     10.16635132
S        -1.25559878     18.37483978      8.94208622
S        -0.99018973     15.93766975     11.34668922
S         1.23623919     18.54928398     11.45379829
P        13.70890617      3.65865922     10.25803852
S        14.92846394      2.54192376      8.98747826
S        12.43580151      4.74429321      8.97331047
S        12.53345966      2.24939299     11.35812664
S        14.80548573      4.91862106     11.29779911
S        14.89275169     16.09593391      8.95537472
P        13.65722656     17.24695969     10.13663864
S        12.40525436     18.32362747      8.94437504
S        12.66216373     15.99140644     11.34437180
S        14.79296017     18.52805519     11.48986053
S         8.09761238      9.07589531     22.66934013
P         6.82301903     10.26009941     23.95460701
S         5.59816933     11.42366886     22.84426498
S         5.85298538      8.82456779     25.04206085
S         8.09481430     11.43018627     25.12677765
S         8.01761627     22.71001053     22.45992088
S         5.76729155     25.07904243     22.76939392
P         6.89078093     23.78771400     23.94725227
S         5.89369726     22.44073486     25.24797440
S         7.89952183     25.06793976     25.21225929
S        21.73675156      9.06280994     22.55823135
P        20.50085068     10.21460819     23.97633553
S        19.21546936     11.42382908     22.84118271
S        19.45092392      8.88563824     25.09751892
S        21.63874817     11.42598248     25.16452026
S        21.87650490     22.66187096     22.63849258
P        20.47753334     23.80872154     23.89165497
S        19.14010620     25.07713890     22.96381569
S        19.34601974     22.47867584     25.07361412
S        21.70178413     25.05975342     25.06732750
S        26.28931808     11.14072132     18.38761711
S        28.54296112      8.77969456     18.17890739
S        28.66520882     11.18309689     15.95116329
P        27.39291763     10.04874897     17.01226044
S        26.25373268      8.94921398     15.76101589
S        26.31997108     24.85208130     18.27599907
S        28.56519127     22.33135605     18.11911774
S        28.57302094     24.83177757     16.01638031
P        27.43305016     23.62337112     17.14240646
S        26.25427055     22.53551865     15.74149036
S        12.75052929     11.13551426     18.33222198
S        14.88069820      8.74283695     18.23387718
P        13.81316280      9.99915123     17.01013565
S        15.02988243     11.31154728     15.94995403
S        12.59705925      8.91073799     15.76470280
S        12.68739700     24.75256348     18.47368813
S        14.89787579     22.40640450     18.18713188
S        15.07779312     24.78273201     15.88135815
P        13.69952011     23.68433380     17.02583504
S        12.70487690     22.55015182     15.72341156
S         5.32612896      4.38122129      4.63967800
S         7.88443518      2.30541825      4.77081060
S         7.97064972      4.58314323      2.23073912
P         6.59258556      3.36050010      3.33721757
S         5.71437168      1.88271689      2.27363062
S         5.42828655     18.08995819      4.53214121
S         7.87460661     15.91142654      4.75963783
S         7.83293629     18.25623512      2.28387570
S         5.70377111     15.46208477      2.19735336
P         6.65054226     16.86349297      3.48406506
S        18.98730278      4.31721544      4.56846905
S        21.48708534      2.36312628      4.77912998
S        21.47021484      4.47489309      2.22068906
P        20.26332283      3.32284379      3.45534682
S        19.35614586      2.03363967      2.23246121
S        18.96890259     17.97962379      4.41968393
S        21.56187439     15.91115570      4.69888878
S        21.46620941     18.15263176      2.32785463
P        20.24993706     16.91935921      3.48032141
S        19.31668854     15.62232494      2.33019733
S         5.62970972      2.32185936     18.18869591
P         6.93985987      3.45514774     16.90736771
S         8.03755474      4.69590521     18.13247490
S         7.98871374      2.22324014     15.70799923
S         5.56938267      4.60659838     15.92329502
S         5.70495272     15.85889053     18.19191551
P         6.83103514     17.10037231     17.01551628
S         8.09924889     18.23209381     18.08121490
S         7.96157837     15.91229534     15.78820515
S         5.56470156     18.27413177     15.78666019
P        20.59379005      3.38207769     16.97961807
S        19.39395714      2.38763475     18.21977043
S        21.52947044      4.68250227     18.22732925
S        21.51138878      2.19283724     15.62304401
S        19.21194267      4.65521193     15.81252956
S        19.23290253     15.89388466     18.16249275
P        20.51312828     17.10736465     16.96664047
S        21.64897919     18.30753326     18.04957581
S        21.64933395     15.81015015     15.73136997
S        19.19346237     18.25908661     15.95176697
S        26.08104134      8.99852753      4.67548800
P        27.22784615     10.08801270      3.43362570
S        28.58513260     11.30088425      4.52150917
S        28.32703590      8.70640755      2.21810508
S        26.21378708     11.53106117      2.33215213
S        26.05964279     22.74547577      4.71309328
S        28.53358078     24.80953407      4.55967188
P        27.35380363     23.68677330      3.53150511
S        28.29669189     22.45017052      2.11531639
S        26.19541168     25.00638771      2.26462507
S        12.42909718      9.11552525      4.71436596
P        13.71747971     10.20600224      3.32555747
S        15.02626324     11.18371105      4.67870188
S        14.66031647      8.82488537      2.16923618
S        12.53124332     11.29878521      2.28934097
S        15.13899803     24.80553627      4.62316465
S        12.38068962     22.64945984      4.68067694
P        13.72130013     23.77595711      3.49949169
S        14.66023636     22.48982620      2.21044540
S        12.46330547     24.98059654      2.16934347
P         6.58325672     10.19890404     10.08369446
S         7.83550501     11.31333160      8.77654552
S         5.16627359      9.17278671      8.99334049
S         5.64606094     11.50857067     11.33561039
S         7.80122232      9.00551128     11.24258995
P         6.60864353     23.92484474     10.09921074
S         7.74721670     24.91199493      8.74890614
S         5.23408413     22.78738022      8.97945881
S         5.57536745     25.22230721     11.33088779
S         7.86787033     22.43035507     11.27384472
S        21.38246918     11.30371380      8.94334698
S        18.77911377      9.12254715      9.03516006
S        19.19147682     11.69055939     11.21857071
P        20.23651314     10.21729851     10.11742687
S        21.51804924      8.86560917     11.11842442
S        21.45319939     24.88916588      8.76086712
P        20.25603104     23.89595413     10.12008667
S        18.81386757     22.78083801      9.03044701
S        19.18984985     25.13338470     11.33862114
S        21.39534378     22.57655525     11.18299580
S        14.94961834      4.42500210     22.52355766
S        12.32560921      2.30700874     22.84931564
S        12.48243046      4.62487316     25.12671471
P        13.61252308      3.54384398     23.79098892
S        14.64639091      2.17356491     25.12100220
S        14.85244083     17.97780418     22.61209488
S        12.28432846     15.98404121     22.77707100
S        12.50388622     18.24685669     25.07474327
P        13.69279766     17.06566620     23.84288788
S        14.68584919     15.87076092     25.10654640
S         1.25115550      4.37810278     22.55714607
S        -1.25096774      2.34095216     22.73639488
S        -1.10962999      4.72710943     25.13437843
S         1.07762825      2.22300053     25.09206772
P        -0.02643470      3.40024161     23.89513588
S         1.30959809     18.15415001     22.64341164
S        -1.36982918     15.76648235     22.71474838
S        -0.99088454     18.39952469     25.09999466
S         1.05328393     15.83217049     25.09068298
P        -0.06161412     16.99023247     23.86527252
