832

Na       34.16501617    -27.55689621      7.02088737
Na       30.61298370    -37.04567719     -6.00931454
Na       81.37323761    -19.81387711     37.13792801
Na      -16.46295166     49.17652893    -10.14461803
Na       47.25585556     20.28116989     13.88049603
Na      -57.54287338     -7.15609884     78.33073425
Na      -47.61255264    -67.94197083     23.86342621
Na       10.50208187    101.65612793    -43.94537735
Na      -68.07305908     30.56305695    -26.89858627
Na       24.81012535     -3.81710315     19.95525932
Na       54.49660492    135.83288574     34.13749313
Na      -28.05014801    -10.11073685      0.26626915
Na       -3.61115456     23.73839378      3.34209919
Na       10.75292873     -3.60731435     95.92543793
Na      -33.91107941     23.80689621     27.30743980
Na       50.79344559     16.63512230     64.92205048
Na      -20.32720184    -13.38023186    -40.17671967
Na       26.96451378     81.60000610    -11.07610226
Na       -9.70219898    -44.06176376     13.40003014
Na       16.68387222     98.80928040    -41.66976547
Na      -12.90126801     -6.73840666     47.79973221
Na       33.71447754     37.26533890     61.33526230
Na       20.67568398     27.86528587    -40.77654266
Na      -17.17545319      0.29413566     23.85552216
Na     -146.66079712      6.80647564     64.65271759
Na      -46.92030334    -68.32220459     37.26568604
Na      -10.09599018    -31.09163284      3.69008160
Na       61.19627380     44.19012833     33.86802292
Na       13.37116432    -37.65604019    -81.55017090
Na      -27.82967186     67.75740814    -34.32929611
Na      132.62858582     58.05875778    -27.09264565
Na      -13.63135910      9.99765682     47.89254379
Na       30.12545013    -24.36758041    -24.08067894
Na       44.50762558     43.16559601    -27.41629601
Na       30.30282211    -16.75236130     68.05197906
Na       10.56445789     -3.42021966     37.87425613
Na      -71.27027893     -3.51150680     61.41585922
Na      -20.49776459     23.47154427    -54.06667328
Na      -23.73939514    -16.88656425     -3.23581767
Na      -37.03329468      3.62944245     37.27536774
Na       -0.32713273    -40.92500305     71.19084167
Na      -37.63326263     50.57657623     54.58251953
Na       13.86209297    -57.78636169    -14.06157398
Na      -27.30807686    -16.93879128    -40.76523590
Na      -20.54153061     34.25115204     36.81750107
Na       27.24599838    101.62806702    135.91574097
Na        3.16683006    105.71817780     67.85281372
Na       78.62303925    -17.54321671     98.50692749
Na      -10.10044575    -64.87294006     -3.35250211
Na      -52.30578995     -3.47068930     20.03596115
Na      167.09828186     37.39171982     16.83810806
Na      -10.33388138      0.03749876      3.52140331
Na       13.40955830     37.23267365     26.84998512
Na      -31.24247169     57.74884033    -34.27047729
Na       74.60494995     60.43996429     -3.28166747
Na       27.58087921     23.67051315    -19.75418663
Na      -30.85580635    -30.77928925    -37.70912552
Na        6.88398552     64.87377930     68.01019287
Na       40.74380493    -34.12090302     54.69456482
Na      -37.39401245     34.03720474    -10.14999962
Na       30.14712334    -82.14832306     84.91256714
Na      -50.58996201      3.76050591     13.77753353
Na      -19.99204826     61.33237076     55.12921143
Na       50.81893921     -7.25670671     44.17412567
Na       -3.36077809     57.73183441     13.57386780
Na      -47.55134201    -37.13301086     27.09577751
Na       31.37826157    -40.56568527     16.61847687
Na      -16.84445000     51.48247528     78.36302948
Na       57.70159149     64.30532837      0.48839271
Na       -3.37320781    112.37456512     30.88604546
Na      -31.08051109    -46.91595840     -3.33825469
Na      -30.94948769    -17.27179146     30.60848618
Na       13.99196339    -61.36169815    -68.00755310
Na      -47.49358749     20.33219147     -3.32074380
Na      -47.77920914     -3.61396694    -13.63781071
Na       37.22834396    115.33917236     16.81673813
Na       -6.68361616      7.16179943     71.33555603
Na      -20.26268578     30.78599548     -0.46003869
Na       34.07920456     17.17024612     94.75001526
Na      102.35319519     33.26127625     20.46725655
Na       49.71019745     44.27439499     -0.12293299
Na      -40.86683655     33.73797226      3.27923822
Na       72.12342834    -20.80757332      3.45857811
Na       10.02045441     10.06557655     30.83481789
Na      -57.35275269    -16.89493179     -3.65839839
Na        2.61538744     16.76681519     17.25686836
Na      -23.78896332     57.91375732     19.87681389
Na        3.09957170     23.14362717    -30.57646751
Na        6.77455330      0.00117083     -3.01747847
Na       37.25144196      0.66110063      3.62612915
Na       16.74506187    -33.99034500     17.36161423
Na       13.25724792     81.35167694     78.01960754
Na       40.83541107      0.23293327     16.94990730
Na       17.05567551     -2.70218158    -20.24194908
Na       37.34789658    -13.23225975     -3.52645397
Na      -37.80253601     20.44996262     64.71495819
Na       -0.40041527     13.61750126     37.99274445
Na       -3.49964309     85.33670044     33.74621964
Na       74.65851593     23.85941505     19.90882492
Na       88.68419647      7.52851772     12.91419029
Na       13.59114456     19.66871452     16.66842842
Na      -13.60871506     41.36697769    -24.00066757
Na       27.85108948    -34.16936493     -6.73923588
Na       13.59067154    -68.33193207    -30.50058556
Na       -3.75010920     37.60914612    -55.01014328
Na      -13.61314678      3.66588378      6.36052608
Na       10.26284027     57.81864548    -14.27366161
Na       -7.29318953     95.54740906     47.34979248
Na       -0.29653457     47.46769714    -40.52346420
Na       23.55393028    -64.62364960     30.53614807
Na       37.54866409     57.62454605     16.87394142
Na       18.49428368     41.00153732    -17.09410095
Na      -17.04397964     64.67876434    -44.41110992
Na      -20.75347328     78.40242004    -20.62685204
Na       40.29011917     57.51912689     20.29216576
Na       37.22757721     16.96082497     61.02399826
Na       87.73912811     47.47323227    -20.47889137
Na       -6.70187235    -19.85597610     30.15445518
Na      -40.66296768     27.19469070   -102.88177490
Na      -40.92198181     -6.67778397      9.97623062
Na       88.26931000    -10.55627346     75.31378174
Na       40.97222900     16.82329559    -20.34328079
Na      -85.26356506     47.48992920     37.56082916
Na       92.30811310      6.41412115     -3.33001852
Na       37.71268463     85.40818024     57.67913055
Na       -0.45908719     47.59794617     34.32041550
Na      -13.65845871     40.83517838     71.10085297
Na      -34.33576965     33.89536285      6.31912279
Na       -2.98120689    -64.39229584    -74.55501556
Na      -10.50096607     13.65480042     44.19701004
Na      -10.51093102    -50.55596161     40.53210831
Na       -6.24121237     40.27631760     40.42917252
Na       87.75786591     20.16389465      3.35194612
Na      -24.67336082     13.00594616     30.74925041
Na       74.88576508    -68.39068604     57.97498322
Na       34.48716736    -40.72782516      6.93683958
Na       30.04257393     50.48814011    -54.17856979
Na       13.64299679     13.78649044    -19.47679710
Na      -78.70792389     51.50481796     10.30180645
Na      -13.74203777      6.20278549    -10.64616966
Na      -27.42303085    -27.55313492     10.31191254
Na       51.06715012     24.62891197     37.18452835
Na      132.40692139    -72.95120239    -17.02671051
Na       17.06968117     27.18685722     78.26612854
Na      -37.63740921     30.30776787      3.15885448
Na       51.09790039    115.00093079    -37.71959305
Na       33.51551437    -61.50836563     10.02534389
Na      -20.08150673     30.63590622     13.33830452
Na      -37.93079758     -3.25317717     10.56354809
Na       46.96350479    115.19620514    -17.20514107
Na       60.65389252     27.62599754     -7.21723747
Na       61.55971909     54.00762177    -10.76757526
Na      -87.94878387    -34.06997299     23.88340759
Na       67.88364410     64.97814178    -74.84798431
Na       63.87612152    -10.63152790     92.03883362
Na      -27.04884911      3.03365445     60.69298935
Na      -27.03103256   -119.29788208    -20.98225403
Na       -6.41865540      6.98622084    -13.74327850
Na       71.87522888     37.42230606     30.47887993
Na       26.63667679     37.90155792     34.17544937
Na      -13.34224129     -3.04122758     34.19292450
Na      -33.95244598    -27.07910538     23.70719337
Na      -72.28022766     40.88272095    -10.45914841
Na      -54.58338547     30.39902115     27.71035194
Na       81.83814240      6.86555433     -0.12993224
Na      -13.65858650     50.88099289     27.25562096
Na       17.58972740     84.98811340     47.06480789
Na       57.77777481     70.30401611    -27.59427261
Na        7.24382448    -34.45610046     47.51085663
Na       20.04409027      0.11834244     47.46354294
Na       37.77482986      6.35889864      9.83998489
Na      -13.63602829      0.88299918     67.59295654
Na        3.31694794   -159.83990479     34.12371826
Na      -24.11416245     71.41387177    -47.15140152
Na      -20.36413574     34.23630905     20.33053398
Na      -27.32801819    -20.66778374    -13.67862988
Na       58.14703369      3.82009196     37.67747498
Na       -3.23710608     82.57649994    -44.58485794
Na       58.29616547     30.35535431    -26.87752724
Na        3.77601242     74.89976501     16.73917961
Na       58.28359985    -30.90897560    -77.63610077
Na      -19.99930000     48.13046265     44.26932144
Na      -61.30683136     58.06801987     54.37871552
Na        6.79687309     81.69557190     37.36807251
Na       23.83535767    -50.70417404    105.60760498
Na       47.48058319     30.68285370      7.29539967
Na       41.20236969     -6.64019108    -57.76641464
Na       43.94385147    105.51656342     51.00601196
Na       -0.57112777    -13.88074017    -30.67855644
Na      -44.56036377     98.83300781     47.26935196
Na       23.37197304    -14.25710201    -17.02553558
Na       -3.65682912     98.50057220     16.74121666
Na       10.05190086     16.63422585     13.61248875
Na       47.44372559     36.23924637     27.36002922
Na       -6.94186258     13.24620247     27.81420898
Na        6.89910841    -51.34186172     34.76684189
Na       30.75642967     26.99293137     -3.54808354
Na       50.77680969     95.35107422     44.17832184
Na      140.18490601     24.13388824     71.06848907
Na       64.72802734     23.90291405      3.57852221
Na       10.32054329    -30.60431862     54.83130264
Na       98.13590240     16.93894005     17.19525337
Na        6.71209908     14.22702026     27.43268967
Na      -44.15196609    -14.14297009     57.58500671
Na      -20.71527672     37.35500717     27.12310219
Na      -33.91135788     54.53524399    -26.47132683
Na        0.01925641     20.29384804    -37.13836670
Na      -61.42640305     50.87773132    -68.20641327
Na       61.43214798     13.12540150     30.70619392
Na      108.38131714      6.77612591    -20.52989006
Na      -64.78146362      9.89298820     20.48743439
Na       34.12664032     20.61622047    -41.07207870
Na      -36.88506317     37.50366211    -10.55416298
Na       98.07417297     31.14696884      6.79815722
Na       47.75995636    -26.93909264    -17.34126282
Na       47.85255051     40.90476227     62.11040115
Na       23.90134811     24.06993675     27.04506874
Na       27.41782951    -20.96524429     21.17333794
Na        6.37727928     40.83854294     -7.07756186
Na       20.45484161     71.62304688     40.74174118
Na      -24.01091957    -13.05447483    -17.20219994
Na        9.48455811      6.99068260     84.85865021
Na      -13.33715820    -16.64735603     40.67716217
Na       51.40083313     16.57951736     68.22564697
Na       84.79576874    -53.98049164    -16.99131775
Na       -3.63630009     23.87329483    -47.72667694
Na       -0.08014024     34.32603073     -3.46394777
Na       65.47132111     40.98839569     37.39248276
Na       74.98650360    -61.36175919     27.40573692
Na      -37.72597504    -53.78663635     37.55163193
Na       -9.99415874    -20.28363037     51.24350357
Na       30.91423035     30.10178947     24.12767029
Na      -71.54684448     17.22492027    -78.80059052
Na       -9.92954636    -23.78738594     -3.63237262
Na     -112.88767242     91.62169647     67.48827362
Na      -24.07993507    -35.06106567     77.88648987
Na      -30.47843361     50.96817780     13.87069798
Na       13.25643921     67.74310303     27.33640289
Na      -40.22915268     74.30634308     57.61376953
Na       71.55519104    -24.30192566     -0.20618415
Na      -34.24736786    -37.50291824     -6.71249628
Na      -70.91367340     20.94843864     57.85249329
Na      -13.93088245     88.89601898     13.59073257
Na       44.01330948     10.06020737    -57.72586060
Na      -44.26384735     47.97158051    105.50949097
Na      -37.54397202     64.74320221     61.11493301
Na       33.81094742    -34.14627075     -0.13784477
Na       10.42377186    -23.48449326     -0.85662025
Na       20.56852722    -51.12969589    -41.21170044
Na       61.16560364     30.83229065     20.39425659
Na       -7.07744837    -34.17622757     44.11766815
Na       47.27987289     20.40483284     37.18356323
Na      -43.79809952     64.70901489     74.60884857
Na       -6.55508423     54.50181961     31.41425323
Na      -34.81751251    -88.66432953     57.99540329
Na      -27.25166702     47.85449219    105.51513672
Na       10.27522850     50.72730255     20.64313316
Na       10.60026836      0.99378633    -16.98160172
Na      -37.69423294    -43.74263382     10.36332130
Na        2.95107388    -10.62349510     30.77695847
Na       13.32544613    -27.75833702    101.76251221
Na      -61.50947571    -30.18641281      6.43370628
Na       -0.30283037    -28.00000191     47.51457214
Na       51.48133850    -13.49999523     30.87039185
Na      -33.66304398      0.06945138     16.75760460
Na       14.00716496     33.98506927     19.89194679
Na       30.24134827     -6.67241478    -17.34421349
Na       47.15829849     99.25766754     34.19548035
Na      -30.43087006     54.92892838     -3.56050301
Na      -43.99401093     92.05914307     23.81359100
Na        3.44736147    -71.52923584     20.61112022
Na      -27.26292610     33.82886124    -23.80109787
Na       20.75440598    -44.36153030     -7.29089689
Na      -78.81941223     61.07344055    -17.00720787
Na      -10.02499294     30.61767387     16.86512184
Na       81.79762268    -60.95885849     10.04161644
Na      -37.59787369    -92.42773438     30.18880272
Na      -24.24235153     64.71154022    -20.44636536
Na       -3.50055075     10.47433186     33.97592163
Na       31.14471436     17.37907028     14.06810570
Na       84.56240082     10.65674400    -16.82668114
Na       13.64636612    -20.26993752    -44.44420624
Na        4.08577108    -20.85247993     57.90547943
Na       26.20625496     71.51455688     47.60068130
Na      -17.05155754     -9.72398376     51.66014481
Na      -16.96010017     37.89117813    -54.84608841
Na       -0.23431110    -57.99081421     27.14543533
Na       13.61535358      6.36787224     27.08487511
Na       78.11898041     31.94989204     10.04502201
Na      -44.43665695      3.52990127    -88.27782440
Na      112.65341187    -10.21424294     92.13753510
Na       23.40980911     98.59704590    -57.72798157
Na       47.51168823     37.38308716    -20.49946976
Na      -20.77300453    115.17977905    -75.40006256
Na       85.12406921     60.89731598     71.54730225
Na       47.99379349     47.92673111    -61.01822281
Na       40.53601456     47.82764816    -20.36722374
Na       -4.04871750     67.72886658     -3.60525155
Na        2.66200233     20.36615181     85.03532410
Na       71.10986328     78.42382812     14.01442909
Na       23.83489990     51.14688110     23.67413521
Na       -0.38295585    -13.75046539    -26.60688591
Na        6.77078056     27.03118706    -54.33958435
Na        7.04213381    -27.77316666    -14.11460495
Na       13.74574757     71.24723816     20.23289871
Na      -16.91494560     44.64879990     16.83529282
Na       -0.61356306      2.77640319     47.26450729
Na      -37.36843872     40.17224884     -3.55909944
Na      -24.50735092     40.82913208     -3.48251581
Na      -10.37156105    -14.00604725      3.56448722
Na       31.32618904     91.40769196     85.06619263
Na       16.10280037     78.21298981     -6.77706957
Na     -108.86747742     33.60545731    -37.24372864
Na      -27.39474487     30.88920975     13.47342491
Na      -71.68509674     37.03095245     67.76307678
Na      -27.38455963      0.03797058     55.08578873
Na       10.21934605      3.45685649    -19.94140053
Na      -36.82249451     47.75600433     -3.04437685
Na      133.13603210    -27.13091087     44.25505447
Na      -16.66999245    -27.71923637    -10.03242493
Na       57.50255203    -21.02589226     23.73810768
Na       64.26641846      9.90398693    -37.47354507
Na      -54.45823669     27.41694450    -30.57637787
Na       14.09849644     41.98450851     40.47558212
Na       20.56091499     94.83455658    -65.24954987
Na      -30.30802155     10.57525921    -34.53080750
Na        6.86730623    -20.59532356     23.34896851
Na      -10.28976536     26.48953629     17.21817017
Na      -27.69558716     10.42922878      0.00392823
Na        0.19313824     13.41039085      6.12387228
Na       16.95747375    -10.08573532     48.15230942
Na      -95.63422394     13.02023315    129.08679199
Na       34.09354019     34.62900925    -10.57768631
Na      -40.89874649     26.72834396     37.28833008
Na       53.65770340     -6.60224152    -23.76148033
Na      -91.77310181     71.79194641      6.45083427
Na      -68.54433441     61.68834305      6.34575033
Na       -7.20937729     -6.49349546     34.24737549
Na       -2.97751546     26.94791603     30.62676620
Na        7.30280066     -0.28686652      3.69802046
Na       98.94193268     71.61462402     10.04912090
Na      -17.88584709     37.42437363    -20.50122643
Na       30.76994705    -26.23350334    -37.60044479
Na      -31.20859528     74.88703156     30.55346680
Na       13.51049995     26.78389740    -26.52447701
Na      -20.90093040    -57.64071274     20.52534676
Na       88.55276489     37.50513458     20.23155022
Na        0.50252002     37.21681976     -6.45250988
Na       47.27517319     13.83053493     77.91568756
Na      -13.20001984     61.08232880     78.31536102
Na       27.46675301    -64.89031982    122.78649139
Na       81.81995392    -84.35136414     67.83127594
Sn        3.79541183     13.41705513      6.80454016
Sn        3.56099033     26.99866676      6.97877884
Sn       17.16106987     13.75105381      6.78603888
Sn       17.04021454     27.58660507      7.07855892
Sn        2.78426790     -0.07234473     20.45322227
Sn        2.93982530     13.73736763     20.24596214
Sn       16.65102196     -0.11822969     20.55793571
Sn       16.86648369     13.20353317     20.27789879
Sn        3.33041048      0.43083248     13.51614094
Sn        3.60612082     13.71986389     13.47465515
Sn       17.05161667      0.66155058     13.55757523
Sn       17.19312096     13.71117783     13.78245449
Sn        3.13371658     12.99962139     -0.09345531
Sn        3.40763116     26.96785164      0.01102892
Sn       16.96282005     12.79692650      0.12416470
Sn       17.02594376     26.78765106     -0.02887069
Sn       10.65441132      6.85650444     20.22521019
Sn       10.65475750     20.22677994     20.35946846
Sn       24.04402733      7.03821278     20.36146545
Sn       24.08039474     20.45392990     20.59764481
Sn        9.73966885      7.19275713      6.62376022
Sn        9.74150276     20.29705620      6.82697344
Sn       23.37030602      6.97605705      6.67632675
Sn       23.45125198     20.71566391      6.91685009
Sn       10.32373333      7.06371117     27.00481987
Sn       10.16402531     20.49621964     27.37334061
Sn       23.91086388      6.95681810     27.41349792
Sn       23.99215889     20.64226151     27.12701988
Sn       10.17948437      6.39760876     13.70005035
Sn       10.38426971     20.32841492     13.66207886
Sn       23.81468582      6.66744041     13.40040779
Sn       23.46450996     20.30109406     13.71648026
Sn        9.55032921     -0.05066452     20.79050827
Sn       10.07055473     13.46087551     20.28705597
Sn       23.32703400     -0.26960939     20.64344788
Sn       23.44740868     13.70394039     20.13696861
Sn       10.28595448     13.41676521      6.73441839
Sn       10.17656040     27.45042610      6.84789610
Sn       23.97201920     13.96393490      6.82700205
Sn       23.57761955     27.23387337      6.60299492
Sn       10.33957195     13.27978611     13.39888954
Sn       10.30773067     27.14143372     13.46714115
Sn       24.33623123     13.31691933     13.86958122
Sn       23.90243721     26.99390602     13.66857815
Sn       10.16971779      0.43423885     -0.00548891
Sn        9.90611458     14.20859241     -0.05559180
Sn       23.74435997      0.17294011      0.20302854
Sn       23.51453590     14.09609413     -0.39696020
Sn        2.96479964      6.80111265      6.83381462
Sn        2.81852841     20.19491386      6.64010477
Sn       16.65917206      7.15860176      6.52420616
Sn       16.49002266     20.61168480      6.56950378
Sn        3.51292968      6.92721987     20.44569397
Sn        4.03175116     20.44193077     20.36261940
Sn       17.25956917      6.58851910     20.53963852
Sn       17.54953766     20.18393707     20.72813606
Sn        3.44070148      6.42678165     -0.06169991
Sn        3.62228298     19.68502998     -0.00322485
Sn       16.93796539      6.51264477      0.15907608
Sn       16.88889694     19.82277679      0.08626730
Sn        3.31913829      6.94465113     13.65435696
Sn        3.21276045     20.48506546     13.13275623
Sn       16.79871559      7.17172909     13.52038765
Sn       16.98045158     20.44635773     13.97665024
S         2.06865978      5.22283125      1.36902535
S         1.94989157     18.34852791      1.44843519
S        15.59076691      4.87423992      1.43839967
S        15.53661346     18.21844101      1.25682747
S         5.00667667      8.38779449     14.75164795
S         4.65363264     22.10000992     14.67024803
S        18.55129051      8.11757183     14.98278618
S        18.29634094     21.64934349     15.43750191
S        11.58644581     11.87467098      7.94788504
S        11.82394505     26.08381271      7.99625826
S        25.30052948     12.48711491      8.14492798
S        25.12672997     26.00835037      7.98745489
S         8.34498596      1.63017583     22.11192703
S         8.51352978     14.79493332     21.53162193
S        22.01334572      1.30967927     22.03118515
S        21.90599632     15.09853554     21.51794243
S         4.82405186      5.00876522     25.88765144
S         4.62854338     18.25959587     25.63018608
S        18.05764580      4.95070219     25.91088867
S        18.17981720     18.57057762     25.80314445
S         1.75609946      8.47920036     12.49590206
S         1.76590884     22.07958984     11.87022591
S        15.63459110      8.61808109     12.16806221
S        15.81182957     21.95390129     12.44931412
S         8.85536289     11.93142605     18.91816139
S         8.27449131     25.66122627     19.40189934
S        22.19718552     12.22977352     18.65979385
S        22.19878960     25.73276901     18.95402908
S        11.56336498      1.58349550      5.43021584
S        11.62355232     15.09674835      5.30514956
S        25.11532593      1.42106378      5.24708414
S        25.54461479     15.13075829      5.21411991
S         8.71123219     11.72691822     14.65691376
S         8.99288273     25.52336693     14.85838509
S        22.77037239     11.85661888     14.94673920
S        22.61720467     25.83297729     15.37974930
S        11.49476242      1.81507134      1.49120283
S        11.29705906     15.39990997      1.45673430
S        24.96704292      1.69477069      1.68555701
S        24.51724434     15.85379982      1.10742283
S         4.88434744      5.23727608     21.47506523
S         5.36488533     18.78707314     21.83850288
S        18.60651588      5.10399246     21.86306190
S        18.86143684     18.70161057     22.18272400
S         1.41390932      8.37025261      8.13443565
S         1.74586225     21.75817299      8.09204006
S        15.33015347      8.34277439      8.07132530
S        15.15230942     22.17502785      8.19380283
S        11.63762474     11.76910305     12.05201340
S        11.92751789     25.94725037     12.18352222
S        25.00642586     11.76787567     12.07850647
S        25.38796234     25.54996300     12.30131721
S         8.92076492      1.73514998     25.98096085
S         8.45057297     15.47862339     25.67834091
S        22.23650551      1.69307160     26.14155769
S        22.22460938     15.16622257     25.03893280
S         1.81907964      5.42321920      5.39375067
S         1.27343726     19.11786652      5.13220453
S        14.99308205      5.55187941      5.55425549
S        15.09065533     19.06345749      5.55339479
S         4.69224977      8.37190628     19.09266090
S         5.60133934     21.60238266     19.17870522
S        18.72110176      8.02777386     19.45489502
S        18.59799194     21.44544792     18.90633202
S        11.50592995      8.45358658     25.37766266
S        11.59807968     21.94742203     26.01439476
S        25.35331345      8.39023876     25.99802971
S        25.42354393     21.93208885     25.79136467
S         8.59594631      5.36189270     12.21979809
S         8.96992111     18.85554314     12.19908237
S        22.07044792      5.42662764     12.03262138
S        22.37148285     18.53232574     12.29573441
S         1.39406443      1.25344908     19.02416039
S         1.15423298     15.12923050     19.17697906
S        15.48312283      0.97879314     18.96993065
S        15.24932480     14.37993240     19.06472015
S         5.09028292     12.05630779      5.43432665
S         4.76570511     25.65388298      5.41052866
S        18.90009117     12.40730572      5.73414040
S        18.49868202     26.21372032      5.40465641
S         9.23407173      8.56821537      1.32917619
S         8.68881512     21.77631187      1.47178328
S        22.66103172      8.59813309      1.45724452
S        22.65470695     22.25226402      1.12481916
S        11.47485352      4.90345192     14.92996025
S        11.82754898     18.89911079     14.91473198
S        25.33498383      5.36912870     14.80133247
S        25.08706665     18.81184769     15.01480293
S         5.17413902      1.10083151      8.33552074
S         5.12624931     14.81153584      8.26095867
S        18.39461327      1.76220477      8.35790825
S        18.46962547     15.41704750      8.07241726
S         1.64063013     12.10625839     21.62224197
S         1.79989970     25.67115211     22.23150635
S        15.60547733     11.97001076     21.71424675
S        15.18023872     25.71456909     21.75321960
S         4.88105631      1.84583235     11.92689896
S         4.83340406     15.18841743     12.22584534
S        18.39586067      1.98870349     12.02592564
S        18.75814438     14.97378349     12.39786243
S         1.59208620     11.44782829     25.83190727
S         2.13523650     25.24451447     25.72923470
S        15.41496849     11.70429611     25.78767967
S        15.44508648     25.43393326     25.94430542
S         8.24199390      8.32819271      5.19210100
S         8.08020401     21.58507538      5.62076712
S        22.06999969      8.67252922      5.42335796
S        22.02775764     21.84605789      5.38894606
S        12.14671326      5.28003311     19.05344391
S        12.07887173     18.60989189     19.35080910
S        25.59420586      5.61927557     19.33162117
S        25.64027596     19.25638580     19.11957741
S         1.95519590      1.75361919     14.93349838
S         2.24697924     15.17734814     15.10399914
S        15.76177502      1.86777723     15.23197746
S        16.11713982     15.41456890     15.08763981
S         4.57409048     11.79854774      1.46071672
S         4.74021530     25.52054977      1.34688151
S        18.24132538     11.67218781      1.64291155
S        18.46523094     25.32131577      1.07542884
S        12.07516003      8.15300369     21.68647003
S        12.04123878     21.81171608     21.66226387
S        25.38085938      8.29617214     21.89439201
S        25.42991638     21.61160660     22.12254524
S         8.39103889      5.39685917      7.98587179
S         8.45840454     19.02606773      8.31788540
S        21.92497635      5.51193953      8.17787266
S        21.93606758     19.25634956      8.13933182
S         2.04059649      1.13355124      1.42886090
S         1.81759953     14.37756920      1.53255725
S        15.65695190      1.02781117      1.31519353
S        15.79231453     14.51000977      1.27124882
S         5.01040173     12.23107243     14.67631912
S         4.94136715     26.13209724     14.65824986
S        18.54154015     12.33684921     15.13694477
S        18.43201065     26.25248337     14.58180523
S         2.08335495     12.37967014      8.32548809
S         1.93102920     26.02581024      8.30568886
S        15.86562157     12.35780525      8.17573071
S        15.55403709     26.07969475      8.35821056
S         4.26030540      1.56929553     21.60488319
S         4.32087517     14.92066479     21.79077339
S        18.08387947      1.27805018     21.71835136
S        17.90682030     14.91487789     21.96774101
S         5.02452278      1.22211659     25.87447548
S         4.76810646     14.10377598     25.61082840
S        18.56074715      0.88842440     25.83088493
S        18.53566933     13.99831772     25.86785889
S         1.75215209     12.49165154     12.36068249
S         1.81506896     26.34228516     12.10472202
S        15.86194420     12.52223969     12.31394291
S        15.46711636     26.39176178     12.14288998
S         4.44467306     12.30423450     19.02060699
S         3.81321573     25.57377815     18.91642952
S        18.19784164     11.86631203     18.80226517
S        18.15765381     25.61436844     19.36968613
S         2.10203719      1.09740365      5.35205317
S         2.43617749     14.90305614      5.60413122
S        15.71958447      1.62288272      5.47031641
S        15.73950863     15.08960342      5.50614548
S         9.00514889      7.91555023     14.87270546
S         8.83355618     21.60824776     14.89399433
S        22.50182915      8.07692719     15.04114151
S        22.00097466     21.60762596     15.13039589
S        11.57977581      5.65165377      1.27512932
S        11.63609695     19.11403084      1.73559415
S        25.01281738      5.33764696      1.48485887
S        25.24216461     19.39950180      1.45882165
S         8.96277809      5.71983957     21.55507469
S         9.12776279     19.05983734     21.85311317
S        23.08812523      5.30991840     21.80234337
S        22.49993896     19.08396912     21.79006386
S        10.96308613      8.45225143      8.24308681
S        11.06418800     21.62875175      8.43564701
S        24.90659142      8.37228680      7.93584394
S        24.74186325     22.01344299      8.45356274
S        11.52135086      7.62556505     11.95326996
S        12.13200378     21.76550102     12.07969952
S        25.38566780      7.81189728     11.83750248
S        25.09262276     21.66377068     12.78439522
S         8.83621311      5.58417273     25.46876335
S         8.62140369     19.19583893     26.09035492
S        22.56991768      5.55016279     25.75333977
S        22.46119881     19.38753510     25.81583977
S        11.18761826      5.67853880      5.31016302
S        11.08994579     19.14302635      5.39011765
S        24.65647697      5.61602688      5.29495192
S        24.49467850     19.19568825      5.51672649
S         9.06650352      8.35513687     18.80648994
S         9.11936092     21.67491150     18.80099106
S        22.61299133      8.27827835     18.73927307
S        23.00168800     21.88215065     18.77034187
S        11.39763927     12.88822460     25.81435013
S        11.52692986     25.98044968     25.91238594
S        25.23020172     12.60238361     25.78766060
S        25.28447151     25.99486542     25.93248177
S         8.78952312      1.09891951     11.95279884
S         8.75039482     14.69750786     12.00794697
S        22.59046173      1.25242853     11.95597553
S        23.01898003     14.77890301     12.32106113
S        10.90618038      1.27265978     19.03539276
S        11.21057892     14.93004417     18.79880714
S        24.93463898      1.09557998     19.44330788
S        24.98401451     15.02036953     18.90148163
S         8.80404377     12.23767281      5.23432636
S         9.23368835     25.71393776      5.50823355
S        22.50165749     12.57645988      5.48907328
S        22.72802544     25.60322762      5.11362410
S         8.60592842     12.64082050      1.30622792
S         8.95024490     26.13573456      1.65826428
S        22.71121025     12.44380188      1.24200022
S        22.66592598     25.89322662      1.44224095
S        11.64974022      1.15147173     15.28585815
S        11.56482410     14.51252079     14.90539169
S        25.19627190      1.31804943     14.93401718
S        25.65727615     14.96156788     15.12539387
S         8.75516987      1.39558887      8.44229412
S         9.20225716     14.94420433      8.36633205
S        22.41982841      1.43516743      7.98408079
S        22.71550941     15.20801640      8.20262432
S        11.45484352     12.36257458     21.91073799
S        11.28347778     25.90279198     21.90792084
S        24.85239983     12.26590919     21.74627304
S        24.64682579     25.63213730     21.90532875
S         4.88944149      5.62555313     12.12152004
S         4.72697496     19.03082466     11.97917652
S        18.28484535      5.89287949     12.22950935
S        18.39779472     19.00432587     12.34794331
S         2.10963058      7.92582798     25.81155014
S         2.14214396     21.14064598     25.80585289
S        15.85058022      8.31585693     26.11571503
S        15.60617447     21.46633720     26.08047867
S         4.44596291      8.22959518      5.65768290
S         4.53260088     21.42664528      5.18636179
S        18.37948799      8.41905594      5.15297508
S        18.21215439     21.86421013      5.32602596
S         1.94903541      5.58024597     19.19661140
S         2.70552874     19.13759422     19.03831482
S        16.02743149      5.20813465     19.17388153
S        15.90699673     18.68770599     19.23606873
S         1.92827284      5.43805742     14.95938778
S         2.14424729     19.11567497     14.81656742
S        15.41433144      5.95331621     15.12664127
S        15.64999294     18.74876213     15.24210835
S         4.90774393      7.75109529      1.38392842
S         4.74085379     21.46616936      1.30934572
S        18.23214722      7.97791290      1.52105355
S        18.40535736     21.54269600      1.34618628
S         2.27527356      8.28390312     22.14106750
S         2.80062628     21.51397514     21.99189758
S        15.72055244      7.99566078     21.79463005
S        16.12871361     21.55480957     22.13108253
S         4.52762747      5.44583559      8.27507114
S         4.17770338     19.09524918      8.27491570
S        18.10620880      5.93329000      8.08171558
S        17.97257996     19.27855682      8.24433231
S         1.34949291      2.66105604      8.95977306
P        -0.02631740      3.58577800     10.21006107
S        -1.11316049      4.77003336      8.89237499
S        -1.04121327      2.28918791     11.51584530
S         1.16521764      4.80435467     11.29506588
S         1.34655750     16.02087021      8.97026062
P         0.12811768     17.27030373     10.18279552
S        -1.31479490     18.35382843      8.99555683
S        -0.96578211     16.04252625     11.27273655
S         1.14517665     18.49925041     11.45084286
P        13.65540695      3.74264574     10.26038647
S        14.87964344      2.50925851      9.08507442
S        12.42371368      4.68156242      9.02681923
S        12.53888035      2.19472694     11.21155548
S        14.91265011      4.98755407     11.29099846
S        15.01195431     16.17190552      9.02307129
P        13.62387180     17.26057243     10.20832920
S        12.37508583     18.36209679      8.97943974
S        12.58202076     15.96410084     11.35965919
S        14.81628799     18.42777252     11.30256176
S         8.05577469      9.12225246     22.64776993
P         6.87696695     10.11129093     24.01012230
S         5.73396015     11.47395134     22.91773415
S         5.76853752      8.73575974     25.05585098
S         8.03319740     11.56609917     25.00745964
S         8.11745358     22.85509872     22.52860260
S         5.73294735     24.90433502     22.95399284
P         6.88700390     23.68929672     23.82354927
S         5.73323536     22.59903336     25.18302345
S         7.99813795     25.03432846     25.14341736
S        21.80548096      9.11346436     22.65314674
P        20.51940155     10.19751072     23.93054962
S        19.10787201     11.41766548     22.86450768
S        19.32975006      8.84265423     25.07009888
S        21.78086662     11.44099236     25.11792564
S        21.67020798     22.84699249     22.55405998
P        20.56487465     23.86281395     23.99118423
S        19.25424767     24.92911720     22.75686455
S        19.38430786     22.49534988     25.18005180
S        21.67127800     24.95372963     25.15613365
S        26.25698280     11.17285442     18.29258537
S        28.55838394      8.73101521     18.18680763
S        28.61750603     11.25038815     15.98277950
P        27.49181175      9.93438148     16.99167442
S        26.22281837      9.00894547     15.83641815
S        26.23060036     24.79708099     18.26095772
S        28.67158318     22.35109329     18.19680595
S        28.61079597     24.79307175     15.97197247
P        27.43286133     23.55102730     17.10854721
S        26.19965935     22.67937469     15.75595760
S        12.60572433     11.20531273     18.32236481
S        15.10340023      8.77928829     18.16238213
P        13.75323582     10.00386333     17.07422447
S        15.04329109     11.10778046     16.02605629
S        12.56363964      9.00370502     15.70804501
S        12.70886135     24.80295753     18.39562416
S        14.96173382     22.32629585     18.26912308
S        14.95936680     24.81294632     15.84897709
P        13.81938553     23.68364906     17.22084045
S        12.62219524     22.55031013     15.56349850
S         5.28496981      4.40369558      4.51559401
S         7.97114086      2.33001637      4.70638800
S         7.98388481      4.61531544      2.39247489
P         6.68880033      3.33070946      3.32358885
S         5.56264925      1.83224928      2.31356597
S         5.35686541     18.13942909      4.60710526
S         7.79801846     15.82861519      4.69418764
S         7.80943537     18.21631813      2.23389745
S         5.84462786     15.46900272      2.27382135
P         6.68227625     16.93216705      3.44679284
S        18.90249252      4.28716993      4.70757771
S        21.54378510      2.52855968      4.79887247
S        21.58596230      4.37250853      2.22942424
P        20.31975555      3.35087585      3.46070123
S        19.21399498      1.97355735      2.05970216
S        18.89496422     18.06132317      4.46761513
S        21.57243919     15.83215809      4.71956491
S        21.47869682     18.20976448      2.28076029
P        20.29332542     16.91204262      3.46272278
S        19.32566452     15.56956005      2.32568336
S         5.74359369      2.29118729     18.13212204
P         6.78710747      3.50484276     16.91345406
S         8.09590530      4.71430588     18.18099785
S         7.99486732      2.13362527     15.74998283
S         5.53854799      4.66048098     15.88348198
S         5.70831919     15.90464973     18.27299500
P         6.83789301     16.99018097     17.06524277
S         7.98692608     18.27130318     18.09244347
S         7.96848202     15.91052723     15.65146542
S         5.66013002     18.29737091     15.78305721
P        20.40373611      3.40520263     16.97722435
S        19.33371925      2.22206616     18.31227684
S        21.70544243      4.69888401     18.19803619
S        21.50264931      2.33269596     15.66971302
S        19.28853607      4.64220142     15.70495892
S        19.33130646     15.86572075     18.18181610
P        20.44180489     17.07396507     16.98453522
S        21.72896957     18.33605003     18.18299294
S        21.53272057     15.85012627     15.72173214
S        19.20057869     18.25102043     15.79137993
S        26.01736259      9.14963722      4.74103260
P        27.22115517     10.08629513      3.41559482
S        28.59685707     11.12303352      4.49851036
S        28.40353394      8.89980316      2.19192123
S        26.19570732     11.36606503      2.33320832
S        25.98247719     22.68924904      4.65382862
S        28.66319656     24.84075928      4.56859732
P        27.34802055     23.78182220      3.46899962
S        28.32018661     22.41005516      2.18058848
S        26.12505150     24.97969246      2.31007004
S        12.37124443      9.05416107      4.70240355
P        13.77779484     10.20293140      3.36348939
S        15.04931164     11.22938824      4.64255810
S        14.71926498      8.72537613      2.17982697
S        12.44883633     11.41694927      2.29021549
S        14.87555981     24.73489380      4.57866430
S        12.53189182     22.77614594      4.75777769
P        13.62997913     23.72385597      3.32497215
S        14.75254345     22.40595818      2.19264817
S        12.57144833     25.05875206      2.32312083
P         6.50597668     10.30500126     10.11074829
S         7.97665262     11.26350498      8.78645611
S         5.13388920      9.14907074      9.06214046
S         5.54835272     11.49297047     11.33053017
S         7.86481667      8.99216557     11.14282703
P         6.54352140     23.82203865     10.08682251
S         7.84398556     24.89162827      8.77268600
S         5.23734808     22.77748871      9.00861645
S         5.60386753     25.18702888     11.37772751
S         7.80224323     22.59519958     11.18603516
S        21.35936737     11.45512486      8.87161160
S        18.87541580      8.98383999      9.03914452
S        19.36488724     11.67891884     11.24158382
P        20.15561104     10.28086758     10.10071373
S        21.34959030      8.80314064     11.17930698
S        21.33173943     24.92024994      8.81971645
P        20.22333527     23.80893135     10.09232616
S        18.84720039     22.83757019      9.00871086
S        19.29404831     25.13309097     11.26027107
S        21.41085434     22.57309532     11.25105095
S        14.86433697      4.50550890     22.65529251
S        12.19865799      2.26419854     22.67728424
S        12.58735752      4.76520872     24.98987579
P        13.60292912      3.32233763     23.98485756
S        14.76296425      2.20950103     25.11086464
S        14.94034672     18.18375587     22.71422958
S        12.22136211     15.75967503     22.87064934
S        12.49127865     18.46544456     24.95921898
P        13.66712189     17.03420830     23.91801834
S        14.69832134     15.70097160     24.95378685
S         1.21115971      4.28680134     22.52592278
S        -1.30603087      2.27067304     22.50033188
S        -1.14873648      4.84797192     25.25621033
S         1.17785406      2.21872139     25.13977814
P         0.00870068      3.44682384     23.99632835
S         1.14876819     18.00206947     22.73172188
S        -1.33344674     15.90972137     22.64209747
S        -1.02067041     18.42921638     25.03239059
S         1.19454658     15.81929588     25.11605835
P        -0.04818634     16.98197556     23.89277649
