832

Na      -54.39350128     13.09876537     -7.07619905
Na      -34.16440201     13.24816132     47.92610550
Na      139.37698364    -23.85077095     44.13229752
Na       97.62516022     85.16760254     40.68956757
Na       47.88017273    -83.77306366    -88.11402893
Na      -54.69480515     64.63530731    -20.46669388
Na       61.50635529      3.48572826     40.59843445
Na       34.36918640    -20.07791710     13.02762032
Na       54.58094406    -20.71147346    -37.11434555
Na        7.26980066    -68.40682983     44.26382446
Na      105.39897919    -47.90296173     78.30796051
Na       34.02289581    -46.98832703     62.24542618
Na       85.60926056    -58.16711426     81.40299225
Na       24.28708076     50.03677750    -16.70816040
Na       91.90122223     20.62224197    -43.79494858
Na      -98.91551208     85.18617249     10.37540436
Na       74.78290558    -27.08605385     -3.20579863
Na      -33.25541306     -3.19428825     13.85155773
Na      -20.68989944   -119.11404419   -101.65756989
Na      -40.19170761      5.91895151    -34.31681824
Na       20.51703835     -3.91316891      6.75973940
Na       26.77201843      6.77076674      6.93124008
Na       54.17024994    -14.01671124   -130.01934814
Na       31.52635193     57.99760818     47.33520889
Na       88.78507996    -95.10752106     51.22739029
Na       -9.69954967      0.16980885     44.28024292
Na       47.81195068   -101.75747681    -27.36087608
Na       44.69838333    149.13938904    119.22670746
Na       28.08546638   -122.23872375     77.89916992
Na      -13.44338512    102.22023010     10.01300144
Na       71.77826691      9.83059597     54.00507736
Na       -3.70770144     -0.59544981     10.02966976
Na      -11.93817425      6.60748863      3.40016413
Na       36.99288940    -51.06942749    -34.03935242
Na      -13.67655277    -13.64362907     81.63039398
Na       10.25826931     44.28144455      6.92095041
Na       95.42397308     43.88647842     41.26357269
Na      -54.65751648     57.77511597      0.16193002
Na      105.15192413      3.61023045     23.71948433
Na      -10.77516937    -44.32575226     92.14522552
Na      -20.73444557    -50.13451385     61.21133423
Na       65.10198975     -6.71199226     44.32250214
Na       81.75531006    -61.04612350     54.88314438
Na        3.68654275     16.95275116     51.05276108
Na        7.17339611    -20.68092346    105.65349579
Na        9.64081764    -10.08693027     23.91246796
Na      142.94262695    -68.43302155    -20.30001068
Na      -84.93743896    -43.85998917     -3.72936177
Na      -16.55207634   -101.26731110    -23.53424263
Na      -91.72380066     30.37992287    -51.18688583
Na      -13.53872871    -54.18482971     30.62328529
Na       57.56847382    -23.42763329    -74.74667358
Na        6.52863836    -61.31802368    -70.75212097
Na      -57.94501495    -23.66787720     58.36506653
Na       44.16933441   -102.26593781     64.84276581
Na      132.28088379     27.47210312     30.76645660
Na       47.68891144    -50.64006042    -20.14113235
Na      115.51289368     75.01560974    -20.48498535
Na       99.22463989    -30.76531219     30.26593018
Na      -27.06375313     27.25142670      4.04292345
Na        0.52501976     50.96105576     40.53475952
Na       95.35913849    -20.96828461     17.17887497
Na        3.47350574    -58.52528763     -3.67440200
Na      -68.64543915    -47.43365479    119.10439301
Na      -71.71636200    -10.18470287    -61.48152161
Na       21.82943726     13.43986702     71.50782013
Na       10.26508904    -41.20747375    -30.56803322
Na       57.61199570     98.52195740    -37.97809601
Na       24.02414703     -3.25748205     44.32216644
Na      -17.06502533     50.97619629     85.32495117
Na       50.84388733    -23.62761688     88.87361908
Na       17.65616798     31.00864792     10.54261017
Na      -17.06971169   -173.62817383    112.57440186
Na       89.07981873    -34.69449615     -7.06011772
Na       67.90428925    135.89422607    -30.41491508
Na      -47.64667130     20.53070831     16.86576271
Na       10.60898972    -84.96198273     24.03037643
Na       33.87347031     82.29104614    128.69050598
Na      -44.52445984   -109.33462524     -3.63102102
Na      -78.71044922     27.81749153    -16.96772957
Na      102.31726074     -6.09697390     -6.18261147
Na      135.91551208      3.45758486     68.22718811
Na      108.71070862     17.11860657    -48.05084229
Na      -62.07373047     62.21492004    -20.48923683
Na      166.98554993     -3.51828480     57.45252991
Na      -36.71950912     47.99885559     78.51794434
Na       24.38896179      3.21290684     16.86705589
Na       64.74951935     64.72273254    -20.86832237
Na      -37.84020615    -71.67366028    -74.90859985
Na       67.76308441    166.07164001    156.26594543
Na       77.90060425    -10.31931305     33.53144455
Na      -47.55752182    135.68074036     13.12335873
Na       54.29221344   -163.17443848    -68.55319214
Na       27.30528259    -41.37075043     27.02875137
Na      -34.45152664     -6.75746727     91.79576111
Na       57.37530518     44.54477692     67.62642670
Na       10.19423008    -65.14564514     68.39283752
Na      -40.72779846    -61.38446808     -6.71829176
Na      -30.72535706      3.61394119     27.25692558
Na       58.07657623    -30.25043488     68.40821838
Na       61.94694519     13.88484859     37.31326294
Na      -61.22273636     13.18821907     67.44454193
Na      149.29574585     54.97345352     90.67848206
Na      129.65045166     -6.49335003    -40.83386612
Na      -27.46137810     81.29991150    101.76922607
Na       27.59303856     47.41233826     21.05948448
Na      -17.22826958    -30.79943657     37.30875397
Na      -54.72018814     92.36141205     68.18312836
Na      -37.39305878    -34.44505310    -23.88440514
Na      -14.07230854     79.36688232     88.11576080
Na       -6.30896521   -115.74722290    -57.76324081
Na       51.10950470     10.37390232      9.99165916
Na       57.87112808     91.87617493     -3.96583247
Na       85.23239136      9.91384506     27.54183578
Na       34.04870224    -43.90236664    -88.45719147
Na      -16.62356758     92.23608398     27.65905952
Na       54.73591614     50.81303024     -6.13718224
Na       -9.86216450     78.36588287     13.81124783
Na       81.80650330     57.80395508     -6.95988846
Na       -3.41771698     99.05269623    -61.22695541
Na       54.51005554    -47.68136215    -40.81128311
Na       -5.50814915    -14.14106464     37.53327179
Na       57.92473221     43.73738480     27.25512886
Na       71.47930908     50.79425049     20.33042908
Na       40.35879135    102.86687469    -74.69746399
Na     -121.99987030    -88.81485748    -10.03950596
Na      -74.87851715     37.47376251     40.95672989
Na       72.04181671     91.76499939     -9.97160244
Na      -88.22916412    -37.61753082    107.90111542
Na       23.49815941     54.86978531    -58.08081818
Na      105.69230652     98.09603119    -10.41671562
Na      -34.27802277    -17.71165276     74.78874207
Na      -65.11116791    -10.17052364      6.61739206
Na       47.30727005    -20.60630417    -71.09148407
Na       71.17066956     24.19907188     23.43865967
Na      108.58126831     20.50605202    -50.70095444
Na       47.26154709      2.79554987     20.68080330
Na      -30.75340843    115.66819763    -51.09114838
Na        2.57267570     37.95536804    -71.10874939
Na      -71.32727051     52.67268753   -119.39525604
Na       61.12466431     61.26628494     57.85910416
Na       71.55934143     17.10672379     71.50367737
Na       92.59931183    -17.13547516    -40.45053482
Na       91.99459839      3.17747355     16.84385681
Na      -10.34649086    -92.18415833    139.27041626
Na       51.56130600     50.95303726     95.70438385
Na       24.12180901     13.90935135      3.23556209
Na       40.30132675    -27.24646568     20.22605133
Na      -27.41077042     41.33266068     98.68032837
Na       -4.00475454    -20.76001930    152.81480408
Na       37.23128891     10.05895901    -61.12894440
Na       30.69219589    -33.37924576    -16.91793251
Na      -51.04683685     43.62238693    139.31494141
Na       47.44136810      3.62661195     -0.37659857
Na       37.86255264    -61.01121902     31.00245476
Na       30.72997856    139.87963867     64.32745361
Na       54.99693680      7.49886942     37.60398102
Na      -47.77861023    -26.96529388     78.04636383
Na      -26.69571114    -64.74031830    101.94188690
Na      -43.22862244    -14.18405533     44.34469986
Na      -40.54215240     61.22869492    -27.43997192
Na        0.46104562     -3.09821248     61.70149231
Na      -30.34437180     -3.55841756     -6.57275295
Na       40.51887894     13.77248573    -88.12008667
Na      -20.05964470      7.17856836     54.48095322
Na       77.86763000    -24.36341667    -43.77322006
Na       41.20384598    -26.65748405    -14.04613400
Na      -30.49171638    -43.94422150    -64.53739166
Na      102.05364227     33.87466812     -3.78364587
Na      -37.63375854    -78.58321381     -0.54897511
Na       16.58532906    -81.67915344    -44.25928497
Na      -30.57561493     16.66653633     40.51329803
Na       61.76702118    103.01369476     27.26558304
Na        9.72716427    -17.59580803    -37.36204147
Na       68.47013092     47.47239304     -3.66870093
Na       30.99246216     16.94941711      9.94332409
Na       19.85708809     20.08183670    -54.30177307
Na     -119.42514801     -3.25475574     64.89765930
Na       37.41518402     82.27153015     85.20598602
Na      -37.25874329    -10.33970165     -6.55381489
Na       13.13908386    -44.51028061     34.61550903
Na      -44.23468781    -16.76756287    -71.03518677
Na       64.40116119     51.06047440    -47.39655685
Na      111.77414703     -3.01559687    -16.42885780
Na      -37.37305450     50.64530182    -54.74988937
Na       27.39746094     46.98818970     44.17201614
Na      108.90677643     68.68423462     30.33007812
Na       34.30609131     33.50985336     74.70947266
Na        7.22805309    -23.71721458     81.40233612
Na       51.40972137     69.27025604    -17.37304115
Na       10.31109619     -3.78200793    -13.33430099
Na      -10.02035809     -9.68730640     78.11784363
Na       51.53057098    -94.92201996    -84.86623383
Na       37.53218460     -3.37190175     -7.72723246
Na       34.10957336     16.80891037    -81.99886322
Na      -95.13703918   -142.90571594     13.87088776
Na     -138.44253540     74.57915497     -3.42858887
Na       48.05756378    -40.48647308     -3.39631200
Na      126.03748322    -40.88764572     98.74103546
Na       71.43341827    -33.49302292    -71.49813843
Na      -20.07414627     67.73264313      3.59026074
Na       51.32862854    -30.49519920    -30.55015564
Na        9.43365669     16.38091469    -16.50171280
Na      -37.75842667     91.82490540     -3.54472923
Na      -13.31083775     64.76988983     40.69400406
Na       85.56250000     88.81156921     71.53412628
Na        0.24953812    -13.62585449     64.60896301
Na       50.73117065     74.69380951    -23.97404099
Na      -61.64859009    -65.14756012     34.63114166
Na       27.56162453     74.56314850     40.63758469
Na       85.39512634     13.55079556   -125.70151520
Na      -47.72675705    -61.13343048    -51.08287811
Na      -34.26773834    -13.69239140      0.06852898
Na      112.58090210    136.69155884      3.57217383
Na       16.79671097     36.96770859     30.47850609
Na      -57.66227722     50.83533478     56.78957748
Na      -17.52086639     27.14059258     10.33693409
Na      -50.79616165     92.35569000     41.29646683
Na       -0.27611160    -27.24002266    -37.40048981
Na      -40.38208389    -40.76083755    -51.19841766
Na       71.39036560    -53.93524170     23.90013695
Na       14.80495644    -44.45581055     47.62697983
Na       16.83676338     43.76604843    -27.69243240
Na       -7.92975426    -24.78447151     96.03974152
Na       94.11782074     17.16403770    -26.71055412
Na       85.00773621     37.43492889      6.28912878
Na       50.07075882     37.42452240    -47.57285690
Na       17.24243736     67.92557526      3.35112858
Na      -61.40423584     -7.56637526    115.23791504
Na      -57.76928711     18.55976295     64.46259308
Na       27.19062996    -27.41619110      0.10088272
Na       68.22212982     71.59725189    101.92587280
Na      -51.12618637    -30.24408722     20.99378967
Na      -20.30337906     25.84071159    -26.82801056
Na       30.96624184     34.32235336     78.47031403
Na       10.74312687    -46.98290634     50.86967087
Na       99.13613129    -10.22375298     13.60653687
Na      163.61976624     -3.33426690     27.26363373
Na      -40.81860352     71.65652466      6.79236221
Na      108.90236664    -24.07619667      6.49312353
Na       37.50191116    -10.37505245     17.30342484
Na      -16.65164375    -14.52596474     85.15559387
Na        6.54440594    -44.43060303      6.56902790
Na       31.15700531     -3.41786981    -10.05492687
Na       16.97414207     37.45711136     14.08755589
Na       84.91474915    -19.34259033     30.59699631
Na       14.19717884     -3.58861136     74.91593170
Na      -13.59313774     47.29893875     30.65868950
Na       84.79109192     10.43879509    -35.10789108
Na       57.70545197     13.40706730     -9.87239170
Na      -37.11598206    -20.96815681    -37.68122482
Na       23.92433929     -7.19557190     16.97259521
Na       50.79626465    -10.06913948     82.14624786
Na      -47.48488617     55.23361588     33.99609756
Na      -62.60449600   -109.66772461    -51.23491287
Na      -47.78812790     14.86184978     47.38956451
Na       95.23738098   -132.90637207     61.15279388
Na      -14.29228783    -20.41084290      6.77080965
Na     -112.49210358     30.70956993    -88.49972534
Na      -75.05471039    -61.25072479    -58.08815384
Na     -105.34135437    -51.51757812     27.07519150
Na       -0.76545799     61.17553711    -23.75834656
Na       16.79774284      3.21214652     61.58107376
Na       20.28679276     61.09082413    -95.00804901
Na      -98.23140717     30.29009056    -29.69533730
Na      -57.94895935     27.29059219     71.28323364
Na       78.12597656    -17.45253181     20.60298729
Na       88.08631134    -52.98567963    -44.08600998
Na       38.09594727    -51.54582214    -13.51986408
Na       -4.03935051      3.11360168     13.74377251
Na       27.20041084    -91.97269440    -26.88734245
Na      -34.64244461     61.15987015     85.21448517
Na        0.23288831      9.93267059     27.35554695
Na       16.55704880     57.41788864     75.81523132
Na       77.78938293    -37.43132782     78.23821259
Na      -30.20599937     60.80344772    -71.64302826
Na       -6.24657869     -0.50665426    -10.35114574
Na       20.90280533    -47.91941071     -7.24696064
Na       61.64212418      7.01006603    -37.90779495
Na      -50.40746689   -111.96634674    115.39719391
Na       37.74079895     10.34578133    -84.56570435
Na      -34.05606461     54.54257584    -47.73372650
Na       61.52685547    -54.88947296    -64.94790649
Na       13.76394081    -13.86918068    -95.35159302
Na      -33.92451096    -26.95849228    -26.51936150
Na        6.98637247    -57.64487839      5.86641598
Na       -0.02561666     27.11053658    -72.57273865
Na       54.21805191    -33.73299026    -20.56985092
Na       -5.24777842    -71.50662231     54.65559006
Na       81.73197937    -20.58156967     -6.51468706
Na      -33.88228989     71.54010773     20.82507324
Na      -61.36931610     47.85006332     30.36456490
Na       43.66807938    -24.18217278    -37.25933838
Na       50.41812515     37.26282120     30.52553749
Na       61.32034683     -3.56851602     95.20171356
Na      119.57346344     47.46929550    -30.40996933
Na      -68.05184174    -14.63982582     61.09043884
Na       54.93189621    118.47499084    -60.95534897
Na       48.15707779    -41.60276794     34.17236710
Na      -81.35038757      6.18612242     27.43986511
Na       13.42798805     47.67397308     54.33541489
Na      -47.39696884     10.17594719    -80.99843597
Na       -2.96624732     24.03125954     33.57142639
Na       74.44081879    -53.90029144    -17.29347420
Na       34.09643173     45.19470596    -13.96450520
Na      -47.44723129     27.15536880    139.45680237
Na       16.85609245      5.79048872     23.68163109
Na       72.17927551    128.87644958    153.09010315
Na      -40.87580872    -74.73874664    -58.35577774
Na       10.49734020    112.98784637     56.61898041
Na       -7.06732988    -44.47127533    122.28849030
Na       10.43409252   -112.07709503    -26.70911407
Na       71.68341064     50.78622818     44.28113937
Na       57.73655319    -14.55937481     30.19999886
Na      153.30929565    -40.88022614    -57.83679199
Na       83.33567047    -34.79990768     -2.58199644
Na     -109.15094757    -27.08729553     50.99007797
Na       10.32322598    -23.91136932   -102.58651733
Na       34.11977386    -30.02741623    -33.86473083
Na      -13.34698582    -98.74118805    -27.37244797
Na      -72.37565613      7.32625866     10.12032795
Na      -40.93787384     13.60200214     37.04911041
Na     -142.59115601    105.67491913     27.30236626
Na        3.85093665    -34.76087570     17.44801140
Na       -0.13853694     68.82080841    176.41520691
Na      -40.39371109    -27.12345123    -10.25588894
Na      -61.09591675     95.18070221     30.66117477
Na       -6.42933178    102.31169128     71.76792145
Na      150.09809875     78.24639130     26.99572372
Na      -30.50317764    -72.26772308    122.41961670
Na       33.56724548     68.59482574     40.87634659
Na       64.49185944     60.90433121     16.99429893
Na       88.23230743    -40.57656860     81.46167755
Na       57.69951248     58.41194153     13.55217648
Na       27.09912491     48.07384109    -44.57908249
Na      -23.03944397    -91.70825195    -89.04793549
Na       17.31748772     71.84363556     65.10789490
Na      -65.09098816     78.47384644    116.01679993
Na      -13.73838139     30.85721397     27.47317123
Na       47.65255356     16.81455421    -41.07526779
Na        2.96016479     30.83131218    -23.52507210
Na       40.81359482      7.33734131     41.25219727
Na       57.74132156      3.95474219     50.97635269
Na       31.26489639     19.93051147      3.21076250
Na       30.37530708     71.65923309     34.14553452
Na       30.96322632    116.24859619    119.44400024
Na      -40.93205261     95.33920288    -84.69823456
Na       95.15570831     -2.80132461     13.66045856
Na      -54.43669891    143.28073120    -57.44205475
Na       40.74966812   -108.65501404     27.46146584
Na        3.37491536    -27.34032059    -30.43723488
Na       30.11874962    -54.72426605     99.02761078
Sn        3.35406065     13.56962109      6.62635136
Sn        3.20948148     27.39095306      7.09980965
Sn       16.95693970     13.66475391      6.93920660
Sn       16.70839119     27.34934616      6.92212439
Sn        3.39571261      0.09835959     20.38799286
Sn        3.76946592     13.52820110     20.56874657
Sn       17.00139046     -0.08569697     20.23003197
Sn       16.95489502     13.48974800     20.54063606
Sn        3.31591010      0.72667503     13.72887135
Sn        2.95682716     13.84679508     13.87682438
Sn       17.16508865     -0.02588387     13.56239128
Sn       17.45404625     13.55843639     13.54160786
Sn        3.35539961     13.19660473     -0.23189816
Sn        3.36371279     27.15905190      0.23438492
Sn       17.11023712     13.04034805     -0.05481280
Sn       17.00826454     26.85998154     -0.04156974
Sn       10.73488712      6.65797424     20.41007614
Sn       10.74855423     20.56016731     20.30168533
Sn       24.14517212      6.43552017     20.62647247
Sn       24.32205772     20.45380020     20.46058655
Sn        9.65707684      7.11912966      6.89056730
Sn        9.70391750     20.69477463      6.98476839
Sn       23.16350937      6.77146721      6.87547302
Sn       23.49110985     20.06190109      6.95197678
Sn       10.33365822      6.90132475     27.49522209
Sn        9.85109997     20.63521194     27.68802261
Sn       23.90126228      6.76257467     27.25686836
Sn       23.89902306     20.60713577     27.23999405
Sn       10.33685112      6.49044085     13.61773014
Sn       10.11937046     19.90270805     13.86059761
Sn       23.40216827      6.41834688     13.61350441
Sn       24.22331619     20.37156868     13.94871616
Sn        9.78124046     -0.18877870     20.42450714
Sn        9.87558460     13.47034931     20.56282997
Sn       23.67238808     -0.10374412     20.45029449
Sn       23.72061348     13.35896492     20.23410225
Sn       10.22170925     13.66539097      6.94844484
Sn       10.16111755     26.89210701      6.87166643
Sn       23.92272377     13.57775116      6.63361406
Sn       23.98554993     27.27826881      7.14144421
Sn       10.21862888     13.46217251     13.56907272
Sn       10.17031002     26.76829147     13.69831944
Sn       23.76580238     13.20924568     13.27517414
Sn       23.81691170     26.95182419     13.60023403
Sn       10.13636398      0.20068732     -0.09516492
Sn       10.04975700     13.74771404     -0.02028405
Sn       23.68849373      0.23875985      0.03963935
Sn       23.67181396     13.43941784     -0.28469846
Sn        3.47347403      7.09438133      6.76375341
Sn        3.19391966     20.44624710      6.52722979
Sn       16.27539253      6.66323709      6.75089550
Sn       16.99139404     20.59453011      6.80937052
Sn        3.56286812      6.97524500     20.77001762
Sn        3.88926315     20.43404961     20.65801430
Sn       17.39665222      6.30900908     20.40621758
Sn       17.27205658     20.25017929     20.45603371
Sn        3.52914286      6.68173075     -0.12199383
Sn        3.54296660     20.22293282     -0.03279153
Sn       17.08980942      6.31552601     -0.03159114
Sn       16.64209557     19.76098061      0.15067637
Sn        3.67240143      7.29217577     13.77060127
Sn        3.72476673     20.79625893     14.00869179
Sn       16.68824387      6.94858694     13.71182442
Sn       16.98420715     20.77511215     13.68894672
S         2.50549722      4.88417768      1.32903421
S         2.01746869     18.84012794      1.63680661
S        15.67575359      4.93970871      1.23122668
S        15.29773331     18.35322762      1.67028868
S         5.25176811      8.59834766     15.16003513
S         5.00515413     22.24422455     15.45474529
S        18.40607262      8.28874779     15.08724689
S        18.40348434     21.93462563     14.98625469
S        11.63475227     12.13271332      8.39262867
S        11.46040821     25.71269989      8.44009113
S        25.42867851     12.49549389      8.13264561
S        25.31567574     25.60101509      8.25865364
S         8.40746593      1.24430478     21.78794289
S         8.74443913     15.00473118     21.88980865
S        22.34865379      1.68229568     21.87151718
S        22.09241676     14.66102123     21.74427032
S         4.78266716      5.30441618     26.03296471
S         4.97732258     18.70161629     25.87238884
S        18.35635376      4.91182709     25.66692924
S        18.21444702     18.65187454     25.68033600
S         2.11718059      8.77657890     12.38432693
S         2.50083447     22.36923218     12.75212002
S        15.49418259      8.27661610     11.98340607
S        15.44064236     22.24809074     12.31279564
S         8.53271008     12.00805855     19.32727432
S         8.67468548     25.60075951     18.95701981
S        22.17551613     11.84816360     19.30857086
S        22.61499786     25.54060555     18.97881317
S        11.90212822      1.01589739      5.63000059
S        11.80519009     15.11440754      5.74515343
S        25.34886742      1.45882392      5.75088644
S        25.48185921     15.08623600      5.53731155
S         9.20928955     11.89945507     15.12635899
S         8.58464336     25.31883621     14.84961319
S        22.34217453     11.29155731     14.22438335
S        22.93099785     25.50158691     15.18222618
S        11.56029224      1.97358227      0.87759346
S        11.47585201     14.92315483      1.53247559
S        25.27584648      1.47293103      1.45588887
S        25.25065041     14.77724171      0.95506871
S         5.11552811      5.58449459     22.11926460
S         4.99809122     18.70428467     21.92775345
S        18.68413734      5.00967169     21.91078758
S        18.52995682     18.97020340     21.93124771
S         1.99779916      8.55504894      8.00902176
S         1.82307637     22.01227379      8.05169010
S        14.90702438      7.86559582      8.54817772
S        15.31168652     21.92257690      8.30378723
S        11.76285553     11.84307575     12.21925735
S        11.34190750     25.39262962     12.18843746
S        25.51107025     12.04082775     11.81665897
S        25.34511757     25.35455704     12.17710781
S         8.63391590      1.38478434     25.81324768
S         8.79504013     15.06086922     25.55357933
S        22.12857628      1.82435167     26.27152634
S        22.55483055     15.33274746     25.67066574
S         1.68331599      5.51967096      5.39965248
S         1.61143839     19.29072952      5.11532640
S        14.67575455      5.09599972      5.57638216
S        15.34240437     19.27076530      5.25645256
S         4.96026993      8.17204285     19.39920044
S         5.48765230     21.81781387     19.35607719
S        18.45911598      7.88992023     18.80384064
S        18.63409233     21.39057922     19.06023026
S        11.51163197      8.61432552     26.20479202
S        11.55586624     22.17167282     26.22947121
S        24.97541809      8.14760780     25.88541603
S        25.29299736     22.19748688     26.27736473
S         8.68564129      5.21848440     12.24346161
S         8.95085049     18.74613190     11.95918465
S        22.03432274      4.83442783     12.26139355
S        22.61480522     19.13674164     12.42849064
S         2.17988086      1.76876128     19.02408409
S         2.00879550     14.59135151     19.29700279
S        15.34463692      0.92605770     18.90019226
S        15.66737366     15.05638027     19.38340378
S         4.90723133     12.00636005      5.49249077
S         5.04292250     26.61280632      5.74005556
S        18.48736763     12.45352173      5.41815424
S        18.49494362     25.65668678      5.88405418
S         9.23820305      8.42046738      1.74324489
S         8.86121082     22.38876724      1.74655139
S        22.60044098      8.06369019      1.66913772
S        22.11776733     21.56843567      1.23167145
S        11.32054424      4.88529873     15.25051212
S        11.43798447     18.57114983     15.37613964
S        25.20316315      5.37871456     15.18718815
S        25.37189102     18.43586922     15.24169636
S         4.85642862      1.40143490      8.43528080
S         5.01184034     14.99597359      8.29146862
S        18.43511963      1.47523892      8.19591713
S        17.80991745     15.23187065      8.43018532
S         2.12996888     12.11970425     21.66055489
S         1.80158150     26.11179543     22.07324409
S        15.53707600     12.09563065     21.92209816
S        15.52130222     26.00132751     21.79021835
S         4.71776485      2.05997896     12.33891582
S         4.22003937     15.47162151     12.40010929
S        18.36061668      1.88314450     12.25090218
S        18.79817581     15.04989433     12.13422680
S         1.94497335     11.59620476     25.82320786
S         1.88671577     25.75718307     25.99784851
S        15.47217083     12.04778671     25.65686417
S        15.74923801     25.41952324     25.73896027
S         8.45062923      8.25502014      5.05565691
S         8.57024288     22.04304695      5.08921194
S        22.12066650      8.14018250      5.04660606
S        22.03838921     21.58090210      5.31054735
S        12.02554035      5.11441898     19.11433029
S        12.10041618     19.09431458     19.01762009
S        25.40530014      5.10657930     19.24689102
S        25.52132797     19.03895378     19.23853874
S         1.68028629      1.80640459     15.18062401
S         1.35461628     15.60395145     14.83298302
S        15.64814091      1.38791275     14.89741802
S        15.89375973     15.03086853     14.88690662
S         5.27798176     12.14200783      1.07669437
S         4.64934254     25.49471664      1.43034911
S        18.38453865     11.45988560      1.26436508
S        18.60727692     25.18883896      1.13518882
S        11.97895813      8.39727783     21.67784691
S        11.95624447     21.80960655     22.18171501
S        25.24869537      8.11398792     22.04339600
S        25.72105789     21.78430367     22.03223610
S         8.36713982      5.52094269      8.56072617
S         8.12049961     19.18163490      8.24212074
S        21.77926826      5.46518278      8.67236233
S        21.92690277     18.62702560      8.04159927
S         1.85576272      1.27983105      1.65700150
S         1.87577498     14.57852268      1.29172373
S        16.10804367      0.81916541      1.74164927
S        15.66791821     14.51854801      1.21818972
S         4.57855749     12.83403587     15.10593987
S         4.67718935     26.49577332     15.28174877
S        18.76528549     12.31578445     15.21751690
S        18.79615974     25.97871017     14.96262932
S         2.27994156     12.13909531      8.28382015
S         2.20178628     25.88736153      8.43563843
S        15.68103981     11.76695061      8.16078186
S        15.14393330     26.03279495      8.04736900
S         4.61628151      1.46930349     22.00164032
S         4.54680967     15.33204746     21.87340164
S        18.11252022      1.15275717     21.79157829
S        18.17497826     14.98653698     22.08917046
S         4.80079651      1.28712690     25.82768631
S         4.60137892     14.61949921     25.49012184
S        18.54114151      1.07983541     26.18274307
S        18.68981743     14.62031078     25.78521538
S         1.73441887     12.63261223     12.10926723
S         2.05159950     26.49680519     12.14938641
S        15.79469585     12.18776417     12.18943310
S        15.66178989     25.60213661     12.54296112
S         5.04171944     12.29828262     19.00624084
S         4.69043446     25.66225052     18.93656731
S        18.44542885     12.30893135     19.13714409
S        18.27343369     25.59007072     18.84437180
S         1.94587660      1.56201530      5.54997015
S         2.17573142     14.86608219      5.09718800
S        15.56826973      1.46248269      5.32595348
S        15.60649681     14.84719944      5.34552383
S         8.95931625      8.12652588     14.71474552
S         8.85234356     21.38084412     15.36608791
S        22.19540787      8.05219269     14.96293831
S        22.67811584     21.63642120     15.15054893
S        11.99536133      5.85012770      1.55209363
S        11.14680862     19.09984589      1.91477787
S        25.15041733      5.23424959      1.28235722
S        25.24542999     19.09844971      1.39468884
S         9.25150967      5.64116287     21.88642311
S         9.29561996     19.15088081     21.78065300
S        22.34714508      5.50667334     21.77937126
S        22.73686600     19.00898933     21.93268013
S        10.89743328      8.48154449      8.31429386
S        11.18176937     21.97198486      8.37807751
S        24.74706650      8.40534687      7.90725899
S        24.98843193     21.59257317      8.26178837
S        11.61115932      8.15691662     12.53899479
S        11.74248981     21.35075378     12.74706268
S        25.06497192      7.60628986     12.33940601
S        25.65240669     21.53731155     12.35124779
S         9.01000309      5.82417965     25.87734032
S         8.59582615     19.39828682     26.04913330
S        22.30797768      5.37169838     25.74821472
S        22.38343620     19.24953842     25.69135857
S        11.00477123      5.53338718      5.42089224
S        11.44698143     19.44437790      5.73890448
S        24.74664116      5.28866768      5.49549675
S        24.68516159     18.83490181      5.37825346
S         9.05156898      7.92413712     18.86770248
S         8.98769569     21.68740654     18.69629478
S        22.92974472      8.02297211     18.97040367
S        23.14964104     21.71174622     18.94668198
S        11.57350826     12.44085789     25.89306641
S        11.63412189     26.25469398     25.71742630
S        25.31191444     12.00852489     25.88823509
S        25.14218330     26.48910332     25.66763496
S         8.99328613      1.35713530     12.36900043
S         8.70643520     14.88596058     12.38641357
S        22.27360153      0.83970344     12.32088470
S        22.33925629     14.87152863     12.12192249
S        11.09332943      1.28036761     19.00050545
S        11.44818306     14.98142147     19.44474220
S        25.17411804      1.29957151     19.10954666
S        24.70610428     15.08228779     19.08314896
S         8.73380661     12.22989845      5.50402260
S         8.69748878     26.06914711      5.19263172
S        22.91312218     12.10421181      5.06560469
S        22.61564255     25.92360687      5.61904621
S         8.76326656     12.38652229      1.34161353
S         9.14764690     26.24628830      1.60484838
S        22.32921028     12.36267376      1.32115102
S        22.62236595     25.96031570      1.43846023
S        11.68183899      0.76206678     15.17421055
S        11.83683395     14.53048229     15.02679157
S        25.12840843      1.09303546     14.96531105
S        24.94990540     14.34780502     15.01964092
S         9.10456085      1.45059109      7.98751020
S         8.81941414     15.11942291      8.23216629
S        22.62461281      1.10813463      8.51563644
S        22.30336761     14.78392982      7.98005533
S        11.40551758     11.94027424     21.75518990
S        11.21067619     25.33884621     21.65994835
S        25.12105560     12.22709370     21.88433456
S        24.81388092     25.79704285     22.03905678
S         4.79304457      5.94122982     12.35988045
S         4.69454908     19.20174789     12.38828945
S        18.26661873      5.40543509     12.73789692
S        18.50518799     19.18339920     12.31800461
S         1.96849310      8.06283665     25.83627319
S         2.00302839     21.97331047     25.83242607
S        15.79506969      7.95065880     25.65748787
S        15.61787987     21.00725746     25.63952637
S         5.13651991      8.35522747      5.52439404
S         5.16183805     21.69485092      5.16550732
S        17.50725365      7.71422720      4.89535379
S        18.06428528     21.95201683      5.27659082
S         2.14528298      5.51224899     19.46392632
S         2.40633750     18.87344933     19.05161858
S        16.15661240      4.53541374     19.13864899
S        15.97034073     18.83102417     18.92459869
S         2.17268157      6.03599787     15.03823090
S         2.29905272     19.46227074     15.13368988
S        15.41093826      5.51363277     15.38598537
S        15.78781605     18.92831039     14.85777092
S         4.89274836      7.98387575      1.35223591
S         4.84946680     21.59560013      1.43174672
S        18.30109406      7.58310318      1.52087808
S        18.07114983     21.51156425      1.02358782
S         2.10891438      8.14331055     22.27511406
S         2.34365678     21.80994034     21.92073822
S        15.82733059      7.62143517     21.82087326
S        15.90866280     21.80018234     22.11943626
S         4.88810730      5.77401686      8.40263748
S         4.31414890     19.23806572      8.34872341
S        18.04556847      5.54188108      8.11057186
S        18.22230339     19.27418900      8.28298759
S         1.10999274      2.33931136      8.91827297
P         0.16173315      3.71321821     10.18735504
S        -1.15276957      4.78868580      8.86746979
S        -0.86608368      2.22990656     11.33646488
S         1.08754647      5.04362440     11.56278515
S         1.34892440     16.21613693      8.99421501
P         0.06057149     17.09687996     10.27472210
S        -1.14156246     18.39038849      9.03553295
S        -1.15024996     15.86304569     11.34745979
S         1.21929264     18.61442757     11.22338963
P        13.58380795      3.61888742     10.21785831
S        14.91754723      2.68524265      9.16233158
S        12.38805008      4.73413658      8.91136551
S        12.59912109      2.28264999     11.32754421
S        14.91933250      4.79061985     11.25428677
S        14.93759251     16.11768532      8.98810577
P        13.62036610     17.33215904     10.11718369
S        12.32971573     18.33605385      8.85557747
S        12.74001980     16.05233955     11.39826202
S        14.78140640     18.35064507     11.51082897
S         8.17296124      9.15759754     22.63390160
P         6.79744768     10.23388577     23.84348106
S         5.56455088     11.40653801     22.80227089
S         5.83372879      8.89833641     25.17995644
S         8.09704208     11.31716728     25.17365456
S         8.13987541     22.67049599     22.55946541
S         5.61236811     24.98432350     22.96038055
P         6.93655586     23.80355072     23.96663666
S         5.77267933     22.54510307     25.03150177
S         8.00898647     25.08250618     25.11947250
S        21.73281670      9.14784622     22.61536789
P        20.39558792     10.24001217     23.93744659
S        19.27003670     11.39829540     22.81852722
S        19.47339058      8.86844921     25.13827705
S        21.66732788     11.35912991     25.12684441
S        21.99319458     22.79308319     22.59790230
P        20.47352791     23.78716660     23.89277267
S        19.09713936     25.00176620     22.95825195
S        19.26747704     22.59991646     25.16336060
S        21.71047592     24.90349388     25.02265739
S        26.35999489     11.11347771     18.28434944
S        28.62661171      8.84948444     18.19120789
S        28.72926140     11.23163509     16.08456039
P        27.34014511     10.00743008     16.99428368
S        26.08632660      8.89804363     15.73595047
S        26.27480316     24.68648148     18.30715561
S        28.51354790     22.37980270     18.24618340
S        28.70243073     24.93156624     15.90767193
P        27.56389046     23.62320137     17.06479645
S        26.09528542     22.55305099     15.76694584
S        12.64761448     11.01738071     18.37208366
S        14.92065716      8.72906876     18.29156303
P        13.80152416     10.11044884     16.98463821
S        15.09439754     11.23252296     15.83615685
S        12.60674191      9.01415539     15.80558014
S        12.57529831     24.73277664     18.42280579
S        14.91793728     22.31591225     18.20143700
S        15.15535069     24.88003159     15.79925156
P        13.76235676     23.65491676     17.04378891
S        12.65865993     22.59154510     15.82475376
S         5.35577774      4.32250261      4.52659893
S         7.88348198      2.25838327      4.85936546
S         7.81733990      4.55377150      2.17352009
P         6.70863104      3.32918358      3.42216921
S         5.72688961      2.04809308      2.27331352
S         5.31147575     18.03703117      4.51554728
S         7.84917831     15.86446095      4.69969702
S         7.84374189     18.20379639      2.25900054
S         5.71867466     15.52774048      2.30471206
P         6.77117729     16.95321846      3.47790647
S        18.92163277      4.50708342      4.56419563
S        21.55174637      2.27389026      4.69845724
S        21.49178696      4.56790733      2.34375238
P        20.28256989      3.33115506      3.40332389
S        19.31698799      1.83196461      2.24459624
S        18.89491653     18.11884499      4.60643578
S        21.44401741     15.81477928      4.78222132
S        21.41064072     18.23526192      2.22322989
P        20.44248199     16.88832474      3.34490466
S        19.37810898     15.52682877      2.29554534
S         5.72488785      2.33797789     18.10215950
P         6.90977335      3.46721792     16.91682816
S         8.08977890      4.67708445     18.17715454
S         7.99080086      2.15339446     15.78548145
S         5.44895554      4.66748667     15.87852859
S         5.58197737     15.82310200     18.15937996
P         6.85830927     17.08765411     17.03548622
S         8.13472462     18.29419899     17.99542999
S         7.97514677     15.95225143     15.79503632
S         5.61228752     18.22014236     15.87886047
P        20.38745499      3.53425074     16.98633385
S        19.22118568      2.26339340     18.20508575
S        21.82167816      4.54230022     18.04009056
S        21.69810867      2.35865641     15.81908703
S        19.10510445      4.60684204     15.81192112
S        19.36286926     15.91187000     18.15527344
P        20.52383804     17.13791847     16.85251617
S        21.65300369     18.27504730     18.17614555
S        21.53492355     15.80593491     15.79400349
S        19.16353607     18.24828720     15.88002777
S        26.09275055      9.02177620      4.69040775
P        27.28634644     10.13265324      3.43210864
S        28.57496643     11.29526520      4.60145092
S        28.32933426      8.64297771      2.16103005
S        26.15343285     11.53373909      2.29583192
S        25.89877510     22.73821449      4.63093281
S        28.74874496     24.79413795      4.46212339
P        27.26857376     23.67878342      3.44481945
S        28.48416519     22.45010757      2.26282740
S        26.03597069     25.03682899      2.38055825
S        12.48286724      9.14795685      4.77796125
P        13.60452557     10.13780594      3.33599520
S        15.09124184     11.09591293      4.72548246
S        14.67479992      8.94532299      2.18356347
S        12.50712299     11.29958725      2.15455604
S        15.03412628     24.83513832      4.51004267
S        12.44541931     22.62080956      4.63837099
P        13.62810326     23.79183769      3.51363850
S        14.75378323     22.32677841      2.23946691
S        12.49992561     25.12735748      2.28208423
P         6.61993980     10.20032310     10.04425716
S         7.81970072     11.16945934      8.73157978
S         5.22130299      9.24112606      8.94330883
S         5.55579996     11.52332401     11.47317219
S         7.81682396      9.06491852     11.23811913
P         6.61123085     23.84152412     10.10791969
S         7.72582626     24.79641724      8.65653610
S         5.39207649     22.87672997      8.96578789
S         5.58536863     25.15367699     11.47117043
S         7.71876860     22.60569954     11.23119068
S        21.46889496     11.16265297      8.87489033
S        18.88406181      9.15266132      9.08200073
S        19.15223503     11.57907772     11.36504078
P        20.15763092     10.33994484     10.03415680
S        21.44211769      8.96956539     11.07400608
S        21.58291817     24.96690941      8.72456264
P        20.18136787     23.90677261      9.99529743
S        18.79052734     22.65408707      9.05064392
S        19.19066620     25.18349838     11.46054459
S        21.36026573     22.56500244     11.19772339
S        14.81623268      4.32372856     22.69159889
S        12.30493069      2.27226973     22.69403648
S        12.44997311      4.84997368     24.98818970
P        13.61426544      3.51438165     24.08362961
S        14.83122826      2.11293697     24.96408463
S        14.84488487     18.01165962     22.54782104
S        12.33759022     15.97469330     22.71139526
S        12.56969833     18.27040672     25.11895561
P        13.57190609     17.03183746     23.85801506
S        14.69111061     15.85537910     25.17767334
S         1.25409436      4.46268559     22.55675697
S        -1.44199598      2.26219082     22.58815193
S        -1.03120685      4.69726706     25.10363579
S         1.13153625      2.23507786     25.22440529
P         0.03128806      3.41260529     23.94383430
S         1.23259830     18.01247787     22.66596794
S        -1.43242109     15.95811367     22.62137794
S        -1.04664445     18.32565308     25.05475807
S         1.22528112     15.87781048     25.19831276
P        -0.03743681     16.96773911     23.87398720
