
&GLOBAL
    PROJECT libh4
    RUN_TYPE MD
    IOLEVEL LOW
&END GLOBAL

&FORCE_EVAL
    METHOD FIST
    &MM
        &FORCEFIELD
            &NONBONDED
                &DEEPMD
                    ATOMS Li B H
                    ATOMS_DEEPMD_TYPE  0  1  2
                    POT_FILE_NAME compressed_model.pb
                &END DEEPMD
            &END NONBONDED
            IGNORE_MISSING_CRITICAL_PARAMS .TRUE.
        &END FORCEFIELD
        &POISSON
            &EWALD
                EWALD_TYPE none
            &END EWALD
        &END POISSON
    &END MM
    &SUBSYS
        &CELL
           A  8.4055653148042495  -14.5588661915796447    0.0000000000000000
           B  8.4055653148042495   14.5588661915796447    0.0000000000000000
           C  0.0000000000000000    0.0000000000000000   22.2603528900000001
        &END CELL
        &COORD
Li    2.10139133       1.21323885       0.84559683       
Li    2.10139133       1.21323885       8.26571446       
Li    2.10139133       1.21323885       15.68583209      
Li    4.20278266       4.85295540       0.84559683       
Li    4.20278266       4.85295540       8.26571446       
Li    4.20278266       4.85295540       15.68583209      
Li    6.30417399       8.49267195       0.84559683       
Li    6.30417399       8.49267195       8.26571446       
Li    6.30417399       8.49267195       15.68583209      
Li    8.40556531       12.13238849      0.84559683       
Li    8.40556531       12.13238849      8.26571446       
Li    8.40556531       12.13238849      15.68583209      
Li    4.20278266       -2.42647770      0.84559683       
Li    4.20278266       -2.42647770      8.26571446       
Li    4.20278266       -2.42647770      15.68583209      
Li    6.30417399       1.21323885       0.84559683       
Li    6.30417399       1.21323885       8.26571446       
Li    6.30417399       1.21323885       15.68583209      
Li    8.40556531       4.85295540       0.84559683       
Li    8.40556531       4.85295540       8.26571446       
Li    8.40556531       4.85295540       15.68583209      
Li    10.50695664      8.49267195       0.84559683       
Li    10.50695664      8.49267195       8.26571446       
Li    10.50695664      8.49267195       15.68583209      
Li    6.30417399       -6.06619425      0.84559683       
Li    6.30417399       -6.06619425      8.26571446       
Li    6.30417399       -6.06619425      15.68583209      
Li    8.40556531       -2.42647770      0.84559683       
Li    8.40556531       -2.42647770      8.26571446       
Li    8.40556531       -2.42647770      15.68583209      
Li    10.50695664      1.21323885       0.84559683       
Li    10.50695664      1.21323885       8.26571446       
Li    12.60834797      4.85295540       0.84559683       
Li    12.60834797      4.85295540       8.26571446       
Li    12.60834797      4.85295540       15.68583209      
Li    8.40556531       -9.70591079      0.84559683       
Li    8.40556531       -9.70591079      8.26571446       
Li    8.40556531       -9.70591079      15.68583209      
Li    10.50695664      -6.06619425      0.84559683       
Li    10.50695664      -6.06619425      8.26571446       
Li    10.50695664      -6.06619425      15.68583209      
Li    12.60834797      -2.42647770      0.84559683       
Li    12.60834797      -2.42647770      8.26571446       
Li    12.60834797      -2.42647770      15.68583209      
Li    14.70973930      1.21323885       0.84559683       
Li    14.70973930      1.21323885       8.26571446       
Li    14.70973930      1.21323885       15.68583209      
Li    2.10139133       -1.21323885      4.55565565       
Li    2.10139133       -1.21323885      11.97577328      
Li    2.10139133       -1.21323885      19.39589091      
Li    4.20278266       2.42647770       4.55565565       
Li    4.20278266       2.42647770       11.97577328      
Li    4.20278266       2.42647770       19.39589091      
Li    6.30417399       6.06619425       4.55565565       
Li    6.30417399       6.06619425       11.97577328      
Li    6.30417399       6.06619425       19.39589091      
Li    8.40556531       9.70591079       4.55565565       
Li    8.40556531       9.70591079       11.97577328      
Li    8.40556531       9.70591079       19.39589091      
Li    4.20278266       -4.85295540      4.55565565       
Li    4.20278266       -4.85295540      11.97577328      
Li    4.20278266       -4.85295540      19.39589091      
Li    6.30417399       -1.21323885      4.55565565       
Li    6.30417399       -1.21323885      11.97577328      
Li    6.30417399       -1.21323885      19.39589091      
Li    8.40556531       2.42647770       4.55565565       
Li    8.40556531       2.42647770       11.97577328      
Li    8.40556531       2.42647770       19.39589091      
Li    10.50695664      6.06619425       4.55565565       
Li    10.50695664      6.06619425       11.97577328      
Li    10.50695664      6.06619425       19.39589091      
Li    6.30417399       -8.49267195      4.55565565       
Li    6.30417399       -8.49267195      11.97577328      
Li    6.30417399       -8.49267195      19.39589091      
Li    8.40556531       -4.85295540      4.55565565       
Li    8.40556531       -4.85295540      11.97577328      
Li    8.40556531       -4.85295540      19.39589091      
Li    10.50695664      -1.21323885      4.55565565       
Li    10.50695664      -1.21323885      11.97577328      
Li    10.50695664      -1.21323885      19.39589091      
Li    12.60834797      2.42647770       4.55565565       
Li    12.60834797      2.42647770       11.97577328      
Li    12.60834797      2.42647770       19.39589091      
Li    8.40556531       -12.13238849     4.55565565       
Li    8.40556531       -12.13238849     11.97577328      
Li    8.40556531       -12.13238849     19.39589091      
Li    10.50695664      -8.49267195      4.55565565       
Li    10.50695664      -8.49267195      11.97577328      
Li    10.50695664      -8.49267195      19.39589091      
Li    12.60834797      -4.85295540      4.55565565       
Li    12.60834797      -4.85295540      11.97577328      
Li    12.60834797      -4.85295540      19.39589091      
Li    14.70973930      -1.21323885      4.55565565       
Li    14.70973930      -1.21323885      11.97577328      
Li    14.70973930      -1.21323885      19.39589091      
H  2.1013913 1.2132388 2.7545042         M0
H  1.1039369 0.6373583 4.388252         M0
B  2.1013913 1.2132388 3.9741945         M0
H  2.1013913 2.365     4.388252         M0
H  3.0988457 0.6373583 4.388252         M0
H  2.1013913  1.2132388 10.174622         M1
H  2.1013913  2.365     11.80837         M1
B  2.1013913  1.2132388 11.394312         M1
H  1.1039369  0.6373583 11.80837         M1
H  3.0988457  0.6373583 11.80837         M1
H  2.1013913  1.2132388 17.59474         M2
H  1.1039369  0.6373583 19.228487         M2
B  2.1013913  1.2132388 18.81443         M2
H  2.1013913  2.365     19.228487         M2
H  3.0988457  0.6373583 19.228487         M2
B  4.2027826 4.8529553 3.9741945         M3
H  3.2053282 4.277075  4.388252         M3
H  4.2027826 4.8529553 2.7545042         M3
H  4.2027826 6.0047164 4.388252         M3
H  5.2002373 4.277075  4.388252         M3
B  4.2027826  4.8529553 11.394312         M4
H  4.2027826  6.0047164 11.80837         M4
H  4.2027826  4.8529553 10.174622         M4
H  3.2053282  4.277075  11.80837         M4
H  5.2002373  4.277075  11.80837         M4
B  4.2027826  4.8529553 18.81443         M5
H  3.2053282  4.277075  19.228487         M5
H  4.2027826  4.8529553 17.59474         M5
H  4.2027826  6.0047164 19.228487         M5
H  5.2002373  4.277075  19.228487         M5
H  5.30672   7.9167914 4.388252         M6
B  6.304174  8.492672  3.9741945         M6
H  6.304174 9.644433 4.388252         M6
H  6.304174  8.492672  2.7545042         M6
H  7.3016286 7.9167914 4.388252         M6
H  6.304174  9.644433 11.80837         M7
B  6.304174  8.492672 11.394312         M7
H  5.30672    7.9167914 11.80837         M7
H  6.304174  8.492672 10.174622         M7
H  7.3016286  7.9167914 11.80837         M7
H  6.304174  8.492672 17.59474         M8
H  5.30672    7.9167914 19.228487         M8
B  6.304174  8.492672 18.81443         M8
H  6.304174  9.644433 19.228487         M8
H  7.3016286  7.9167914 19.228487         M8
H  8.405565  12.132388   2.7545042         M9
H  8.405565 13.284149  4.388252         M9
B  8.405565  12.132388   3.9741945         M9
H  7.408111 11.556508  4.388252         M9
H  9.40302  11.556508  4.388252         M9
H  8.405565 12.132388 10.174622         M10
H  7.408111 11.556508 11.80837         M10
B  8.405565 12.132388 11.394312         M10
H  8.405565 13.284149 11.80837         M10
H  9.40302  11.556508 11.80837         M10
B  8.405565 12.132388 18.81443         M11
H  7.408111 11.556508 19.228487         M11
H  8.405565 12.132388 17.59474         M11
H  8.405565 13.284149 19.228487         M11
H  9.40302  11.556508 19.228487         M11
B  4.2027826 -2.4264777  3.9741945         M12
H  4.2027826 -1.2747165  4.388252         M12
H  4.2027826 -2.4264777  2.7545042         M12
H  3.2053282 -3.0023582  4.388252         M12
H  5.2002373 -3.0023582  4.388252         M12
B  4.2027826 -2.4264777 11.394312         M13
H  3.2053282 -3.0023582 11.80837         M13
H  4.2027826 -2.4264777 10.174622         M13
H  4.2027826 -1.2747165 11.80837         M13
H  5.2002373 -3.0023582 11.80837         M13
H  3.2053282 -3.0023582 19.228487         M14
B  4.2027826 -2.4264777 18.81443         M14
H  4.2027826 -1.2747165 19.228487         M14
H  4.2027826 -2.4264777 17.59474         M14
H  5.2002373 -3.0023582 19.228487         M14
H  6.304174 2.365    4.388252         M15
B  6.304174  1.2132388 3.9741945         M15
H  5.30672   0.6373583 4.388252         M15
H  6.304174  1.2132388 2.7545042         M15
H  7.3016286 0.6373583 4.388252         M15
H  7.3016286  0.6373583 11.80837         M16
H  6.304174   1.2132388 10.174622         M16
H  5.30672    0.6373583 11.80837         M16
H  6.304174  2.365    11.80837         M16
B  6.304174   1.2132388 11.394312         M16
H  7.3016286  0.6373583 19.228487         M17
H  6.304174   1.2132388 17.59474         M17
H  6.304174  2.365    19.228487         M17
B  6.304174   1.2132388 18.81443         M17
H  5.30672    0.6373583 19.228487         M17
H  9.40302  4.277075 4.388252         M18
H  8.405565  4.8529553 2.7545042         M18
H  7.408111 4.277075 4.388252         M18
H  8.405565  6.0047164 4.388252         M18
B  8.405565  4.8529553 3.9741945         M18
H  9.40302   4.277075 11.80837         M19
B  8.405565   4.8529553 11.394312         M19
H  7.408111  4.277075 11.80837         M19
H  8.405565   4.8529553 10.174622         M19
H  8.405565   6.0047164 11.80837         M19
H  9.40302   4.277075 19.228487         M20
B  8.405565   4.8529553 18.81443         M20
H  8.405565   4.8529553 17.59474         M20
H  7.408111  4.277075 19.228487         M20
H  8.405565   6.0047164 19.228487         M20
H  11.504411   7.9167914  4.388252         M21
B  10.506957   8.492672   3.9741945         M21
H  9.509502  7.9167914 4.388252         M21
H  10.506957   8.492672   2.7545042         M21
H  10.506957  9.644433  4.388252         M21
H  11.504411   7.9167914 11.80837         M22
H  9.509502   7.9167914 11.80837         M22
H  10.506957  9.644433 11.80837         M22
B  10.506957  8.492672 11.394312         M22
H  10.506957  8.492672 10.174622         M22
H  11.504411   7.9167914 19.228487         M23
B  10.506957  8.492672 18.81443         M23
H  10.506957  9.644433 19.228487         M23
H  10.506957  8.492672 17.59474         M23
H  9.509502   7.9167914 19.228487         M23
H  5.30672   -6.6420746  4.388252         M24
H  6.304174 -4.914433  4.388252         M24
H  7.3016286 -6.6420746  4.388252         M24
H  6.304174  -6.066194   2.7545042         M24
B  6.304174  -6.066194   3.9741945         M24
B  6.304174 -6.066194 11.394312         M25
H  5.30672   -6.6420746 11.80837         M25
H  7.3016286 -6.6420746 11.80837         M25
H  6.304174 -4.914433 11.80837         M25
H  6.304174 -6.066194 10.174622         M25
B  6.304174 -6.066194 18.81443         M26
H  7.3016286 -6.6420746 19.228487         M26
H  5.30672   -6.6420746 19.228487         M26
H  6.304174 -4.914433 19.228487         M26
H  6.304174 -6.066194 17.59474         M26
H  9.40302   -3.0023582  4.388252         M27
H  8.405565  -2.4264777  2.7545042         M27
H  7.408111  -3.0023582  4.388252         M27
H  8.405565  -1.2747165  4.388252         M27
B  8.405565  -2.4264777  3.9741945         M27
H  9.40302   -3.0023582 11.80837         M28
H  8.405565  -2.4264777 10.174622         M28
H  7.408111  -3.0023582 11.80837         M28
H  8.405565  -1.2747165 11.80837         M28
B  8.405565  -2.4264777 11.394312         M28
H  9.40302   -3.0023582 19.228487         M29
H  8.405565  -2.4264777 17.59474         M29
H  7.408111  -3.0023582 19.228487         M29
B  8.405565  -2.4264777 18.81443         M29
H  8.405565  -1.2747165 19.228487         M29
H  10.506957  2.365     4.388252         M30
H  11.504411   0.6373583  4.388252         M30
B  10.506957   1.2132388  3.9741945         M30
H  10.506957   1.2132388  2.7545042         M30
H  9.509502  0.6373583 4.388252         M30
H  10.506957   1.2132388 10.174622         M31
H  9.509502   0.6373583 11.80837         M31
H  11.504411   0.6373583 11.80837         M31
B  10.506957   1.2132388 11.394312         M31
H  10.506957  2.365    11.80837         M31
H  10.506957   1.2132388 17.59474         M32
H  9.509502   0.6373583 19.228487         M32
B  10.506957   1.2132388 18.81443         M32
H  10.506957  2.365    19.228487         M32
H  11.504411   0.6373583 19.228487         M32
H  11.610893  4.277075  4.388252         M33
H  12.608348   4.8529553  2.7545042         M33
B  12.608348   4.8529553  3.9741945         M33
H  12.608348   6.0047164  4.388252         M33
H  13.605803  4.277075  4.388252         M33
H  12.608348   6.0047164 11.80837         M34
H  12.608348   4.8529553 10.174622         M34
H  11.610893  4.277075 11.80837         M34
B  12.608348   4.8529553 11.394312         M34
H  13.605803  4.277075 11.80837         M34
H  11.610893  4.277075 19.228487         M35
H  12.608348   4.8529553 17.59474         M35
B  12.608348   4.8529553 18.81443         M35
H  12.608348   6.0047164 19.228487         M35
H  13.605803  4.277075 19.228487         M35
B  8.405565  -9.705911   3.9741945         M36
H  8.405565 -8.55415   4.388252         M36
H  8.405565  -9.705911   2.7545042         M36
H  7.408111 -10.281792   4.388252         M36
H  9.40302  -10.281792   4.388252         M36
H  7.408111 -10.281792  11.80837         M37
H  8.405565 -9.705911 10.174622         M37
B  8.405565 -9.705911 11.394312         M37
H  8.405565 -8.55415  11.80837         M37
H  9.40302  -10.281792  11.80837         M37
H  7.408111 -10.281792  19.228487         M38
B  8.405565 -9.705911 18.81443         M38
H  8.405565 -8.55415  19.228487         M38
H  8.405565 -9.705911 17.59474         M38
H  9.40302  -10.281792  19.228487         M38
B  10.506957  -6.066194   3.9741945         M39
H  10.506957 -4.914433  4.388252         M39
H  9.509502  -6.6420746  4.388252         M39
H  10.506957  -6.066194   2.7545042         M39
H  11.504411  -6.6420746  4.388252         M39
H  10.506957 -6.066194 10.174622         M40
H  9.509502  -6.6420746 11.80837         M40
B  10.506957 -6.066194 11.394312         M40
H  10.506957 -4.914433 11.80837         M40
H  11.504411  -6.6420746 11.80837         M40
H  9.509502  -6.6420746 19.228487         M41
H  10.506957 -6.066194 17.59474         M41
B  10.506957 -6.066194 18.81443         M41
H  10.506957 -4.914433 19.228487         M41
H  11.504411  -6.6420746 19.228487         M41
H  12.608348  -1.2747165  4.388252         M42
H  12.608348  -2.4264777  2.7545042         M42
H  11.610893  -3.0023582  4.388252         M42
B  12.608348  -2.4264777  3.9741945         M42
H  13.605803  -3.0023582  4.388252         M42
H  11.610893  -3.0023582 11.80837         M43
H  12.608348  -2.4264777 10.174622         M43
B  12.608348  -2.4264777 11.394312         M43
H  12.608348  -1.2747165 11.80837         M43
H  13.605803  -3.0023582 11.80837         M43
B  12.608348  -2.4264777 18.81443         M44
H  12.608348  -1.2747165 19.228487         M44
H  12.608348  -2.4264777 17.59474         M44
H  11.610893  -3.0023582 19.228487         M44
H  13.605803  -3.0023582 19.228487         M44
H  13.712285   0.6373583  4.388252         M45
H  14.70974    1.2132388  2.7545042         M45
B  14.70974    1.2132388  3.9741945         M45
H  14.70974   2.365     4.388252         M45
H  15.707193   0.6373583  4.388252         M45
H  13.712285   0.6373583 11.80837         M46
B  14.70974    1.2132388 11.394312         M46
H  14.70974  2.365   11.80837         M46
H  14.70974    1.2132388 10.174622         M46
H  15.707193   0.6373583 11.80837         M46
B  14.70974    1.2132388 18.81443         M47
H  14.70974   2.365    19.228487         M47
H  13.712285   0.6373583 19.228487         M47
H  14.70974    1.2132388 17.59474         M47
H  15.707193   0.6373583 19.228487         M47
H  1.1039369 -0.6373583  0.6781929         M48
B  2.1013913  -1.2132388   0.26413566         M48
H  3.0988457 -0.6373583  0.6781929         M48
H  2.1013913 -1.2132388 -0.9555548         M48
H  2.1013913 -2.365      0.6781929         M48
H  1.1039369 -0.6373583  8.09831         M49
H  2.1013913 -1.2132388  6.464563         M49
B  2.1013913 -1.2132388  7.684253         M49
H  3.0988457 -0.6373583  8.09831         M49
H  2.1013913 -2.365      8.09831         M49
H  1.1039369 -0.6373583 15.518428         M50
H  2.1013913 -1.2132388 13.884681         M50
H  3.0988457 -0.6373583 15.518428         M50
B  2.1013913 -1.2132388 15.104371         M50
H  2.1013913 -2.365     15.518428         M50
H  3.2053282 3.0023582 0.6781929         M51
H  4.2027826 1.2747165 0.6781929         M51
H  5.2002373 3.0023582 0.6781929         M51
B  4.2027826  2.4264777  0.26413566         M51
H  4.2027826  2.4264777 -0.9555548         M51
H  3.2053282 3.0023582 8.09831         M52
H  4.2027826 2.4264777 6.464563         M52
H  4.2027826 1.2747165 8.09831         M52
H  5.2002373 3.0023582 8.09831         M52
B  4.2027826 2.4264777 7.684253         M52
H  3.2053282  3.0023582 15.518428         M53
H  4.2027826  2.4264777 13.884681         M53
H  4.2027826  1.2747165 15.518428         M53
B  4.2027826  2.4264777 15.104371         M53
H  5.2002373  3.0023582 15.518428         M53
H  5.30672   6.6420746 0.6781929         M54
H  7.3016286 6.6420746 0.6781929         M54
H  6.304174  4.914433  0.6781929         M54
H  6.304174   6.066194  -0.9555548         M54
B  6.304174   6.066194   0.26413566         M54
H  6.304174 4.914433 8.09831         M55
H  5.30672   6.6420746 8.09831         M55
H  6.304174 6.066194 6.464563         M55
H  7.3016286 6.6420746 8.09831         M55
B  6.304174 6.066194 7.684253         M55
H  7.3016286  6.6420746 15.518428         M56
H  5.30672    6.6420746 15.518428         M56
H  6.304174  4.914433 15.518428         M56
H  6.304174  6.066194 13.884681         M56
B  6.304174  6.066194 15.104371         M56
B  8.405565   9.705911   0.26413566         M57
H  7.408111  10.281792   0.6781929         M57
H  8.405565  8.55415   0.6781929         M57
H  9.40302   10.281792   0.6781929         M57
H  8.405565   9.705911  -0.9555548         M57
B  8.405565 9.705911 7.684253         M58
H  7.408111 10.281792  8.09831         M58
H  8.405565 8.55415  8.09831         M58
H  8.405565 9.705911 6.464563         M58
H  9.40302  10.281792  8.09831         M58
H  7.408111 10.281792 15.518428         M59
B  8.405565  9.705911 15.104371         M59
H  9.40302  10.281792 15.518428         M59
H  8.405565  9.705911 13.884681         M59
H  8.405565  8.55415  15.518428         M59
H  3.2053282 -4.277075   0.6781929         M60
B  4.2027826  -4.8529553   0.26413566         M60
H  5.2002373 -4.277075   0.6781929         M60
H  4.2027826 -6.0047164  0.6781929         M60
H  4.2027826 -4.8529553 -0.9555548         M60
H  3.2053282 -4.277075   8.09831         M61
B  4.2027826 -4.8529553  7.684253         M61
H  4.2027826 -4.8529553  6.464563         M61
H  4.2027826 -6.0047164  8.09831         M61
H  5.2002373 -4.277075   8.09831         M61
H  5.2002373 -4.277075  15.518428         M62
H  3.2053282 -4.277075  15.518428         M62
B  4.2027826 -4.8529553 15.104371         M62
H  4.2027826 -4.8529553 13.884681         M62
H  4.2027826 -6.0047164 15.518428         M62
B  6.304174   -1.2132388   0.26413566         M63
H  6.304174  -1.2132388 -0.9555548         M63
H  7.3016286 -0.6373583  0.6781929         M63
H  5.30672   -0.6373583  0.6781929         M63
H  6.304174  -2.365      0.6781929         M63
B  6.304174  -1.2132388  7.684253         M64
H  6.304174 -2.365     8.09831         M64
H  7.3016286 -0.6373583  8.09831         M64
H  5.30672   -0.6373583  8.09831         M64
H  6.304174  -1.2132388  6.464563         M64
H  6.304174  -1.2132388 13.884681         M65
B  6.304174  -1.2132388 15.104371         M65
H  7.3016286 -0.6373583 15.518428         M65
H  6.304174 -2.365    15.518428         M65
H  5.30672   -0.6373583 15.518428         M65
H  9.40302   3.0023582 0.6781929         M66
B  8.405565   2.4264777  0.26413566         M66
H  8.405565   2.4264777 -0.9555548         M66
H  8.405565  1.2747165 0.6781929         M66
H  7.408111  3.0023582 0.6781929         M66
H  8.405565  2.4264777 6.464563         M67
H  8.405565  1.2747165 8.09831         M67
B  8.405565  2.4264777 7.684253         M67
H  9.40302   3.0023582 8.09831         M67
H  7.408111  3.0023582 8.09831         M67
H  8.405565   2.4264777 13.884681         M68
H  9.40302    3.0023582 15.518428         M68
B  8.405565   2.4264777 15.104371         M68
H  8.405565   1.2747165 15.518428         M68
H  7.408111   3.0023582 15.518428         M68
H  11.504411   6.6420746  0.6781929         M69
H  10.506957   4.914433   0.6781929         M69
B  10.506957    6.066194    0.26413566         M69
H  10.506957   6.066194  -0.9555548         M69
H  9.509502  6.6420746 0.6781929         M69
H  10.506957  6.066194  6.464563         M70
H  10.506957  4.914433  8.09831         M70
H  11.504411   6.6420746  8.09831         M70
B  10.506957  6.066194  7.684253         M70
H  9.509502  6.6420746 8.09831         M70
H  10.506957  6.066194 13.884681         M71
H  11.504411   6.6420746 15.518428         M71
H  10.506957  4.914433 15.518428         M71
B  10.506957  6.066194 15.104371         M71
H  9.509502   6.6420746 15.518428         M71
B  6.304174   -8.492672    0.26413566         M72
H  6.304174  -9.644433   0.6781929         M72
H  6.304174  -8.492672  -0.9555548         M72
H  7.3016286 -7.9167914  0.6781929         M72
H  5.30672   -7.9167914  0.6781929         M72
H  6.304174 -8.492672  6.464563         M73
B  6.304174 -8.492672  7.684253         M73
H  7.3016286 -7.9167914  8.09831         M73
H  6.304174 -9.644433  8.09831         M73
H  5.30672   -7.9167914  8.09831         M73
H  6.304174 -8.492672 13.884681         M74
B  6.304174 -8.492672 15.104371         M74
H  6.304174 -9.644433 15.518428         M74
H  7.3016286 -7.9167914 15.518428         M74
H  5.30672   -7.9167914 15.518428         M74
H  8.405565  -6.0047164  0.6781929         M75
B  8.405565   -4.8529553   0.26413566         M75
H  8.405565  -4.8529553 -0.9555548         M75
H  9.40302   -4.277075   0.6781929         M75
H  7.408111  -4.277075   0.6781929         M75
H  8.405565  -4.8529553  6.464563         M76
H  9.40302  -4.277075  8.09831         M76
B  8.405565  -4.8529553  7.684253         M76
H  8.405565  -6.0047164  8.09831         M76
H  7.408111 -4.277075  8.09831         M76
H  8.405565  -4.8529553 13.884681         M77
H  9.40302  -4.277075 15.518428         M77
H  8.405565  -6.0047164 15.518428         M77
B  8.405565  -4.8529553 15.104371         M77
H  7.408111 -4.277075 15.518428         M77
H  10.506957  -2.365      0.6781929         M78
H  11.504411  -0.6373583  0.6781929         M78
H  10.506957  -1.2132388 -0.9555548         M78
B  10.506957   -1.2132388   0.26413566         M78
H  9.509502  -0.6373583  0.6781929         M78
H  10.506957  -1.2132388  6.464563         M79
H  11.504411  -0.6373583  8.09831         M79
H  10.506957 -2.365     8.09831         M79
B  10.506957  -1.2132388  7.684253         M79
H  9.509502  -0.6373583  8.09831         M79
H  9.509502  -0.6373583 15.518428         M80
H  10.506957  -1.2132388 13.884681         M80
B  10.506957  -1.2132388 15.104371         M80
H  10.506957 -2.365    15.518428         M80
H  11.504411  -0.6373583 15.518428         M80
H  11.610893   3.0023582  0.6781929         M81
B  12.608348    2.4264777   0.26413566         M81
H  13.605803   3.0023582  0.6781929         M81
H  12.608348   2.4264777 -0.9555548         M81
H  12.608348   1.2747165  0.6781929         M81
H  11.610893   3.0023582  8.09831         M82
H  12.608348   2.4264777  6.464563         M82
B  12.608348   2.4264777  7.684253         M82
H  12.608348   1.2747165  8.09831         M82
H  13.605803   3.0023582  8.09831         M82
H  11.610893   3.0023582 15.518428         M83
H  12.608348   2.4264777 13.884681         M83
H  12.608348   1.2747165 15.518428         M83
B  12.608348   2.4264777 15.104371         M83
H  13.605803   3.0023582 15.518428         M83
H  7.408111  -11.556508    0.6781929         M84
H  9.40302   -11.556508    0.6781929         M84
B  8.405565   -12.132388     0.26413566         M84
H  8.405565  -12.132388   -0.9555548         M84
H  8.405565  -13.284149    0.6781929         M84
H  7.408111 -11.556508   8.09831         M85
H  8.405565 -12.132388   6.464563         M85
H  9.40302  -11.556508   8.09831         M85
H  8.405565 -13.284149   8.09831         M85
B  8.405565 -12.132388   7.684253         M85
H  7.408111 -11.556508  15.518428         M86
H  8.405565 -12.132388  13.884681         M86
H  8.405565 -13.284149  15.518428         M86
H  9.40302  -11.556508  15.518428         M86
B  8.405565 -12.132388  15.104371         M86
H  10.506957  -9.644433   0.6781929         M87
H  9.509502  -7.9167914  0.6781929         M87
H  11.504411  -7.9167914  0.6781929         M87
H  10.506957  -8.492672  -0.9555548         M87
B  10.506957   -8.492672    0.26413566         M87
H  11.504411  -7.9167914  8.09831         M88
H  9.509502  -7.9167914  8.09831         M88
H  10.506957 -9.644433  8.09831         M88
H  10.506957 -8.492672  6.464563         M88
B  10.506957 -8.492672  7.684253         M88
H  9.509502  -7.9167914 15.518428         M89
H  11.504411  -7.9167914 15.518428         M89
H  10.506957 -9.644433 15.518428         M89
H  10.506957 -8.492672 13.884681         M89
B  10.506957 -8.492672 15.104371         M89
B  12.608348   -4.8529553   0.26413566         M90
H  11.610893  -4.277075   0.6781929         M90
H  12.608348  -6.0047164  0.6781929         M90
H  13.605803  -4.277075   0.6781929         M90
H  12.608348  -4.8529553 -0.9555548         M90
H  11.610893 -4.277075  8.09831         M91
B  12.608348  -4.8529553  7.684253         M91
H  13.605803 -4.277075  8.09831         M91
H  12.608348  -4.8529553  6.464563         M91
H  12.608348  -6.0047164  8.09831         M91
H  11.610893 -4.277075 15.518428         M92
B  12.608348  -4.8529553 15.104371         M92
H  12.608348  -4.8529553 13.884681         M92
H  13.605803 -4.277075 15.518428         M92
H  12.608348  -6.0047164 15.518428         M92
H  14.70974   -2.365      0.6781929         M93
H  13.712285  -0.6373583  0.6781929         M93
B  14.70974    -1.2132388   0.26413566         M93
H  15.707193  -0.6373583  0.6781929         M93
H  14.70974   -1.2132388 -0.9555548         M93
H  15.707193  -0.6373583  8.09831         M94
H  13.712285  -0.6373583  8.09831         M94
B  14.70974   -1.2132388  7.684253         M94
H  14.70974   -1.2132388  6.464563         M94
H  14.70974 -2.365    8.09831         M94
B  14.70974   -1.2132388 15.104371         M95
H  14.70974  -2.365    15.518428         M95
H  13.712285  -0.6373583 15.518428         M95
H  14.70974   -1.2132388 13.884681         M95
H  15.707193  -0.6373583 15.518428         M95
        &END COORD
! -----------------------
!           CV1          |
! -----------------------
&COLVAR
  &COMBINE_COLVAR
    &COLVAR 
      &DISTANCE
        POINTS 1 2
        &POINT 
          ATOMS 32
          TYPE GEO_CENTER
        &END POINT
        &POINT 
          ATOMS 494 508 433
          TYPE GEO_CENTER
        &END POINT
      &END DISTANCE
    &END COLVAR
    
    &COLVAR 
      &DISTANCE
        POINTS 1 2
        &POINT 
          ATOMS 67
          TYPE GEO_CENTER
        &END POINT
        &POINT 
          ATOMS 192 254 180
          TYPE GEO_CENTER
        &END POINT
      &END DISTANCE
    &END COLVAR
    
    &COLVAR
      &DISTANCE
        POINTS 1 2
        &POINT 
          ATOMS 32
          TYPE GEO_CENTER
        &END POINT
        &POINT 
          ATOMS  192 254 180
          TYPE GEO_CENTER
        &END POINT
      &END DISTANCE
    &END COLVAR

    &COLVAR
      &DISTANCE
        POINTS 1 2
        &POINT 
          ATOMS 67
          TYPE GEO_CENTER
        &END POINT
        &POINT 
          ATOMS 498 514 438
          TYPE GEO_CENTER
        &END POINT
      &END DISTANCE
    &END COLVAR
    FUNCTION d1+d2-d3-d4
    VARIABLES d1 d2 d3 d4
  &END COMBINE_COLVAR
&END COLVAR

! -----------------------
!           CV2          |
! -----------------------
&COLVAR
  &DISTANCE
    ATOMS 32 67
  &END DISTANCE
&END COLVAR

@INCLUDE 'subsys_colvar.inp'


&END SUBSYS
&END FORCE_EVAL
&MOTION
  &MD
    ENSEMBLE NVT
    STEPS  5000000
    TIMESTEP .5
    TEMPERATURE 300
    !TEMP_TOL   100
    &THERMOSTAT
      &NOSE
        LENGTH 3
        !YOSHIDA 3
        TIMECON 100.0
        !MTS 2
      &END NOSE
    &END
    !ANGVEL_ZERO
    !COMVEL_TOL  2.0E-7

    &PRINT
      &ENERGY
        &EACH