3075

Na        2.21586561     -0.21980503      4.88634300
Na        2.21000838     -0.22065583      9.16197014
Na        2.28866720     -0.09154715     13.78089237
Na        2.33769321     -0.14386499     18.47250175
Na        4.50821400     -2.26127577     22.56113052
Na        2.25109553     -0.05749907     27.18231201
Na        2.29751325     -0.18915023     31.65102768
Na        2.24360371      4.41139507      9.19294167
Na        2.57271147      4.57871532     13.69061279
Na        2.29633093      4.47692347     18.14673424
Na        2.03230143      4.69289970     22.60100174
Na        2.20108032      4.55339956     27.13783455
Na        2.32730675      4.91914558     32.10833359
Na        2.35863090      8.95347118      4.63880968
Na        4.44382858     11.48149395      9.26328182
Na        2.38388014      9.55970955     13.74895287
Na        2.18744254      9.30982685     17.99092102
Na        2.57280326      8.94566822     22.79260254
Na        2.39847660      9.19081974     27.31754303
Na        2.42475891      9.35553265     31.94181442
Na        2.31517911     13.96513462      4.47076988
Na       -0.06107790     11.27886486      8.88856888
Na        2.51508260     13.47061634     13.69415760
Na        2.48055124     13.70477772     18.31053925
Na        2.37656569     14.08471394     22.92084312
Na        2.17174268     13.62736893     27.75852013
Na        2.30365705     13.59167194     31.80727959
Na        2.35001302     18.22080421      4.06374454
Na        2.20295048     17.95595932      9.05347443
Na        2.44422126     18.76868629     13.57690334
Na        2.49380326     18.20039558     18.21669388
Na        2.31845236     18.02894783     23.12671471
Na        2.37737179     18.25228310     27.11884689
Na        2.35845184     18.53317642     31.94902802
Na        2.51240325     22.74252892      4.58827734
Na        2.15787888     23.16622734      8.79640484
Na        4.60297775     25.47897720     13.75393295
Na        2.38792968     22.96403503     18.48048782
Na        2.27106643     22.66694641     22.96686935
Na        2.27540207     22.78663445     27.26976013
Na        1.98378742     22.58955383     32.22879410
Na        2.46425033     27.31753731      4.85986471
Na        2.08566332     27.58024788      9.23929596
Na       -0.15221383     27.24321365     16.01684189
Na        4.41359425     29.79812050     18.01301575
Na        2.08313179     27.04312515     22.82442474
Na        2.36374855     27.35928726     27.66807938
Na        1.94428408     27.46443939     31.79938126
Na        6.85335255     -0.14963655      4.46568155
Na        6.84995365      0.10011431      9.18849468
Na        7.03859425      0.09105205     13.83453751
Na        4.32263231      0.20269328     20.43209839
Na        6.87163162      0.19256242     23.07703400
Na        6.62021971     -0.10606518     27.22809219
Na        6.79947424     -0.14104295     31.98007774
Na        2.18021154      4.62357283      4.45796061
Na        4.41648531      4.38960171      6.67035103
Na        6.95238018      4.72120428     13.75560760
Na        6.92304516      4.45273113     18.23738098
Na        6.76319599      4.40549135     22.62120438
Na        6.90939903      4.89334106     27.59203529
Na        6.72902822      4.86852837     32.11251450
Na        6.86812735      9.12280846      4.46928692
Na        7.03182554      9.07958508      9.41920662
Na        6.78565550      9.25288773     13.92973423
Na        6.66919756      8.97638416     18.35608864
Na        7.08218956      8.86502934     22.45376015
Na        6.86974430      8.83345509     27.77293396
Na        6.63456297      9.12506199     31.60036850
Na        6.90171242     13.31893539      4.41356277
Na        6.90812063     13.66320896      9.20191002
Na        6.99243832     13.81311893     13.67540073
Na        7.01045275     14.26066780     18.26749229
Na        6.84790468     13.88413334     22.94873238
Na        6.85499334     13.65058422     27.31169319
Na        6.61577463     14.12826347     31.98132896
Na        6.99337626     18.39041710      4.56307793
Na        6.82637119     18.50091171      9.23551846
Na        6.54147053     18.39663315     13.83802223
Na        6.81940794     18.37171173     18.42302132
Na        6.77701092     18.65902710     23.22294044
Na        6.97553825     18.04780006     27.32258987
Na        6.99750805     17.93856621     31.69062424
Na        6.71890211     22.90510941      4.38827276
Na        9.15709496     22.86303711      6.81546926
Na        6.71012688     23.03109550     13.62853527
Na        6.76787710     23.01764870     18.43049431
Na        6.96804333     23.02669907     22.70924759
Na        7.20777750     23.27710724     27.27576447
Na        6.77604246     22.88217926     31.92319489
Na        6.69551802     27.40020561      9.05940723
Na        7.04536867     27.45732689     13.39610767
Na        6.79015446     27.43551254     18.33296013
Na        9.32811356     25.19989777     22.53869247
Na        6.82866096     27.68375778     27.65607834
Na        6.86464596     27.25034142     31.95775986
Na       11.30954170      0.21553196      4.29567337
Na        9.25003910     -0.00553916     11.35568237
Na       11.48485947     -0.12568226     13.41950417
Na       11.50396061      0.17893387     18.21866608
Na        9.11476803     -2.22481942     27.30815887
Na       11.07759953      0.30887824     31.80904579
Na       11.35610104      4.18367434      4.86449099
Na       11.62170696      4.69141388      9.13858891
Na       11.44673157      4.67131901     13.49108696
Na       11.50725651      4.29285002     18.01140022
Na       11.38289833      4.64961243     22.97356987
Na       11.39794159      4.39775467     27.44566345
Na        8.73275089      4.34331369     34.14738464
Na       11.55515575      9.23588467      4.48363495
Na       11.46816158      8.83731556      9.30325222
Na       11.35058403      9.08271313     13.80250931
Na       11.32834816      9.15731430     18.05517197
Na       11.42001247      9.19591141     23.05542946
Na       11.37186241      9.21099758     27.58150101
Na       11.37698555      8.76930523     32.01205444
Na       11.43347263     13.73000431      4.24931335
Na       11.42113590     13.78934669      9.51348495
Na       11.46870327     13.58179283     13.52576733
Na       11.58235836     13.82094193     18.49562454
Na       11.33165741     13.70709705     22.57015228
Na       11.55241394     13.71212101     27.63116837
Na       11.49017715     13.69419575     32.00033188
Na       11.53635883     18.40434456      4.38767242
Na       11.26134491     18.51371193      9.34500790
Na       11.20041561     18.60955238     13.79926777
Na       11.29079533     18.33611107     18.33035851
Na       11.38753033     18.23983574     22.67217064
Na       11.45563126     18.20769119     27.55178261
Na       11.56525326     18.49872971     32.21193314
Na       11.37873650     22.68501854      4.73657513
Na       11.28942490     22.74827576      8.98996735
Na       11.42944241     23.02258873     13.66382885
Na       11.35878849     22.79779816     18.40963554
Na       11.61877537     23.03794479     22.66227531
Na       11.48074341     22.97990227     27.20309067
Na       11.57230949     22.50107574     31.68493652
Na       11.32871342     27.75147820      4.24524069
Na        8.72792435     27.34553528      6.81923342
Na       11.56334972     27.58517647     13.93182945
Na       11.37729359     27.50565529     18.08848190
Na       11.34545994     27.79116249     22.83933258
Na       13.62642670     27.29476738     29.52889061
Na       11.50981617     26.99217606     32.28579712
Na       13.89944935      0.18848163      6.91809368
Na       16.16924858      0.17704889      9.07699871
Na       16.16546059      0.20061675     13.44487095
Na       16.12689018      0.02148097     18.00886345
Na       13.71463299      2.43854952     22.82557869
Na       16.00085640      0.01223175     27.30028343
Na       15.82117844     -0.05792356     31.95025635
Na       16.05080605      4.56786013      4.41396093
Na       18.33977509      2.49212217      9.11534786
Na       16.03641129      4.70020342     13.44078636
Na       15.90708923      4.70863104     18.36422157
Na       15.83741474      4.53128242     22.82435608
Na       15.92397213      4.36173534     27.67468643
Na       15.97715473      4.41379786     31.92813683
Na       16.06838036      8.77957726      4.81578541
Na       15.85755348      9.40008831      9.16280365
Na       16.10194206      8.89991665     13.66623402
Na       16.13433456      9.25855160     18.40050888
Na       15.87588024      9.23124027     22.76654053
Na       15.91613197      8.46356678     27.34077454
Na       16.01001930      9.11726284     32.07305145
Na       15.81626415     13.50424862      4.76469755
Na       15.92259979     13.74954796      9.00809288
Na       15.86932659     13.80283833     13.80974960
Na       15.88839626     13.76777935     18.14029503
Na       15.94861126     13.46069622     22.74043083
Na       16.10678482     13.57230663     27.46246910
Na       15.98134613     13.49064255     32.30178070
Na       14.08432961     20.56053734      4.27859068
Na       15.79699707     18.49251938      9.36971378
Na       15.89326000     18.31212425     13.80943966
Na       16.05489540     18.51507568     18.40848732
Na       16.07091713     18.30871201     22.74011421
Na       13.82743168     16.17551994     27.38477898
Na       15.93128681     17.95310211     32.10279846
Na       18.01200485     23.00152206      2.08565855
Na       16.07053947     22.96076202      8.82888126
Na       16.06500626     23.16761780     13.46688747
Na       16.17255402     22.89099121     18.61028481
Na       16.19148827     22.97963905     22.90093613
Na       16.00832558     22.85447693     27.18259811
Na       16.21006775     22.61247826     31.63127708
Na       13.97986984     27.50401878      6.74273825
Na       15.97365189     27.48170662      9.15747929
Na       16.03358650     27.64858437     13.99184227
Na       18.33005905     27.53110504     15.85488224
Na       16.06292534     27.66801453     23.00305939
Na       13.73254108     27.27062416     25.20053673
Na       15.90774536     27.60515404     32.12092972
Na       20.30004311      0.13234709      4.16766691
Na       20.78641319     -0.01969103      9.17954826
Na       20.57738876     -0.25269589     13.84476757
Na       18.42354393     -2.14301467     18.46414375
Na       18.15221786      0.48469773     20.47443771
Na       20.61031151     -0.10140727     27.43846893
Na       20.25638580      0.02792702     31.92691994
Na       20.67177963      4.60655355      4.56569195
Na       20.52098656      4.61396742      9.23277760
Na       20.36699677      4.31642914     13.64790535
Na       20.74513245      4.36316347     18.52885246
Na       20.50649834      4.94044781     23.02202606
Na       20.39048767      4.28244209     27.54482651
Na       20.68808746      4.30683374     31.69779396
Na       20.76557541      9.44302940      4.54713297
Na       20.33137131      9.16720772      9.26610279
Na       20.49311447      9.13146973     13.92942333
Na       22.54756355      9.47600555     20.60104561
Na       20.57939148      8.72313595     22.84717369
Na       20.60388565      9.15931416     27.53676796
Na       20.65865898      9.26644707     31.86660957
Na       20.49000359     13.57479286      4.67865133
Na       20.46655655     13.57632637      9.06171608
Na       20.46093178     13.62053490     13.74456310
Na       20.31658745     13.65168762     17.87105751
Na       20.63670731     13.95536518     23.10784531
Na       20.36719131     13.71772289     27.47902489
Na       20.46832275     13.94955730     32.45208359
Na       20.71187973     18.31381607      4.78991652
Na       20.54278755     18.03364563      8.95461941
Na       20.65213013     18.30612564     13.44884109
Na       20.54576874     18.24064827     17.93544579
Na       20.69978714     18.45532990     22.56052589
Na       18.37097740     18.40805244     25.28980637
Na       20.62607193     18.60157967     32.11526108
Na       20.75177765     22.92337036      4.67789078
Na       20.71830559     22.93375206      9.08010292
Na       23.08854485     24.83862495     13.49874115
Na       20.71664238     22.37622452     18.21604538
Na       20.68535423     22.91499710     22.64482117
Na       20.82310295     22.52998543     27.69911575
Na       20.43080902     23.06147003     32.20763016
Na       20.54693222     27.20594597      4.31002331
Na       20.56046486     27.09364891      9.31576157
Na       23.03135300     27.29060936     11.40930748
Na       20.75340271     27.45786858     18.13999939
Na       20.66521454     27.66516495     22.86120987
Na       20.57360458     27.57257080     27.31049347
Na       20.55357170     27.40233040     31.97935677
Na       25.09939575      0.22191963      4.34074497
Na       25.34704590     -0.18897966      9.60394001
Na       25.28930473     -0.11502983     13.24629116
Na       25.32540512     -0.02675468     18.16807747
Na       23.09189987     -2.18647480     23.18008614
Na       25.22221375      0.08150019     27.39554977
Na       24.90532303     -0.00585298     32.24774933
Na       25.01866913      4.43629265      8.84313583
Na       27.26307869      6.94272566     13.85306644
Na       25.30599403      4.60973644     18.39949608
Na       22.75654411      2.08160186     22.84758759
Na       25.08067322      4.43221712     27.57946205
Na       25.03105354      4.83022594     32.15153122
Na       25.07040024      9.19319344      4.30766964
Na       25.13352585      9.18600655      9.20879841
Na       22.89570045      9.09575176     15.95595741
Na       25.18564987      9.21853065     18.43662834
Na       25.10325241      9.20774651     22.56353569
Na       24.95328140      9.17434216     27.34936142
Na       25.29076767      9.13035679     32.16294861
Na       25.13940048     13.41111946      4.71309042
Na       25.10749817     13.74333763      9.54373932
Na       25.10827255     13.87825584     13.66806984
Na       25.02371407     13.87458134     18.38969040
Na       25.17482185     13.70246029     22.72850990
Na       25.18814278     13.81515694     27.54292297
Na       25.17267227     13.61928177     32.18040466
Na       25.01325989     18.21273994      4.58710480
Na       25.38579941     18.33539009      9.06111813
Na       25.09214401     18.41791916     13.70839214
Na       24.87165260     18.47078514     18.08250046
Na       25.42889595     18.14732742     22.93192291
Na       25.01596642     18.35594940     27.36192894
Na       25.05176353     18.00865555     31.96441841
Na       25.36361313     22.76531601      4.37023878
Na       25.37852287     22.80846405      9.24283886
Na       22.65971756     22.82288933     11.58175945
Na       27.67535400     22.91224480     15.78096771
Na       23.22238159     22.88725853     25.12970352
Na       25.10124779     22.97084427     27.62354851
Na       25.16171837     22.78833580     31.87512589
Na       25.00679398     27.16386986      4.65481281
Na       27.15294456     27.20390892      6.89270782
Na       20.78127289     27.21273994     13.90880013
Na       25.23797607     27.18616867     18.17085075
Na       25.31439590     27.63561821     22.93634033
Na       25.12035561     27.39803696     27.09490013
Na       25.15233803     27.33465576     32.17743683
Na       29.82183075     -0.09940580      4.98356104
Na       29.74852943     -0.23428667      9.66289711
Na       29.71908760      0.24562258     13.56307697
Na       29.51600266     -0.11569025     18.20164490
Na       29.46528435     -0.02351061     22.97075272
Na       29.52491379      0.30271387     27.62735176
Na       29.70909500      0.22555363     32.16148758
Na       29.69298553      4.45416164      4.55562735
Na       29.66880417      4.39883518      9.27153969
Na       29.82411575      4.73498440     13.75440216
Na       29.60117340      4.55331755     18.55238533
Na       29.67158127      4.70152712     22.58349228
Na       29.57653999      4.53690004     27.30609512
Na       29.74708748      4.61709309     31.89769936
Na       29.82852173      8.96725845      4.38399315
Na       29.95837402      9.09817314      9.08857918
Na       27.83396721      9.26325035     11.37670517
Na       31.55775261      9.50731945     20.15446854
Na       29.84124184      9.31377125     22.95167160
Na       29.74826050      8.68988609     27.37511253
Na       29.84895897      9.13018322     32.21861267
Na       29.72366333     13.65920925      5.00879335
Na       29.71245766     13.86777782      9.25905228
Na       29.42308998     13.95625114     13.63970852
Na       29.80365753     13.84764004     18.07511902
Na       27.51256371     13.69189262     20.67136955
Na       29.85982323     13.49825668     27.16052246
Na       29.89949417     13.73127937     32.06186676
Na       29.77803230     18.49802017      4.65212488
Na       29.84042931     17.93988609      8.87148952
Na       29.81664848     18.35599327     13.94535923
Na       29.58103371     18.46322250     18.00902557
Na       27.73833656     20.76027107     23.18710327
Na       29.49600601     18.13156891     27.29119492
Na       27.43367767     18.09336662     29.93857002
Na       30.21443558     22.84485435      4.23118877
Na       29.91695213     22.76739693      9.20630646
Na       27.35753632     23.12431145     11.24090672
Na       29.78216362     22.73060036     18.17291832
Na       29.67733765     22.86704636     22.68879318
Na       29.88618851     22.76962090     27.38513756
Na       27.49829865     20.60652351     32.07114029
Na       29.67173576     27.46703148      4.61448622
Na       29.70526695     27.63133430     13.60550499
Na       29.82763100     27.47118568     18.33707237
Na       29.62301064     27.35207176     22.59388161
Na       29.82501602     27.58844185     27.60457611
Na       27.52237129     25.12352753     31.92543602
Na        0.22946699      2.23921251      4.48889112
Na       -0.17302771      2.20707321      9.45879841
Na       -0.05279485      2.33082366     13.29489231
Na       -0.45722079      2.28026032     18.54845619
Na       -0.49496111      2.13300204     22.92532349
Na       -0.04578194      2.23437810     27.17946434
Na       -0.35475129      2.41350889     31.87161255
Na       -0.09079312      6.83307123      4.85270691
Na        0.14135545      6.75338221      9.04424953
Na        0.05506462      6.92767000     13.63573265
Na       -0.12006608      7.13196802     18.13629532
Na        0.17212398      6.87650728     22.57286644
Na        0.18612255      6.58504486     27.37814140
Na       -0.06554074      7.00417662     32.11960602
Na        0.24683604     11.39828014      4.78840685
Na        0.12995094      9.38921261     11.25897026
Na       -0.14043029     11.46235371     13.77841949
Na       -0.19139074     11.36863899     18.22898293
Na       -2.36725569     13.37881374     22.79540062
Na       -0.21568161     11.20267868     27.89714622
Na       -0.25732496     11.50502014     32.17541504
Na       -0.18075354     15.94297600      4.51757383
Na       -0.28099877     15.74923801      9.11845589
Na        0.07953218     15.87189388     13.47528553
Na        0.23935972     16.00050163     18.17559814
Na       -0.08513344     16.09261703     22.86425591
Na        0.41997021     15.92061520     27.41448593
Na        0.25746375     15.87210560     31.79556847
Na        0.05793820     20.45823288      4.65886497
Na       -0.05730487     20.59080124      9.28825188
Na       -0.22403355     23.00599289     15.92226982
Na       -0.28520122     20.75135231     17.93255234
Na        0.03496786     20.74149132     22.93294144
Na        0.30774936     20.43248558     27.58538628
Na        0.05568689     20.43380165     31.90206718
Na        0.30208030     24.90523148      4.59886646
Na       -0.24978699     25.06888962      9.05771923
Na       -0.20215674     24.99236679     13.37166977
Na       -0.02954149     25.24691772     18.51020813
Na       -0.36543435     25.24706459     22.46817398
Na        0.50258541     25.23028564     27.61190987
Na        0.03336268     27.34805107     34.38434601
Na        0.06464529     29.50759888      4.40917778
Na        0.03699225     29.63680458      9.30704594
Na       -0.44828048     29.69644356     13.71539783
Na        0.00089438     29.73128891     18.32850647
Na        0.11515129     29.69500542     23.05907822
Na       -0.12723178     29.77993393     27.22652245
Na       -2.54279804     27.45459557     31.83006859
Na        4.32700634      2.30447578      4.52723122
Na        4.62164593      2.33906341      9.07586670
Na        4.17948580      2.01109838     13.77852917
Na        4.64305878      2.17338514     18.30170631
Na        4.15128374      2.27474809     22.75558281
Na        4.64956045      2.58011985     27.16476059
Na        4.40707541      2.33672547     31.83363152
Na        4.52197170      9.26023483      7.01016235
Na        4.71834755      4.58105421     11.29969406
Na        4.39205790      6.82207823     13.68395424
Na        4.56759691      6.73491240     18.22505379
Na        4.69571877      6.75007248     22.68056488
Na        4.75914335      6.95285654     27.55000114
Na        4.84804201      6.79542494     32.07648087
Na        4.32987738     11.42850876      4.80780935
Na        2.30245256     13.68567848      9.47463608
Na        4.61533451     11.34658527     13.55345726
Na        4.60993385     11.38258266     18.48897171
Na        4.61033058     11.51845264     22.84068298
Na        4.79732656     11.47846794     27.43304062
Na        4.67766333     11.62212181     32.11272049
Na        4.79733992     16.24985313      4.74672699
Na        4.56820774     15.93947983      9.15613937
Na        4.68993282     15.95171261     13.78184891
Na        4.76955462     16.06206322     18.02037621
Na        4.93402529     15.91023159     22.51936531
Na        4.56044245     16.21646690     27.56855774
Na        4.35920858     16.09645844     31.81134224
Na        4.47688103     20.60932922      4.49189281
Na        4.75091124     20.51433754      9.18566132
Na        4.13812304     22.79842949     11.58603382
Na        4.31386423     20.38816261     18.39057922
Na        4.69143009     20.60372925     22.99029922
Na        4.55645323     20.63404465     27.29590416
Na        4.57359219     20.48357010     31.77307129
Na        4.72127199     25.08403969      4.49603128
Na        4.25391340     25.01418495      9.17062378
Na        2.29338336     27.45301819     13.57709599
Na        4.57623434     25.03742218     17.94348907
Na        4.51371717     25.19710732     22.27496910
Na        4.66629076     25.12258339     27.31550217
Na        4.36564445     24.99119186     31.94364548
Na        4.51323032     29.53542709      4.28366041
Na        4.78808880     29.55844498      9.19161987
Na        4.82399511     29.73789978     13.47597122
Na        6.97936058     31.87959862     17.76350021
Na        7.05931568     27.56757736     22.91542435
Na        4.38484955     29.69804764     27.14211655
Na        4.66214466     29.42282677     31.52696037
Na        8.77775097      2.21742845      4.71366549
Na        9.36248493      1.95006788      9.20271111
Na        9.16440678      2.46508527     13.69197845
Na        9.05585384      2.52590871     18.50742149
Na        9.07553864      2.24468517     22.92754364
Na        8.69285774      2.09846997     27.60007858
Na        8.76826191      1.92284846     32.08892822
Na        9.52448368      7.10494471      4.68583107
Na        8.69954872      6.94102812      8.92735863
Na        9.12508774      7.00085640     13.69497013
Na        9.50987911      6.94839287     18.02729225
Na        9.06782627      6.69103956     22.82444382
Na        9.44151688      6.78128433     27.16507721
Na        9.10556889      6.63814116     31.78371620
Na        9.03185368     11.46026421      4.26795387
Na        9.28723812     11.59371090      9.00663853
Na        8.96083260     11.62754345     13.57301807
Na        8.87422562     11.59508991     18.05863953
Na        9.04070091     11.33740616     22.91755867
Na        8.89599228     11.36524582     27.72953033
Na        9.02208900     11.37270832     32.26932144
Na        9.23662949     16.18137741      4.93586779
Na        9.15950108     16.06064224      8.94946480
Na        9.00800133     15.99590683     13.57463741
Na        9.33237267     15.95238400     17.96805382
Na        9.21921062     15.82248116     22.87604141
Na        9.35593700     16.11901855     27.51285744
Na        9.51372528     16.02423477     32.08710861
Na        9.11241245     22.95705605      2.16494036
Na        9.02540684     20.67250061      9.19278431
Na        8.72748566     20.60720444     13.73395634
Na        8.83549786     20.53454208     18.02863312
Na        8.93391323     20.75360870     22.70382690
Na        9.33728600     20.62874985     27.44831657
Na        8.74537277     20.71583366     31.92685699
Na        9.29721928     25.38693047      4.73206806
Na        9.05681896     25.20314026      9.14009953
Na        9.09131908     25.14094543     13.79253864
Na        9.07831955     25.13205338     18.26993561
Na        8.91128922     27.53368759     20.59512901
Na        9.05710697     25.28626060     27.46727180
Na        9.30274200     27.63187981     29.56392670
Na        9.10024166     29.57742691      4.78664351
Na        9.43322372     29.49471855      8.78662014
Na        8.91974735     29.69640923     13.90104771
Na        9.26947784     29.67600250     22.69669533
Na       11.65106773     27.33363533     27.47045708
Na        9.57383156     29.57186890     32.07862854
Na       13.41495705      4.47271109      2.54572272
Na       13.82370663      2.31657815      9.11355495
Na       13.78730297      2.32122302     13.59957886
Na       13.86482143      2.26871967     18.12634277
Na       16.16225052     -0.26358265     23.01210213
Na       13.65629196      2.09393167     27.81638527
Na       13.76288128      2.34984350     32.24026871
Na       13.35246086      6.79140615      4.55797434
Na       15.92446709      4.63566113      9.32700634
Na       14.17560577      6.80246353     13.62852669
Na       13.64591217      7.12246943     18.18042183
Na       13.81816196      6.72662973     23.14704704
Na       13.48047161      6.65842772     27.73307419
Na       13.72646809      6.62392187     32.21976852
Na       13.54106998     11.42151833      4.42913532
Na       13.32053280     11.57767582      8.94909382
Na       13.55011082     11.45687485     13.90385056
Na       13.89663506     11.46839714     18.28166389
Na       13.45651913     11.30145264     22.92033386
Na       13.87366867     11.52967072     27.38980675
Na       13.66487312     11.49612141     32.10623932
Na       13.61529160     15.93698883      4.54768133
Na       13.54430771     16.17363739      9.26779556
Na       13.51472950     16.03900719     13.69649410
Na       13.93913460     16.08016968     18.31112289
Na       13.75683498     15.97931004     22.30964851
Na       13.77342987     16.05480194     31.88503265
Na       15.91166496     22.69986916      4.43730021
Na       13.78020954     20.58893967      8.98615551
Na       13.81812763     20.70088005     13.90978146
Na       13.61922646     20.72228813     18.46709442
Na       13.49005032     20.51173973     22.87209702
Na       13.71798325     20.64804459     27.69318771
Na       14.02557850     20.57807350     31.86458778
Na       13.21927357     25.16723442      4.51792431
Na       13.57695770     25.10474396      9.24357224
Na       13.88867664     25.22929573     13.60164165
Na       13.70112419     25.09182930     18.36831856
Na       13.66481400     25.27497673     22.84986496
Na       14.03399944     25.13224220     27.22804260
Na       13.84743977     25.24190712     32.02296829
Na       13.41138458     29.96220589      4.80025196
Na       13.62395954     29.84233284      8.99174976
Na       13.94457245     29.63097954     13.83001423
Na       13.59487438     29.75340652     17.93718910
Na       13.55622768     31.99853516     25.29699898
Na       13.56338596     29.82872009     27.37240219
Na       13.45939541     29.59798622     31.88277245
Na       18.29153442      2.40544915      4.52230358
Na       18.56333733      0.33788237     11.49551678
Na       18.26305771      2.40790820     13.78872776
Na       20.71440125      0.00820279     18.45764923
Na       18.26764297      2.49536252     23.12840652
Na       18.31749535      2.15850568     27.46950912
Na       18.27560997      2.12086463     32.07069778
Na       18.44980431      6.76761770      4.21166086
Na       18.38110542      6.84700584      9.10528946
Na       18.19371033      6.94860983     13.67409039
Na       18.12445641      6.91834927     17.96623421
Na       17.79599190      6.83211899     22.95905876
Na       18.36294174      6.75601816     27.44642830
Na       18.25899124      6.86960745     31.80134392
Na       18.03306961     11.47860241      4.74224901
Na       18.09714127     11.37292767      9.23810482
Na       17.95467567     11.27037144     13.78118134
Na       17.99670982     11.53761959     18.03912544
Na       18.23813629     11.39904022     23.17191315
Na       18.03472900     11.19824314     27.51192093
Na       18.22371674     11.52686977     32.27209091
Na       18.54535866     15.89913845      4.81914806
Na       18.13810730     16.01115036      9.43565083
Na       18.42293930     15.96809673     13.67433167
Na       18.30652618     16.24453163     18.33427620
Na       18.35842514     15.96595860     22.63196373
Na       18.29870987     16.06941986     27.47960472
Na       18.56073952     16.11376381     32.13045120
Na       18.23935509     20.52553749      4.79297924
Na       18.52330208     20.55318642      8.97119617
Na       18.35511398     20.35911560     14.17564869
Na       18.45256233     20.51293564     18.11797523
Na       18.07158470     20.60512543     22.96597672
Na       18.00186348     20.76885223     27.35519409
Na       18.41489410     20.52913284     31.95128441
Na       16.04322052     27.27462196      4.44003439
Na       18.08793259     25.08381653      9.22619152
Na       18.37238503     24.91666031     13.66321182
Na       18.46655464     25.19707870     22.92394066
Na       18.32605743     25.09618568     27.34648514
Na       18.08285141     25.06769943     31.83216858
Na       18.18431854     29.85390282      4.53036308
Na       18.17438889     29.78977013     13.43654919
Na       18.22820663     27.50184250     20.45862579
Na       18.21278954     29.49558830     22.83096313
Na       17.98022652     29.64460182     27.20289040
Na       18.18066216     29.65851021     32.26235199
Na       22.76608276      2.32871008      4.32425547
Na       22.83917618      2.26776123      9.16733170
Na       22.78542709      2.08730960     13.74949360
Na       23.08862877      4.77587700     20.67643166
Na       22.39805794      2.31234860     27.37559319
Na       22.93098450      2.26815295     31.78191185
Na       22.82496452      6.97151136      4.48184013
Na       22.80364799      6.96703720      9.33245659
Na       23.00393486      6.96994781     13.51994228
Na       25.39353561      4.67936373     22.82036018
Na       23.25222015      7.01517010     22.94198799
Na       22.96882057      6.77486515     27.37009239
Na       22.89261246      7.02698326     32.03388977
Na       22.81235504     11.26327610      4.74985600
Na       22.87450409     11.26575184      9.25942993
Na       22.99999619     11.39354420     14.03058147
Na       22.83781052     11.42764759     17.77608871
Na       22.66996384     11.54402924     22.54934883
Na       22.81274605     11.46537018     27.37741470
Na       22.73275948     11.45654488     31.80943680
Na       22.75333977     15.90132141      4.47798395
Na       22.90274239     16.18031502      8.82633495
Na       22.88705635     16.22472763     13.62699890
Na       22.83134270     16.02116776     18.04944420
Na       22.82513237     16.16643143     22.89275169
Na       22.71214104     15.85496235     27.73262215
Na       22.73945999     15.88790321     32.24907303
Na       22.73801041     20.71456528      4.39262915
Na       23.16524887     20.44810295      9.15568924
Na       22.88153458     20.56108475     13.97083950
Na       22.70242882     22.74884033     16.11631966
Na       23.03052139     20.74418449     22.86044502
Na       20.36762047     18.01493073     27.32750130
Na       22.91506767     20.61011505     32.06404495
Na       22.78676414     25.21454048      4.24601889
Na       23.39313316     25.33550072      9.14521599
Na       25.14550591     22.60110474     13.89885426
Na       22.57802582     25.21402550     18.22381210
Na       22.94930077     25.00064278     22.61429405
Na       22.87015343     25.09290123     27.44728279
Na       23.03412819     25.09946442     31.92483139
Na       22.78156471     29.50093460      4.69846535
Na       22.80828667     29.66103935      9.01263905
Na       22.86663246     29.66084290     13.49615002
Na       22.82375336     29.64830017     18.08177185
Na       20.51478004     31.74594116     22.70526886
Na       22.77333832     29.75606346     27.36707497
Na       22.70384789     29.66044617     31.88377762
Na       27.62268257      2.38486862      4.78885269
Na       27.44637299      4.32470608      7.19540310
Na       27.21694183      2.25455499     13.87985992
Na       27.48162079      2.12072206     18.53824425
Na       27.87188530      2.50486946     22.73770905
Na       27.40502357      2.31019187     27.43461800
Na       27.63582420      2.33406615     32.09128189
Na       27.36621475      6.92836857      4.37826586
Na       27.35759163      6.77757215      9.08798122
Na       24.88865852      4.30373096     13.55206585
Na       27.72452927      7.20977116     18.27264595
Na       27.61024666      7.05281687     22.84635353
Na       27.18867302      6.92919874     27.20764351
Na       27.41391373      6.75126076     31.96264839
Na       27.45233727     11.39360523      4.69632673
Na       27.50997162     11.42376041      9.11208820
Na       27.14430237     11.56095695     13.56230259
Na       27.68105507     11.52195358     18.28839111
Na       27.33542824     11.61838531     22.96752167
Na       27.51242065     11.51186848     27.52429962
Na       27.47847366     11.40932941     31.49385834
Na       27.58750916     16.07723618      4.54501534
Na       27.24884033     15.89399529      9.08784008
Na       27.06708717     15.90215683     13.73143291
Na       27.44359779     16.00528908     18.25684929
Na       29.95160484     18.09705544     22.76523781
Na       27.41781235     16.01651382     27.43635941
Na       27.41765404     20.76542473      4.55234528
Na       27.69567108     20.63662338      9.00943851
Na       27.86905098     20.66876030     13.73601913
Na       27.03242493     20.58476448     18.23674965
Na       25.32183838     22.45663071     22.91362000
Na       27.48955536     20.57146645     27.55987549
Na       29.59352493     18.41649628     31.88084602
Na       27.59621811     25.06025314      4.81557703
Na       27.77788353     25.24267769      9.41431522
Na       27.43502235     27.59534454     11.39647961
Na       27.49266243     25.15613365     18.03800392
Na       27.31529999     25.09405136     22.84718323
Na       27.39787865     25.28834343     27.12829781
Na       29.53862953     22.99501801     32.29805756
Na       27.19032478     29.61839104      4.47095394
Na       27.36420250     29.56869125      8.82934475
Na       27.68421364     29.80947304     13.58035278
Na       27.29234886     29.37167740     18.23635674
Na       25.09014702     31.92345810     23.01847649
Na       27.34234047     29.86331940     27.11740303
Na       27.15574646     29.65654755     31.79078102
Na        0.16765653     -0.11765799      2.37919879
Na       -0.09061021     -0.06720828      6.86137056
Na        0.00597475     -0.13923621     11.37686253
Na       -0.06894568     -0.03982594     15.89850616
Na        0.24657431     -0.14400804     20.62272453
Na       -0.25673714      0.01838115     25.18153000
Na       -0.03232090     -0.13309243     29.60606194
Na       -0.38315797      4.43941784      2.36064672
Na       -0.03967461      4.57881355      6.88935995
Na       -0.07147044      4.73667955     11.41852093
Na       -0.02881389      4.54748821     16.00154686
Na        0.13089398      4.61611223     20.40626144
Na       -0.14505255      4.54073191     25.08095551
Na        0.14121315      4.43987465     29.69685555
Na        0.08009578      9.46902370      2.39875698
Na        0.45715657      9.16669464      6.93432331
Na       -2.29886746      8.98861790     13.41238689
Na       -0.34290931      9.18762970     16.00787163
Na        0.30019405     11.32715511     22.55737495
Na        0.20538515      9.29438210     25.09273911
Na        0.37900633      9.36327934     29.84085464
Na       -0.26109374     13.64368820      2.37861776
Na        0.68767679     13.74874020      6.97560883
Na       -0.10724812     13.72497082     11.48467827
Na        0.02085621     13.64582634     16.05761528
Na       -0.18965106     13.97538948     20.60935974
Na        0.08963062     13.22708893     24.97168922
Na       -0.09994247     13.64968300     29.60986137
Na        0.10390397     18.38468742      2.30690241
Na        0.25192741     17.82168198      6.84082556
Na       -0.09673013     18.12848854     11.36448765
Na        0.35038561     18.12388802     15.92504025
Na        0.00773862     18.54768562     20.56011581
Na        0.22696155     18.21194077     25.15530777
Na       -0.20106573     18.14417839     29.46904564
Na       -0.01119429     25.18752098     -0.05124338
Na       -0.36470813     22.22005463      6.90672922
Na       -0.03324911     23.03596306     11.40623951
Na        2.13931417     22.87030983     13.96887970
Na       -0.21010964     22.67263603     20.62590599
Na        0.22893158     23.03472519     25.14037704
Na       -0.14480129     22.76165199     29.90814209
Na       -0.14825930     30.05084038      0.13936764
Na        0.08607746     27.03196526      6.76538897
Na       -0.18948406     27.43207359     11.39080524
Na        2.31009555     27.32767296     18.24221992
Na        0.37599921     27.22434425     20.46991158
Na        0.13279365     27.21092987     25.13105583
Na       -0.12385801     27.39090347     29.87469864
Na        4.28291988      0.13263772      2.22802329
Na        4.65886641      0.20414960      6.83643770
Na        4.68575621     -0.04519587     11.38266182
Na        4.59746218      0.20208542     16.11632156
Na        2.16160607      0.04685115     23.10510063
Na        4.56716919     -0.08032934     24.88118935
Na        4.77549028      0.14507526     29.66774940
Na        4.57985830      4.73716593      2.54665494
Na        6.91833401      4.75779963      4.45221424
Na        6.78932381      4.46544027      8.81336594
Na        4.47869873      4.60859919     15.92429829
Na        4.88200474      4.36693430     20.48108864
Na        4.73575449      4.79671764     24.99344635
Na        4.60663795      4.32254934     29.47756195
Na        4.85490227      9.18875885      2.48550105
Na        4.50652409      6.86331987      9.12859726
Na        4.43655062      9.11116219     11.31991673
Na        4.54984522      9.14188194     16.04697990
Na        4.47301865      9.11027718     20.45990753
Na        4.76033401      9.15995884     25.29399872
Na        4.59991169      8.94731903     29.52696800
Na        4.48869467     13.97918606      2.25009322
Na        4.81539965     13.64573193      6.96586275
Na        4.58208799     13.81908321     11.56854343
Na        4.61146116     13.70688438     15.97808552
Na        4.44071913     13.57344723     20.64744759
Na        4.19802189     13.82247925     25.30367279
Na        4.38622332     13.82632065     29.71230698
Na        4.83376837     18.36337090      2.13877940
Na        4.71270418     18.44654655      6.94298267
Na        4.55646229     18.71561813     11.75183105
Na        4.39058590     18.28749657     15.89932728
Na        4.66676950     18.34090042     20.44321442
Na        4.67707920     18.13867188     25.01288223
Na        4.74165392     18.25634575     29.77284622
Na        4.69337177     22.90057564      2.19409609
Na        4.64542246     22.85781479      6.70567799
Na        6.90351534     22.93567276      9.03575325
Na        4.61159563     22.74767303     15.95153999
Na        4.62281656     22.57363129     20.60755730
Na        4.52890062     22.95193672     25.09449196
Na        4.32791710     22.74436951     29.68926239
Na        4.37640190     27.47314644      2.15693307
Na        4.80455065     27.22073174      6.83836269
Na        4.55626392     27.24508095     11.28060627
Na        4.70462465     27.59209633     15.79840946
Na        4.75595331     27.46374321     20.26547050
Na        4.32783175     27.62004662     25.02570534
Na        4.75329256     27.28905487     29.81765366
Na        9.16390705     -0.31775871      2.26039886
Na        8.95982742     -0.45867509      6.84117603
Na       11.52675629     -0.04941954      8.81576347
Na        9.35725117      0.16669640     16.23902321
Na        9.05942726      0.40738881     20.44743729
Na        9.34853840      0.17042378     25.22430038
Na        9.31264782     -0.26468331     29.42605400
Na        4.42508030      6.75043631      4.72239590
Na        9.44434547      4.51517248      6.92199326
Na        9.05302048      4.82223368     11.26059723
Na        9.20785809      4.61889315     15.76852894
Na        9.36137104      4.95270681     20.42496872
Na        8.93224812      4.49952650     24.87633705
Na        8.94595051      4.56670332     29.73100281
Na        9.25756073      8.82104492      2.04050422
Na        8.83794117      9.31962872      6.78871441
Na        9.22924709      9.32665634     11.44425774
Na        8.79408741      9.39754200     15.98010445
Na        8.96377277      9.37329102     20.44393730
Na        8.93130875      9.46746349     25.07468224
Na        9.18267822      9.18484592     29.73826027
Na        8.78683662     13.96163750      2.40752006
Na        9.30532646     13.81257153      6.88001108
Na        9.07201576     13.72126102     11.53940964
Na        9.47128582     14.09673691     15.90351486
Na        9.14035225     13.50378418     20.54364967
Na        9.17898273     13.31411457     25.23397827
Na        8.97532272     13.65867996     29.77602959
Na        9.29092121     18.28560066      2.30163360
Na        9.32966423     18.45504761      6.87224102
Na        9.17334080     18.33816528     11.61970520
Na        9.26423359     17.91362190     16.10125923
Na        8.99537563     18.23018456     20.40103531
Na        9.37686157     18.24708366     25.05017662
Na        9.35093498     18.19531822     29.79705238
Na        9.05954647     25.16908836     -0.03712193
Na        9.24322987     20.70102310      4.36646509
Na        9.22640038     22.95920944     11.60875320
Na        9.15654850     22.63473701     16.06351852
Na        8.97758484     22.57798004     20.43034935
Na        9.07888794     22.70551491     25.10067749
Na        9.05581570     22.82786560     29.54106712
Na        8.90271187     27.56043625      2.48961496
Na        6.85993481     27.46117783      4.12602043
Na        9.24352264     27.45702362     11.40445518
Na        9.07010365     27.46323395     16.09376907
Na        9.25014305     29.79326248     18.37312508
Na        9.36334705     27.47614670     25.16736412
Na       13.91132259      0.27120572      2.53359699
Na       13.58222771      2.26314926      4.82361984
Na       13.72816086      0.11555079     11.33444118
Na       13.59126568     -0.05228055     15.90390110
Na       13.91099834     -0.05859436     20.78614235
Na       11.50694084     -0.17195678     22.85908508
Na       13.59378624     -0.01433380     29.73182297
Na       11.48429871      4.16530561      0.22211824
Na       13.90897560      4.55767393      6.87161207
Na       13.38841152      4.55292320     11.42472553
Na       13.61060715      4.54570436     15.90558815
Na       13.68982506      4.55516958     20.60037231
Na       13.68448830      4.32628584     25.31910133
Na       13.71663857      4.34791708     29.80013275
Na       13.57188034      9.00709724      2.27769399
Na       13.59436226      8.96384811      6.92272043
Na       13.88705444      9.37283993     11.51796532
Na       13.73661041      9.39226246     16.07416534
Na       13.81398773      8.99334145     20.59871292
Na       13.66205215      9.21201229     25.13244438
Na       13.65725899      9.20679283     29.91918182
Na       14.07211208     13.96471310      2.27075458
Na       13.56060600     13.56984806      6.68418503
Na       13.83061504     13.56040668     11.62052250
Na       13.48933792     13.64783955     16.14713478
Na       13.66729927     13.43731880     20.51131248
Na       13.87115288     13.83898544     25.10480499
Na       13.82454681     14.07749081     29.65991592
Na       15.83300304     18.20796394      4.89932299
Na       13.44882298     17.90826988      7.00367689
Na       13.67431545     18.42288780     11.43569565
Na       13.73893642     18.42644882     15.93807697
Na       13.73677540     18.44317436     20.61551476
Na       13.80111790     18.04493523     24.84757996
Na       13.68917561     18.31642342     29.63116455
Na       13.60910606     22.73383713      2.34149694
Na       13.67486763     22.95095825      6.84780931
Na       13.67426586     22.84271622     11.38314819
Na       13.89083862     22.96960449     15.88238335
Na       13.61635017     22.91299057     20.50474930
Na       13.64723301     22.92275047     25.15106583
Na       13.88654900     22.81341171     29.66004753
Na       13.92238903     27.37140846      2.36816192
Na       11.66191959     27.25289154      8.95438290
Na       13.86645794     27.26820374     11.58989334
Na       13.30911541     27.11628342     16.16074944
Na       13.62248421     27.27687454     20.49407387
Na       13.67837048     29.65454674     22.91857147
Na       16.04576874     27.44720459     27.56471252
Na       16.20528984      0.08897318      4.70532656
Na       18.66117859      0.13391988      6.77546167
Na       18.16050529     -2.03528166      9.28281403
Na       17.98027611     -0.00161981     15.84418583
Na       18.28351593      2.34131598     18.09520721
Na       18.33914185     -0.00483514     25.08823395
Na       18.44327736     -0.45571485     29.61642456
Na       18.23674202      4.12035894      1.89287734
Na       18.21332932      4.87303066      6.73330259
Na       18.10286140      5.00457621     11.45954418
Na       18.37519836      4.35996675     16.01204109
Na       18.30511284      4.73971987     20.59080315
Na       17.89811516      4.43884706     25.18443298
Na       18.26208115      4.19079161     29.71338654
Na       18.16199875      9.15841770      2.36832023
Na       18.09705544      8.96310139      6.74930620
Na       18.29930878      9.42666626     11.43814278
Na       18.07312012      9.34727478     15.83752346
Na       18.50838661      9.29404926     20.53947258
Na       18.23517227      8.96297932     25.15486145
Na       18.32206154      9.09419060     29.70344353
Na       18.20576668     13.65355206      2.49565673
Na       18.22657013     13.55106449      7.15373230
Na       18.36288071     13.75473976     11.47299671
Na       18.16875458     13.32686234     16.09373665
Na       18.47081566     13.76836777     20.65054512
Na       17.99598885     13.74419498     25.06888962
Na       17.96889687     13.84637928     29.90482330
Na       18.40519524     18.58183098      2.37705660
Na       17.79897118     18.18273354      6.95387506
Na       18.15723801     18.36933708     11.40595818
Na       18.49359131     18.07859421     15.88150120
Na       18.48115921     18.36940956     20.55637741
Na       15.84939480     18.68979454     27.49904633
Na       18.48015594     18.48825264     29.89702988
Na       18.06901360     24.98496628      4.69442654
Na       18.41786957     22.99399185      6.91660357
Na       18.34880829     22.50029373     11.43114853
Na       18.06562233     22.90258598     16.22723198
Na       18.24954033     22.99062729     20.64178085
Na       18.39192581     22.78053093     25.16929436
Na       18.27481079     22.81170654     29.67707634
Na       18.20638466     27.20502281      2.28951621
Na       18.15167809     27.08152199      6.79462719
Na       18.42796326     27.27297401     11.52576447
Na       18.70460129     25.13302994     18.39420700
Na       15.77189541     27.58902168     18.11499596
Na       18.79583168     27.17027855     25.18049431
Na       18.26385880     27.60880470     29.59171486
Na       22.63288307      0.09000608      2.41839528
Na       22.99047089     -0.22555433      6.93411398
Na       22.56711769      0.01440813     11.45321083
Na       22.88648224      0.16183792     16.10607719
Na       23.03853416      2.31189823     18.41647148
Na       22.92430305      0.39322659     25.14715004
Na       23.03091621      0.44438049     29.69090652
Na       22.55151367      4.72536945      2.33425760
Na       22.64667702      4.25172567      6.70257711
Na       22.91619873      4.25214624     11.38115215
Na       22.96978378      4.20473814     15.95829105
Na       22.75798607      0.20071155     20.61445618
Na       22.64138412      4.52684879     25.17299080
Na       22.87702751      4.85088587     29.57258415
Na       22.87909126      9.65595818      2.28125119
Na       22.92217636      8.98217869      6.98198795
Na       22.72478485      9.30609226     11.36500263
Na       20.74860382      9.07229233     18.04089165
Na       22.81036758      6.81567049     18.19299698
Na       22.55076981      9.46972656     25.21873283
Na       22.83441925      9.28135586     29.74835014
Na       23.03521538     13.30904102      2.20604587
Na       23.01901817     13.71679020      6.96949244
Na       22.55282211     14.05784225     11.14093876
Na       22.89183617     13.98174572     15.87985516
Na       22.60844421     13.59300327     20.43440247
Na       22.86233902     13.61698818     25.19193649
Na       22.87525940     13.60340691     29.74997711
Na       22.87169456     18.17368317      2.43871188
Na       22.80453491     18.35507965      7.01489115
Na       22.85292816     18.32521820     11.37861252
Na       22.44882774     18.60315323     15.94038391
Na       22.88128471     18.33982658     20.61190033
Na       22.55946922     18.34115982     25.00052643
Na       22.90082359     18.05986786     29.57351112
Na       22.70311356     22.94455910      2.22041225
Na       23.02943802     23.01842308      6.88353491
Na       20.68393326     22.59737206     13.49797630
Na       24.93456459     22.52277946     18.39519882
Na       22.80462456     22.96426010     20.20151711
Na       22.80235291     20.52519608     27.59266663
Na       22.97085571     22.66879463     29.83100319
Na       22.84880066     27.78589249      2.30079031
Na       22.59038734     27.40420914      6.84146357
Na       25.24694824     27.69184113     13.66015720
Na       22.86143112     27.34930992     15.92278481
Na       23.00845146     27.61515617     20.49909019
Na       22.82778740     27.34769249     25.12610245
Na       22.91201591     27.34749603     29.61096001
Na       27.10210800      0.00674906      2.40859795
Na       27.48101425     -0.07703935      6.86484241
Na       27.17644882      2.22662759      8.92379570
Na       27.38010216      0.14395322     16.18766785
Na       27.26964760     -0.17129886     20.80739594
Na       27.22613716      0.15279485     25.06539536
Na       27.38225937      0.10726314     29.43102455
Na       27.00865364      4.58638477      2.61001301
Na       25.02791214      4.54053068      4.85447168
Na       27.29458618      4.65344667     11.37831116
Na       27.67361641      4.69967842     15.83719540
Na       27.44429207      4.59478140     20.31193542
Na       27.36679649      4.65786314     25.12323380
Na       27.36419868      4.48915768     29.82849503
Na       27.78382683      9.29913044      2.01721025
Na       27.54851151      8.93313789      6.87938261
Na       25.19762421      9.27754402     13.45841599
Na       27.38256836      9.51842308     16.11534691
Na       27.68087578      9.18741226     20.60238266
Na       27.43860817      9.21799469     24.99788857
Na       27.57571983      8.87119389     29.63517761
Na       27.62500572     13.44956684      2.29457951
Na       26.90404510     13.73877716      6.84280396
Na       27.11138535     13.92227745     11.47244740
Na       27.55949593     13.34188366     15.84817219
Na       27.72953606     15.97949600     22.88353729
Na       27.37570572     13.69986248     25.08065605
Na       27.54258537     13.67492294     29.51923943
Na       27.10482597     18.16835785      2.46331906
Na       27.58664322     18.38457108      6.71139288
Na       27.70294571     18.21542931     11.50863934
Na       27.41186714     18.21930313     15.86558533
Na       27.51063538     18.19810104     20.58027267
Na       27.25737381     18.42378616     25.25048256
Na       27.49800110     15.95954323     32.42614746
Na       27.67061043     22.74787521      2.33889556
Na       27.95104218     22.74155235      6.88299513
Na       27.32431221     25.10545349     13.69720078
Na       32.03807068     20.27698135     13.75655079
Na       27.39052010     22.71829796     20.36058617
Na       27.47517395     23.19190598     25.11670685
Na       27.86825562     22.63215256     29.62884140
Na       27.43171883     27.61326790      2.28272319
Na       29.49768257     27.48118019      9.14508057
Na       25.15028763     27.68785477      9.15489197
Na       27.11137581     27.62372208     15.84057426
Na       27.52038956     27.41369820     20.42713356
Na       27.69515991     27.80672836     25.13025665
Na       27.46223831     27.42332458     29.71234131
O         0.11260029     -0.16878381      4.60227489
O         0.11144771     -0.09514678      9.17104816
O        -0.06669669      0.20910907     13.52785015
O        -0.21570206      0.05012999     18.17518616
O        -0.05084334      0.09190688     22.80040932
O        -0.13681298      0.06978941     27.28008080
O         0.08896427      0.11476667     32.19036865
O        -0.00316352      4.49689531      4.62858343
O         0.04559757      4.41136169      9.20733643
O         0.08298410      4.75005293     13.84225559
O        -0.14633469      4.65897131     18.31758499
O        -0.00632898      4.48948097     22.70757294
O        -0.05777294      4.38618517     27.40544701
O         0.05540451      4.69272614     32.03324890
O        -0.00625265      9.11058807      4.80471897
O         0.07394054      8.92576027      9.18572330
O         0.01575020      9.36277771     13.81735897
O        -0.12679249      9.13012314     18.18791580
O         0.04058788      9.19854355     22.75649071
O         0.15713345      8.97541618     27.49903297
O         0.09267522      9.21763134     32.14323044
O         0.08762430     13.83320522      4.63091993
O        -0.13411501     13.70210934      9.28112316
O        -0.38938808     13.60645580     13.68384361
O         0.10307696     13.55518436     18.33896065
O        -0.19631404     13.85454464     22.72775841
O         0.15088341     13.42849636     27.32944489
O         0.11545089     13.71560097     31.79656029
O         0.00101492     18.27567291      4.81227779
O        -0.07308596     18.02898788      9.13169003
O         0.04466160     18.17925644     13.67164612
O         0.18076810     18.19487000     18.25375175
O         0.07701421     18.38555717     22.88110542
O         0.00663380     18.25160599     27.29013634
O         0.05185820     18.18075943     31.97096825
O         0.29558998     22.78236008      4.72560549
O         0.07543963     22.91933250      8.95292854
O         0.05640361     22.97352982     13.76177406
O        -0.01297990     22.91809845     18.45668411
O        -0.05801112     22.83042336     22.71626663
O         0.18159300     22.72927666     27.33420944
O        -0.25131452     22.90064240     32.07688522
O         0.01842570     27.35378265      4.62136889
O        -0.14384043     27.38427544      9.20654106
O        -0.02089771     27.32984734     13.80563068
O        -0.06856047     27.38030434     18.31335449
O        -0.09192779     27.44599724     22.88323975
O         0.23896123     27.57996178     27.37330627
O        -0.17593001     27.61640549     32.09694672
O         4.46624136     -0.01826328      4.51617670
O         4.70006847     -0.15256149      9.23710632
O         4.68660831     -0.12731707     13.56492329
O         4.48863268      0.02939549     18.22365189
O         4.46499681      0.10163142     22.77864265
O         4.36385059     -0.03731750     27.11898422
O         4.48024988     -0.23078206     31.79454994
O         4.56203365      4.54886389      4.63087988
O         4.65812397      4.63836908      9.13306522
O         4.59410095      4.55397224     13.63951015
O         4.52878714      4.47879696     18.17134476
O         4.63483620      4.61666822     22.71866417
O         4.74289513      4.72550249     27.43661880
O         4.52785015      4.58737850     32.17291641
O         4.54266930      9.14184761      4.63137579
O         4.70621157      9.31551933      9.11568165
O         4.64111137      9.14323902     13.46053219
O         4.39316654      9.04777813     18.12061882
O         4.70958090      9.06659603     22.62339020
O         4.59790230      9.21345043     27.42297554
O         4.57902193      9.32780361     32.03407288
O         4.50580263     13.59124947      4.60945892
O         4.61933804     13.84059620      9.18787003
O         4.62259817     13.66487980     13.87929535
O         4.76273775     13.67808628     18.23701477
O         4.62265253     13.86092186     23.10897255
O         4.47573757     13.83297729     27.57377815
O         4.40479088     13.84129429     31.90865707
O         4.48219824     18.45150757      4.56579638
O         4.53254557     18.26879692      9.19801521
O         4.50791788     18.06017685     13.89381504
O         4.62986231     18.23285484     18.25541306
O         4.60723114     17.96582603     22.63242149
O         4.56994009     18.44963837     27.42273140
O         4.75040054     18.33216286     31.93261528
O         4.68347406     22.91096306      4.46847534
O         4.40660906     22.84807777      8.99574375
O         4.53537893     23.32764816     13.73220444
O         4.65204620     22.67371750     18.35320282
O         4.53885603     22.86858177     22.70703506
O         4.60268879     22.83538818     27.38299751
O         4.41109753     22.75432205     31.98587418
O         4.71233892     27.33376884      4.44847631
O         4.32017517     27.42622566      9.01199055
O         4.60334587     27.51622581     13.38087559
O         4.60585403     27.34938431     18.09160042
O         4.44094992     27.56270981     22.57170105
O         4.62530184     27.35310555     27.29195976
O         4.58988476     27.35176277     31.99386787
O         8.96055317     -0.19251955      4.58802271
O         9.08647060     -0.14495142      8.99382973
O         9.23548317     -0.05319731     13.79510689
O         9.10656738      0.21647018     18.25959969
O         9.15237808      0.01384270     22.63249969
O         8.75696373     -0.08852244     27.34772682
O         8.98356056     -0.00627546     31.71523094
O         9.23871422      4.59361649      4.75922251
O         9.24077892      4.41398621      9.09493446
O         9.05683327      4.68454075     13.52273178
O         9.22625256      4.57741070     18.16255951
O         8.99768734      4.57717085     22.71996498
O         9.06347370      4.68286371     27.46299362
O         8.84995556      4.31555891     31.93779945
O         9.34210110      9.11907291      4.44459963
O         9.15821171      9.22896290      9.11325741
O         9.13651562      9.22837639     13.62112999
O         8.99729633      9.13107967     18.27578735
O         9.21914291      9.02279663     22.78779984
O         9.21639538      9.08379555     27.41334534
O         9.04931450      8.95337868     31.98567772
O         9.05402374     13.76225185      4.55569458
O         9.11567497     13.95277309      9.33278465
O         9.19153023     13.89902306     13.66330051
O         9.25370121     13.86819553     18.13577080
O         9.16613674     13.62539291     22.84030151
O         9.31123066     13.74183464     27.57260513
O         9.07635117     13.58868504     32.05881119
O         9.18941975     18.30785561      4.59208679
O         9.13390923     18.23841476      9.07624149
O         9.12720013     18.23369598     13.72210979
O         9.04316139     18.36456871     18.13548660
O         9.18460655     18.24136925     22.65139389
O         9.40460300     18.34253502     27.66982841
O         9.33524609     18.13471222     32.06880951
O         9.16826916     23.04377747      4.55722141
O         9.06173134     23.07112694      8.93892860
O         9.06604671     22.89854813     13.85182858
O         8.94325542     22.97431374     18.40068626
O         9.09651470     22.90278053     22.62797737
O         9.33958721     22.85530090     27.33000183
O         9.42196751     22.77490044     31.88781929
O         9.11939907     27.43516350      4.61334562
O         9.22979546     27.49455833      9.01506233
O         9.38845348     27.50905228     13.73501205
O         9.10858536     27.27101326     18.27856636
O         9.21188831     27.44035721     22.94668579
O         9.24531269     27.54763222     27.37948418
O         9.20300102     27.35629272     32.03916168
O        13.78848743      0.12679958      4.68962145
O        13.75089073      0.09070031      9.07104492
O        13.84929180     -0.02647968     13.79649067
O        13.78840923      0.02308381     18.17209435
O        13.90517712      0.11927176     23.09942818
O        13.97480679     -0.23553531     27.44257545
O        13.69562340      0.00185148     32.14995575
O        13.50352192      4.64046621      4.70289278
O        13.74451637      4.41969728      9.17097569
O        13.91736984      4.53883123     13.57194233
O        13.63988304      4.47357035     18.40391541
O        13.62060356      4.57522964     22.92325974
O        13.79550838      4.40465879     27.52054405
O        13.81001091      4.44442797     32.16772461
O        13.64109325      9.22903538      4.50973177
O        13.70790005      9.59620571      9.27975178
O        13.81472301      9.11915112     13.91884422
O        13.75283623      9.35581779     18.45969963
O        13.59901237      9.08576298     22.78800583
O        13.68536949      9.32373428     27.39268875
O        13.65178394      9.12143612     32.06184387
O        13.58725834     13.66004658      4.66443682
O        13.64112854     13.97123146      9.19873524
O        13.65358734     13.70595074     13.79365540
O        13.61773205     13.66135502     18.19858551
O        13.63800812     13.75960064     22.65391922
O        13.93328762     13.94612408     27.32132339
O        13.68599129     13.80384731     31.95601654
O        13.65612030     18.10236549      4.85296392
O        13.64493847     18.47717094      9.11687183
O        13.49439526     18.13211823     13.60482311
O        13.75093174     18.28335762     18.12814522
O        13.80291557     18.31505585     22.72369766
O        13.73489571     18.49485397     27.58184433
O        13.69532108     18.39726830     31.73736000
O        13.73105812     22.68495178      4.70870924
O        13.65993690     22.76389694      9.11462021
O        13.64492226     22.84523582     13.57699966
O        13.84407425     22.87916565     18.27189827
O        13.79136753     22.88532257     22.93175697
O        13.84852505     22.73675919     27.36516571
O        13.79961872     22.85597229     31.85010719
O        13.49177074     27.47543716      4.61938620
O        13.83221149     27.55384445      8.94009972
O        13.79281330     27.38604546     13.88914490
O        13.80732727     27.54915810     18.25163841
O        13.74601269     27.55405998     22.69917107
O        13.82494545     27.52723694     27.46853638
O        13.57272625     27.37608337     31.84389114
O        18.20070076      0.27697831      4.81884909
O        18.48400879      0.08580621      9.17734146
O        18.27546120      0.06522597     13.57747173
O        18.35923386      0.14298087     18.38339424
O        18.23315430      0.01425516     22.78469086
O        18.43153572     -0.15020235     27.44904709
O        18.24422264     -0.08376792     31.71289825
O        18.27010918      4.61281347      4.26541948
O        18.22819901      4.60298920      9.21453381
O        18.20794296      4.66720057     13.70880890
O        18.15042114      4.65546322     18.32159805
O        18.22640991      4.80073071     22.72758102
O        18.11891556      4.42671251     27.43806648
O        18.24779320      4.63030863     31.86102104
O        18.49508286      9.15358257      4.51666164
O        18.11447334      9.33278179      9.17210388
O        18.23447800      9.06134415     13.75409126
O        18.37678337      9.28467369     18.17325211
O        18.07220459      9.03711414     22.80665588
O        18.25003624      9.05672932     27.40097237
O        18.31985855      9.19762325     32.07671738
O        18.36230850     13.63027096      4.83270073
O        18.12626076     13.60344505      9.13047218
O        18.09730721     13.57408619     13.75247097
O        18.20955086     13.79358387     18.29659081
O        18.03365517     13.80921841     22.67880821
O        18.15016747     13.80884075     27.47477150
O        18.27077293     13.69389343     32.03442001
O        18.23700523     18.27898598      4.66020489
O        18.27070808     18.42673492      9.24512959
O        18.19085503     18.18088722     13.59724426
O        18.24107742     18.30506134     18.05369759
O        18.35038567     18.38489914     22.71820831
O        17.97249222     18.33122063     27.44967651
O        18.48581123     18.35401344     32.03803253
O        18.32118416     22.82090569      4.42365599
O        18.38560486     22.68064308      9.35888767
O        18.28039551     22.86612320     13.90388680
O        18.50289154     22.84304619     18.44801521
O        18.34305382     22.95648956     23.01050186
O        18.20426559     22.92417336     27.50625229
O        18.25906372     22.77845383     31.78571892
O        18.21113968     27.30294418      4.47944784
O        18.39053154     27.32781601      9.14859200
O        18.38573265     27.52282906     13.71368885
O        18.21264839     27.39468956     18.23658752
O        18.56048012     27.31188965     22.99023056
O        18.13323021     27.37019157     27.31978798
O        18.21928787     27.25823021     32.18809128
O        22.63985634      0.07408091      4.74851942
O        22.91888428      0.18018742      9.11388588
O        22.98472977     -0.08311187     13.57764053
O        23.02662086      0.12046015     18.18330956
O        22.70679474     -0.02943153     22.72649574
O        22.90902328      0.11573701     27.46032333
O        22.70005035      0.18911345     31.82406616
O        22.82513618      4.51769066      4.50363827
O        22.84086800      4.52514172      9.15166187
O        22.62272263      4.34657574     13.44386101
O        23.02431870      4.50915670     18.35245895
O        22.63905334      4.88573313     23.01151276
O        22.62195969      4.36713982     27.57626343
O        22.85025597      4.73842669     31.93683434
O        22.90101814      9.09793472      4.56059408
O        22.92117882      9.06949139      9.34064960
O        22.72472572      9.15270615     13.76177788
O        22.96673012      9.22910118     18.31073761
O        22.87505150      9.23930550     22.95328522
O        22.79655266      9.14306259     27.46790504
O        23.05402946      9.11031914     32.01021194
O        22.77382278     13.57276344      4.69685125
O        22.90904045     14.04289436      9.04799461
O        22.91807556     13.71701241     13.59563351
O        22.57711792     13.83797932     18.01889992
O        22.62022781     13.87720108     22.73982048
O        22.79403305     13.80107307     27.54809189
O        22.71605301     13.67598724     32.06458664
O        22.79717255     18.28771973      4.66712904
O        22.98955727     18.23675728      9.14218426
O        22.61586761     18.37217331     13.60938454
O        22.67683792     18.28884506     18.04117203
O        22.87078094     18.35273361     22.88384819
O        22.65004921     18.33513260     27.51172829
O        22.90166092     18.32693672     32.06880188
O        22.95647430     22.85872269      4.60738087
O        22.87604332     22.81236839      9.19308472
O        22.89922523     22.73007965     13.84753227
O        22.86989403     23.01438522     18.12067032
O        23.05727196     22.88652039     22.77530098
O        22.90756607     22.86791039     27.40988159
O        22.77054596     22.94157410     32.02545547
O        22.81537056     27.25102615      4.62008667
O        22.98637199     27.40409660      9.03722763
O        23.13426018     27.20582962     13.68887806
O        22.90741348     27.51134872     18.15311813
O        22.97604752     27.55774498     22.90254974
O        22.74902916     27.44709969     27.35603714
O        22.89776802     27.40024185     32.04250717
O        27.24392319     -0.02313955      4.69232035
O        27.44469070      0.04601103      9.09958935
O        27.52096176      0.03916287     13.93024635
O        27.31768990     -0.05390051     18.42540741
O        27.37012482      0.23679402     22.99199486
O        27.40124893      0.36791134     27.31590462
O        27.45513916      0.05971136     31.94078255
O        27.36698723      4.61289406      4.65661430
O        27.49701500      4.64896870      9.28143978
O        27.51501083      4.72870207     13.71472740
O        27.33130455      4.35524845     18.27752304
O        27.51831818      4.72892189     22.86128044
O        27.21394539      4.43943214     27.30928802
O        27.21109581      4.54575014     32.18208313
O        27.54547119      9.24362755      4.45017433
O        27.33712196      9.12234974      9.21413422
O        27.53216934      9.17329216     13.78094482
O        27.48443985      9.39127541     18.32390785
O        27.44886017      9.45984173     22.79469681
O        27.48815155      9.19555664     27.44625282
O        27.56151581      9.11128902     31.92887497
O        27.51851845     13.68788719      4.66654491
O        27.33019638     13.79692650      9.31806087
O        27.20474434     13.64192867     13.82455540
O        27.42279434     13.76002026     18.30137062
O        27.30930901     13.80053425     22.94153786
O        27.67932320     13.73600769     27.29263496
O        27.46476173     13.62485695     32.08646774
O        27.57847404     18.34045792      4.52496672
O        27.71791649     18.25722885      9.05772209
O        27.43638611     18.36781311     13.65637875
O        27.27483368     18.38552475     18.23827171
O        27.74020195     18.23005676     22.99682045
O        27.47390175     18.39843941     27.58019447
O        27.35028076     18.21304131     32.05587769
O        27.64495277     22.68528748      4.54219675
O        27.75111961     22.86609840      9.17646122
O        27.26101875     22.92385101     13.63128185
O        27.46010590     22.80475616     18.19352150
O        27.36260986     23.00599098     22.87398911
O        27.40499687     22.90063095     27.28730583
O        27.28484154     22.79019547     32.11745834
O        27.34165001     27.46081161      4.65946150
O        27.40962791     27.48057365      9.17137623
O        27.57538605     27.67886543     13.63241482
O        27.42644119     27.37541008     18.17547417
O        27.58456993     27.03420830     22.59545135
O        27.38401031     27.41738319     27.32718086
O        27.34758568     27.27215767     32.17689514
H         1.57931626      1.57931626      1.57931626
H         1.57931626      2.99068356      2.99068356
B         2.28499985      2.28499985      2.28499985
H         2.99068356      1.57931626      2.99068356
H         2.99068356      2.99068356      1.57931626
H         1.57931626      1.57931626      6.14931583
H         1.57931626      2.99068356      7.56068325
B         2.28499985      2.28499985      6.85500002
H         2.99068356      1.57931626      7.56068325
H         2.99068356      2.99068356      6.14931583
H         2.99068356      2.99068356     10.71931648
H         1.57931626      1.57931626     10.71931648
H         1.57931626      2.99068356     12.13068295
B         2.28499985      2.28499985     11.42499924
H         2.99068356      1.57931626     12.13068295
H         2.99068356      2.99068356     15.28931522
H         1.57931626      1.57931626     15.28931522
H         1.57931626      2.99068356     16.70068359
B         2.28499985      2.28499985     15.99499989
H         2.99068356      1.57931626     16.70068359
H         2.99068356      2.99068356     19.85931396
H         1.57931626      1.57931626     19.85931396
H         1.57931626      2.99068356     21.27068329
B         2.28499985      2.28499985     20.56499863
H         2.99068356      1.57931626     21.27068329
H         2.99068356      2.99068356     24.42931557
H         1.57931626      1.57931626     24.42931557
H         1.57931626      2.99068356     25.84068108
B         2.28499985      2.28499985     25.13500023
H         2.99068356      1.57931626     25.84068108
H         2.99068356      2.99068356     28.99931526
H         1.57931626      1.57931626     28.99931526
H         1.57931626      2.99068356     30.41068268
B         2.28499985      2.28499985     29.70499992
H         2.99068356      1.57931626     30.41068268
H         2.99068356      7.56068325      1.57931626
H         1.57931626      6.14931583      1.57931626
H         1.57931626      7.56068325      2.99068356
B         2.28499985      6.85500002      2.28499985
H         2.99068356      6.14931583      2.99068356
H         2.99068356      7.56068325      6.14931583
H         1.57931626      6.14931583      6.14931583
H         1.57931626      7.56068325      7.56068325
B         2.28499985      6.85500002      6.85500002
H         2.99068356      6.14931583      7.56068325
H         2.99068356      7.56068325     10.71931648
H         1.57931626      6.14931583     10.71931648
H         1.57931626      7.56068325     12.13068295
B         2.28499985      6.85500002     11.42499924
H         2.99068356      6.14931583     12.13068295
H         2.99068356      7.56068325     15.28931522
H         1.57931626      6.14931583     15.28931522
H         1.57931626      7.56068325     16.70068359
B         2.28499985      6.85500002     15.99499989
H         2.99068356      6.14931583     16.70068359
H         2.99068356      6.14931583     21.27068329
H         2.99068356      7.56068325     19.85931396
H         1.57931626      6.14931583     19.85931396
H         1.57931626      7.56068325     21.27068329
B         2.28499985      6.85500002     20.56499863
H         2.99068356      6.14931583     25.84068108
H         2.99068356      7.56068325     24.42931557
H         1.57931626      6.14931583     24.42931557
H         1.57931626      7.56068325     25.84068108
B         2.28499985      6.85500002     25.13500023
H         2.99068356      6.14931583     30.41068268
H         2.99068356      7.56068325     28.99931526
H         1.57931626      6.14931583     28.99931526
H         1.57931626      7.56068325     30.41068268
B         2.28499985      6.85500002     29.70499992
H         2.99068356     10.71931648      2.99068356
H         2.99068356     12.13068295      1.57931626
H         1.57931626     10.71931648      1.57931626
H         1.57931626     12.13068295      2.99068356
B         2.28499985     11.42499924      2.28499985
H         2.99068356     10.71931648      7.56068325
H         2.99068356     12.13068295      6.14931583
H         1.57931626     10.71931648      6.14931583
H         1.57931626     12.13068295      7.56068325
B         2.28499985     11.42499924      6.85500002
B         2.28499985     11.42499924     11.42499924
H         2.99068356     10.71931648     12.13068295
H         2.99068356     12.13068295     10.71931648
H         1.57931626     10.71931648     10.71931648
H         1.57931626     12.13068295     12.13068295
B         2.28499985     11.42499924     15.99499989
H         2.99068356     10.71931648     16.70068359
H         2.99068356     12.13068295     15.28931522
H         1.57931626     10.71931648     15.28931522
H         1.57931626     12.13068295     16.70068359
B         2.28499985     11.42499924     20.56499863
H         2.99068356     10.71931648     21.27068329
H         2.99068356     12.13068295     19.85931396
H         1.57931626     10.71931648     19.85931396
H         1.57931626     12.13068295     21.27068329
B         2.28499985     11.42499924     25.13500023
H         2.99068356     10.71931648     25.84068108
H         2.99068356     12.13068295     24.42931557
H         1.57931626     10.71931648     24.42931557
H         1.57931626     12.13068295     25.84068108
H         1.57931626     12.13068295     30.41068268
B         2.28499985     11.42499924     29.70499992
H         2.99068356     10.71931648     30.41068268
H         2.99068356     12.13068295     28.99931526
H         1.57931626     10.71931648     28.99931526
H         1.57931626     16.70068359      2.99068356
B         2.28499985     15.99499989      2.28499985
H         2.99068356     15.28931522      2.99068356
H         2.99068356     16.70068359      1.57931626
H         1.57931626     15.28931522      1.57931626
H         1.57931626     16.70068359      7.56068325
B         2.28499985     15.99499989      6.85500002
H         2.99068356     15.28931522      7.56068325
H         2.99068356     16.70068359      6.14931583
H         1.57931626     15.28931522      6.14931583
H         1.57931626     16.70068359     12.13068295
B         2.28499985     15.99499989     11.42499924
H         2.99068356     15.28931522     12.13068295
H         2.99068356     16.70068359     10.71931648
H         1.57931626     15.28931522     10.71931648
H         1.57931626     16.70068359     16.70068359
B         2.28499985     15.99499989     15.99499989
H         2.99068356     15.28931522     16.70068359
H         2.99068356     16.70068359     15.28931522
H         1.57931626     15.28931522     15.28931522
H         1.57931626     15.28931522     19.85931396
H         1.57931626     16.70068359     21.27068329
B         2.28499985     15.99499989     20.56499863
H         2.99068356     15.28931522     21.27068329
H         2.99068356     16.70068359     19.85931396
H         1.57931626     15.28931522     24.42931557
H         1.57931626     16.70068359     25.84068108
B         2.28499985     15.99499989     25.13500023
H         2.99068356     15.28931522     25.84068108
H         2.99068356     16.70068359     24.42931557
H         1.57931626     15.28931522     28.99931526
H         1.57931626     16.70068359     30.41068268
B         2.28499985     15.99499989     29.70499992
H         2.99068356     15.28931522     30.41068268
H         2.99068356     16.70068359     28.99931526
H         1.57931626     19.85931396      1.57931626
H         1.57931626     21.27068329      2.99068356
B         2.28499985     20.56499863      2.28499985
H         2.99068356     19.85931396      2.99068356
H         2.99068356     21.27068329      1.57931626
H         1.57931626     19.85931396      6.14931583
H         1.57931626     21.27068329      7.56068325
B         2.28499985     20.56499863      6.85500002
H         2.99068356     19.85931396      7.56068325
H         2.99068356     21.27068329      6.14931583
H         1.57931626     19.85931396     10.71931648
H         1.57931626     21.27068329     12.13068295
B         2.28499985     20.56499863     11.42499924
H         2.99068356     19.85931396     12.13068295
H         2.99068356     21.27068329     10.71931648
H         1.57931626     19.85931396     15.28931522
H         1.57931626     21.27068329     16.70068359
B         2.28499985     20.56499863     15.99499989
H         2.99068356     19.85931396     16.70068359
H         2.99068356     21.27068329     15.28931522
H         1.57931626     19.85931396     19.85931396
H         1.57931626     21.27068329     21.27068329
B         2.28499985     20.56499863     20.56499863
H         2.99068356     19.85931396     21.27068329
H         2.99068356     21.27068329     19.85931396
H         1.57931626     19.85931396     24.42931557
H         1.57931626     21.27068329     25.84068108
B         2.28499985     20.56499863     25.13500023
H         2.99068356     19.85931396     25.84068108
H         2.99068356     21.27068329     24.42931557
H         2.99068356     21.27068329     28.99931526
H         1.57931626     19.85931396     28.99931526
H         1.57931626     21.27068329     30.41068268
B         2.28499985     20.56499863     29.70499992
H         2.99068356     19.85931396     30.41068268
H         2.99068356     25.84068108      1.57931626
H         1.57931626     24.42931557      1.57931626
H         1.57931626     25.84068108      2.99068356
B         2.28499985     25.13500023      2.28499985
H         2.99068356     24.42931557      2.99068356
H         2.99068356     25.84068108      6.14931583
H         1.57931626     24.42931557      6.14931583
H         1.57931626     25.84068108      7.56068325
B         2.28499985     25.13500023      6.85500002
H         2.99068356     24.42931557      7.56068325
H         2.99068356     25.84068108     10.71931648
H         1.57931626     24.42931557     10.71931648
H         1.57931626     25.84068108     12.13068295
B         2.28499985     25.13500023     11.42499924
H         2.99068356     24.42931557     12.13068295
H         2.99068356     25.84068108     15.28931522
H         1.57931626     24.42931557     15.28931522
H         1.57931626     25.84068108     16.70068359
B         2.28499985     25.13500023     15.99499989
H         2.99068356     24.42931557     16.70068359
H         2.99068356     25.84068108     19.85931396
H         1.57931626     24.42931557     19.85931396
H         1.57931626     25.84068108     21.27068329
B         2.28499985     25.13500023     20.56499863
H         2.99068356     24.42931557     21.27068329
H         2.99068356     25.84068108     24.42931557
H         1.57931626     24.42931557     24.42931557
H         1.57931626     25.84068108     25.84068108
B         2.28499985     25.13500023     25.13500023
H         2.99068356     24.42931557     25.84068108
H         2.99068356     25.84068108     28.99931526
H         1.57931626     24.42931557     28.99931526
H         1.57931626     25.84068108     30.41068268
B         2.28499985     25.13500023     29.70499992
H         2.99068356     24.42931557     30.41068268
H         2.99068356     30.41068268      1.57931626
H         1.57931626     28.99931526      1.57931626
H         1.57931626     30.41068268      2.99068356
B         2.28499985     29.70499992      2.28499985
H         2.99068356     28.99931526      2.99068356
H         2.99068356     28.99931526      7.56068325
H         2.99068356     30.41068268      6.14931583
H         1.57931626     28.99931526      6.14931583
H         1.57931626     30.41068268      7.56068325
B         2.28499985     29.70499992      6.85500002
H         2.99068356     28.99931526     12.13068295
H         2.99068356     30.41068268     10.71931648
H         1.57931626     28.99931526     10.71931648
H         1.57931626     30.41068268     12.13068295
B         2.28499985     29.70499992     11.42499924
H         2.99068356     28.99931526     16.70068359
H         2.99068356     30.41068268     15.28931522
H         1.57931626     28.99931526     15.28931522
H         1.57931626     30.41068268     16.70068359
B         2.28499985     29.70499992     15.99499989
H         2.99068356     28.99931526     21.27068329
H         2.99068356     30.41068268     19.85931396
H         1.57931626     28.99931526     19.85931396
H         1.57931626     30.41068268     21.27068329
B         2.28499985     29.70499992     20.56499863
H         2.99068356     28.99931526     25.84068108
H         2.99068356     30.41068268     24.42931557
H         1.57931626     28.99931526     24.42931557
H         1.57931626     30.41068268     25.84068108
B         2.28499985     29.70499992     25.13500023
B         2.28499985     29.70499992     29.70499992
H         2.99068356     28.99931526     30.41068268
H         2.99068356     30.41068268     28.99931526
H         1.57931626     28.99931526     28.99931526
H         1.57931626     30.41068268     30.41068268
B         6.85500002      2.28499985      2.28499985
H         7.56068325      1.57931626      2.99068356
H         7.56068325      2.99068356      1.57931626
H         6.14931583      1.57931626      1.57931626
H         6.14931583      2.99068356      2.99068356
B         6.85500002      2.28499985      6.85500002
H         7.56068325      1.57931626      7.56068325
H         7.56068325      2.99068356      6.14931583
H         6.14931583      1.57931626      6.14931583
H         6.14931583      2.99068356      7.56068325
B         6.85500002      2.28499985     11.42499924
H         7.56068325      1.57931626     12.13068295
H         7.56068325      2.99068356     10.71931648
H         6.14931583      1.57931626     10.71931648
H         6.14931583      2.99068356     12.13068295
H         6.14931583      2.99068356     16.70068359
B         6.85500002      2.28499985     15.99499989
H         7.56068325      1.57931626     16.70068359
H         7.56068325      2.99068356     15.28931522
H         6.14931583      1.57931626     15.28931522
H         6.14931583      2.99068356     21.27068329
B         6.85500002      2.28499985     20.56499863
H         7.56068325      1.57931626     21.27068329
H         7.56068325      2.99068356     19.85931396
H         6.14931583      1.57931626     19.85931396
H         6.14931583      2.99068356     25.84068108
B         6.85500002      2.28499985     25.13500023
H         7.56068325      1.57931626     25.84068108
H         7.56068325      2.99068356     24.42931557
H         6.14931583      1.57931626     24.42931557
H         6.14931583      2.99068356     30.41068268
B         6.85500002      2.28499985     29.70499992
H         7.56068325      1.57931626     30.41068268
H         7.56068325      2.99068356     28.99931526
H         6.14931583      1.57931626     28.99931526
H         6.14931583      7.56068325      2.99068356
B         6.85500002      6.85500002      2.28499985
H         7.56068325      6.14931583      2.99068356
H         7.56068325      7.56068325      1.57931626
H         6.14931583      6.14931583      1.57931626
H         6.14931583      6.14931583      6.14931583
H         6.14931583      7.56068325      7.56068325
B         6.85500002      6.85500002      6.85500002
H         7.56068325      6.14931583      7.56068325
H         7.56068325      7.56068325      6.14931583
H         6.14931583      6.14931583     10.71931648
H         6.14931583      7.56068325     12.13068295
B         6.85500002      6.85500002     11.42499924
H         7.56068325      6.14931583     12.13068295
H         7.56068325      7.56068325     10.71931648
H         6.14931583      6.14931583     15.28931522
H         6.14931583      7.56068325     16.70068359
B         6.85500002      6.85500002     15.99499989
H         7.56068325      6.14931583     16.70068359
H         7.56068325      7.56068325     15.28931522
H         6.14931583      6.14931583     19.85931396
H         6.14931583      7.56068325     21.27068329
B         6.85500002      6.85500002     20.56499863
H         7.56068325      6.14931583     21.27068329
H         7.56068325      7.56068325     19.85931396
H         6.14931583      6.14931583     24.42931557
H         6.14931583      7.56068325     25.84068108
B         6.85500002      6.85500002     25.13500023
H         7.56068325      6.14931583     25.84068108
H         7.56068325      7.56068325     24.42931557
H         6.14931583      6.14931583     28.99931526
H         6.14931583      7.56068325     30.41068268
B         6.85500002      6.85500002     29.70499992
H         7.56068325      6.14931583     30.41068268
H         7.56068325      7.56068325     28.99931526
H         6.14931583     10.71931648      1.57931626
H         6.14931583     12.13068295      2.99068356
B         6.85500002     11.42499924      2.28499985
H         7.56068325     10.71931648      2.99068356
H         7.56068325     12.13068295      1.57931626
H         6.14931583     10.71931648      6.14931583
H         6.14931583     12.13068295      7.56068325
B         6.85500002     11.42499924      6.85500002
H         7.56068325     10.71931648      7.56068325
H         7.56068325     12.13068295      6.14931583
H         6.14931583     10.71931648     10.71931648
H         6.14931583     12.13068295     12.13068295
B         6.85500002     11.42499924     11.42499924
H         7.56068325     10.71931648     12.13068295
H         7.56068325     12.13068295     10.71931648
H         7.56068325     12.13068295     15.28931522
H         6.14931583     10.71931648     15.28931522
H         6.14931583     12.13068295     16.70068359
B         6.85500002     11.42499924     15.99499989
H         7.56068325     10.71931648     16.70068359
H         7.56068325     12.13068295     19.85931396
H         6.14931583     10.71931648     19.85931396
H         6.14931583     12.13068295     21.27068329
B         6.85500002     11.42499924     20.56499863
H         7.56068325     10.71931648     21.27068329
H         7.56068325     12.13068295     24.42931557
H         6.14931583     10.71931648     24.42931557
H         6.14931583     12.13068295     25.84068108
B         6.85500002     11.42499924     25.13500023
H         7.56068325     10.71931648     25.84068108
H         7.56068325     12.13068295     28.99931526
H         6.14931583     10.71931648     28.99931526
H         6.14931583     12.13068295     30.41068268
B         6.85500002     11.42499924     29.70499992
H         7.56068325     10.71931648     30.41068268
H         7.56068325     16.70068359      1.57931626
H         6.14931583     15.28931522      1.57931626
H         6.14931583     16.70068359      2.99068356
B         6.85500002     15.99499989      2.28499985
H         7.56068325     15.28931522      2.99068356
H         7.56068325     16.70068359      6.14931583
H         6.14931583     15.28931522      6.14931583
H         6.14931583     16.70068359      7.56068325
B         6.85500002     15.99499989      6.85500002
H         7.56068325     15.28931522      7.56068325
H         7.56068325     16.70068359     10.71931648
H         6.14931583     15.28931522     10.71931648
H         6.14931583     16.70068359     12.13068295
B         6.85500002     15.99499989     11.42499924
H         7.56068325     15.28931522     12.13068295
H         7.56068325     16.70068359     15.28931522
H         6.14931583     15.28931522     15.28931522
H         6.14931583     16.70068359     16.70068359
B         6.85500002     15.99499989     15.99499989
H         7.56068325     15.28931522     16.70068359
H         7.56068325     16.70068359     19.85931396
H         6.14931583     15.28931522     19.85931396
H         6.14931583     16.70068359     21.27068329
B         6.85500002     15.99499989     20.56499863
H         7.56068325     15.28931522     21.27068329
H         7.56068325     15.28931522     25.84068108
H         7.56068325     16.70068359     24.42931557
H         6.14931583     15.28931522     24.42931557
H         6.14931583     16.70068359     25.84068108
B         6.85500002     15.99499989     25.13500023
H         7.56068325     15.28931522     30.41068268
H         7.56068325     16.70068359     28.99931526
H         6.14931583     15.28931522     28.99931526
H         6.14931583     16.70068359     30.41068268
B         6.85500002     15.99499989     29.70499992
H         7.56068325     19.85931396      2.99068356
H         7.56068325     21.27068329      1.57931626
H         6.14931583     19.85931396      1.57931626
H         6.14931583     21.27068329      2.99068356
B         6.85500002     20.56499863      2.28499985
H         7.56068325     19.85931396      7.56068325
H         7.56068325     21.27068329      6.14931583
H         6.14931583     19.85931396      6.14931583
H         6.14931583     21.27068329      7.56068325
B         6.85500002     20.56499863      6.85500002
H         7.56068325     19.85931396     12.13068295
H         7.56068325     21.27068329     10.71931648
H         6.14931583     19.85931396     10.71931648
H         6.14931583     21.27068329     12.13068295
B         6.85500002     20.56499863     11.42499924
B         6.85500002     20.56499863     15.99499989
H         7.56068325     19.85931396     16.70068359
H         7.56068325     21.27068329     15.28931522
H         6.14931583     19.85931396     15.28931522
H         6.14931583     21.27068329     16.70068359
B         6.85500002     20.56499863     20.56499863
H         7.56068325     19.85931396     21.27068329
H         7.56068325     21.27068329     19.85931396
H         6.14931583     19.85931396     19.85931396
H         6.14931583     21.27068329     21.27068329
B         6.85500002     20.56499863     25.13500023
H         7.56068325     19.85931396     25.84068108
H         7.56068325     21.27068329     24.42931557
H         6.14931583     19.85931396     24.42931557
H         6.14931583     21.27068329     25.84068108
B         6.85500002     20.56499863     29.70499992
H         7.56068325     19.85931396     30.41068268
H         7.56068325     21.27068329     28.99931526
H         6.14931583     19.85931396     28.99931526
H         6.14931583     21.27068329     30.41068268
H         6.14931583     25.84068108      2.99068356
B         6.85500002     25.13500023      2.28499985
H         7.56068325     24.42931557      2.99068356
H         7.56068325     25.84068108      1.57931626
H         6.14931583     24.42931557      1.57931626
H         6.14931583     25.84068108      7.56068325
B         6.85500002     25.13500023      6.85500002
H         7.56068325     24.42931557      7.56068325
H         7.56068325     25.84068108      6.14931583
H         6.14931583     24.42931557      6.14931583
H         6.14931583     25.84068108     12.13068295
B         6.85500002     25.13500023     11.42499924
H         7.56068325     24.42931557     12.13068295
H         7.56068325     25.84068108     10.71931648
H         6.14931583     24.42931557     10.71931648
H         6.14931583     25.84068108     16.70068359
B         6.85500002     25.13500023     15.99499989
H         7.56068325     24.42931557     16.70068359
H         7.56068325     25.84068108     15.28931522
H         6.14931583     24.42931557     15.28931522
H         6.14931583     25.84068108     21.27068329
B         6.85500002     25.13500023     20.56499863
H         7.56068325     24.42931557     21.27068329
H         7.56068325     25.84068108     19.85931396
H         6.14931583     24.42931557     19.85931396
H         6.14931583     24.42931557     24.42931557
H         6.14931583     25.84068108     25.84068108
B         6.85500002     25.13500023     25.13500023
H         7.56068325     24.42931557     25.84068108
H         7.56068325     25.84068108     24.42931557
H         6.14931583     24.42931557     28.99931526
H         6.14931583     25.84068108     30.41068268
B         6.85500002     25.13500023     29.70499992
H         7.56068325     24.42931557     30.41068268
H         7.56068325     25.84068108     28.99931526
H         6.14931583     28.99931526      1.57931626
H         6.14931583     30.41068268      2.99068356
B         6.85500002     29.70499992      2.28499985
H         7.56068325     28.99931526      2.99068356
H         7.56068325     30.41068268      1.57931626
H         6.14931583     28.99931526      6.14931583
H         6.14931583     30.41068268      7.56068325
B         6.85500002     29.70499992      6.85500002
H         7.56068325     28.99931526      7.56068325
H         7.56068325     30.41068268      6.14931583
H         6.14931583     28.99931526     10.71931648
H         6.14931583     30.41068268     12.13068295
B         6.85500002     29.70499992     11.42499924
H         7.56068325     28.99931526     12.13068295
H         7.56068325     30.41068268     10.71931648
H         6.14931583     28.99931526     15.28931522
H         6.14931583     30.41068268     16.70068359
B         6.85500002     29.70499992     15.99499989
H         7.56068325     28.99931526     16.70068359
H         7.56068325     30.41068268     15.28931522
H         6.14931583     28.99931526     19.85931396
H         6.14931583     30.41068268     21.27068329
B         6.85500002     29.70499992     20.56499863
H         7.56068325     28.99931526     21.27068329
H         7.56068325     30.41068268     19.85931396
H         6.14931583     28.99931526     24.42931557
H         6.14931583     30.41068268     25.84068108
B         6.85500002     29.70499992     25.13500023
H         7.56068325     28.99931526     25.84068108
H         7.56068325     30.41068268     24.42931557
H         6.14931583     28.99931526     28.99931526
H         6.14931583     30.41068268     30.41068268
B         6.85500002     29.70499992     29.70499992
H         7.56068325     28.99931526     30.41068268
H         7.56068325     30.41068268     28.99931526
H        12.13068295      2.99068356      1.57931626
H        10.71931648      1.57931626      1.57931626
H        10.71931648      2.99068356      2.99068356
B        11.42499924      2.28499985      2.28499985
H        12.13068295      1.57931626      2.99068356
H        12.13068295      2.99068356      6.14931583
H        10.71931648      1.57931626      6.14931583
H        10.71931648      2.99068356      7.56068325
B        11.42499924      2.28499985      6.85500002
H        12.13068295      1.57931626      7.56068325
H        12.13068295      2.99068356     10.71931648
H        10.71931648      1.57931626     10.71931648
H        10.71931648      2.99068356     12.13068295
B        11.42499924      2.28499985     11.42499924
H        12.13068295      1.57931626     12.13068295
H        12.13068295      2.99068356     15.28931522
H        10.71931648      1.57931626     15.28931522
H        10.71931648      2.99068356     16.70068359
B        11.42499924      2.28499985     15.99499989
H        12.13068295      1.57931626     16.70068359
H        12.13068295      2.99068356     19.85931396
H        10.71931648      1.57931626     19.85931396
H        10.71931648      2.99068356     21.27068329
B        11.42499924      2.28499985     20.56499863
H        12.13068295      1.57931626     21.27068329
H        12.13068295      2.99068356     24.42931557
H        10.71931648      1.57931626     24.42931557
H        10.71931648      2.99068356     25.84068108
B        11.42499924      2.28499985     25.13500023
H        12.13068295      1.57931626     25.84068108
H        12.13068295      2.99068356     28.99931526
H        10.71931648      1.57931626     28.99931526
H        10.71931648      2.99068356     30.41068268
B        11.42499924      2.28499985     29.70499992
H        12.13068295      1.57931626     30.41068268
H        12.13068295      7.56068325      1.57931626
H        10.71931648      6.14931583      1.57931626
H        10.71931648      7.56068325      2.99068356
B        11.42499924      6.85500002      2.28499985
H        12.13068295      6.14931583      2.99068356
H        12.13068295      7.56068325      6.14931583
H        10.71931648      6.14931583      6.14931583
H        10.71931648      7.56068325      7.56068325
B        11.42499924      6.85500002      6.85500002
H        12.13068295      6.14931583      7.56068325
H        12.13068295      6.14931583     12.13068295
H        12.13068295      7.56068325     10.71931648
H        10.71931648      6.14931583     10.71931648
H        10.71931648      7.56068325     12.13068295
B        11.42499924      6.85500002     11.42499924
H        12.13068295      6.14931583     16.70068359
H        12.13068295      7.56068325     15.28931522
H        10.71931648      6.14931583     15.28931522
H        10.71931648      7.56068325     16.70068359
B        11.42499924      6.85500002     15.99499989
H        12.13068295      6.14931583     21.27068329
H        12.13068295      7.56068325     19.85931396
H        10.71931648      6.14931583     19.85931396
H        10.71931648      7.56068325     21.27068329
B        11.42499924      6.85500002     20.56499863
H        12.13068295      6.14931583     25.84068108
H        12.13068295      7.56068325     24.42931557
H        10.71931648      6.14931583     24.42931557
H        10.71931648      7.56068325     25.84068108
B        11.42499924      6.85500002     25.13500023
H        12.13068295      6.14931583     30.41068268
H        12.13068295      7.56068325     28.99931526
H        10.71931648      6.14931583     28.99931526
H        10.71931648      7.56068325     30.41068268
B        11.42499924      6.85500002     29.70499992
B        11.42499924     11.42499924      2.28499985
H        12.13068295     10.71931648      2.99068356
H        12.13068295     12.13068295      1.57931626
H        10.71931648     10.71931648      1.57931626
H        10.71931648     12.13068295      2.99068356
B        11.42499924     11.42499924      6.85500002
H        12.13068295     10.71931648      7.56068325
H        12.13068295     12.13068295      6.14931583
H        10.71931648     10.71931648      6.14931583
H        10.71931648     12.13068295      7.56068325
B        11.42499924     11.42499924     11.42499924
H        12.13068295     10.71931648     12.13068295
H        12.13068295     12.13068295     10.71931648
H        10.71931648     10.71931648     10.71931648
H        10.71931648     12.13068295     12.13068295
B        11.42499924     11.42499924     15.99499989
H        12.13068295     10.71931648     16.70068359
H        12.13068295     12.13068295     15.28931522
H        10.71931648     10.71931648     15.28931522
H        10.71931648     12.13068295     16.70068359
H        10.71931648     12.13068295     21.27068329
B        11.42499924     11.42499924     20.56499863
H        12.13068295     10.71931648     21.27068329
H        12.13068295     12.13068295     19.85931396
H        10.71931648     10.71931648     19.85931396
H        10.71931648     12.13068295     25.84068108
B        11.42499924     11.42499924     25.13500023
H        12.13068295     10.71931648     25.84068108
H        12.13068295     12.13068295     24.42931557
H        10.71931648     10.71931648     24.42931557
H        10.71931648     12.13068295     30.41068268
B        11.42499924     11.42499924     29.70499992
H        12.13068295     10.71931648     30.41068268
H        12.13068295     12.13068295     28.99931526
H        10.71931648     10.71931648     28.99931526
H        10.71931648     16.70068359      2.99068356
B        11.42499924     15.99499989      2.28499985
H        12.13068295     15.28931522      2.99068356
H        12.13068295     16.70068359      1.57931626
H        10.71931648     15.28931522      1.57931626
H        10.71931648     16.70068359      7.56068325
B        11.42499924     15.99499989      6.85500002
H        12.13068295     15.28931522      7.56068325
H        12.13068295     16.70068359      6.14931583
H        10.71931648     15.28931522      6.14931583
H        10.71931648     15.28931522     10.71931648
H        10.71931648     16.70068359     12.13068295
B        11.42499924     15.99499989     11.42499924
H        12.13068295     15.28931522     12.13068295
H        12.13068295     16.70068359     10.71931648
H        10.71931648     15.28931522     15.28931522
H        10.71931648     16.70068359     16.70068359
B        11.42499924     15.99499989     15.99499989
H        12.13068295     15.28931522     16.70068359
H        12.13068295     16.70068359     15.28931522
H        10.71931648     15.28931522     19.85931396
H        10.71931648     16.70068359     21.27068329
B        11.42499924     15.99499989     20.56499863
H        12.13068295     15.28931522     21.27068329
H        12.13068295     16.70068359     19.85931396
H        10.71931648     15.28931522     24.42931557
H        10.71931648     16.70068359     25.84068108
B        11.42499924     15.99499989     25.13500023
H        12.13068295     15.28931522     25.84068108
H        12.13068295     16.70068359     24.42931557
H        10.71931648     15.28931522     28.99931526
H        10.71931648     16.70068359     30.41068268
B        11.42499924     15.99499989     29.70499992
H        12.13068295     15.28931522     30.41068268
H        12.13068295     16.70068359     28.99931526
H        10.71931648     19.85931396      1.57931626
H        10.71931648     21.27068329      2.99068356
B        11.42499924     20.56499863      2.28499985
H        12.13068295     19.85931396      2.99068356
H        12.13068295     21.27068329      1.57931626
H        10.71931648     19.85931396      6.14931583
H        10.71931648     21.27068329      7.56068325
B        11.42499924     20.56499863      6.85500002
H        12.13068295     19.85931396      7.56068325
H        12.13068295     21.27068329      6.14931583
H        10.71931648     19.85931396     10.71931648
H        10.71931648     21.27068329     12.13068295
B        11.42499924     20.56499863     11.42499924
H        12.13068295     19.85931396     12.13068295
H        12.13068295     21.27068329     10.71931648
H        10.71931648     19.85931396     15.28931522
H        10.71931648     21.27068329     16.70068359
B        11.42499924     20.56499863     15.99499989
H        12.13068295     19.85931396     16.70068359
H        12.13068295     21.27068329     15.28931522
H        12.13068295     21.27068329     19.85931396
H        10.71931648     19.85931396     19.85931396
H        10.71931648     21.27068329     21.27068329
B        11.42499924     20.56499863     20.56499863
H        12.13068295     19.85931396     21.27068329
H        12.13068295     21.27068329     24.42931557
H        10.71931648     19.85931396     24.42931557
H        10.71931648     21.27068329     25.84068108
B        11.42499924     20.56499863     25.13500023
H        12.13068295     19.85931396     25.84068108
H        12.13068295     21.27068329     28.99931526
H        10.71931648     19.85931396     28.99931526
H        10.71931648     21.27068329     30.41068268
B        11.42499924     20.56499863     29.70499992
H        12.13068295     19.85931396     30.41068268
H        12.13068295     25.84068108      1.57931626
H        10.71931648     24.42931557      1.57931626
H        10.71931648     25.84068108      2.99068356
B        11.42499924     25.13500023      2.28499985
H        12.13068295     24.42931557      2.99068356
H        12.13068295     25.84068108      6.14931583
H        10.71931648     24.42931557      6.14931583
H        10.71931648     25.84068108      7.56068325
B        11.42499924     25.13500023      6.85500002
H        12.13068295     24.42931557      7.56068325
H        12.13068295     25.84068108     10.71931648
H        10.71931648     24.42931557     10.71931648
H        10.71931648     25.84068108     12.13068295
B        11.42499924     25.13500023     11.42499924
H        12.13068295     24.42931557     12.13068295
H        12.13068295     25.84068108     15.28931522
H        10.71931648     24.42931557     15.28931522
H        10.71931648     25.84068108     16.70068359
B        11.42499924     25.13500023     15.99499989
H        12.13068295     24.42931557     16.70068359
H        12.13068295     25.84068108     19.85931396
H        10.71931648     24.42931557     19.85931396
H        10.71931648     25.84068108     21.27068329
B        11.42499924     25.13500023     20.56499863
H        12.13068295     24.42931557     21.27068329
H        12.13068295     25.84068108     24.42931557
H        10.71931648     24.42931557     24.42931557
H        10.71931648     25.84068108     25.84068108
B        11.42499924     25.13500023     25.13500023
H        12.13068295     24.42931557     25.84068108
H        12.13068295     24.42931557     30.41068268
H        12.13068295     25.84068108     28.99931526
H        10.71931648     24.42931557     28.99931526
H        10.71931648     25.84068108     30.41068268
B        11.42499924     25.13500023     29.70499992
H        12.13068295     28.99931526      2.99068356
H        12.13068295     30.41068268      1.57931626
H        10.71931648     28.99931526      1.57931626
H        10.71931648     30.41068268      2.99068356
B        11.42499924     29.70499992      2.28499985
H        12.13068295     28.99931526      7.56068325
H        12.13068295     30.41068268      6.14931583
H        10.71931648     28.99931526      6.14931583
H        10.71931648     30.41068268      7.56068325
B        11.42499924     29.70499992      6.85500002
H        12.13068295     28.99931526     12.13068295
H        12.13068295     30.41068268     10.71931648
H        10.71931648     28.99931526     10.71931648
H        10.71931648     30.41068268     12.13068295
B        11.42499924     29.70499992     11.42499924
H        12.13068295     28.99931526     16.70068359
H        12.13068295     30.41068268     15.28931522
H        10.71931648     28.99931526     15.28931522
H        10.71931648     30.41068268     16.70068359
B        11.42499924     29.70499992     15.99499989
B        11.42499924     29.70499992     20.56499863
H        12.13068295     28.99931526     21.27068329
H        12.13068295     30.41068268     19.85931396
H        10.71931648     28.99931526     19.85931396
H        10.71931648     30.41068268     21.27068329
B        11.42499924     29.70499992     25.13500023
H        12.13068295     28.99931526     25.84068108
H        12.13068295     30.41068268     24.42931557
H        10.71931648     28.99931526     24.42931557
H        10.71931648     30.41068268     25.84068108
B        11.42499924     29.70499992     29.70499992
H        12.13068295     28.99931526     30.41068268
H        12.13068295     30.41068268     28.99931526
H        10.71931648     28.99931526     28.99931526
H        10.71931648     30.41068268     30.41068268
B        15.99499989      2.28499985      2.28499985
H        16.70068359      1.57931626      2.99068356
H        16.70068359      2.99068356      1.57931626
H        15.28931522      1.57931626      1.57931626
H        15.28931522      2.99068356      2.99068356
H        15.28931522      2.99068356      7.56068325
B        15.99499989      2.28499985      6.85500002
H        16.70068359      1.57931626      7.56068325
H        16.70068359      2.99068356      6.14931583
H        15.28931522      1.57931626      6.14931583
H        15.28931522      2.99068356     12.13068295
B        15.99499989      2.28499985     11.42499924
H        16.70068359      1.57931626     12.13068295
H        16.70068359      2.99068356     10.71931648
H        15.28931522      1.57931626     10.71931648
H        15.28931522      2.99068356     16.70068359
B        15.99499989      2.28499985     15.99499989
H        16.70068359      1.57931626     16.70068359
H        16.70068359      2.99068356     15.28931522
H        15.28931522      1.57931626     15.28931522
H        15.28931522      2.99068356     21.27068329
B        15.99499989      2.28499985     20.56499863
H        16.70068359      1.57931626     21.27068329
H        16.70068359      2.99068356     19.85931396
H        15.28931522      1.57931626     19.85931396
H        15.28931522      2.99068356     25.84068108
B        15.99499989      2.28499985     25.13500023
H        16.70068359      1.57931626     25.84068108
H        16.70068359      2.99068356     24.42931557
H        15.28931522      1.57931626     24.42931557
H        15.28931522      1.57931626     28.99931526
H        15.28931522      2.99068356     30.41068268
B        15.99499989      2.28499985     29.70499992
H        16.70068359      1.57931626     30.41068268
H        16.70068359      2.99068356     28.99931526
H        15.28931522      6.14931583      1.57931626
H        15.28931522      7.56068325      2.99068356
B        15.99499989      6.85500002      2.28499985
H        16.70068359      6.14931583      2.99068356
H        16.70068359      7.56068325      1.57931626
H        15.28931522      6.14931583      6.14931583
H        15.28931522      7.56068325      7.56068325
B        15.99499989      6.85500002      6.85500002
H        16.70068359      6.14931583      7.56068325
H        16.70068359      7.56068325      6.14931583
H        15.28931522      6.14931583     10.71931648
H        15.28931522      7.56068325     12.13068295
B        15.99499989      6.85500002     11.42499924
H        16.70068359      6.14931583     12.13068295
H        16.70068359      7.56068325     10.71931648
H        15.28931522      6.14931583     15.28931522
H        15.28931522      7.56068325     16.70068359
B        15.99499989      6.85500002     15.99499989
H        16.70068359      6.14931583     16.70068359
H        16.70068359      7.56068325     15.28931522
H        15.28931522      6.14931583     19.85931396
H        15.28931522      7.56068325     21.27068329
B        15.99499989      6.85500002     20.56499863
H        16.70068359      6.14931583     21.27068329
H        16.70068359      7.56068325     19.85931396
H        15.28931522      6.14931583     24.42931557
H        15.28931522      7.56068325     25.84068108
B        15.99499989      6.85500002     25.13500023
H        16.70068359      6.14931583     25.84068108
H        16.70068359      7.56068325     24.42931557
H        15.28931522      6.14931583     28.99931526
H        15.28931522      7.56068325     30.41068268
B        15.99499989      6.85500002     29.70499992
H        16.70068359      6.14931583     30.41068268
H        16.70068359      7.56068325     28.99931526
H        15.28931522     10.71931648      1.57931626
H        15.28931522     12.13068295      2.99068356
B        15.99499989     11.42499924      2.28499985
H        16.70068359     10.71931648      2.99068356
H        16.70068359     12.13068295      1.57931626
H        16.70068359     12.13068295      6.14931583
H        15.28931522     10.71931648      6.14931583
H        15.28931522     12.13068295      7.56068325
B        15.99499989     11.42499924      6.85500002
H        16.70068359     10.71931648      7.56068325
H        16.70068359     12.13068295     10.71931648
H        15.28931522     10.71931648     10.71931648
H        15.28931522     12.13068295     12.13068295
B        15.99499989     11.42499924     11.42499924
H        16.70068359     10.71931648     12.13068295
H        16.70068359     12.13068295     15.28931522
H        15.28931522     10.71931648     15.28931522
H        15.28931522     12.13068295     16.70068359
B        15.99499989     11.42499924     15.99499989
H        16.70068359     10.71931648     16.70068359
H        16.70068359     12.13068295     19.85931396
H        15.28931522     10.71931648     19.85931396
H        15.28931522     12.13068295     21.27068329
B        15.99499989     11.42499924     20.56499863
H        16.70068359     10.71931648     21.27068329
H        16.70068359     12.13068295     24.42931557
H        15.28931522     10.71931648     24.42931557
H        15.28931522     12.13068295     25.84068108
B        15.99499989     11.42499924     25.13500023
H        16.70068359     10.71931648     25.84068108
H        16.70068359     12.13068295     28.99931526
H        15.28931522     10.71931648     28.99931526
H        15.28931522     12.13068295     30.41068268
B        15.99499989     11.42499924     29.70499992
H        16.70068359     10.71931648     30.41068268
H        16.70068359     16.70068359      1.57931626
H        15.28931522     15.28931522      1.57931626
H        15.28931522     16.70068359      2.99068356
B        15.99499989     15.99499989      2.28499985
H        16.70068359     15.28931522      2.99068356
H        16.70068359     16.70068359      6.14931583
H        15.28931522     15.28931522      6.14931583
H        15.28931522     16.70068359      7.56068325
B        15.99499989     15.99499989      6.85500002
H        16.70068359     15.28931522      7.56068325
H        16.70068359     16.70068359     10.71931648
H        15.28931522     15.28931522     10.71931648
H        15.28931522     16.70068359     12.13068295
B        15.99499989     15.99499989     11.42499924
H        16.70068359     15.28931522     12.13068295
H        16.70068359     15.28931522     16.70068359
H        16.70068359     16.70068359     15.28931522
H        15.28931522     15.28931522     15.28931522
H        15.28931522     16.70068359     16.70068359
B        15.99499989     15.99499989     15.99499989
H        16.70068359     15.28931522     21.27068329
H        16.70068359     16.70068359     19.85931396
H        15.28931522     15.28931522     19.85931396
H        15.28931522     16.70068359     21.27068329
B        15.99499989     15.99499989     20.56499863
H        16.70068359     15.28931522     25.84068108
H        16.70068359     16.70068359     24.42931557
H        15.28931522     15.28931522     24.42931557
H        15.28931522     16.70068359     25.84068108
B        15.99499989     15.99499989     25.13500023
H        16.70068359     15.28931522     30.41068268
H        16.70068359     16.70068359     28.99931526
H        15.28931522     15.28931522     28.99931526
H        15.28931522     16.70068359     30.41068268
B        15.99499989     15.99499989     29.70499992
H        16.70068359     19.85931396      2.99068356
H        16.70068359     21.27068329      1.57931626
H        15.28931522     19.85931396      1.57931626
H        15.28931522     21.27068329      2.99068356
B        15.99499989     20.56499863      2.28499985
B        15.99499989     20.56499863      6.85500002
H        16.70068359     19.85931396      7.56068325
H        16.70068359     21.27068329      6.14931583
H        15.28931522     19.85931396      6.14931583
H        15.28931522     21.27068329      7.56068325
B        15.99499989     20.56499863     11.42499924
H        16.70068359     19.85931396     12.13068295
H        16.70068359     21.27068329     10.71931648
H        15.28931522     19.85931396     10.71931648
H        15.28931522     21.27068329     12.13068295
B        15.99499989     20.56499863     15.99499989
H        16.70068359     19.85931396     16.70068359
H        16.70068359     21.27068329     15.28931522
H        15.28931522     19.85931396     15.28931522
H        15.28931522     21.27068329     16.70068359
B        15.99499989     20.56499863     20.56499863
H        16.70068359     19.85931396     21.27068329
H        16.70068359     21.27068329     19.85931396
H        15.28931522     19.85931396     19.85931396
H        15.28931522     21.27068329     21.27068329
H        15.28931522     21.27068329     25.84068108
B        15.99499989     20.56499863     25.13500023
H        16.70068359     19.85931396     25.84068108
H        16.70068359     21.27068329     24.42931557
H        15.28931522     19.85931396     24.42931557
H        15.28931522     21.27068329     30.41068268
B        15.99499989     20.56499863     29.70499992
H        16.70068359     19.85931396     30.41068268
H        16.70068359     21.27068329     28.99931526
H        15.28931522     19.85931396     28.99931526
H        15.28931522     25.84068108      2.99068356
B        15.99499989     25.13500023      2.28499985
H        16.70068359     24.42931557      2.99068356
H        16.70068359     25.84068108      1.57931626
H        15.28931522     24.42931557      1.57931626
H        15.28931522     25.84068108      7.56068325
B        15.99499989     25.13500023      6.85500002
H        16.70068359     24.42931557      7.56068325
H        16.70068359     25.84068108      6.14931583
H        15.28931522     24.42931557      6.14931583
H        15.28931522     25.84068108     12.13068295
B        15.99499989     25.13500023     11.42499924
H        16.70068359     24.42931557     12.13068295
H        16.70068359     25.84068108     10.71931648
H        15.28931522     24.42931557     10.71931648
H        15.28931522     24.42931557     15.28931522
H        15.28931522     25.84068108     16.70068359
B        15.99499989     25.13500023     15.99499989
H        16.70068359     24.42931557     16.70068359
H        16.70068359     25.84068108     15.28931522
H        15.28931522     24.42931557     19.85931396
H        15.28931522     25.84068108     21.27068329
B        15.99499989     25.13500023     20.56499863
H        16.70068359     24.42931557     21.27068329
H        16.70068359     25.84068108     19.85931396
H        15.28931522     24.42931557     24.42931557
H        15.28931522     25.84068108     25.84068108
B        15.99499989     25.13500023     25.13500023
H        16.70068359     24.42931557     25.84068108
H        16.70068359     25.84068108     24.42931557
H        15.28931522     24.42931557     28.99931526
H        15.28931522     25.84068108     30.41068268
B        15.99499989     25.13500023     29.70499992
H        16.70068359     24.42931557     30.41068268
H        16.70068359     25.84068108     28.99931526
H        15.28931522     28.99931526      1.57931626
H        15.28931522     30.41068268      2.99068356
B        15.99499989     29.70499992      2.28499985
H        16.70068359     28.99931526      2.99068356
H        16.70068359     30.41068268      1.57931626
H        15.28931522     28.99931526      6.14931583
H        15.28931522     30.41068268      7.56068325
B        15.99499989     29.70499992      6.85500002
H        16.70068359     28.99931526      7.56068325
H        16.70068359     30.41068268      6.14931583
H        15.28931522     28.99931526     10.71931648
H        15.28931522     30.41068268     12.13068295
B        15.99499989     29.70499992     11.42499924
H        16.70068359     28.99931526     12.13068295
H        16.70068359     30.41068268     10.71931648
H        15.28931522     28.99931526     15.28931522
H        15.28931522     30.41068268     16.70068359
B        15.99499989     29.70499992     15.99499989
H        16.70068359     28.99931526     16.70068359
H        16.70068359     30.41068268     15.28931522
H        15.28931522     28.99931526     19.85931396
H        15.28931522     30.41068268     21.27068329
B        15.99499989     29.70499992     20.56499863
H        16.70068359     28.99931526     21.27068329
H        16.70068359     30.41068268     19.85931396
H        16.70068359     30.41068268     24.42931557
H        15.28931522     28.99931526     24.42931557
H        15.28931522     30.41068268     25.84068108
B        15.99499989     29.70499992     25.13500023
H        16.70068359     28.99931526     25.84068108
H        16.70068359     30.41068268     28.99931526
H        15.28931522     28.99931526     28.99931526
H        15.28931522     30.41068268     30.41068268
B        15.99499989     29.70499992     29.70499992
H        16.70068359     28.99931526     30.41068268
H        21.27068329      2.99068356      1.57931626
H        19.85931396      1.57931626      1.57931626
H        19.85931396      2.99068356      2.99068356
B        20.56499863      2.28499985      2.28499985
H        21.27068329      1.57931626      2.99068356
H        21.27068329      2.99068356      6.14931583
H        19.85931396      1.57931626      6.14931583
H        19.85931396      2.99068356      7.56068325
B        20.56499863      2.28499985      6.85500002
H        21.27068329      1.57931626      7.56068325
H        21.27068329      2.99068356     10.71931648
H        19.85931396      1.57931626     10.71931648
H        19.85931396      2.99068356     12.13068295
B        20.56499863      2.28499985     11.42499924
H        21.27068329      1.57931626     12.13068295
H        21.27068329      2.99068356     15.28931522
H        19.85931396      1.57931626     15.28931522
H        19.85931396      2.99068356     16.70068359
B        20.56499863      2.28499985     15.99499989
H        21.27068329      1.57931626     16.70068359
H        21.27068329      2.99068356     19.85931396
H        19.85931396      1.57931626     19.85931396
H        19.85931396      2.99068356     21.27068329
B        20.56499863      2.28499985     20.56499863
H        21.27068329      1.57931626     21.27068329
H        21.27068329      2.99068356     24.42931557
H        19.85931396      1.57931626     24.42931557
H        19.85931396      2.99068356     25.84068108
B        20.56499863      2.28499985     25.13500023
H        21.27068329      1.57931626     25.84068108
H        21.27068329      2.99068356     28.99931526
H        19.85931396      1.57931626     28.99931526
H        19.85931396      2.99068356     30.41068268
B        20.56499863      2.28499985     29.70499992
H        21.27068329      1.57931626     30.41068268
H        21.27068329      6.14931583      2.99068356
H        21.27068329      7.56068325      1.57931626
H        19.85931396      6.14931583      1.57931626
H        19.85931396      7.56068325      2.99068356
B        20.56499863      6.85500002      2.28499985
H        21.27068329      6.14931583      7.56068325
H        21.27068329      7.56068325      6.14931583
H        19.85931396      6.14931583      6.14931583
H        19.85931396      7.56068325      7.56068325
B        20.56499863      6.85500002      6.85500002
H        21.27068329      6.14931583     12.13068295
H        21.27068329      7.56068325     10.71931648
H        19.85931396      6.14931583     10.71931648
H        19.85931396      7.56068325     12.13068295
B        20.56499863      6.85500002     11.42499924
H        21.27068329      6.14931583     16.70068359
H        21.27068329      7.56068325     15.28931522
H        19.85931396      6.14931583     15.28931522
H        19.85931396      7.56068325     16.70068359
B        20.56499863      6.85500002     15.99499989
H        21.27068329      6.14931583     21.27068329
H        21.27068329      7.56068325     19.85931396
H        19.85931396      6.14931583     19.85931396
H        19.85931396      7.56068325     21.27068329
B        20.56499863      6.85500002     20.56499863
B        20.56499863      6.85500002     25.13500023
H        21.27068329      6.14931583     25.84068108
H        21.27068329      7.56068325     24.42931557
H        19.85931396      6.14931583     24.42931557
H        19.85931396      7.56068325     25.84068108
B        20.56499863      6.85500002     29.70499992
H        21.27068329      6.14931583     30.41068268
H        21.27068329      7.56068325     28.99931526
H        19.85931396      6.14931583     28.99931526
H        19.85931396      7.56068325     30.41068268
B        20.56499863     11.42499924      2.28499985
H        21.27068329     10.71931648      2.99068356
H        21.27068329     12.13068295      1.57931626
H        19.85931396     10.71931648      1.57931626
H        19.85931396     12.13068295      2.99068356
B        20.56499863     11.42499924      6.85500002
H        21.27068329     10.71931648      7.56068325
H        21.27068329     12.13068295      6.14931583
H        19.85931396     10.71931648      6.14931583
H        19.85931396     12.13068295      7.56068325
H        19.85931396     12.13068295     12.13068295
B        20.56499863     11.42499924     11.42499924
H        21.27068329     10.71931648     12.13068295
H        21.27068329     12.13068295     10.71931648
H        19.85931396     10.71931648     10.71931648
H        19.85931396     12.13068295     16.70068359
B        20.56499863     11.42499924     15.99499989
H        21.27068329     10.71931648     16.70068359
H        21.27068329     12.13068295     15.28931522
H        19.85931396     10.71931648     15.28931522
H        19.85931396     12.13068295     21.27068329
B        20.56499863     11.42499924     20.56499863
H        21.27068329     10.71931648     21.27068329
H        21.27068329     12.13068295     19.85931396
H        19.85931396     10.71931648     19.85931396
H        19.85931396     12.13068295     25.84068108
B        20.56499863     11.42499924     25.13500023
H        21.27068329     10.71931648     25.84068108
H        21.27068329     12.13068295     24.42931557
H        19.85931396     10.71931648     24.42931557
H        19.85931396     12.13068295     30.41068268
B        20.56499863     11.42499924     29.70499992
H        21.27068329     10.71931648     30.41068268
H        21.27068329     12.13068295     28.99931526
H        19.85931396     10.71931648     28.99931526
H        19.85931396     15.28931522      1.57931626
H        19.85931396     16.70068359      2.99068356
B        20.56499863     15.99499989      2.28499985
H        21.27068329     15.28931522      2.99068356
H        21.27068329     16.70068359      1.57931626
H        19.85931396     15.28931522      6.14931583
H        19.85931396     16.70068359      7.56068325
B        20.56499863     15.99499989      6.85500002
H        21.27068329     15.28931522      7.56068325
H        21.27068329     16.70068359      6.14931583
H        19.85931396     15.28931522     10.71931648
H        19.85931396     16.70068359     12.13068295
B        20.56499863     15.99499989     11.42499924
H        21.27068329     15.28931522     12.13068295
H        21.27068329     16.70068359     10.71931648
H        19.85931396     15.28931522     15.28931522
H        19.85931396     16.70068359     16.70068359
B        20.56499863     15.99499989     15.99499989
H        21.27068329     15.28931522     16.70068359
H        21.27068329     16.70068359     15.28931522
H        19.85931396     15.28931522     19.85931396
H        19.85931396     16.70068359     21.27068329
B        20.56499863     15.99499989     20.56499863
H        21.27068329     15.28931522     21.27068329
H        21.27068329     16.70068359     19.85931396
H        19.85931396     15.28931522     24.42931557
H        19.85931396     16.70068359     25.84068108
B        20.56499863     15.99499989     25.13500023
H        21.27068329     15.28931522     25.84068108
H        21.27068329     16.70068359     24.42931557
H        19.85931396     15.28931522     28.99931526
H        19.85931396     16.70068359     30.41068268
B        20.56499863     15.99499989     29.70499992
H        21.27068329     15.28931522     30.41068268
H        21.27068329     16.70068359     28.99931526
H        19.85931396     19.85931396      1.57931626
H        19.85931396     21.27068329      2.99068356
B        20.56499863     20.56499863      2.28499985
H        21.27068329     19.85931396      2.99068356
H        21.27068329     21.27068329      1.57931626
H        19.85931396     19.85931396      6.14931583
H        19.85931396     21.27068329      7.56068325
B        20.56499863     20.56499863      6.85500002
H        21.27068329     19.85931396      7.56068325
H        21.27068329     21.27068329      6.14931583
H        21.27068329     21.27068329     10.71931648
H        19.85931396     19.85931396     10.71931648
H        19.85931396     21.27068329     12.13068295
B        20.56499863     20.56499863     11.42499924
H        21.27068329     19.85931396     12.13068295
H        21.27068329     21.27068329     15.28931522
H        19.85931396     19.85931396     15.28931522
H        19.85931396     21.27068329     16.70068359
B        20.56499863     20.56499863     15.99499989
H        21.27068329     19.85931396     16.70068359
H        21.27068329     21.27068329     19.85931396
H        19.85931396     19.85931396     19.85931396
H        19.85931396     21.27068329     21.27068329
B        20.56499863     20.56499863     20.56499863
H        21.27068329     19.85931396     21.27068329
H        21.27068329     21.27068329     24.42931557
H        19.85931396     19.85931396     24.42931557
H        19.85931396     21.27068329     25.84068108
B        20.56499863     20.56499863     25.13500023
H        21.27068329     19.85931396     25.84068108
H        21.27068329     21.27068329     28.99931526
H        19.85931396     19.85931396     28.99931526
H        19.85931396     21.27068329     30.41068268
B        20.56499863     20.56499863     29.70499992
H        21.27068329     19.85931396     30.41068268
H        21.27068329     25.84068108      1.57931626
H        19.85931396     24.42931557      1.57931626
H        19.85931396     25.84068108      2.99068356
B        20.56499863     25.13500023      2.28499985
H        21.27068329     24.42931557      2.99068356
H        21.27068329     25.84068108      6.14931583
H        19.85931396     24.42931557      6.14931583
H        19.85931396     25.84068108      7.56068325
B        20.56499863     25.13500023      6.85500002
H        21.27068329     24.42931557      7.56068325
H        21.27068329     25.84068108     10.71931648
H        19.85931396     24.42931557     10.71931648
H        19.85931396     25.84068108     12.13068295
B        20.56499863     25.13500023     11.42499924
H        21.27068329     24.42931557     12.13068295
H        21.27068329     25.84068108     15.28931522
H        19.85931396     24.42931557     15.28931522
H        19.85931396     25.84068108     16.70068359
B        20.56499863     25.13500023     15.99499989
H        21.27068329     24.42931557     16.70068359
H        21.27068329     24.42931557     21.27068329
H        21.27068329     25.84068108     19.85931396
H        19.85931396     24.42931557     19.85931396
H        19.85931396     25.84068108     21.27068329
B        20.56499863     25.13500023     20.56499863
H        21.27068329     24.42931557     25.84068108
H        21.27068329     25.84068108     24.42931557
H        19.85931396     24.42931557     24.42931557
H        19.85931396     25.84068108     25.84068108
B        20.56499863     25.13500023     25.13500023
H        21.27068329     24.42931557     30.41068268
H        21.27068329     25.84068108     28.99931526
H        19.85931396     24.42931557     28.99931526
H        19.85931396     25.84068108     30.41068268
B        20.56499863     25.13500023     29.70499992
H        21.27068329     28.99931526      2.99068356
H        21.27068329     30.41068268      1.57931626
H        19.85931396     28.99931526      1.57931626
H        19.85931396     30.41068268      2.99068356
B        20.56499863     29.70499992      2.28499985
H        21.27068329     28.99931526      7.56068325
H        21.27068329     30.41068268      6.14931583
H        19.85931396     28.99931526      6.14931583
H        19.85931396     30.41068268      7.56068325
B        20.56499863     29.70499992      6.85500002
B        20.56499863     29.70499992     11.42499924
H        21.27068329     28.99931526     12.13068295
H        21.27068329     30.41068268     10.71931648
H        19.85931396     28.99931526     10.71931648
H        19.85931396     30.41068268     12.13068295
B        20.56499863     29.70499992     15.99499989
H        21.27068329     28.99931526     16.70068359
H        21.27068329     30.41068268     15.28931522
H        19.85931396     28.99931526     15.28931522
H        19.85931396     30.41068268     16.70068359
B        20.56499863     29.70499992     20.56499863
H        21.27068329     28.99931526     21.27068329
H        21.27068329     30.41068268     19.85931396
H        19.85931396     28.99931526     19.85931396
H        19.85931396     30.41068268     21.27068329
B        20.56499863     29.70499992     25.13500023
H        21.27068329     28.99931526     25.84068108
H        21.27068329     30.41068268     24.42931557
H        19.85931396     28.99931526     24.42931557
H        19.85931396     30.41068268     25.84068108
H        19.85931396     30.41068268     30.41068268
B        20.56499863     29.70499992     29.70499992
H        21.27068329     28.99931526     30.41068268
H        21.27068329     30.41068268     28.99931526
H        19.85931396     28.99931526     28.99931526
H        24.42931557      2.99068356      2.99068356
B        25.13500023      2.28499985      2.28499985
H        25.84068108      1.57931626      2.99068356
H        25.84068108      2.99068356      1.57931626
H        24.42931557      1.57931626      1.57931626
H        24.42931557      2.99068356      7.56068325
B        25.13500023      2.28499985      6.85500002
H        25.84068108      1.57931626      7.56068325
H        25.84068108      2.99068356      6.14931583
H        24.42931557      1.57931626      6.14931583
H        24.42931557      2.99068356     12.13068295
B        25.13500023      2.28499985     11.42499924
H        25.84068108      1.57931626     12.13068295
H        25.84068108      2.99068356     10.71931648
H        24.42931557      1.57931626     10.71931648
H        24.42931557      2.99068356     16.70068359
B        25.13500023      2.28499985     15.99499989
H        25.84068108      1.57931626     16.70068359
H        25.84068108      2.99068356     15.28931522
H        24.42931557      1.57931626     15.28931522
H        24.42931557      1.57931626     19.85931396
H        24.42931557      2.99068356     21.27068329
B        25.13500023      2.28499985     20.56499863
H        25.84068108      1.57931626     21.27068329
H        25.84068108      2.99068356     19.85931396
H        24.42931557      1.57931626     24.42931557
H        24.42931557      2.99068356     25.84068108
B        25.13500023      2.28499985     25.13500023
H        25.84068108      1.57931626     25.84068108
H        25.84068108      2.99068356     24.42931557
H        24.42931557      1.57931626     28.99931526
H        24.42931557      2.99068356     30.41068268
B        25.13500023      2.28499985     29.70499992
H        25.84068108      1.57931626     30.41068268
H        25.84068108      2.99068356     28.99931526
H        24.42931557      6.14931583      1.57931626
H        24.42931557      7.56068325      2.99068356
B        25.13500023      6.85500002      2.28499985
H        25.84068108      6.14931583      2.99068356
H        25.84068108      7.56068325      1.57931626
H        24.42931557      6.14931583      6.14931583
H        24.42931557      7.56068325      7.56068325
B        25.13500023      6.85500002      6.85500002
H        25.84068108      6.14931583      7.56068325
H        25.84068108      7.56068325      6.14931583
H        24.42931557      6.14931583     10.71931648
H        24.42931557      7.56068325     12.13068295
B        25.13500023      6.85500002     11.42499924
H        25.84068108      6.14931583     12.13068295
H        25.84068108      7.56068325     10.71931648
H        24.42931557      6.14931583     15.28931522
H        24.42931557      7.56068325     16.70068359
B        25.13500023      6.85500002     15.99499989
H        25.84068108      6.14931583     16.70068359
H        25.84068108      7.56068325     15.28931522
H        24.42931557      6.14931583     19.85931396
H        24.42931557      7.56068325     21.27068329
B        25.13500023      6.85500002     20.56499863
H        25.84068108      6.14931583     21.27068329
H        25.84068108      7.56068325     19.85931396
H        24.42931557      6.14931583     24.42931557
H        24.42931557      7.56068325     25.84068108
B        25.13500023      6.85500002     25.13500023
H        25.84068108      6.14931583     25.84068108
H        25.84068108      7.56068325     24.42931557
H        25.84068108      7.56068325     28.99931526
H        24.42931557      6.14931583     28.99931526
H        24.42931557      7.56068325     30.41068268
B        25.13500023      6.85500002     29.70499992
H        25.84068108      6.14931583     30.41068268
H        25.84068108     12.13068295      1.57931626
H        24.42931557     10.71931648      1.57931626
H        24.42931557     12.13068295      2.99068356
B        25.13500023     11.42499924      2.28499985
H        25.84068108     10.71931648      2.99068356
H        25.84068108     12.13068295      6.14931583
H        24.42931557     10.71931648      6.14931583
H        24.42931557     12.13068295      7.56068325
B        25.13500023     11.42499924      6.85500002
H        25.84068108     10.71931648      7.56068325
H        25.84068108     12.13068295     10.71931648
H        24.42931557     10.71931648     10.71931648
H        24.42931557     12.13068295     12.13068295
B        25.13500023     11.42499924     11.42499924
H        25.84068108     10.71931648     12.13068295
H        25.84068108     12.13068295     15.28931522
H        24.42931557     10.71931648     15.28931522
H        24.42931557     12.13068295     16.70068359
B        25.13500023     11.42499924     15.99499989
H        25.84068108     10.71931648     16.70068359
H        25.84068108     12.13068295     19.85931396
H        24.42931557     10.71931648     19.85931396
H        24.42931557     12.13068295     21.27068329
B        25.13500023     11.42499924     20.56499863
H        25.84068108     10.71931648     21.27068329
H        25.84068108     12.13068295     24.42931557
H        24.42931557     10.71931648     24.42931557
H        24.42931557     12.13068295     25.84068108
B        25.13500023     11.42499924     25.13500023
H        25.84068108     10.71931648     25.84068108
H        25.84068108     12.13068295     28.99931526
H        24.42931557     10.71931648     28.99931526
H        24.42931557     12.13068295     30.41068268
B        25.13500023     11.42499924     29.70499992
H        25.84068108     10.71931648     30.41068268
H        25.84068108     16.70068359      1.57931626
H        24.42931557     15.28931522      1.57931626
H        24.42931557     16.70068359      2.99068356
B        25.13500023     15.99499989      2.28499985
H        25.84068108     15.28931522      2.99068356
H        25.84068108     15.28931522      7.56068325
H        25.84068108     16.70068359      6.14931583
H        24.42931557     15.28931522      6.14931583
H        24.42931557     16.70068359      7.56068325
B        25.13500023     15.99499989      6.85500002
H        25.84068108     15.28931522     12.13068295
H        25.84068108     16.70068359     10.71931648
H        24.42931557     15.28931522     10.71931648
H        24.42931557     16.70068359     12.13068295
B        25.13500023     15.99499989     11.42499924
H        25.84068108     15.28931522     16.70068359
H        25.84068108     16.70068359     15.28931522
H        24.42931557     15.28931522     15.28931522
H        24.42931557     16.70068359     16.70068359
B        25.13500023     15.99499989     15.99499989
H        25.84068108     15.28931522     21.27068329
H        25.84068108     16.70068359     19.85931396
H        24.42931557     15.28931522     19.85931396
H        24.42931557     16.70068359     21.27068329
B        25.13500023     15.99499989     20.56499863
H        25.84068108     15.28931522     25.84068108
H        25.84068108     16.70068359     24.42931557
H        24.42931557     15.28931522     24.42931557
H        24.42931557     16.70068359     25.84068108
B        25.13500023     15.99499989     25.13500023
B        25.13500023     15.99499989     29.70499992
H        25.84068108     15.28931522     30.41068268
H        25.84068108     16.70068359     28.99931526
H        24.42931557     15.28931522     28.99931526
H        24.42931557     16.70068359     30.41068268
B        25.13500023     20.56499863      2.28499985
H        25.84068108     19.85931396      2.99068356
H        25.84068108     21.27068329      1.57931626
H        24.42931557     19.85931396      1.57931626
H        24.42931557     21.27068329      2.99068356
B        25.13500023     20.56499863      6.85500002
H        25.84068108     19.85931396      7.56068325
H        25.84068108     21.27068329      6.14931583
H        24.42931557     19.85931396      6.14931583
H        24.42931557     21.27068329      7.56068325
B        25.13500023     20.56499863     11.42499924
H        25.84068108     19.85931396     12.13068295
H        25.84068108     21.27068329     10.71931648
H        24.42931557     19.85931396     10.71931648
H        24.42931557     21.27068329     12.13068295
H        24.42931557     21.27068329     16.70068359
B        25.13500023     20.56499863     15.99499989
H        25.84068108     19.85931396     16.70068359
H        25.84068108     21.27068329     15.28931522
H        24.42931557     19.85931396     15.28931522
H        24.42931557     21.27068329     21.27068329
B        25.13500023     20.56499863     20.56499863
H        25.84068108     19.85931396     21.27068329
H        25.84068108     21.27068329     19.85931396
H        24.42931557     19.85931396     19.85931396
H        24.42931557     21.27068329     25.84068108
B        25.13500023     20.56499863     25.13500023
H        25.84068108     19.85931396     25.84068108
H        25.84068108     21.27068329     24.42931557
H        24.42931557     19.85931396     24.42931557
H        24.42931557     21.27068329     30.41068268
B        25.13500023     20.56499863     29.70499992
H        25.84068108     19.85931396     30.41068268
H        25.84068108     21.27068329     28.99931526
H        24.42931557     19.85931396     28.99931526
H        24.42931557     25.84068108      2.99068356
B        25.13500023     25.13500023      2.28499985
H        25.84068108     24.42931557      2.99068356
H        25.84068108     25.84068108      1.57931626
H        24.42931557     24.42931557      1.57931626
H        24.42931557     24.42931557      6.14931583
H        24.42931557     25.84068108      7.56068325
B        25.13500023     25.13500023      6.85500002
H        25.84068108     24.42931557      7.56068325
H        25.84068108     25.84068108      6.14931583
H        24.42931557     24.42931557     10.71931648
H        24.42931557     25.84068108     12.13068295
B        25.13500023     25.13500023     11.42499924
H        25.84068108     24.42931557     12.13068295
H        25.84068108     25.84068108     10.71931648
H        24.42931557     24.42931557     15.28931522
H        24.42931557     25.84068108     16.70068359
B        25.13500023     25.13500023     15.99499989
H        25.84068108     24.42931557     16.70068359
H        25.84068108     25.84068108     15.28931522
H        24.42931557     24.42931557     19.85931396
H        24.42931557     25.84068108     21.27068329
B        25.13500023     25.13500023     20.56499863
H        25.84068108     24.42931557     21.27068329
H        25.84068108     25.84068108     19.85931396
H        24.42931557     24.42931557     24.42931557
H        24.42931557     25.84068108     25.84068108
B        25.13500023     25.13500023     25.13500023
H        25.84068108     24.42931557     25.84068108
H        25.84068108     25.84068108     24.42931557
H        24.42931557     24.42931557     28.99931526
H        24.42931557     25.84068108     30.41068268
B        25.13500023     25.13500023     29.70499992
H        25.84068108     24.42931557     30.41068268
H        25.84068108     25.84068108     28.99931526
H        24.42931557     28.99931526      1.57931626
H        24.42931557     30.41068268      2.99068356
B        25.13500023     29.70499992      2.28499985
H        25.84068108     28.99931526      2.99068356
H        25.84068108     30.41068268      1.57931626
H        24.42931557     28.99931526      6.14931583
H        24.42931557     30.41068268      7.56068325
B        25.13500023     29.70499992      6.85500002
H        25.84068108     28.99931526      7.56068325
H        25.84068108     30.41068268      6.14931583
H        24.42931557     28.99931526     10.71931648
H        24.42931557     30.41068268     12.13068295
B        25.13500023     29.70499992     11.42499924
H        25.84068108     28.99931526     12.13068295
H        25.84068108     30.41068268     10.71931648
H        25.84068108     30.41068268     15.28931522
H        24.42931557     28.99931526     15.28931522
H        24.42931557     30.41068268     16.70068359
B        25.13500023     29.70499992     15.99499989
H        25.84068108     28.99931526     16.70068359
H        25.84068108     30.41068268     19.85931396
H        24.42931557     28.99931526     19.85931396
H        24.42931557     30.41068268     21.27068329
B        25.13500023     29.70499992     20.56499863
H        25.84068108     28.99931526     21.27068329
H        25.84068108     30.41068268     24.42931557
H        24.42931557     28.99931526     24.42931557
H        24.42931557     30.41068268     25.84068108
B        25.13500023     29.70499992     25.13500023
H        25.84068108     28.99931526     25.84068108
H        25.84068108     30.41068268     28.99931526
H        24.42931557     28.99931526     28.99931526
H        24.42931557     30.41068268     30.41068268
B        25.13500023     29.70499992     29.70499992
H        25.84068108     28.99931526     30.41068268
H        30.41068268      2.99068356      1.57931626
H        28.99931526      1.57931626      1.57931626
H        28.99931526      2.99068356      2.99068356
B        29.70499992      2.28499985      2.28499985
H        30.41068268      1.57931626      2.99068356
H        30.41068268      2.99068356      6.14931583
H        28.99931526      1.57931626      6.14931583
H        28.99931526      2.99068356      7.56068325
B        29.70499992      2.28499985      6.85500002
H        30.41068268      1.57931626      7.56068325
H        30.41068268      2.99068356     10.71931648
H        28.99931526      1.57931626     10.71931648
H        28.99931526      2.99068356     12.13068295
B        29.70499992      2.28499985     11.42499924
H        30.41068268      1.57931626     12.13068295
H        30.41068268      2.99068356     15.28931522
H        28.99931526      1.57931626     15.28931522
H        28.99931526      2.99068356     16.70068359
B        29.70499992      2.28499985     15.99499989
H        30.41068268      1.57931626     16.70068359
H        30.41068268      2.99068356     19.85931396
H        28.99931526      1.57931626     19.85931396
H        28.99931526      2.99068356     21.27068329
B        29.70499992      2.28499985     20.56499863
H        30.41068268      1.57931626     21.27068329
H        30.41068268      1.57931626     25.84068108
H        30.41068268      2.99068356     24.42931557
H        28.99931526      1.57931626     24.42931557
H        28.99931526      2.99068356     25.84068108
B        29.70499992      2.28499985     25.13500023
H        30.41068268      1.57931626     30.41068268
H        30.41068268      2.99068356     28.99931526
H        28.99931526      1.57931626     28.99931526
H        28.99931526      2.99068356     30.41068268
B        29.70499992      2.28499985     29.70499992
H        30.41068268      6.14931583      2.99068356
H        30.41068268      7.56068325      1.57931626
H        28.99931526      6.14931583      1.57931626
H        28.99931526      7.56068325      2.99068356
B        29.70499992      6.85500002      2.28499985
H        30.41068268      6.14931583      7.56068325
H        30.41068268      7.56068325      6.14931583
H        28.99931526      6.14931583      6.14931583
H        28.99931526      7.56068325      7.56068325
B        29.70499992      6.85500002      6.85500002
H        30.41068268      6.14931583     12.13068295
H        30.41068268      7.56068325     10.71931648
H        28.99931526      6.14931583     10.71931648
H        28.99931526      7.56068325     12.13068295
B        29.70499992      6.85500002     11.42499924
B        29.70499992      6.85500002     15.99499989
H        30.41068268      6.14931583     16.70068359
H        30.41068268      7.56068325     15.28931522
H        28.99931526      6.14931583     15.28931522
H        28.99931526      7.56068325     16.70068359
B        29.70499992      6.85500002     20.56499863
H        30.41068268      6.14931583     21.27068329
H        30.41068268      7.56068325     19.85931396
H        28.99931526      6.14931583     19.85931396
H        28.99931526      7.56068325     21.27068329
B        29.70499992      6.85500002     25.13500023
H        30.41068268      6.14931583     25.84068108
H        30.41068268      7.56068325     24.42931557
H        28.99931526      6.14931583     24.42931557
H        28.99931526      7.56068325     25.84068108
B        29.70499992      6.85500002     29.70499992
H        30.41068268      6.14931583     30.41068268
H        30.41068268      7.56068325     28.99931526
H        28.99931526      6.14931583     28.99931526
H        28.99931526      7.56068325     30.41068268
H        28.99931526     12.13068295      2.99068356
B        29.70499992     11.42499924      2.28499985
H        30.41068268     10.71931648      2.99068356
H        30.41068268     12.13068295      1.57931626
H        28.99931526     10.71931648      1.57931626
H        28.99931526     12.13068295      7.56068325
B        29.70499992     11.42499924      6.85500002
H        30.41068268     10.71931648      7.56068325
H        30.41068268     12.13068295      6.14931583
H        28.99931526     10.71931648      6.14931583
H        28.99931526     12.13068295     12.13068295
B        29.70499992     11.42499924     11.42499924
H        30.41068268     10.71931648     12.13068295
H        30.41068268     12.13068295     10.71931648
H        28.99931526     10.71931648     10.71931648
H        28.99931526     12.13068295     16.70068359
B        29.70499992     11.42499924     15.99499989
H        30.41068268     10.71931648     16.70068359
H        30.41068268     12.13068295     15.28931522
H        28.99931526     10.71931648     15.28931522
H        28.99931526     12.13068295     21.27068329
B        29.70499992     11.42499924     20.56499863
H        30.41068268     10.71931648     21.27068329
H        30.41068268     12.13068295     19.85931396
H        28.99931526     10.71931648     19.85931396
H        28.99931526     10.71931648     24.42931557
H        28.99931526     12.13068295     25.84068108
B        29.70499992     11.42499924     25.13500023
H        30.41068268     10.71931648     25.84068108
H        30.41068268     12.13068295     24.42931557
H        28.99931526     10.71931648     28.99931526
H        28.99931526     12.13068295     30.41068268
B        29.70499992     11.42499924     29.70499992
H        30.41068268     10.71931648     30.41068268
H        30.41068268     12.13068295     28.99931526
H        28.99931526     15.28931522      1.57931626
H        28.99931526     16.70068359      2.99068356
B        29.70499992     15.99499989      2.28499985
H        30.41068268     15.28931522      2.99068356
H        30.41068268     16.70068359      1.57931626
H        28.99931526     15.28931522      6.14931583
H        28.99931526     16.70068359      7.56068325
B        29.70499992     15.99499989      6.85500002
H        30.41068268     15.28931522      7.56068325
H        30.41068268     16.70068359      6.14931583
H        28.99931526     15.28931522     10.71931648
H        28.99931526     16.70068359     12.13068295
B        29.70499992     15.99499989     11.42499924
H        30.41068268     15.28931522     12.13068295
H        30.41068268     16.70068359     10.71931648
H        28.99931526     15.28931522     15.28931522
H        28.99931526     16.70068359     16.70068359
B        29.70499992     15.99499989     15.99499989
H        30.41068268     15.28931522     16.70068359
H        30.41068268     16.70068359     15.28931522
H        28.99931526     15.28931522     19.85931396
H        28.99931526     16.70068359     21.27068329
B        29.70499992     15.99499989     20.56499863
H        30.41068268     15.28931522     21.27068329
H        30.41068268     16.70068359     19.85931396
H        28.99931526     15.28931522     24.42931557
H        28.99931526     16.70068359     25.84068108
B        29.70499992     15.99499989     25.13500023
H        30.41068268     15.28931522     25.84068108
H        30.41068268     16.70068359     24.42931557
H        28.99931526     15.28931522     28.99931526
H        28.99931526     16.70068359     30.41068268
B        29.70499992     15.99499989     29.70499992
H        30.41068268     15.28931522     30.41068268
H        30.41068268     16.70068359     28.99931526
H        30.41068268     21.27068329      1.57931626
H        28.99931526     19.85931396      1.57931626
H        28.99931526     21.27068329      2.99068356
B        29.70499992     20.56499863      2.28499985
H        30.41068268     19.85931396      2.99068356
H        30.41068268     21.27068329      6.14931583
H        28.99931526     19.85931396      6.14931583
H        28.99931526     21.27068329      7.56068325
B        29.70499992     20.56499863      6.85500002
H        30.41068268     19.85931396      7.56068325
H        30.41068268     21.27068329     10.71931648
H        28.99931526     19.85931396     10.71931648
H        28.99931526     21.27068329     12.13068295
B        29.70499992     20.56499863     11.42499924
H        30.41068268     19.85931396     12.13068295
H        30.41068268     21.27068329     15.28931522
H        28.99931526     19.85931396     15.28931522
H        28.99931526     21.27068329     16.70068359
B        29.70499992     20.56499863     15.99499989
H        30.41068268     19.85931396     16.70068359
H        30.41068268     21.27068329     19.85931396
H        28.99931526     19.85931396     19.85931396
H        28.99931526     21.27068329     21.27068329
B        29.70499992     20.56499863     20.56499863
H        30.41068268     19.85931396     21.27068329
H        30.41068268     21.27068329     24.42931557
H        28.99931526     19.85931396     24.42931557
H        28.99931526     21.27068329     25.84068108
B        29.70499992     20.56499863     25.13500023
H        30.41068268     19.85931396     25.84068108
H        30.41068268     21.27068329     28.99931526
H        28.99931526     19.85931396     28.99931526
H        28.99931526     21.27068329     30.41068268
B        29.70499992     20.56499863     29.70499992
H        30.41068268     19.85931396     30.41068268
H        30.41068268     25.84068108      1.57931626
H        28.99931526     24.42931557      1.57931626
H        28.99931526     25.84068108      2.99068356
B        29.70499992     25.13500023      2.28499985
H        30.41068268     24.42931557      2.99068356
H        30.41068268     25.84068108      6.14931583
H        28.99931526     24.42931557      6.14931583
H        28.99931526     25.84068108      7.56068325
B        29.70499992     25.13500023      6.85500002
H        30.41068268     24.42931557      7.56068325
H        30.41068268     24.42931557     12.13068295
H        30.41068268     25.84068108     10.71931648
H        28.99931526     24.42931557     10.71931648
H        28.99931526     25.84068108     12.13068295
B        29.70499992     25.13500023     11.42499924
H        30.41068268     24.42931557     16.70068359
H        30.41068268     25.84068108     15.28931522
H        28.99931526     24.42931557     15.28931522
H        28.99931526     25.84068108     16.70068359
B        29.70499992     25.13500023     15.99499989
H        30.41068268     24.42931557     21.27068329
H        30.41068268     25.84068108     19.85931396
H        28.99931526     24.42931557     19.85931396
H        28.99931526     25.84068108     21.27068329
B        29.70499992     25.13500023     20.56499863
H        30.41068268     24.42931557     25.84068108
H        30.41068268     25.84068108     24.42931557
H        28.99931526     24.42931557     24.42931557
H        28.99931526     25.84068108     25.84068108
B        29.70499992     25.13500023     25.13500023
H        30.41068268     24.42931557     30.41068268
H        30.41068268     25.84068108     28.99931526
H        28.99931526     24.42931557     28.99931526
H        28.99931526     25.84068108     30.41068268
B        29.70499992     25.13500023     29.70499992
B        29.70499992     29.70499992      2.28499985
H        30.41068268     28.99931526      2.99068356
H        30.41068268     30.41068268      1.57931626
H        28.99931526     28.99931526      1.57931626
H        28.99931526     30.41068268      2.99068356
B        29.70499992     29.70499992      6.85500002
H        30.41068268     28.99931526      7.56068325
H        30.41068268     30.41068268      6.14931583
H        28.99931526     28.99931526      6.14931583
H        28.99931526     30.41068268      7.56068325
B        29.70499992     29.70499992     11.42499924
H        30.41068268     28.99931526     12.13068295
H        30.41068268     30.41068268     10.71931648
H        28.99931526     28.99931526     10.71931648
H        28.99931526     30.41068268     12.13068295
B        29.70499992     29.70499992     15.99499989
H        30.41068268     28.99931526     16.70068359
H        30.41068268     30.41068268     15.28931522
H        28.99931526     28.99931526     15.28931522
H        28.99931526     30.41068268     16.70068359
H        28.99931526     30.41068268     21.27068329
B        29.70499992     29.70499992     20.56499863
H        30.41068268     28.99931526     21.27068329
H        30.41068268     30.41068268     19.85931396
H        28.99931526     28.99931526     19.85931396
H        28.99931526     30.41068268     25.84068108
B        29.70499992     29.70499992     25.13500023
H        30.41068268     28.99931526     25.84068108
H        30.41068268     30.41068268     24.42931557
H        28.99931526     28.99931526     24.42931557
H        28.99931526     30.41068268     30.41068268
B        29.70499992     29.70499992     29.70499992
H        30.41068268     28.99931526     30.41068268
H        30.41068268     30.41068268     28.99931526
H        28.99931526     28.99931526     28.99931526
