3075

Na        2.06526542     -0.13121775      4.33374166
Na        2.09757829      0.01477264      8.99738026
Na        2.22522497      0.30840939     13.74296379
Na        2.11759257     -0.00415452     18.30827522
Na        2.23934269     -0.05005437     22.80257416
Na        2.28298140      0.15965004     27.34194565
Na        2.47793365      0.12703246     32.01659393
Na       -0.03505713      2.35719490      9.36452675
Na        2.47487140      4.81666183     13.81901646
Na        2.40987563      4.46170712     18.07327461
Na        2.24314857      4.38835955     22.61358452
Na        2.21399403      4.46201658     27.55889130
Na        2.44245195      4.41575575     32.05216599
Na        2.29846454      9.19295406      4.78454542
Na        2.34252667      9.14023972      9.02879620
Na        2.17876053      9.37870884     13.71605682
Na        2.25600314      9.23036385     18.01612091
Na        2.03889346      9.40790653     22.76882553
Na        2.49519110      9.45472717     27.70511436
Na        2.38033986      9.12916565     31.83730507
Na        2.37664294     13.66798878      4.63743067
Na        2.09042001     13.92114449      9.19071770
Na        2.42729974     13.64968014     13.94324780
Na        2.20514274     13.37081528     18.30226898
Na        2.07441020     14.05495930     22.66207314
Na        2.39335632     13.70761299     27.34841347
Na        2.26089311     13.79358578     32.13870239
Na        2.20505381     18.54710007      4.83296824
Na        2.25226092     18.44528961      9.36221123
Na        2.30037904     18.46783638     13.65341949
Na        2.20099211     18.77514839     18.00127983
Na        2.56271982     18.03725433     22.48806572
Na        2.23593521     18.27395821     27.71003151
Na        2.06939864     18.26493645     32.15379333
Na        2.37161136     22.88426208      4.62313986
Na        2.15288115     22.82131767      8.82022095
Na        2.43728757     22.89948463     13.79545975
Na        2.23643780     22.54876518     18.32765579
Na        0.15500857     22.84547043     25.14703751
Na        2.39868808     22.90156555     27.22698593
Na        2.19410133     22.72713089     31.81090546
Na        2.10114694     27.05467796      4.71126795
Na        2.32078481     27.58577538      9.09418583
Na        2.17535520     27.48468208     13.93492889
Na        4.60941029     24.93174934     18.11384201
Na        2.40606213     27.46710396     22.72308540
Na        2.45128393     27.20783615     27.31153870
Na        4.44282436     29.51043320     31.79717445
Na        6.99823236     -0.27046788      4.33224058
Na        6.97110510      0.21406218      8.90574837
Na        6.84114075      0.07806256     13.71775246
Na        6.83836508     -0.27917486     18.13040161
Na        6.97258329      0.21280168     22.61244011
Na        6.97047281      0.11937824     27.10174751
Na        7.03837299     -0.11313345     31.66962814
Na        6.77616167      4.38453531      4.51674986
Na        6.79506350      4.34919739      9.16794014
Na        6.89964819      4.84431696     13.81736469
Na        6.85704899      4.79842377     18.33967209
Na        6.96481800      4.50913429     22.76640511
Na        6.86695957      4.44174194     27.50939178
Na        6.68078184      4.42218733     31.81294632
Na        6.72194910      8.99744225      4.65680695
Na        6.77947044      9.23037624      9.13462257
Na        6.86370754      9.07641792     13.75661373
Na        6.86989880      9.31317520     18.14466095
Na        6.88618851      9.45978642     22.88075066
Na        6.95761538      8.95035362     27.39104462
Na        6.93164825      9.16930771     32.12369537
Na        6.82430029     14.00052071      4.66212845
Na        6.90820217     13.69801235      9.18063354
Na        6.93785954     13.92648983     13.55149746
Na        6.86409950     13.86103630     18.19868660
Na        6.87748384     13.79544067     22.96564865
Na        6.99616146     13.99570465     27.17175484
Na        6.97874737     13.66108418     31.89245224
Na        6.96722364     18.28953362      4.75253820
Na        6.97158003     17.78727531      9.11178112
Na        6.72247601     18.10070992     13.78000546
Na        6.72331429     18.10689163     18.24031258
Na        6.89806557     18.45618629     23.31898308
Na        6.74329090     18.29903030     27.66408539
Na        6.85819435     18.39095688     32.14707184
Na        6.89614630     22.73498535      4.59991074
Na        6.89882994     22.85698128      8.78115845
Na        6.95378494     22.70575523     13.57217216
Na        6.67310190     22.95819283     18.30336571
Na        6.69437647     22.74499512     23.30740166
Na        6.80074787     23.07123184     27.47929192
Na        6.77441645     22.74670792     31.83070946
Na        7.05237961     27.14415932      8.95541668
Na        6.95145941     27.29335213     13.73114014
Na        9.07736588     29.59822083     18.38916016
Na        6.90758657     27.65328407     22.96092606
Na        6.99788904     27.68491173     27.31062317
Na        4.75311470     27.17249298     34.11082840
Na       13.56585503      2.27502894      4.68658209
Na       11.26464844     -0.11370473      9.21497440
Na       11.46201706     -0.33235395     13.42672729
Na       11.33082771      0.00001840     18.50784302
Na       11.39272022      0.16519551     27.34675598
Na       11.55776501     -0.16698714     32.25411606
Na       11.62669563      4.76113796      4.69227219
Na       11.25199127      4.94605064      9.08766460
Na       11.40452290      4.42511845     13.90187073
Na       11.43110085      4.19900560     18.41979599
Na       11.31782818      4.76964378     23.01093483
Na       11.19226170      4.44520712     27.54042435
Na       11.35539913      4.96541786     31.83976364
Na       11.41674423      9.36088562      4.56498384
Na       11.24314785      8.74850464      9.51816463
Na       11.37527370      9.15586567     13.72314739
Na       11.43769455      8.62649155     18.11445618
Na       11.29250717      9.17887878     22.66920471
Na       11.62460804      9.33254242     27.68714523
Na       11.28096962      9.05948544     32.00762939
Na       11.46195793     13.81215382      4.40333414
Na       11.20292568     13.58221054      9.31033516
Na       13.62164783     16.07794571     13.58313465
Na       11.44529629     13.47454643     18.31785011
Na       11.42067814     13.69970512     22.60749435
Na       11.30502796     13.86969280     27.09332275
Na       11.46361923     13.70029926     32.07706070
Na       11.37876987     18.32817841      4.54047251
Na       11.44916153     18.24284172      9.09485722
Na       11.17830372     18.45613098     13.65139961
Na       11.21594906     18.37580299     18.43825150
Na       11.50496006     18.58673096     22.87569427
Na        9.05908394     18.39663887     29.97838402
Na       13.57072830     15.92429733     31.88538933
Na       11.39899445     22.75776672      4.44146538
Na       11.46058655     22.94292641      9.45629311
Na       14.00016594     23.11806679     16.21450043
Na       11.75505543     22.89289284     18.55115509
Na       11.23475170     22.83387184     23.30263519
Na       11.50323963     22.95819664     27.47078896
Na       11.38261318     22.52444267     31.76025772
Na       11.57750893     27.75054169      4.77435017
Na       11.32849026     27.32143784      9.23953915
Na       11.30663776     27.54168129     13.59155846
Na       11.28629780     27.39711571     18.00229073
Na       11.44824314     27.38369179     23.18838882
Na       11.37168121     27.49156189     27.10584831
Na        9.57415104     27.43978691     29.60749245
Na       11.35463810      0.07219598      4.47148657
Na       16.04268837      0.09004223      8.95992279
Na       16.06084824      0.01356527     14.28249931
Na       13.76035500      0.11655974     20.58208656
Na       13.67022038     -2.33608985     22.52258492
Na       16.06872749      0.04729117     27.91807747
Na       14.03990936     -2.21079659     32.12482452
Na       16.12053680      4.83710718      4.52458382
Na       15.79720211      4.50108290      9.24627876
Na       15.85433292      4.71485472     13.69292068
Na       16.09444809      4.39221478     18.64678001
Na       18.55662727      6.88320923     22.78701210
Na       16.14268112      4.62328243     27.38455391
Na       16.13212013      4.37354136     31.89827347
Na       15.81785488      9.26737881      4.76403427
Na       13.70250988     11.10142326      9.32256603
Na       16.08831787      9.23675823     13.46888065
Na       16.11375999      9.01371479     18.49460983
Na       15.84411621      9.08248901     22.80231667
Na       16.23365593      9.02232456     27.66738319
Na       15.88410473      8.89138317     31.95001030
Na       15.92543125     13.73152542      4.61574030
Na       16.06306458     13.42236137      8.81366920
Na       13.48236561     13.65675354     15.84640980
Na       15.84911346     13.68424606     18.59204483
Na       16.02886009     14.18226242     22.92898369
Na       16.10176659     13.94224167     27.75791931
Na       15.79500484     13.56466675     32.08800507
Na       16.02801895     18.29579926      4.52888536
Na       15.93994045     18.10254097      9.36060810
Na       13.92145252     18.32957840     11.40781021
Na       16.08326149     18.26850128     18.40047836
Na       15.92180920     18.09860802     22.86574745
Na       13.55799007     15.92933464     27.52987099
Na       16.13004684     18.09803200     31.99450684
Na       15.87403107     22.64983749      4.80260706
Na       15.70649147     22.87427521      9.32915401
Na       16.09989929     22.69583893     13.72599316
Na       17.99277306     22.87536430     16.11364746
Na       16.01165771     22.95991516     22.75983047
Na       15.89760113     22.52537918     27.65758705
Na       15.74018478     22.80845833     31.84572411
Na       16.07701302     27.55302048      4.70801497
Na       15.94796371     27.52796173      9.27575874
Na       16.07047081     27.35391426     14.07317638
Na       15.94466496     27.32034874     18.21720886
Na       16.03252602     27.52459145     22.69557190
Na       15.82583141     27.40366554     27.40518188
Na       15.93393707     27.41252327     31.80862427
Na       20.61572456      0.10389169      4.41666460
Na       20.44385147     -0.32295859      9.33383465
Na       20.62173462     -0.13541411     13.25039673
Na       20.54115486      0.08721543     18.48368454
Na       20.47949600      0.26450211     22.64087677
Na       20.29710388     -0.25386354     27.81933594
Na       20.44378281     -0.22146024     31.86641502
Na       20.43585014      4.48439980      4.41952038
Na       20.46158791      4.51201963      9.11609554
Na       20.41195869      4.50759172     13.83524513
Na       22.88817787      4.78842735     20.53829384
Na       20.62557793      4.29341936     22.94745827
Na       20.53548622      4.33512402     27.40361977
Na       20.31336021      4.20995951     32.26122665
Na       20.55996895      9.07541656      4.95138216
Na       20.45161247      9.03678894      9.26902485
Na       20.64854431      9.36246204     13.66199493
Na       20.65366745      9.37210274     18.44776154
Na       20.56461143      9.12899876     22.86481667
Na       20.68134499      9.61815166     27.59720230
Na       20.50646782      9.02965832     32.18350983
Na       20.80001831     14.07652187      4.46635056
Na       20.55775261     13.33861542      9.19356728
Na       20.45425606     13.81099892     13.69374943
Na       20.41117096     14.09077358     18.36291313
Na       20.37183189     13.91536999     22.71032524
Na       20.41451645     13.46612549     27.82658195
Na       20.34653854     13.59917068     31.83872414
Na       20.65422821     18.76411629      4.66094398
Na       20.75059891     18.30211258      9.20172310
Na       20.63712502     18.26460648     13.56540775
Na       20.56910896     17.94530678     18.40339279
Na       20.26814079     18.38734245     22.70226479
Na       20.53271294     18.08988571     27.32805252
Na       20.48128891     18.26490211     32.18735886
Na       20.66997719     23.00327873      4.47146368
Na       20.39702797     23.12942886      9.15961742
Na       20.72892761     23.10406303     13.52221107
Na       20.79808998     22.91320229     17.85694885
Na       20.41999054     23.00465584     22.97188187
Na       20.57168388     22.76859283     27.64829063
Na       20.45547485     22.73188782     31.94586945
Na       20.55735016     27.60658646      4.35405779
Na       18.17134857     29.73634529      9.06197929
Na       23.25227737     29.95277596     13.83185577
Na       20.69762993     27.61265564     18.23349762
Na       20.65987968     27.41041183     22.76020241
Na       20.81961441     27.47223091     27.35213089
Na       20.44879532     27.34161949     32.12853241
Na       25.05747986     -0.16032846      4.72806549
Na       25.16645813      0.03844386      9.22314358
Na       27.01259422      0.01411946     11.49818707
Na       27.66711998      2.42487335     18.30648232
Na       25.09738922      0.31776276     22.89060783
Na       25.00168419      0.09016658     27.57146263
Na       25.29725266     -0.47437981     31.58956146
Na       27.28050995      2.41184855      9.09598255
Na       25.10691261      4.64635706     13.57887554
Na       25.27686501      4.76949024     18.46821594
Na       25.21300316      5.10261726     22.99668884
Na       25.24000549      4.57225323     27.58712387
Na       22.73583603      4.87560272     34.25955582
Na       25.04119301      9.23760605      4.90148687
Na       24.94686508      9.07672787      9.30127525
Na       25.18978691      9.44407272     13.69929981
Na       22.97852516      7.09010696     18.44433975
Na       25.04538536      8.79820538     23.04354095
Na       25.07480621      9.12004471     27.62245941
Na       24.97891045      9.03859997     31.92551231
Na       25.23779297     13.56737328      4.90499163
Na       24.98641396     13.51498413      9.32196045
Na       25.04236031     13.75377750     13.38362980
Na       27.34247780     13.66721630     20.54095268
Na       27.02078247     13.67248821     25.31263351
Na       25.18364716     14.02584934     27.56346321
Na       27.46829796     15.82828426     32.18568420
Na       25.24484634     18.57969093      4.69723320
Na       25.07542229     18.13426018      8.90602207
Na       25.17370033     18.34029579     13.82313728
Na       25.01226044     18.52519417     17.93355560
Na       25.16036415     18.26073837     22.90830421
Na       25.15154457     18.28937721     27.73067284
Na       25.27587700     18.20691109     31.74666023
Na       25.27234840     23.14192009      4.68556023
Na       25.11614418     22.77368355      9.34624577
Na       25.21363449     22.60372162     13.94385815
Na       24.85799789     22.89107132     18.39752579
Na       25.14359474     22.92188263     22.65120316
Na       24.92621994     22.83897209     27.31154633
Na       25.12015152     22.91081619     31.87038040
Na       23.01024818     27.42222786      6.98392153
Na       25.04589272     27.52922821      9.26585770
Na       27.38209343     27.36216164     16.20815849
Na       24.97190857     27.45285034     18.36822128
Na       25.08519363     27.56708717     23.33890724
Na       25.09022522     27.53291130     27.23469543
Na       25.23312950     27.29207420     31.87077713
Na       29.66012383      0.59254599      4.53162766
Na       29.55533028     -0.06708903      9.58128834
Na       29.70213509     -0.17136164     13.39894009
Na       31.60569382      2.10254717     18.52640533
Na       29.44555855     -0.12396891     22.93668747
Na       29.78129959      0.15256616     27.27042770
Na       31.83161354     -2.29290223     31.92652512
Na       29.49906731      4.90694857      4.49288797
Na       31.68754387      4.66078424      6.80614901
Na       29.45041847      4.47199440     13.86288929
Na       27.39666557      4.85273600     20.61767960
Na       32.05306625      6.90251541     23.07353210
Na       29.69844627      4.69511747     27.73801994
Na       29.76320076      4.09755039     31.44590759
Na       29.75772285      8.82141590      4.72913504
Na       32.05836868      6.94868279      9.01709461
Na       29.83390427      9.08833218     13.51183891
Na       29.58968925      8.82663918     18.20456696
Na       29.57914352      9.40376663     22.93429947
Na       27.60553932      6.76721096     27.31127357
Na       27.36862373     11.19269276     32.10359955
Na       29.83691025     13.64692879      4.65087605
Na       29.78335571     13.55675030      9.43627930
Na       29.42814255     13.46673203     13.99456882
Na       30.01235771     14.07639503     18.58300018
Na       29.48359680     13.89005852     22.90077782
Na       31.73385239     11.43114853     27.27040863
Na       29.72583961     13.66742229     32.26249695
Na       29.55071449     18.49559021      4.78229666
Na       29.73866081     18.33502007      8.87707615
Na       29.74044991     18.21674156     13.89889812
Na       27.41695595     18.30667114     20.61226273
Na       29.79874992     18.81778526     23.07482338
Na       29.67051697     18.47486115     27.29069328
Na       29.66156387     18.25028801     32.13963318
Na       29.70669937     22.83236313      4.49450397
Na       29.53033638     22.49084663      9.00842762
Na       29.48186302     22.95542908     13.96718121
Na       31.93539429     22.91388702     20.49902916
Na       29.57348633     23.07107353     22.56770134
Na       29.59750175     22.53729057     27.35073853
Na       32.00627136     23.24910927     34.29403305
Na       27.34165573     27.61641312      2.27250671
Na       31.79364395     25.13853645     13.33899975
Na       29.61576080     27.57265472     18.21640968
Na       29.95304108     27.40945435     22.78372955
Na       32.10005951     27.37163925     29.64853096
Na       29.81027794     27.65908813     31.79535484
Na       -0.16009571      2.59252453      4.28644180
Na       -2.25912881      4.54268742      9.27711296
Na       -0.16582713      2.37859845     13.73486805
Na       -0.15408187      0.17669742     16.17546844
Na        0.12557921      2.18201900     22.67138672
Na       -0.18093857      2.33507395     27.47047234
Na       -0.07482145      2.22643256     31.99879646
Na        0.13308850      6.88094807      4.48246193
Na        2.29605508      4.57739735      9.04945183
Na        0.03430875      7.03201532     13.98529530
Na       -0.19722994      6.59718370     18.61599541
Na       -0.03336963      4.67387152     20.64020729
Na        0.08084775      6.77294254     27.21520233
Na        0.25853404      6.87731409     32.27603912
Na        0.15635172     11.44040775      4.52637959
Na       -0.25036702     11.43534660      9.00326443
Na       -0.06499622     11.47436237     13.44156837
Na       -0.28058219     11.28538036     18.43115997
Na       -0.24173017     11.52643204     22.95131111
Na       -1.99319482      9.21960831     27.56577301
Na       -0.12126324     11.51712132     32.13927841
Na        0.02265965     16.14228058      4.47058344
Na        0.23276494     16.24500465      9.44234371
Na        0.17337830     16.11278915     14.01263618
Na        0.15585418     16.11084366     18.61243439
Na       -0.13536553     16.14460564     23.04001999
Na       -0.13403496     15.79583836     27.82124329
Na       -0.22020651     16.10655975     31.95450974
Na       -0.00844890     20.68982315      4.17275572
Na        0.12590651     20.52427101      9.29274940
Na       -0.30157873     20.64370155     13.51010418
Na       -0.31324074     20.38201523     18.00616837
Na        0.13222869     20.55192184     22.72723389
Na        0.14820267     20.55520058     27.38329124
Na        0.01223139     20.54089928     32.10903931
Na       -0.14864974     25.18817520      4.50924540
Na       -0.26857573     25.05825806      9.25068378
Na       -0.02759008     27.71253014     15.81624603
Na        0.07094616     25.28544044     18.29455757
Na        0.14913487     25.13305092     22.81033707
Na       -2.04728603     27.63132858     27.27388763
Na        0.16731131     25.26083374     31.66975403
Na        0.07246696     29.79754448      4.84724760
Na       -2.26833820     27.38170815      8.93243504
Na        0.30463150     27.51875114     11.27927494
Na       -0.19356304     29.65142632     18.46476364
Na        0.04530105     29.68002701     22.84101295
Na       -0.07476512     29.85419083     27.54294395
Na        2.19410419     27.44946861     32.20566940
Na        4.50122166      1.94907844      4.83517027
Na        4.57656145      2.03806114      9.33172989
Na        4.53884792      2.30262685     13.42264557
Na        4.75345707      2.15901732     18.28785896
Na        5.01692390      2.34301114     22.88411522
Na        4.34152794      2.27240586     27.40507126
Na        4.70600176      2.21342063     32.24623108
Na        4.44218111      6.85770559      4.64428425
Na        4.58246231      6.84949493      9.01119995
Na        4.39486456      6.94893932     13.79357815
Na        4.61185360      6.91077995     18.05143166
Na        4.62735891      6.93187952     22.91458321
Na        4.69335556      6.67279387     27.32747269
Na        4.44722605      7.10421515     31.97496414
Na        4.76008749     11.63278675      4.51816130
Na        4.34208822     11.70874310      8.79795933
Na        4.90651464     11.45063019     13.67716503
Na        4.64115047     11.52696609     18.05516052
Na        4.35897970     11.41851711     22.97471046
Na        4.75511217     11.38013935     27.44328117
Na        4.72690821     11.54053020     32.12856674
Na        4.58012629     16.29121017      4.57467794
Na        4.80259657     16.03055573      9.01917458
Na        4.50340748     16.16867065     13.69054508
Na        4.61890078     15.92465210     18.23326683
Na        4.76896906     15.91140652     22.55157471
Na        4.33551216     15.90528870     27.42925835
Na        4.63795280     15.91881466     31.81864357
Na        4.80877829     20.63220978      4.40568113
Na        4.68338633     20.67876816      9.30856228
Na        4.79596090     20.74048233     13.61916924
Na        4.43110132     20.42208672     18.39288139
Na        4.61673832     20.61981964     23.21017456
Na        4.46188402     20.44705963     27.41442680
Na        4.46985483     20.52704239     31.75156975
Na        4.48440838     24.89286613      4.46468163
Na        4.59701204     25.15489769      9.25256348
Na        4.45826530     25.40051270     13.53090954
Na        6.69455481     27.45031929     18.11878586
Na        4.63913059     25.28208923     22.87133980
Na        4.87994432     25.09413147     27.48670387
Na        4.48795176     25.20211601     31.46838379
Na        4.55336714     29.48715210      4.53500509
Na        4.69966316     29.62698364      9.16134453
Na        4.56912804     30.00091171     13.79897499
Na        4.40155077     29.70130157     17.84069443
Na        4.86320543     29.70243263     22.81132317
Na        4.77998495     29.79637146     27.18385506
Na        6.82591534     27.21515846     31.96565056
Na        9.23212910      2.37917352      4.53502846
Na        9.32632256      2.16076756      9.00920105
Na        9.20303249      2.20440912     13.80693913
Na        8.97017765      2.22417259     17.99443436
Na        9.33855724      2.32442117     23.02111626
Na        8.89522743      2.24859715     27.53903008
Na        9.41856861      2.22121167     31.81337357
Na        9.18958855      6.76445198      4.87997150
Na        8.87035465      6.84642410      9.30477524
Na        9.20820236      6.72069693     13.78325558
Na        9.08827019      6.75781012     18.63005257
Na        8.83960342      7.00633574     22.88582039
Na        8.95274639      6.85948086     27.58516693
Na        8.88319111      6.90701151     31.94839859
Na        8.89117718     11.44080162      4.66762638
Na        9.33119297     11.36750793      9.09811687
Na        9.11524200     11.33168221     13.48449516
Na        9.20584393     11.41976261     18.55611992
Na        9.40784836     11.52378178     23.03694534
Na        9.03670979     11.39216900     27.65071487
Na        9.46296883     11.45484924     31.93407822
Na        8.90339851     16.09747314      4.55904055
Na        9.54235935     15.95609570      9.03737259
Na        8.98316288     16.04216576     13.91081524
Na        9.16857052     16.19158363     18.56298828
Na        9.47459698     16.06695747     22.90079117
Na        9.03248978     16.13977051     27.71009636
Na       11.42632103     18.40469360     31.94566154
Na        8.95423889     20.57735062      4.30124569
Na        8.72072983     20.53990364      9.00864410
Na        9.08890820     20.61445045     13.63955879
Na        9.41056442     20.59338951     18.32461739
Na        9.15873909     20.46517181     22.69553757
Na        9.26014233     20.59111786     27.55948067
Na        9.01260281     20.47286797     31.93184280
Na        9.21146202     25.34807396      4.25351954
Na        9.35399437     25.02537537      9.10262394
Na        9.11362648     24.92332840     13.94460392
Na        8.79863644     25.29852867     17.80816841
Na        9.22061825     25.00617409     22.80491829
Na        9.24836636     25.10411835     27.64036369
Na        8.93195343     24.98191071     32.38494110
Na        9.28264427     29.71444321      4.56238270
Na        9.29652691     29.65233231      9.39926529
Na        9.38883400     29.74394798     13.47749233
Na        9.01353836     29.86594772     22.93889427
Na        9.38603497     29.62946701     27.45760536
Na        9.10118961     29.51337814     31.95492744
Na       13.85073853      0.20216309      6.83054352
Na       13.71951103      2.10415649      8.92551708
Na       13.78653145      2.22497678     14.05413818
Na       13.93098640      2.26960921     18.35921669
Na       13.68898678      2.17519736     23.09679413
Na       14.10121632      2.25801587     27.45809174
Na       13.72907925      2.26842809     31.90043068
Na       13.62198544      6.98004055      4.79424334
Na       14.00235844      7.07362223      9.09540844
Na       13.41843510      6.74752092     13.50433826
Na       14.10595989      6.85917616     18.21412468
Na       13.98847961      6.98591566     22.91244125
Na       13.72329807      6.81689548     27.63033295
Na       13.76749992      6.87259865     31.81945992
Na       13.37547874     11.55125237      4.22294378
Na       13.58690834     13.80825233     11.43330765
Na       13.87957859     11.24705887     13.48661327
Na       14.00898075     11.15256691     18.17034912
Na       13.99970245     11.60832500     23.29105377
Na       13.36604023     13.73850918     29.75750732
Na       13.64459038     11.29005241     31.90567589
Na       13.72445297     16.02590561      4.87640667
Na       13.73183823     15.94330978      8.74278259
Na       15.92084980     18.33088684     13.87355423
Na       13.88973236     16.13566208     18.16981697
Na       13.88009262     16.09928703     23.01868629
Na       13.77465057     18.32335091     29.65080643
Na       13.42689610     20.52442360      4.33668232
Na       13.61912823     20.41159821      9.12237358
Na       11.36789322     22.66565132     13.90427685
Na       13.94779015     20.72421265     18.14491463
Na       13.75299263     20.63187408     23.06665802
Na       11.26366806     18.24142265     27.59935760
Na       13.51885986     20.71482658     31.57461739
Na       13.83022976     25.14766502      4.43694305
Na       13.59225655     24.97610283      9.23773575
Na       13.71350384     25.11235809     13.75820541
Na       13.87892914     25.24037552     18.38728523
Na       13.73118019     25.24477005     23.17922974
Na       14.07023144     25.04364014     27.38568878
Na       13.47523308     25.29457855     31.76088715
Na       13.64619732     30.03435135      4.17470598
Na       14.04009438     29.61461449      8.83717442
Na       14.02904320     29.54830170     13.66710186
Na       13.27468204     29.67089462     18.31093597
Na       11.44428825     32.02715302     22.44949150
Na       14.00415802     29.47540665     27.50637054
Na       11.57604980     27.35809326     32.24363327
Na       18.15638161      2.16491365      4.62633324
Na       18.22053146      2.40938187      8.85938644
Na       17.92302704      2.16831994     13.44213676
Na       18.21647453      2.38895559     18.30279732
Na       18.15119553     -2.47332883     22.54771805
Na       18.12133789      2.10149765     27.02752686
Na       18.35742188      1.96661949     31.99689102
Na       18.24068832      6.82171774      4.45488787
Na       18.40431976      7.11344719      9.65715122
Na       18.18680382      6.94088364     13.76226330
Na       18.16896439      6.73314047     18.24390221
Na       18.59324074      4.48741961     20.68953896
Na       18.60195541      6.64001369     27.31229782
Na       18.34243393      6.71906710     32.27598572
Na       18.22257423     11.37978935      4.61043453
Na       18.41095924     11.34969616      9.09421444
Na       18.25625229     11.64410400     13.85328293
Na       18.51802063     11.49002457     18.47200584
Na       18.34865189     11.62467098     22.66213417
Na       18.01913643     11.22887325     27.30572701
Na       17.94498062     11.20245743     32.29860687
Na       18.10576057     15.97724342      4.54153442
Na       18.81525040     16.09111977      9.02194691
Na       18.51827812     16.00421715     13.34411716
Na       17.89829826     15.98622990     18.23520851
Na       18.45567513     16.11530876     22.94520569
Na       18.27649307     16.16154861     27.02653313
Na       18.14877892     15.95913029     31.86454391
Na       18.25799179     20.42791939      4.64653587
Na       18.15330505     20.36838531      9.13184357
Na       18.58759689     20.47508240     13.45414257
Na       18.54087257     20.61871910     18.16598320
Na       17.97133636     20.69746017     22.47821808
Na       18.15853119     20.78902435     27.33770943
Na       18.28720474     20.49611092     31.67309952
Na       18.10986710     25.32496262      4.87001562
Na       18.16719246     25.15208435      9.32428932
Na       18.16326714     25.19605637     13.66733932
Na       18.23661232     25.21734428     23.08593178
Na       17.93769073     25.29706955     27.52703094
Na       18.22249031     24.75729561     32.13204575
Na       18.13499260     29.74258423      4.49739695
Na       18.04115486     29.68756866     13.75660992
Na       18.38821030     29.63304329     18.05335999
Na       16.01380348     31.89891052     22.78347206
Na       18.17959976     29.67175674     27.60531616
Na       18.15722847     29.60075760     32.07856750
Na       22.98826408      2.45778441      4.37414742
Na       22.45109940      2.19341350      9.27373409
Na       23.25330734      1.94044876     13.51125908
Na       23.06522942      2.20982170     18.38374710
Na       22.90583992      4.72903442     25.18149757
Na       23.09370804      2.05441689     32.01414108
Na       25.22517204      4.63761616      4.41057491
Na       22.72153473      6.69233131      9.54737759
Na       22.84286308      7.02370691     13.42463303
Na       20.58186722      4.43302870     18.73829079
Na       22.78441238      9.04112434     25.21109390
Na       23.25299644      6.76190519     27.46229553
Na       22.74757767      6.86274052     31.97669220
Na       22.78832245     11.22946358      4.51836538
Na       22.83470917     11.49980354      8.96540260
Na       22.88705063     11.60689163     13.95220566
Na       22.99421501     11.75241566     18.42007637
Na       24.99475861     13.82316875     23.02596855
Na       22.97594452     11.52056694     27.72179985
Na       22.68671417     11.19330406     31.88867569
Na       23.07453918     16.06930351      4.49117994
Na       23.07379150     15.79139614      8.92926979
Na       22.96466064     15.98865891     13.72380543
Na       22.81592751     16.18797493     18.53638840
Na       22.69615936     16.24332047     23.03709984
Na       22.76847649     15.90878296     27.44800949
Na       23.05848312     16.03061867     32.21563721
Na       23.07892227     20.79728889      4.85349989
Na       22.98560333     20.52490425      9.55592823
Na       22.84377480     20.57331848     13.70712566
Na       22.65704727     20.71857071     17.74839783
Na       22.81287575     20.67503738     23.03941154
Na       22.82073021     20.38456535     27.41866493
Na       22.55150032     20.52192497     31.75291061
Na       22.58265114     25.17178345      4.36711359
Na       22.91143227     25.16272354      9.14344311
Na       20.37592697     27.55305862     13.94370079
Na       22.90156746     25.07566452     18.09166336
Na       23.06463814     25.23665810     22.55003357
Na       22.77520943     25.34322929     26.81772423
Na       22.69353676     24.99811935     32.21264267
Na       22.69208908     29.66222000      4.47452879
Na       22.66551018     29.67080498      9.16383553
Na       25.28164482     27.04944420     13.78910446
Na       22.73517990     29.76492882     18.46086502
Na       22.78512383     30.01066017     22.92725372
Na       22.59324265     32.08044815     25.15253258
Na       22.53635979     29.67562675     32.09902954
Na       27.20816231      2.15603161      4.78720951
Na       27.52009201      4.83947277     11.69875240
Na       27.00881958      1.99360454     13.82739639
Na       27.33573723     -0.27776802     20.74651527
Na       27.33051872      2.27308202     22.79551506
Na       27.33516121      2.20413232     27.48415756
Na       27.13480186      2.52714038     31.86425591
Na       27.65089417      4.55530262      2.28036308
Na       27.46877861      4.64009142      7.01248026
Na       27.36696434      7.08118486     13.55515003
Na       27.32474327      7.03089333     18.24781990
Na       27.38584137      6.77642870     22.47871208
Na       27.50073242      4.80763340     29.61761856
Na       27.40536690      6.96012688     32.38276291
Na       27.26384544     11.39116192      5.01650333
Na       27.39041710     11.30383205      9.37642193
Na       27.40962601     11.52322578     13.54444504
Na       25.25070190      9.67290115     18.23533440
Na       27.13132858     11.56670094     22.97548866
Na       27.39795685      9.05268478     29.74877739
Na       27.12458801     13.69758320     34.28789520
Na       27.23028374     15.92040443      4.84942007
Na       27.73368645     15.70266819      9.10608768
Na       27.21288681     15.91966915     13.94118214
Na       27.47629356     16.01803398     18.47075081
Na       27.35202599     15.96719742     23.17783165
Na       27.50026131     15.84311104     27.40997887
Na       27.31678009     20.77186584      4.65875530
Na       27.45915985     20.47217178      9.48373222
Na       27.64146042     20.47830009     13.65753269
Na       27.88570976     20.47640800     18.24570084
Na       27.22101974     20.56524849     22.94956017
Na       27.09276009     20.49386597     27.40507889
Na       27.39712334     20.51274109     32.09115219
Na       25.27439308     27.50182152      4.68862534
Na       27.41291428     25.20996475      9.08014679
Na       27.11089516     25.00595284     13.75574684
Na       27.32892799     24.93638420     18.42702293
Na       27.68243980     25.18516350     22.75366783
Na       27.50268745     25.11146736     27.36990166
Na       27.30354500     25.02064896     32.06176758
Na       27.51807404     29.91982079      4.50033283
Na       27.57966805     29.73525238      9.47785664
Na       29.58983803     27.60913277     13.73499680
Na       25.18456078     31.99681854     17.89749908
Na       27.38406944     29.59299469     23.23122978
Na       27.29420280     29.94183731     27.49008179
Na       29.72536278     32.14452744     31.90133667
Na        0.01993294     -0.21061635      2.03584886
Na       -0.24213685      0.30261803      6.80525589
Na       -0.19252293     -0.10930835     11.55104923
Na        0.07344310     -2.22666979     13.90372276
Na       -0.68834895      0.03124687     20.84738159
Na        0.09673668      0.00543063     25.14415741
Na        0.11915795      0.06597306     29.83668327
Na       -0.10199183      4.74908781      2.33836365
Na        2.16655302      4.23950863      4.57515430
Na       -0.29420400      4.78901148     11.68282700
Na        0.16833450      4.58707094     16.05002213
Na       -2.44822454      4.60598469     18.07198524
Na       -0.07647554      4.31471777     25.19742203
Na        0.08520000      5.00519037     29.82108307
Na       -0.12353354      9.19713497      2.38044953
Na       -0.21509680      8.97318554      6.73703289
Na       -0.01862531      9.09048271     11.18976307
Na       -0.17643838      8.83006859     15.93456554
Na        0.02288592      9.37999916     20.43777657
Na       -0.07323104      9.05356979     25.38635445
Na       -0.02409938      9.69410038     29.86613274
Na        0.12352635     13.81556034      2.27028704
Na        0.11556733     13.94229507      6.72763777
Na       -0.07730239     13.90507412     11.54454136
Na       -0.43654412     13.75898170     15.90307140
Na        0.07897545     14.04081631     20.67517471
Na        0.05952304     13.39545536     25.20018387
Na       -0.00548565     13.39280319     29.84278870
Na        0.22074847     18.24606133      2.22234702
Na        0.14850812     18.09693718      6.81250572
Na       -0.22303073     18.34722328     11.48556328
Na       -0.03745325     18.26490784     15.83809376
Na        0.09329706     18.23981857     20.30078125
Na        0.24957184     18.44180870     25.17405510
Na       -0.04482320     18.34935760     29.73714066
Na       -2.44972038     22.97432709      0.08557514
Na       -0.31825268     22.97659874      6.92784548
Na        0.23622474     22.93138504     11.34272003
Na       -0.18417072     22.74347496     16.19772339
Na        2.08313799     22.79733467     22.87259483
Na       -0.12762623     25.33362961     27.44141579
Na        0.13696308     23.05368996     29.70579910
Na       -2.28125143     27.72640991      4.22036314
Na        0.09586701     27.19214821      6.83813429
Na       -0.06819420     29.70703888      8.75340271
Na        2.47145343     27.17817879     18.11966896
Na        0.09588972     27.40609550     20.42584419
Na       -0.09161484     27.64898300     24.95520020
Na        0.06744573     27.41626740     34.18982697
Na        4.70389366     -0.00494312      2.46598434
Na        4.65772867     -0.29580328      6.85060215
Na        4.69261599     -0.03368798     11.16602039
Na        4.84365606      0.37675643     15.78038788
Na        4.30978394      0.12105411     20.44490242
Na        4.35636425     -0.07651155     25.03536034
Na        4.67189360     -0.04703860     29.44938278
Na        4.50346422      4.49525213      2.52932739
Na        4.27411795      4.58989811      7.02706528
Na        4.73652744      4.86174583     11.33557987
Na        4.75270939      4.06313610     15.97147942
Na        4.69742775      4.67949724     20.66047478
Na        4.55478954      4.65097904     25.10050011
Na        4.44632387      4.49544573     29.68164825
Na        4.42834806      8.83047104      2.31543565
Na        4.46299314      9.09309673      6.84981537
Na        4.60346937      9.41021729     11.44200039
Na        4.36248970      9.27474117     16.08600616
Na        4.56972075      9.23646259     20.40009880
Na        4.42168760      9.17694378     25.04730034
Na        4.75273275      8.85488605     29.61118126
Na        4.62759542     14.18270302      2.20647073
Na        4.30626631     13.73188114      6.59214354
Na        4.41909170     13.74467754     11.32513618
Na        4.79139614     13.93341923     16.02893448
Na        4.57976198     13.58588409     20.42812729
Na        4.36137486     13.74517441     25.15056419
Na        4.30776930     14.13715744     29.46155548
Na        4.52878189     18.55813599      2.37635612
Na        4.25250626     18.14970589      6.79203224
Na        4.57595587     18.68062592     11.58068562
Na        4.91053343     18.43725395     16.01581573
Na        4.85980272     18.25709534     20.49902344
Na        4.66212702     18.13519096     25.33218193
Na        4.22338438     18.25050545     29.89407349
Na        4.43517923     22.99679947      2.13876987
Na        4.37564659     22.84921646      6.77131510
Na        4.31729841     22.87508774     11.50597095
Na        4.70747089     22.93177223     15.83521652
Na        4.42091751     22.80363464     20.63803291
Na        4.34290409     23.48725700     24.89968681
Na        4.79526138     22.94870949     29.67582130
Na        6.70839882     27.52375603      4.50161886
Na        4.51249599     27.42212296      6.72204876
Na        4.69929934     27.88993073     11.33722878
Na        4.56976795     27.28579903     15.86013126
Na        4.80840540     27.45516586     20.43997574
Na        4.31470633     27.35146713     25.01282501
Na        4.64730120     27.70665932     29.59268951
Na        9.43436241      0.03313944      2.20110774
Na        9.28430557     -0.22215697      6.94793224
Na        9.10848522      0.02037407     11.31649399
Na        9.43121529     -0.25641528     15.69240856
Na        8.82060337     -0.14273000     20.46409798
Na        9.60574436      0.04050419     24.87113190
Na        8.76555538      0.10231830     29.62832832
Na        8.94026279      4.48427725      2.26960421
Na        8.99817753      4.47543049      6.75429153
Na        9.12920856      4.49396658     11.56242752
Na        9.27553177      4.59832430     16.10237122
Na        9.24491215      4.32615757     20.31982803
Na        9.30519104      4.46640968     25.05897331
Na        8.92066669      4.57871866     29.53310776
Na        8.99534607      8.92975235      2.56698108
Na        9.49016953      8.99977684      7.20655394
Na        9.07451439      9.06682873     11.41555309
Na        9.55350590      9.22726345     16.19350815
Na        8.79282951      9.24344826     20.78312492
Na        9.05115414      9.19383144     25.28458214
Na        9.16414928      9.29370499     29.63299561
Na        8.76615524     13.54066944      2.45245337
Na        9.01926422     13.66023540      6.87083530
Na        9.25305462     13.66559029     11.55560303
Na        8.91295338     13.69060040     16.18703651
Na        9.20398331     13.99299145     20.45085526
Na        9.13586330     13.61354637     25.14616585
Na        9.16278648     13.43185425     29.57887077
Na        9.02479076     18.23559570      2.34237742
Na        9.24117756     18.35843468      6.89912796
Na        9.20382881     18.24462128     11.30479240
Na        9.33636284     18.29101372     16.25716591
Na        9.18032646     18.25101089     20.55926514
Na        9.10266495     18.19574738     25.19554520
Na        9.08181667     15.85482883     32.20187759
Na        9.21848869     22.63503265      2.15914702
Na        9.16718674     23.16052628      6.62835932
Na        9.11105251     22.64314270     11.38450146
Na        9.33522129     23.01558304     16.08002663
Na        9.33782196     22.89296532     20.59724617
Na        8.88113403     22.93675613     25.10858727
Na        9.32625008     22.92559814     29.78458214
Na        8.91150856     27.56408691      2.17288971
Na        9.01423168     27.57336617      6.93646002
Na        8.93515015     27.19872856     11.20028114
Na        8.91966724     27.59625244     16.01952171
Na        9.39805031     27.24981689     20.52879715
Na        9.14277458     27.58843613     25.12003899
Na       13.81414700      0.36968115      2.10960460
Na       15.77427197      0.05015561      4.53301907
Na       13.81246758     -0.03063533     11.22545528
Na       13.68604088     -0.20910662     16.18646622
Na       17.95485687     -0.03151825     20.45466042
Na       13.91673565     -0.02196376     25.23422623
Na       13.39887810     -0.21862331     29.57346535
Na       14.01849461      4.63348198      2.37916279
Na       13.51522827      4.71359253      7.04653168
Na       13.52388668      4.31010246     11.43423271
Na       13.86720181      4.88640022     16.11918068
Na       13.55769539      4.27690744     20.99055290
Na       13.61837196      4.27961540     25.21033859
Na       13.88280010      4.35096788     29.88805389
Na       13.57955456      9.24615765      2.18547487
Na       13.72222137      9.11938381      6.74667978
Na       13.66802311      9.20497990     11.52580357
Na       13.84643936      9.00676537     15.85658550
Na       13.72043705      8.79652214     20.41408730
Na       13.55682373      8.97566605     25.38472176
Na       13.91987705      9.17589474     29.69624901
Na       13.91711426     14.10814667      2.38163137
Na       13.76786232     13.66403389      6.91851139
Na       15.70977592     13.71411991     13.66773891
Na       11.32264614     13.61421776     13.93526745
Na       13.84773540     13.25795269     20.41515160
Na       13.65356922     11.53913498     27.45531273
Na       13.61159229     14.17530918     25.33842087
Na       13.59582996     18.30606651      2.37832785
Na       13.35719013     18.13609695      6.91567659
Na       13.64897728     20.49360847     13.98534489
Na       13.72179031     18.26816368     16.07728577
Na       13.93122101     18.45808792     20.66171646
Na       13.86445427     18.40185738     25.34085464
Na       16.05787659     18.17151451     27.48460388
Na       13.75332355     22.71017647      2.07934165
Na       13.55016613     22.70366478      7.00325918
Na       13.41856384     22.45822334     11.85049343
Na       15.95959949     22.96140289     18.26153183
Na       14.05221176     23.03581238     20.62574577
Na       13.79752827     22.97350693     24.86144638
Na       13.71914196     20.52738762     27.38737297
Na       13.93102169     27.58354187      2.25368261
Na       13.66703892     27.39555359      6.76146746
Na       13.74324608     27.24458313     11.44540691
Na       13.55096912     27.42878342     16.01764679
Na       13.44064236     27.41347885     20.64923477
Na       14.00859642     27.71847916     25.25331688
Na       13.52613544     27.33275986     29.82158279
Na       18.03475189     -0.02716439      2.20848870
Na       18.72475815      0.03424303      6.91019106
Na       18.63936424      0.16606654     11.32687855
Na       18.35925674      0.09200309     16.08599281
Na       15.81392956     -0.23750450     18.36167526
Na       18.07602882      0.05384947     24.94766045
Na       16.41658783     -0.25313091     31.57624435
Na       18.08717728      4.30832672      2.20446587
Na       18.46159744      4.90870810      6.55448294
Na       18.21530724      4.42005539     11.62985420
Na       18.18865395      4.84716320     16.01101685
Na       16.07221222      4.59797573     23.02863121
Na       18.37150192      4.92889738     24.91431236
Na       18.29992294      4.48029423     29.70931625
Na       18.24330902      9.06553841      2.57198572
Na       18.09764099      9.15137959      6.97756433
Na       17.98654938      9.29740143     11.41293526
Na       18.36182213      9.24929237     16.01325226
Na       18.36142349      8.88323593     20.44844818
Na       18.30881882      8.95473194     25.18243980
Na       18.35655785      9.24934006     29.94092560
Na       18.44991112     13.44646263      2.25439930
Na       18.23089218     13.58536339      6.80203390
Na       18.18279648     13.87499523     11.25802803
Na       18.01638794     13.70985508     16.14231873
Na       18.20225143     13.83177090     20.61524010
Na       18.33445168     13.41640949     25.22277641
Na       18.03690338     13.42149353     29.81493378
Na       18.36827278     18.51592636      2.23090291
Na       18.28128624     18.34197998      6.89726591
Na       17.81575775     18.25702095     11.58751011
Na       18.20235634     18.04696465     16.13601303
Na       18.01245499     18.37380028     20.53497314
Na       18.43374825     18.38827515     25.05547333
Na       18.03011703     17.99052238     29.73832512
Na       18.06107903     22.64983368      2.40807080
Na       17.93974876     22.69311523      6.93421984
Na       18.19217682     22.54421234     11.47100544
Na       18.54281807     25.06685257     18.15378380
Na       18.21801186     23.23095703     20.30902481
Na       18.25809479     23.12804031     25.23277473
Na       17.96091843     23.04994583     29.76404953
Na       18.22180939     27.70677948      2.09047318
Na       18.23912048     27.61561203      6.75886965
Na       18.52676773     27.45689774     11.48636627
Na       18.22112083     27.66631317     15.92356205
Na       18.56690407     27.39573097     20.50150299
Na       18.42402840     27.74010468     25.00038338
Na       18.60264206     27.60407257     29.52297783
Na       22.97517395      0.04793692      2.27625966
Na       22.70675659      0.10074711      6.93923759
Na       23.00541878     -0.32913107     11.59910965
Na       22.93078041      0.29950577     16.05594635
Na       23.22621918     -0.14166324     20.34533501
Na       22.64698792      2.15499926     27.36351585
Na       22.86904716      0.00921387     29.86663437
Na       22.76213455      6.67567778      4.66669130
Na       22.89341354      4.76132536      6.86881256
Na       22.44167328      4.55885410     11.30828285
Na       22.53395653      4.68226814     15.77738285
Na       22.55470276      2.42604780     22.85972023
Na       22.66229820      6.82176399     22.61245155
Na       22.95626259      4.38540840     29.72231865
Na       22.55691338      9.19334412      2.43569803
Na       22.83550453      8.94544697      6.84316444
Na       22.91794968      9.17873573     11.48327827
Na       23.16393852      9.25708771     16.10406876
Na       23.05050468      9.21712589     20.61691284
Na       22.59178543     11.39174843     22.96197891
Na       23.00690269      8.77486134     29.62134933
Na       22.95527458     13.55876923      2.41642475
Na       22.42383385     13.81317425      6.76252985
Na       22.73899651     13.47144413     11.44370461
Na       22.98365974     14.08729362     16.42250252
Na       22.68751907     13.83041668     20.57586098
Na       22.66802979     13.48337746     25.39370346
Na       22.97457504     13.71102428     29.83817291
Na       23.29958534     18.48716736      2.14603090
Na       22.55770302     18.38905334      6.85471487
Na       22.92939758     18.26429367     11.35253906
Na       22.63396454     18.26016235     16.10813713
Na       23.14357567     18.26859093     20.89414597
Na       22.82160568     18.28871155     25.16740799
Na       22.76808739     18.21687317     29.74122620
Na       23.07150841     22.61466789      2.24975681
Na       22.85082436     22.80637741      6.73004246
Na       23.09871674     23.00277328     11.33739758
Na       22.82419014     25.22625160     13.78416634
Na       22.65431404     22.55525017     20.60767746
Na       22.59766960     22.58014107     25.30215645
Na       22.88227654     22.96276665     29.67748642
Na       22.94668770     27.70763397      2.04424191
Na       20.54801559     27.61796951      9.07921791
Na       22.89811134     27.73253059     11.52988529
Na       22.73036385     27.59846878     15.92772865
Na       22.55323792     27.59806252     20.41203308
Na       22.69617271     29.75156975     27.29458809
Na       22.67155647     27.08168602     29.57405090
Na       27.57565689     -0.53771991      1.74522173
Na       27.54624367     -0.12040077      7.12082195
Na       27.38129044     -2.45252252     13.35630417
Na       27.15844917     -2.44558287     18.44001198
Na       29.56744957     -0.22817324     18.38884544
Na       27.15755463     -0.31671959     25.39400482
Na       27.41688538      0.07327284     29.96242523
Na       26.99587822      7.01195669      4.46379805
Na       25.24291992      4.54684687      9.24193859
Na       27.34394646      6.88276434      9.06461525
Na       27.34044075      4.84883356     15.93094158
Na       29.87961388      4.69817924     22.73168755
Na       27.42481804      4.29754734     24.97944260
Na       24.94906616      4.70048761     32.36218643
Na       27.65684700      9.05599785      2.43764377
Na       27.54079628      8.93566322      6.76071072
Na       27.54007530      8.95344067     11.27371597
Na       27.33421326      9.07067013     16.00242233
Na       27.50362015      9.38080406     20.83368111
Na       27.42595482      8.97196960     25.05540657
Na       29.70189095      9.47424412     32.21411133
Na       25.10616875     13.61022758      0.01183792
Na       27.60783386     13.73970032      7.00630951
Na       27.15631485     13.75902367     11.40448093
Na       27.54303932     11.40040779     18.41486549
Na       27.17533875     13.53086185     16.08233833
Na       27.20409775     11.46328068     27.30857468
Na       27.79427147     13.67434502     29.54540443
Na       27.57262039     18.08029175      2.28715897
Na       27.53494072     18.48330879      6.90805387
Na       27.42121887     17.92182922     11.32702637
Na       27.32903862     18.20118713     16.16673470
Na       29.41812706     18.20265579     17.96709061
Na       27.49032021     18.25545120     25.23182678
Na       27.85506058     18.12646675     29.68755150
Na       27.42940331     22.82577896      2.19923091
Na       27.77339935     23.13619232      7.02642107
Na       27.11095619     22.85985565     11.56155491
Na       27.33387756     22.62061691     16.18137550
Na       27.22007370     22.81885147     20.59261131
Na       27.15463066     23.05150795     25.14301682
Na       27.17599106     22.87458611     29.68789673
Na       27.46605110     25.13167572      4.66175413
Na       27.14831734     27.59253693      6.80930853
Na       27.80072594     27.35281754     11.50209999
Na       27.53619385     31.59104347     16.07846451
Na       27.25685120     27.41812325     20.53507805
Na       27.62181664     27.50605583     25.36399651
Na       27.60993385     27.51437759     29.73953056
O        -0.16208537      0.09866781      4.25026989
O        -0.22947440      0.04299666      9.02768326
O        -0.02997205      0.00892513     13.77935219
O        -0.32883030     -0.18891886     18.38928413
O        -0.11589776      0.12438496     22.97375488
O        -0.02130275      0.04656756     27.30633926
O         0.22710571     -0.14870967     31.92366219
O        -0.26390696      4.77417946      4.63480854
O        -0.02282146      4.44291067      9.27357101
O         0.17620860      4.61914635     13.91010475
O        -0.12025326      4.46767616     18.39702988
O        -0.00953414      4.68652153     22.87980461
O        -0.09171396      4.50571442     27.22900391
O         0.13307941      4.48767567     31.99010277
O         0.04954029      9.22899532      4.59225178
O         0.14034282      9.06717682      8.82346535
O         0.00476724      9.21943855     13.80189228
O        -0.26828355      9.05411720     18.14504242
O        -0.19130670      9.22328949     23.00971031
O         0.14033937      9.14040375     27.50629425
O         0.11779712      9.28169155     32.05163956
O         0.18356276     13.77480602      4.56363058
O        -0.00977601     13.93121052      9.10518074
O         0.17089206     13.70768642     13.84155941
O         0.06846301     13.84254074     18.28131485
O        -0.14002517     13.76591110     22.72097969
O         0.02740531     13.37153435     27.52645111
O        -0.07724431     13.79376411     32.01348114
O         0.04782725     18.49068451      4.59560013
O         0.09988365     18.25715828      9.10793400
O        -0.00889439     18.43373489     13.58761597
O        -0.01796201     18.30218315     18.03219032
O         0.16031854     18.46209908     22.91839790
O        -0.02837991     18.59675980     27.45767593
O        -0.15556484     18.28329086     32.07598114
O         0.05496810     22.92463112      4.49888849
O         0.05425679     22.79765701      9.21097469
O         0.16255251     22.84635544     13.61405087
O         0.21922635     22.63813210     18.22408295
O        -0.00555813     22.81099319     22.84779930
O         0.22948723     23.20820427     27.37431526
O        -0.12485743     23.02560997     32.07204437
O        -0.15196300     27.45196342      4.54452562
O        -0.04982679     27.53786278      9.01388264
O        -0.19216408     27.57637596     13.49016953
O        -0.12269756     27.39813232     18.23774338
O         0.10753904     27.29261017     22.67320824
O         0.15075055     27.53223610     27.24847221
O         0.20232283     27.39107704     31.96931648
O         4.50963068     -0.27641413      4.62796640
O         4.62445116     -0.10791425      8.96280384
O         4.64511299      0.11201549     13.61464882
O         4.55308294     -0.20617174     18.02819824
O         4.70274925     -0.08257302     22.57226753
O         4.51688385      0.10152686     27.28868866
O         4.68905544     -0.19875750     31.98063660
O         4.62672043      4.23275805      4.83767939
O         4.58563232      4.53766918      9.05696869
O         4.84252167      4.63882017     13.72174358
O         4.82647991      4.67683697     18.22891045
O         4.81644106      4.45179987     22.90457726
O         4.72079611      4.44607115     27.55460739
O         4.60676289      4.56439352     31.94933891
O         4.45137644      9.30755806      4.55603409
O         4.60579014      9.38849735      9.24641514
O         4.59210730      9.27964878     13.67730427
O         4.85234356      9.35545444     18.17455101
O         4.55753851      9.11669254     22.75283623
O         4.77315331      9.23358631     27.30687714
O         4.59746027      9.20381927     31.86051750
O         4.46656799     13.97352028      4.52936602
O         4.72549152     13.75981045      9.02762794
O         4.51901388     13.96810246     13.52984142
O         4.38274574     13.85781193     18.29073906
O         4.58778954     13.83951855     22.66199684
O         4.59153318     13.61197281     27.48172188
O         4.61332417     13.86285877     31.94179153
O         4.66850281     18.20634270      4.69200611
O         4.53013039     18.29638290      9.25810814
O         4.64904404     18.62715721     13.75388432
O         4.50018787     18.24011230     18.36239243
O         4.81598997     18.33370781     22.97774124
O         4.46085739     18.30629158     27.49785805
O         4.37745428     18.41479874     32.09192276
O         4.58570290     22.72197342      4.60766649
O         4.52421713     22.95419312      8.94390869
O         4.56977463     22.80728149     13.60376167
O         4.45331764     22.84930801     18.09735489
O         4.53929329     22.90750313     22.83539200
O         4.51452923     23.02037621     27.21215248
O         4.59225273     22.88359070     31.99731255
O         4.57623148     27.35078049      4.34867859
O         4.63133526     27.27216148      9.26263046
O         4.35302496     27.58537674     13.77132416
O         4.58195591     27.33376312     18.13540077
O         4.65655804     27.50742912     22.86834335
O         4.86440277     27.35267830     27.33093071
O         4.67587566     27.42527199     31.75198936
O         9.26229954      0.07872259      4.56763935
O         8.95331478     -0.16818449      9.09822750
O         9.10095119     -0.01084845     13.50965118
O         9.26562786     -0.01696027     18.29531670
O         9.32854462     -0.03981752     22.78356361
O         9.18200779     -0.05666236     27.37940025
O         9.25429440     -0.07081459     31.82275772
O         9.10938931      4.56210041      4.49264717
O         9.13065243      4.62051296      9.09585571
O         9.07710648      4.53587341     13.77550602
O         9.26101208      4.65346956     18.21541977
O         9.13190079      4.63322544     22.87284470
O         9.07155609      4.57402086     27.32954597
O         9.07180786      4.74354458     31.83262253
O         9.05281830      9.11240196      4.89122343
O         8.98299980      9.10618687      9.40325737
O         9.22391129      9.23586941     13.80201054
O         9.03476429      9.07135105     18.53985023
O         9.03815269      9.35292244     22.94080925
O         9.13914680      9.22709751     27.55878448
O         9.08555412      9.24960041     31.97393990
O         9.12807274     14.02020073      4.66739511
O         9.13648605     13.71848106      9.28545475
O         9.27201939     13.73056316     13.75453568
O         9.12933731     13.68542290     18.34420586
O         9.14780140     13.83386517     22.88167763
O         9.16458035     13.62304878     27.35073853
O         9.43871307     13.74754524     32.09336853
O         9.11319351     18.38611794      4.64856195
O         9.30293560     18.32836151      9.22179794
O         9.09163952     18.27278900     13.74286079
O         9.10879326     18.31251335     18.26951408
O         9.25550461     18.22566986     23.06379700
O         9.01588058     18.39393425     27.80133820
O         9.11427593     18.38204575     32.12751770
O         9.27886677     22.76018524      4.38493395
O         9.01146793     22.80178833      9.12521553
O         9.12598419     22.81376076     13.67108631
O         9.13027954     22.68659401     18.38884354
O         9.06470966     22.66248322     23.03658867
O         9.10063648     22.80631065     27.51223373
O         9.25327492     22.60383606     31.99491501
O         9.34018421     27.65474129      4.48737478
O         9.08243465     27.46397591      9.05319595
O         9.02627659     27.61092949     13.75069714
O         9.18563271     27.37702179     18.17911720
O         9.20328712     27.52445793     22.78349876
O         9.21819115     27.20819855     27.32623291
O         9.03342152     27.34984016     32.03471375
O        13.75322247      0.08456636      4.42580414
O        13.74349976     -0.01409720      8.88405418
O        13.79953003      0.00512853     13.89934921
O        13.59456825     -0.06242295     18.37040710
O        13.72090816     -0.08108792     22.88005638
O        13.67306328      0.11163444     27.51675797
O        13.73981380     -0.05561030     32.01472473
O        13.80630779      4.63905382      4.67396545
O        13.53058052      4.52375269      9.25777531
O        13.54000473      4.63059425     13.64121151
O        13.76885891      4.60681629     18.54153252
O        13.89563179      4.51287413     23.01198578
O        13.58364296      4.61869431     27.45938492
O        13.64352226      4.59340382     31.98315048
O        13.36216736      9.13789749      4.56522751
O        13.39384556      9.01741314      9.01934719
O        13.72465134      8.90760612     13.75260448
O        13.87687588      9.02077961     18.11933327
O        13.89215183      9.20102978     23.07063675
O        14.02594185      9.20426846     27.60320663
O        13.58227062      9.16464520     31.91208839
O        13.62966824     13.83512306      4.65159082
O        13.47991562     13.69366169      8.99042892
O        13.36655235     13.67515850     13.59070587
O        13.68803787     13.46248341     18.24328041
O        13.80406570     13.93878841     23.02585793
O        13.57429504     13.68104458     27.32673645
O        13.73246002     13.61154461     31.96071625
O        13.39546490     18.29324341      4.46199703
O        13.62705231     18.12962151      9.31227207
O        13.50288105     18.38898659     13.81624508
O        13.79861450     18.44595718     18.36407661
O        13.94859028     18.33754349     22.89290047
O        13.76948547     17.98753929     27.37998581
O        13.65491390     18.37733078     31.97654724
O        13.66954517     22.77583885      4.47256756
O        13.63157940     22.80145836      9.36961079
O        13.74685764     22.72056770     13.94341183
O        13.89235687     23.08905792     18.44457626
O        13.59711552     22.87548828     22.82838440
O        13.80272007     22.73083878     26.98525238
O        13.52116776     22.90648270     31.96807098
O        13.80833054     27.56719971      4.53081083
O        13.73834610     27.19436264      9.19791698
O        13.69821548     27.34547043     13.72146606
O        13.63852215     27.38627625     18.22432518
O        13.78728008     27.48324394     23.10130692
O        13.47250652     27.39038658     27.45576668
O        13.79359722     27.43573761     31.94978523
O        18.38257599      0.08486092      4.61556530
O        18.34150887      0.07156225      8.97976685
O        18.38793755     -0.06373338     13.61713696
O        18.31289864     -0.04928317     18.21195984
O        18.26638985     -0.34508517     22.72174263
O        18.26362801     -0.07947393     27.11774445
O        18.35318756     -0.39482716     32.29680252
O        18.33673477      4.57948923      4.37028980
O        18.24869919      4.57319450      9.22955704
O        18.02885437      4.74611902     13.70985794
O        18.26456070      4.54214430     18.33530617
O        18.37746239      4.81249475     22.75279808
O        18.40663719      4.46959066     27.24013329
O        18.34773636      4.59243107     31.91064262
O        18.12546158      9.08503819      4.78524351
O        18.37730026      9.31253052      9.04793262
O        18.33616447      9.12589550     13.71315002
O        18.26745796      9.15413570     18.23480225
O        18.25888062      8.97964287     23.09644699
O        18.25175095      8.94061470     27.73985100
O        18.15438843      8.87386608     32.44835663
O        18.42566872     13.69942284      4.46933413
O        18.11897278     13.86636257      8.98641777
O        18.24268723     13.81091690     13.47572422
O        18.25911903     13.73520756     18.42015457
O        18.34458160     13.93969154     23.02572632
O        18.21972275     13.73016357     27.53176880
O        18.10280228     13.26481628     32.00595474
O        18.44803619     18.20315742      4.56723070
O        18.13271141     18.24265289      9.10733509
O        18.12492561     18.15388680     13.67407417
O        18.30909157     18.24867249     18.26279068
O        18.19219780     18.32402611     22.74718285
O        18.45934677     18.44222641     27.16045761
O        18.37285995     18.39069939     31.97346687
O        18.37504196     22.94185829      4.65012693
O        18.23743820     22.70061302      9.25489044
O        18.48063469     22.86570168     13.79358292
O        18.27524948     22.83575058     18.07466507
O        18.28279495     22.94690132     22.91824722
O        18.33411026     22.98542213     27.71244049
O        18.06623650     22.64920998     31.85882759
O        18.27934265     27.55972099      4.47782612
O        18.19455719     27.45753288      9.28569508
O        18.30407524     27.42768097     13.72001171
O        18.30635834     27.37242699     18.16795921
O        18.38893700     27.37083244     22.82775688
O        18.44069862     27.41863823     27.21647453
O        18.04067993     27.52387810     31.91809082
O        22.80694199     -0.02111702      4.43998909
O        22.85766602     -0.16602400      9.11386681
O        22.60748863     -0.05243042     13.70286179
O        22.96423912      0.12656218     18.17268562
O        22.61308861      0.17573176     22.56420898
O        22.55807877     -0.00581899     27.41955566
O        22.90375710     -0.15518245     32.02884674
O        22.82751846      4.48599052      4.52364492
O        22.95218086      4.52595043      9.19095707
O        22.67942047      4.57847643     13.62300014
O        22.94236374      4.65408754     18.40059853
O        22.76915932      4.71544456     22.79839325
O        22.94011116      4.57726860     27.58280754
O        22.74923897      4.47505903     31.95742607
O        22.78355789      9.16034889      4.66930437
O        22.66234016      8.83561420      9.23310471
O        23.02960777      9.39645767     13.60939121
O        23.02750969      9.18628120     18.45922470
O        22.87133408      9.23534489     22.76706123
O        22.80557823      9.22148800     27.43270111
O        22.82209396      8.95295143     32.14986801
O        23.03487587     13.52055359      4.61442661
O        22.75984955     13.68532848      9.29871559
O        22.76457214     13.64743519     13.74315548
O        22.53593254     13.83524132     18.55413437
O        22.63008308     13.87940216     22.97360992
O        22.74459839     13.80145741     27.50302696
O        22.65681458     13.97533512     32.00205612
O        22.96906662     18.54840851      4.57494450
O        22.99725151     18.49297905      9.13148880
O        22.77893829     18.17194748     13.65110302
O        22.88440132     18.44346619     18.43259430
O        22.79885101     18.52948380     22.96269798
O        22.80036736     18.19152451     27.35820007
O        23.07838058     18.39550018     31.96752930
O        22.90400314     23.12994766      4.44007874
O        22.63563156     22.79065323      9.23511696
O        22.91564369     22.83253479     13.48256683
O        22.82632828     22.89295197     18.46248055
O        22.88115692     22.89062119     22.99083519
O        22.87228012     22.80462646     27.38545036
O        22.91367149     22.74613380     32.04239273
O        22.81728935     27.55013275      4.77579021
O        22.88298035     27.48245239      9.17477608
O        23.03470612     27.70559502     13.70137310
O        22.72423363     27.48494911     18.34510803
O        22.97156906     27.66261101     22.48006630
O        22.97032547     27.39025879     27.51194763
O        22.69223785     27.53500366     31.93041229
O        27.45549583      0.09894318      4.76355410
O        27.32650757      0.08333452      9.40396595
O        27.48547745     -0.22052538     13.65800476
O        27.49165344      0.09110948     18.36422729
O        27.15597343      0.05903285     23.21597862
O        27.13840485      0.13286534     27.54084587
O        27.47962189      0.30752453     31.91346931
O        27.27995682      4.66843653      4.69635105
O        27.50670624      4.59238625      9.02010345
O        27.26871109      4.77154160     13.82125473
O        27.34210777      4.74913549     18.45586777
O        27.35539818      4.62759972     22.94648743
O        27.39923668      4.50348568     27.54612923
O        27.35776520      4.60571241     32.02088928
O        27.28604889      9.21839523      4.63896418
O        27.21245766      9.21779633      9.22645473
O        27.46531105      9.30754948     13.73764801
O        27.23800278      9.15590668     18.44049644
O        27.23989105      9.14274693     22.83029175
O        27.50102806      9.05985737     27.37614250
O        27.53958321      9.00978470     32.14976120
O        27.43295288     13.79821491      4.76598167
O        27.49400139     13.53741455      9.13115978
O        27.38841438     13.72650051     13.64731884
O        27.77002907     13.63836956     18.45907593
O        27.34264946     13.79342461     22.97401428
O        27.42046165     13.55155754     27.41034698
O        27.28896713     13.66193390     31.93216324
O        27.44458771     18.21831512      4.70218420
O        27.32824135     18.24452972      8.97993851
O        27.49061775     18.30055809     13.77187061
O        27.38337326     18.31903267     18.38412094
O        27.53043938     18.03609848     22.86299133
O        27.49076462     18.04123878     27.37857056
O        27.48061752     18.26889420     32.03744507
O        27.46024513     22.77876282      4.63322163
O        27.57649422     22.87917137      9.25524807
O        27.42297363     22.58916473     13.85259342
O        27.07176971     22.56169128     18.46409225
O        27.44525528     22.75243759     22.71511269
O        27.22915459     22.82777214     27.42336655
O        27.35213280     22.84358025     31.91813087
O        27.38448524     27.49168587      4.32209349
O        27.44395638     27.48852921      8.93101406
O        27.45435524     27.40002632     13.76090527
O        27.21467972     27.31753349     18.34980583
O        27.57316589     27.46439552     22.85716057
O        27.39849091     27.61825180     27.47660065
O        27.68369675     27.14021873     32.03472137
H         1.57931626      1.57931626      1.57931626
H         1.57931626      2.99068356      2.99068356
B         2.28499985      2.28499985      2.28499985
H         2.99068356      1.57931626      2.99068356
H         2.99068356      2.99068356      1.57931626
H         1.57931626      1.57931626      6.14931583
H         1.57931626      2.99068356      7.56068325
B         2.28499985      2.28499985      6.85500002
H         2.99068356      1.57931626      7.56068325
H         2.99068356      2.99068356      6.14931583
H         2.99068356      2.99068356     10.71931648
H         1.57931626      1.57931626     10.71931648
H         1.57931626      2.99068356     12.13068295
B         2.28499985      2.28499985     11.42499924
H         2.99068356      1.57931626     12.13068295
H         2.99068356      2.99068356     15.28931522
H         1.57931626      1.57931626     15.28931522
H         1.57931626      2.99068356     16.70068359
B         2.28499985      2.28499985     15.99499989
H         2.99068356      1.57931626     16.70068359
H         2.99068356      2.99068356     19.85931396
H         1.57931626      1.57931626     19.85931396
H         1.57931626      2.99068356     21.27068329
B         2.28499985      2.28499985     20.56499863
H         2.99068356      1.57931626     21.27068329
H         2.99068356      2.99068356     24.42931557
H         1.57931626      1.57931626     24.42931557
H         1.57931626      2.99068356     25.84068108
B         2.28499985      2.28499985     25.13500023
H         2.99068356      1.57931626     25.84068108
H         2.99068356      2.99068356     28.99931526
H         1.57931626      1.57931626     28.99931526
H         1.57931626      2.99068356     30.41068268
B         2.28499985      2.28499985     29.70499992
H         2.99068356      1.57931626     30.41068268
H         2.99068356      7.56068325      1.57931626
H         1.57931626      6.14931583      1.57931626
H         1.57931626      7.56068325      2.99068356
B         2.28499985      6.85500002      2.28499985
H         2.99068356      6.14931583      2.99068356
H         2.99068356      7.56068325      6.14931583
H         1.57931626      6.14931583      6.14931583
H         1.57931626      7.56068325      7.56068325
B         2.28499985      6.85500002      6.85500002
H         2.99068356      6.14931583      7.56068325
H         2.99068356      7.56068325     10.71931648
H         1.57931626      6.14931583     10.71931648
H         1.57931626      7.56068325     12.13068295
B         2.28499985      6.85500002     11.42499924
H         2.99068356      6.14931583     12.13068295
H         2.99068356      7.56068325     15.28931522
H         1.57931626      6.14931583     15.28931522
H         1.57931626      7.56068325     16.70068359
B         2.28499985      6.85500002     15.99499989
H         2.99068356      6.14931583     16.70068359
H         2.99068356      6.14931583     21.27068329
H         2.99068356      7.56068325     19.85931396
H         1.57931626      6.14931583     19.85931396
H         1.57931626      7.56068325     21.27068329
B         2.28499985      6.85500002     20.56499863
H         2.99068356      6.14931583     25.84068108
H         2.99068356      7.56068325     24.42931557
H         1.57931626      6.14931583     24.42931557
H         1.57931626      7.56068325     25.84068108
B         2.28499985      6.85500002     25.13500023
H         2.99068356      6.14931583     30.41068268
H         2.99068356      7.56068325     28.99931526
H         1.57931626      6.14931583     28.99931526
H         1.57931626      7.56068325     30.41068268
B         2.28499985      6.85500002     29.70499992
H         2.99068356     10.71931648      2.99068356
H         2.99068356     12.13068295      1.57931626
H         1.57931626     10.71931648      1.57931626
H         1.57931626     12.13068295      2.99068356
B         2.28499985     11.42499924      2.28499985
H         2.99068356     10.71931648      7.56068325
H         2.99068356     12.13068295      6.14931583
H         1.57931626     10.71931648      6.14931583
H         1.57931626     12.13068295      7.56068325
B         2.28499985     11.42499924      6.85500002
B         2.28499985     11.42499924     11.42499924
H         2.99068356     10.71931648     12.13068295
H         2.99068356     12.13068295     10.71931648
H         1.57931626     10.71931648     10.71931648
H         1.57931626     12.13068295     12.13068295
B         2.28499985     11.42499924     15.99499989
H         2.99068356     10.71931648     16.70068359
H         2.99068356     12.13068295     15.28931522
H         1.57931626     10.71931648     15.28931522
H         1.57931626     12.13068295     16.70068359
B         2.28499985     11.42499924     20.56499863
H         2.99068356     10.71931648     21.27068329
H         2.99068356     12.13068295     19.85931396
H         1.57931626     10.71931648     19.85931396
H         1.57931626     12.13068295     21.27068329
B         2.28499985     11.42499924     25.13500023
H         2.99068356     10.71931648     25.84068108
H         2.99068356     12.13068295     24.42931557
H         1.57931626     10.71931648     24.42931557
H         1.57931626     12.13068295     25.84068108
H         1.57931626     12.13068295     30.41068268
B         2.28499985     11.42499924     29.70499992
H         2.99068356     10.71931648     30.41068268
H         2.99068356     12.13068295     28.99931526
H         1.57931626     10.71931648     28.99931526
H         1.57931626     16.70068359      2.99068356
B         2.28499985     15.99499989      2.28499985
H         2.99068356     15.28931522      2.99068356
H         2.99068356     16.70068359      1.57931626
H         1.57931626     15.28931522      1.57931626
H         1.57931626     16.70068359      7.56068325
B         2.28499985     15.99499989      6.85500002
H         2.99068356     15.28931522      7.56068325
H         2.99068356     16.70068359      6.14931583
H         1.57931626     15.28931522      6.14931583
H         1.57931626     16.70068359     12.13068295
B         2.28499985     15.99499989     11.42499924
H         2.99068356     15.28931522     12.13068295
H         2.99068356     16.70068359     10.71931648
H         1.57931626     15.28931522     10.71931648
H         1.57931626     16.70068359     16.70068359
B         2.28499985     15.99499989     15.99499989
H         2.99068356     15.28931522     16.70068359
H         2.99068356     16.70068359     15.28931522
H         1.57931626     15.28931522     15.28931522
H         1.57931626     15.28931522     19.85931396
H         1.57931626     16.70068359     21.27068329
B         2.28499985     15.99499989     20.56499863
H         2.99068356     15.28931522     21.27068329
H         2.99068356     16.70068359     19.85931396
H         1.57931626     15.28931522     24.42931557
H         1.57931626     16.70068359     25.84068108
B         2.28499985     15.99499989     25.13500023
H         2.99068356     15.28931522     25.84068108
H         2.99068356     16.70068359     24.42931557
H         1.57931626     15.28931522     28.99931526
H         1.57931626     16.70068359     30.41068268
B         2.28499985     15.99499989     29.70499992
H         2.99068356     15.28931522     30.41068268
H         2.99068356     16.70068359     28.99931526
H         1.57931626     19.85931396      1.57931626
H         1.57931626     21.27068329      2.99068356
B         2.28499985     20.56499863      2.28499985
H         2.99068356     19.85931396      2.99068356
H         2.99068356     21.27068329      1.57931626
H         1.57931626     19.85931396      6.14931583
H         1.57931626     21.27068329      7.56068325
B         2.28499985     20.56499863      6.85500002
H         2.99068356     19.85931396      7.56068325
H         2.99068356     21.27068329      6.14931583
H         1.57931626     19.85931396     10.71931648
H         1.57931626     21.27068329     12.13068295
B         2.28499985     20.56499863     11.42499924
H         2.99068356     19.85931396     12.13068295
H         2.99068356     21.27068329     10.71931648
H         1.57931626     19.85931396     15.28931522
H         1.57931626     21.27068329     16.70068359
B         2.28499985     20.56499863     15.99499989
H         2.99068356     19.85931396     16.70068359
H         2.99068356     21.27068329     15.28931522
H         1.57931626     19.85931396     19.85931396
H         1.57931626     21.27068329     21.27068329
B         2.28499985     20.56499863     20.56499863
H         2.99068356     19.85931396     21.27068329
H         2.99068356     21.27068329     19.85931396
H         1.57931626     19.85931396     24.42931557
H         1.57931626     21.27068329     25.84068108
B         2.28499985     20.56499863     25.13500023
H         2.99068356     19.85931396     25.84068108
H         2.99068356     21.27068329     24.42931557
H         2.99068356     21.27068329     28.99931526
H         1.57931626     19.85931396     28.99931526
H         1.57931626     21.27068329     30.41068268
B         2.28499985     20.56499863     29.70499992
H         2.99068356     19.85931396     30.41068268
H         2.99068356     25.84068108      1.57931626
H         1.57931626     24.42931557      1.57931626
H         1.57931626     25.84068108      2.99068356
B         2.28499985     25.13500023      2.28499985
H         2.99068356     24.42931557      2.99068356
H         2.99068356     25.84068108      6.14931583
H         1.57931626     24.42931557      6.14931583
H         1.57931626     25.84068108      7.56068325
B         2.28499985     25.13500023      6.85500002
H         2.99068356     24.42931557      7.56068325
H         2.99068356     25.84068108     10.71931648
H         1.57931626     24.42931557     10.71931648
H         1.57931626     25.84068108     12.13068295
B         2.28499985     25.13500023     11.42499924
H         2.99068356     24.42931557     12.13068295
H         2.99068356     25.84068108     15.28931522
H         1.57931626     24.42931557     15.28931522
H         1.57931626     25.84068108     16.70068359
B         2.28499985     25.13500023     15.99499989
H         2.99068356     24.42931557     16.70068359
H         2.99068356     25.84068108     19.85931396
H         1.57931626     24.42931557     19.85931396
H         1.57931626     25.84068108     21.27068329
B         2.28499985     25.13500023     20.56499863
H         2.99068356     24.42931557     21.27068329
H         2.99068356     25.84068108     24.42931557
H         1.57931626     24.42931557     24.42931557
H         1.57931626     25.84068108     25.84068108
B         2.28499985     25.13500023     25.13500023
H         2.99068356     24.42931557     25.84068108
H         2.99068356     25.84068108     28.99931526
H         1.57931626     24.42931557     28.99931526
H         1.57931626     25.84068108     30.41068268
B         2.28499985     25.13500023     29.70499992
H         2.99068356     24.42931557     30.41068268
H         2.99068356     30.41068268      1.57931626
H         1.57931626     28.99931526      1.57931626
H         1.57931626     30.41068268      2.99068356
B         2.28499985     29.70499992      2.28499985
H         2.99068356     28.99931526      2.99068356
H         2.99068356     28.99931526      7.56068325
H         2.99068356     30.41068268      6.14931583
H         1.57931626     28.99931526      6.14931583
H         1.57931626     30.41068268      7.56068325
B         2.28499985     29.70499992      6.85500002
H         2.99068356     28.99931526     12.13068295
H         2.99068356     30.41068268     10.71931648
H         1.57931626     28.99931526     10.71931648
H         1.57931626     30.41068268     12.13068295
B         2.28499985     29.70499992     11.42499924
H         2.99068356     28.99931526     16.70068359
H         2.99068356     30.41068268     15.28931522
H         1.57931626     28.99931526     15.28931522
H         1.57931626     30.41068268     16.70068359
B         2.28499985     29.70499992     15.99499989
H         2.99068356     28.99931526     21.27068329
H         2.99068356     30.41068268     19.85931396
H         1.57931626     28.99931526     19.85931396
H         1.57931626     30.41068268     21.27068329
B         2.28499985     29.70499992     20.56499863
H         2.99068356     28.99931526     25.84068108
H         2.99068356     30.41068268     24.42931557
H         1.57931626     28.99931526     24.42931557
H         1.57931626     30.41068268     25.84068108
B         2.28499985     29.70499992     25.13500023
B         2.28499985     29.70499992     29.70499992
H         2.99068356     28.99931526     30.41068268
H         2.99068356     30.41068268     28.99931526
H         1.57931626     28.99931526     28.99931526
H         1.57931626     30.41068268     30.41068268
B         6.85500002      2.28499985      2.28499985
H         7.56068325      1.57931626      2.99068356
H         7.56068325      2.99068356      1.57931626
H         6.14931583      1.57931626      1.57931626
H         6.14931583      2.99068356      2.99068356
B         6.85500002      2.28499985      6.85500002
H         7.56068325      1.57931626      7.56068325
H         7.56068325      2.99068356      6.14931583
H         6.14931583      1.57931626      6.14931583
H         6.14931583      2.99068356      7.56068325
B         6.85500002      2.28499985     11.42499924
H         7.56068325      1.57931626     12.13068295
H         7.56068325      2.99068356     10.71931648
H         6.14931583      1.57931626     10.71931648
H         6.14931583      2.99068356     12.13068295
H         6.14931583      2.99068356     16.70068359
B         6.85500002      2.28499985     15.99499989
H         7.56068325      1.57931626     16.70068359
H         7.56068325      2.99068356     15.28931522
H         6.14931583      1.57931626     15.28931522
H         6.14931583      2.99068356     21.27068329
B         6.85500002      2.28499985     20.56499863
H         7.56068325      1.57931626     21.27068329
H         7.56068325      2.99068356     19.85931396
H         6.14931583      1.57931626     19.85931396
H         6.14931583      2.99068356     25.84068108
B         6.85500002      2.28499985     25.13500023
H         7.56068325      1.57931626     25.84068108
H         7.56068325      2.99068356     24.42931557
H         6.14931583      1.57931626     24.42931557
H         6.14931583      2.99068356     30.41068268
B         6.85500002      2.28499985     29.70499992
H         7.56068325      1.57931626     30.41068268
H         7.56068325      2.99068356     28.99931526
H         6.14931583      1.57931626     28.99931526
H         6.14931583      7.56068325      2.99068356
B         6.85500002      6.85500002      2.28499985
H         7.56068325      6.14931583      2.99068356
H         7.56068325      7.56068325      1.57931626
H         6.14931583      6.14931583      1.57931626
H         6.14931583      6.14931583      6.14931583
H         6.14931583      7.56068325      7.56068325
B         6.85500002      6.85500002      6.85500002
H         7.56068325      6.14931583      7.56068325
H         7.56068325      7.56068325      6.14931583
H         6.14931583      6.14931583     10.71931648
H         6.14931583      7.56068325     12.13068295
B         6.85500002      6.85500002     11.42499924
H         7.56068325      6.14931583     12.13068295
H         7.56068325      7.56068325     10.71931648
H         6.14931583      6.14931583     15.28931522
H         6.14931583      7.56068325     16.70068359
B         6.85500002      6.85500002     15.99499989
H         7.56068325      6.14931583     16.70068359
H         7.56068325      7.56068325     15.28931522
H         6.14931583      6.14931583     19.85931396
H         6.14931583      7.56068325     21.27068329
B         6.85500002      6.85500002     20.56499863
H         7.56068325      6.14931583     21.27068329
H         7.56068325      7.56068325     19.85931396
H         6.14931583      6.14931583     24.42931557
H         6.14931583      7.56068325     25.84068108
B         6.85500002      6.85500002     25.13500023
H         7.56068325      6.14931583     25.84068108
H         7.56068325      7.56068325     24.42931557
H         6.14931583      6.14931583     28.99931526
H         6.14931583      7.56068325     30.41068268
B         6.85500002      6.85500002     29.70499992
H         7.56068325      6.14931583     30.41068268
H         7.56068325      7.56068325     28.99931526
H         6.14931583     10.71931648      1.57931626
H         6.14931583     12.13068295      2.99068356
B         6.85500002     11.42499924      2.28499985
H         7.56068325     10.71931648      2.99068356
H         7.56068325     12.13068295      1.57931626
H         6.14931583     10.71931648      6.14931583
H         6.14931583     12.13068295      7.56068325
B         6.85500002     11.42499924      6.85500002
H         7.56068325     10.71931648      7.56068325
H         7.56068325     12.13068295      6.14931583
H         6.14931583     10.71931648     10.71931648
H         6.14931583     12.13068295     12.13068295
B         6.85500002     11.42499924     11.42499924
H         7.56068325     10.71931648     12.13068295
H         7.56068325     12.13068295     10.71931648
H         7.56068325     12.13068295     15.28931522
H         6.14931583     10.71931648     15.28931522
H         6.14931583     12.13068295     16.70068359
B         6.85500002     11.42499924     15.99499989
H         7.56068325     10.71931648     16.70068359
H         7.56068325     12.13068295     19.85931396
H         6.14931583     10.71931648     19.85931396
H         6.14931583     12.13068295     21.27068329
B         6.85500002     11.42499924     20.56499863
H         7.56068325     10.71931648     21.27068329
H         7.56068325     12.13068295     24.42931557
H         6.14931583     10.71931648     24.42931557
H         6.14931583     12.13068295     25.84068108
B         6.85500002     11.42499924     25.13500023
H         7.56068325     10.71931648     25.84068108
H         7.56068325     12.13068295     28.99931526
H         6.14931583     10.71931648     28.99931526
H         6.14931583     12.13068295     30.41068268
B         6.85500002     11.42499924     29.70499992
H         7.56068325     10.71931648     30.41068268
H         7.56068325     16.70068359      1.57931626
H         6.14931583     15.28931522      1.57931626
H         6.14931583     16.70068359      2.99068356
B         6.85500002     15.99499989      2.28499985
H         7.56068325     15.28931522      2.99068356
H         7.56068325     16.70068359      6.14931583
H         6.14931583     15.28931522      6.14931583
H         6.14931583     16.70068359      7.56068325
B         6.85500002     15.99499989      6.85500002
H         7.56068325     15.28931522      7.56068325
H         7.56068325     16.70068359     10.71931648
H         6.14931583     15.28931522     10.71931648
H         6.14931583     16.70068359     12.13068295
B         6.85500002     15.99499989     11.42499924
H         7.56068325     15.28931522     12.13068295
H         7.56068325     16.70068359     15.28931522
H         6.14931583     15.28931522     15.28931522
H         6.14931583     16.70068359     16.70068359
B         6.85500002     15.99499989     15.99499989
H         7.56068325     15.28931522     16.70068359
H         7.56068325     16.70068359     19.85931396
H         6.14931583     15.28931522     19.85931396
H         6.14931583     16.70068359     21.27068329
B         6.85500002     15.99499989     20.56499863
H         7.56068325     15.28931522     21.27068329
H         7.56068325     15.28931522     25.84068108
H         7.56068325     16.70068359     24.42931557
H         6.14931583     15.28931522     24.42931557
H         6.14931583     16.70068359     25.84068108
B         6.85500002     15.99499989     25.13500023
H         7.56068325     15.28931522     30.41068268
H         7.56068325     16.70068359     28.99931526
H         6.14931583     15.28931522     28.99931526
H         6.14931583     16.70068359     30.41068268
B         6.85500002     15.99499989     29.70499992
H         7.56068325     19.85931396      2.99068356
H         7.56068325     21.27068329      1.57931626
H         6.14931583     19.85931396      1.57931626
H         6.14931583     21.27068329      2.99068356
B         6.85500002     20.56499863      2.28499985
H         7.56068325     19.85931396      7.56068325
H         7.56068325     21.27068329      6.14931583
H         6.14931583     19.85931396      6.14931583
H         6.14931583     21.27068329      7.56068325
B         6.85500002     20.56499863      6.85500002
H         7.56068325     19.85931396     12.13068295
H         7.56068325     21.27068329     10.71931648
H         6.14931583     19.85931396     10.71931648
H         6.14931583     21.27068329     12.13068295
B         6.85500002     20.56499863     11.42499924
B         6.85500002     20.56499863     15.99499989
H         7.56068325     19.85931396     16.70068359
H         7.56068325     21.27068329     15.28931522
H         6.14931583     19.85931396     15.28931522
H         6.14931583     21.27068329     16.70068359
B         6.85500002     20.56499863     20.56499863
H         7.56068325     19.85931396     21.27068329
H         7.56068325     21.27068329     19.85931396
H         6.14931583     19.85931396     19.85931396
H         6.14931583     21.27068329     21.27068329
B         6.85500002     20.56499863     25.13500023
H         7.56068325     19.85931396     25.84068108
H         7.56068325     21.27068329     24.42931557
H         6.14931583     19.85931396     24.42931557
H         6.14931583     21.27068329     25.84068108
B         6.85500002     20.56499863     29.70499992
H         7.56068325     19.85931396     30.41068268
H         7.56068325     21.27068329     28.99931526
H         6.14931583     19.85931396     28.99931526
H         6.14931583     21.27068329     30.41068268
H         6.14931583     25.84068108      2.99068356
B         6.85500002     25.13500023      2.28499985
H         7.56068325     24.42931557      2.99068356
H         7.56068325     25.84068108      1.57931626
H         6.14931583     24.42931557      1.57931626
H         6.14931583     25.84068108      7.56068325
B         6.85500002     25.13500023      6.85500002
H         7.56068325     24.42931557      7.56068325
H         7.56068325     25.84068108      6.14931583
H         6.14931583     24.42931557      6.14931583
H         6.14931583     25.84068108     12.13068295
B         6.85500002     25.13500023     11.42499924
H         7.56068325     24.42931557     12.13068295
H         7.56068325     25.84068108     10.71931648
H         6.14931583     24.42931557     10.71931648
H         6.14931583     25.84068108     16.70068359
B         6.85500002     25.13500023     15.99499989
H         7.56068325     24.42931557     16.70068359
H         7.56068325     25.84068108     15.28931522
H         6.14931583     24.42931557     15.28931522
H         6.14931583     25.84068108     21.27068329
B         6.85500002     25.13500023     20.56499863
H         7.56068325     24.42931557     21.27068329
H         7.56068325     25.84068108     19.85931396
H         6.14931583     24.42931557     19.85931396
H         6.14931583     24.42931557     24.42931557
H         6.14931583     25.84068108     25.84068108
B         6.85500002     25.13500023     25.13500023
H         7.56068325     24.42931557     25.84068108
H         7.56068325     25.84068108     24.42931557
H         6.14931583     24.42931557     28.99931526
H         6.14931583     25.84068108     30.41068268
B         6.85500002     25.13500023     29.70499992
H         7.56068325     24.42931557     30.41068268
H         7.56068325     25.84068108     28.99931526
H         6.14931583     28.99931526      1.57931626
H         6.14931583     30.41068268      2.99068356
B         6.85500002     29.70499992      2.28499985
H         7.56068325     28.99931526      2.99068356
H         7.56068325     30.41068268      1.57931626
H         6.14931583     28.99931526      6.14931583
H         6.14931583     30.41068268      7.56068325
B         6.85500002     29.70499992      6.85500002
H         7.56068325     28.99931526      7.56068325
H         7.56068325     30.41068268      6.14931583
H         6.14931583     28.99931526     10.71931648
H         6.14931583     30.41068268     12.13068295
B         6.85500002     29.70499992     11.42499924
H         7.56068325     28.99931526     12.13068295
H         7.56068325     30.41068268     10.71931648
H         6.14931583     28.99931526     15.28931522
H         6.14931583     30.41068268     16.70068359
B         6.85500002     29.70499992     15.99499989
H         7.56068325     28.99931526     16.70068359
H         7.56068325     30.41068268     15.28931522
H         6.14931583     28.99931526     19.85931396
H         6.14931583     30.41068268     21.27068329
B         6.85500002     29.70499992     20.56499863
H         7.56068325     28.99931526     21.27068329
H         7.56068325     30.41068268     19.85931396
H         6.14931583     28.99931526     24.42931557
H         6.14931583     30.41068268     25.84068108
B         6.85500002     29.70499992     25.13500023
H         7.56068325     28.99931526     25.84068108
H         7.56068325     30.41068268     24.42931557
H         6.14931583     28.99931526     28.99931526
H         6.14931583     30.41068268     30.41068268
B         6.85500002     29.70499992     29.70499992
H         7.56068325     28.99931526     30.41068268
H         7.56068325     30.41068268     28.99931526
H        12.13068295      2.99068356      1.57931626
H        10.71931648      1.57931626      1.57931626
H        10.71931648      2.99068356      2.99068356
B        11.42499924      2.28499985      2.28499985
H        12.13068295      1.57931626      2.99068356
H        12.13068295      2.99068356      6.14931583
H        10.71931648      1.57931626      6.14931583
H        10.71931648      2.99068356      7.56068325
B        11.42499924      2.28499985      6.85500002
H        12.13068295      1.57931626      7.56068325
H        12.13068295      2.99068356     10.71931648
H        10.71931648      1.57931626     10.71931648
H        10.71931648      2.99068356     12.13068295
B        11.42499924      2.28499985     11.42499924
H        12.13068295      1.57931626     12.13068295
H        12.13068295      2.99068356     15.28931522
H        10.71931648      1.57931626     15.28931522
H        10.71931648      2.99068356     16.70068359
B        11.42499924      2.28499985     15.99499989
H        12.13068295      1.57931626     16.70068359
H        12.13068295      2.99068356     19.85931396
H        10.71931648      1.57931626     19.85931396
H        10.71931648      2.99068356     21.27068329
B        11.42499924      2.28499985     20.56499863
H        12.13068295      1.57931626     21.27068329
H        12.13068295      2.99068356     24.42931557
H        10.71931648      1.57931626     24.42931557
H        10.71931648      2.99068356     25.84068108
B        11.42499924      2.28499985     25.13500023
H        12.13068295      1.57931626     25.84068108
H        12.13068295      2.99068356     28.99931526
H        10.71931648      1.57931626     28.99931526
H        10.71931648      2.99068356     30.41068268
B        11.42499924      2.28499985     29.70499992
H        12.13068295      1.57931626     30.41068268
H        12.13068295      7.56068325      1.57931626
H        10.71931648      6.14931583      1.57931626
H        10.71931648      7.56068325      2.99068356
B        11.42499924      6.85500002      2.28499985
H        12.13068295      6.14931583      2.99068356
H        12.13068295      7.56068325      6.14931583
H        10.71931648      6.14931583      6.14931583
H        10.71931648      7.56068325      7.56068325
B        11.42499924      6.85500002      6.85500002
H        12.13068295      6.14931583      7.56068325
H        12.13068295      6.14931583     12.13068295
H        12.13068295      7.56068325     10.71931648
H        10.71931648      6.14931583     10.71931648
H        10.71931648      7.56068325     12.13068295
B        11.42499924      6.85500002     11.42499924
H        12.13068295      6.14931583     16.70068359
H        12.13068295      7.56068325     15.28931522
H        10.71931648      6.14931583     15.28931522
H        10.71931648      7.56068325     16.70068359
B        11.42499924      6.85500002     15.99499989
H        12.13068295      6.14931583     21.27068329
H        12.13068295      7.56068325     19.85931396
H        10.71931648      6.14931583     19.85931396
H        10.71931648      7.56068325     21.27068329
B        11.42499924      6.85500002     20.56499863
H        12.13068295      6.14931583     25.84068108
H        12.13068295      7.56068325     24.42931557
H        10.71931648      6.14931583     24.42931557
H        10.71931648      7.56068325     25.84068108
B        11.42499924      6.85500002     25.13500023
H        12.13068295      6.14931583     30.41068268
H        12.13068295      7.56068325     28.99931526
H        10.71931648      6.14931583     28.99931526
H        10.71931648      7.56068325     30.41068268
B        11.42499924      6.85500002     29.70499992
B        11.42499924     11.42499924      2.28499985
H        12.13068295     10.71931648      2.99068356
H        12.13068295     12.13068295      1.57931626
H        10.71931648     10.71931648      1.57931626
H        10.71931648     12.13068295      2.99068356
B        11.42499924     11.42499924      6.85500002
H        12.13068295     10.71931648      7.56068325
H        12.13068295     12.13068295      6.14931583
H        10.71931648     10.71931648      6.14931583
H        10.71931648     12.13068295      7.56068325
B        11.42499924     11.42499924     11.42499924
H        12.13068295     10.71931648     12.13068295
H        12.13068295     12.13068295     10.71931648
H        10.71931648     10.71931648     10.71931648
H        10.71931648     12.13068295     12.13068295
B        11.42499924     11.42499924     15.99499989
H        12.13068295     10.71931648     16.70068359
H        12.13068295     12.13068295     15.28931522
H        10.71931648     10.71931648     15.28931522
H        10.71931648     12.13068295     16.70068359
H        10.71931648     12.13068295     21.27068329
B        11.42499924     11.42499924     20.56499863
H        12.13068295     10.71931648     21.27068329
H        12.13068295     12.13068295     19.85931396
H        10.71931648     10.71931648     19.85931396
H        10.71931648     12.13068295     25.84068108
B        11.42499924     11.42499924     25.13500023
H        12.13068295     10.71931648     25.84068108
H        12.13068295     12.13068295     24.42931557
H        10.71931648     10.71931648     24.42931557
H        10.71931648     12.13068295     30.41068268
B        11.42499924     11.42499924     29.70499992
H        12.13068295     10.71931648     30.41068268
H        12.13068295     12.13068295     28.99931526
H        10.71931648     10.71931648     28.99931526
H        10.71931648     16.70068359      2.99068356
B        11.42499924     15.99499989      2.28499985
H        12.13068295     15.28931522      2.99068356
H        12.13068295     16.70068359      1.57931626
H        10.71931648     15.28931522      1.57931626
H        10.71931648     16.70068359      7.56068325
B        11.42499924     15.99499989      6.85500002
H        12.13068295     15.28931522      7.56068325
H        12.13068295     16.70068359      6.14931583
H        10.71931648     15.28931522      6.14931583
H        10.71931648     15.28931522     10.71931648
H        10.71931648     16.70068359     12.13068295
B        11.42499924     15.99499989     11.42499924
H        12.13068295     15.28931522     12.13068295
H        12.13068295     16.70068359     10.71931648
H        10.71931648     15.28931522     15.28931522
H        10.71931648     16.70068359     16.70068359
B        11.42499924     15.99499989     15.99499989
H        12.13068295     15.28931522     16.70068359
H        12.13068295     16.70068359     15.28931522
H        10.71931648     15.28931522     19.85931396
H        10.71931648     16.70068359     21.27068329
B        11.42499924     15.99499989     20.56499863
H        12.13068295     15.28931522     21.27068329
H        12.13068295     16.70068359     19.85931396
H        10.71931648     15.28931522     24.42931557
H        10.71931648     16.70068359     25.84068108
B        11.42499924     15.99499989     25.13500023
H        12.13068295     15.28931522     25.84068108
H        12.13068295     16.70068359     24.42931557
H        10.71931648     15.28931522     28.99931526
H        10.71931648     16.70068359     30.41068268
B        11.42499924     15.99499989     29.70499992
H        12.13068295     15.28931522     30.41068268
H        12.13068295     16.70068359     28.99931526
H        10.71931648     19.85931396      1.57931626
H        10.71931648     21.27068329      2.99068356
B        11.42499924     20.56499863      2.28499985
H        12.13068295     19.85931396      2.99068356
H        12.13068295     21.27068329      1.57931626
H        10.71931648     19.85931396      6.14931583
H        10.71931648     21.27068329      7.56068325
B        11.42499924     20.56499863      6.85500002
H        12.13068295     19.85931396      7.56068325
H        12.13068295     21.27068329      6.14931583
H        10.71931648     19.85931396     10.71931648
H        10.71931648     21.27068329     12.13068295
B        11.42499924     20.56499863     11.42499924
H        12.13068295     19.85931396     12.13068295
H        12.13068295     21.27068329     10.71931648
H        10.71931648     19.85931396     15.28931522
H        10.71931648     21.27068329     16.70068359
B        11.42499924     20.56499863     15.99499989
H        12.13068295     19.85931396     16.70068359
H        12.13068295     21.27068329     15.28931522
H        12.13068295     21.27068329     19.85931396
H        10.71931648     19.85931396     19.85931396
H        10.71931648     21.27068329     21.27068329
B        11.42499924     20.56499863     20.56499863
H        12.13068295     19.85931396     21.27068329
H        12.13068295     21.27068329     24.42931557
H        10.71931648     19.85931396     24.42931557
H        10.71931648     21.27068329     25.84068108
B        11.42499924     20.56499863     25.13500023
H        12.13068295     19.85931396     25.84068108
H        12.13068295     21.27068329     28.99931526
H        10.71931648     19.85931396     28.99931526
H        10.71931648     21.27068329     30.41068268
B        11.42499924     20.56499863     29.70499992
H        12.13068295     19.85931396     30.41068268
H        12.13068295     25.84068108      1.57931626
H        10.71931648     24.42931557      1.57931626
H        10.71931648     25.84068108      2.99068356
B        11.42499924     25.13500023      2.28499985
H        12.13068295     24.42931557      2.99068356
H        12.13068295     25.84068108      6.14931583
H        10.71931648     24.42931557      6.14931583
H        10.71931648     25.84068108      7.56068325
B        11.42499924     25.13500023      6.85500002
H        12.13068295     24.42931557      7.56068325
H        12.13068295     25.84068108     10.71931648
H        10.71931648     24.42931557     10.71931648
H        10.71931648     25.84068108     12.13068295
B        11.42499924     25.13500023     11.42499924
H        12.13068295     24.42931557     12.13068295
H        12.13068295     25.84068108     15.28931522
H        10.71931648     24.42931557     15.28931522
H        10.71931648     25.84068108     16.70068359
B        11.42499924     25.13500023     15.99499989
H        12.13068295     24.42931557     16.70068359
H        12.13068295     25.84068108     19.85931396
H        10.71931648     24.42931557     19.85931396
H        10.71931648     25.84068108     21.27068329
B        11.42499924     25.13500023     20.56499863
H        12.13068295     24.42931557     21.27068329
H        12.13068295     25.84068108     24.42931557
H        10.71931648     24.42931557     24.42931557
H        10.71931648     25.84068108     25.84068108
B        11.42499924     25.13500023     25.13500023
H        12.13068295     24.42931557     25.84068108
H        12.13068295     24.42931557     30.41068268
H        12.13068295     25.84068108     28.99931526
H        10.71931648     24.42931557     28.99931526
H        10.71931648     25.84068108     30.41068268
B        11.42499924     25.13500023     29.70499992
H        12.13068295     28.99931526      2.99068356
H        12.13068295     30.41068268      1.57931626
H        10.71931648     28.99931526      1.57931626
H        10.71931648     30.41068268      2.99068356
B        11.42499924     29.70499992      2.28499985
H        12.13068295     28.99931526      7.56068325
H        12.13068295     30.41068268      6.14931583
H        10.71931648     28.99931526      6.14931583
H        10.71931648     30.41068268      7.56068325
B        11.42499924     29.70499992      6.85500002
H        12.13068295     28.99931526     12.13068295
H        12.13068295     30.41068268     10.71931648
H        10.71931648     28.99931526     10.71931648
H        10.71931648     30.41068268     12.13068295
B        11.42499924     29.70499992     11.42499924
H        12.13068295     28.99931526     16.70068359
H        12.13068295     30.41068268     15.28931522
H        10.71931648     28.99931526     15.28931522
H        10.71931648     30.41068268     16.70068359
B        11.42499924     29.70499992     15.99499989
B        11.42499924     29.70499992     20.56499863
H        12.13068295     28.99931526     21.27068329
H        12.13068295     30.41068268     19.85931396
H        10.71931648     28.99931526     19.85931396
H        10.71931648     30.41068268     21.27068329
B        11.42499924     29.70499992     25.13500023
H        12.13068295     28.99931526     25.84068108
H        12.13068295     30.41068268     24.42931557
H        10.71931648     28.99931526     24.42931557
H        10.71931648     30.41068268     25.84068108
B        11.42499924     29.70499992     29.70499992
H        12.13068295     28.99931526     30.41068268
H        12.13068295     30.41068268     28.99931526
H        10.71931648     28.99931526     28.99931526
H        10.71931648     30.41068268     30.41068268
B        15.99499989      2.28499985      2.28499985
H        16.70068359      1.57931626      2.99068356
H        16.70068359      2.99068356      1.57931626
H        15.28931522      1.57931626      1.57931626
H        15.28931522      2.99068356      2.99068356
H        15.28931522      2.99068356      7.56068325
B        15.99499989      2.28499985      6.85500002
H        16.70068359      1.57931626      7.56068325
H        16.70068359      2.99068356      6.14931583
H        15.28931522      1.57931626      6.14931583
H        15.28931522      2.99068356     12.13068295
B        15.99499989      2.28499985     11.42499924
H        16.70068359      1.57931626     12.13068295
H        16.70068359      2.99068356     10.71931648
H        15.28931522      1.57931626     10.71931648
H        15.28931522      2.99068356     16.70068359
B        15.99499989      2.28499985     15.99499989
H        16.70068359      1.57931626     16.70068359
H        16.70068359      2.99068356     15.28931522
H        15.28931522      1.57931626     15.28931522
H        15.28931522      2.99068356     21.27068329
B        15.99499989      2.28499985     20.56499863
H        16.70068359      1.57931626     21.27068329
H        16.70068359      2.99068356     19.85931396
H        15.28931522      1.57931626     19.85931396
H        15.28931522      2.99068356     25.84068108
B        15.99499989      2.28499985     25.13500023
H        16.70068359      1.57931626     25.84068108
H        16.70068359      2.99068356     24.42931557
H        15.28931522      1.57931626     24.42931557
H        15.28931522      1.57931626     28.99931526
H        15.28931522      2.99068356     30.41068268
B        15.99499989      2.28499985     29.70499992
H        16.70068359      1.57931626     30.41068268
H        16.70068359      2.99068356     28.99931526
H        15.28931522      6.14931583      1.57931626
H        15.28931522      7.56068325      2.99068356
B        15.99499989      6.85500002      2.28499985
H        16.70068359      6.14931583      2.99068356
H        16.70068359      7.56068325      1.57931626
H        15.28931522      6.14931583      6.14931583
H        15.28931522      7.56068325      7.56068325
B        15.99499989      6.85500002      6.85500002
H        16.70068359      6.14931583      7.56068325
H        16.70068359      7.56068325      6.14931583
H        15.28931522      6.14931583     10.71931648
H        15.28931522      7.56068325     12.13068295
B        15.99499989      6.85500002     11.42499924
H        16.70068359      6.14931583     12.13068295
H        16.70068359      7.56068325     10.71931648
H        15.28931522      6.14931583     15.28931522
H        15.28931522      7.56068325     16.70068359
B        15.99499989      6.85500002     15.99499989
H        16.70068359      6.14931583     16.70068359
H        16.70068359      7.56068325     15.28931522
H        15.28931522      6.14931583     19.85931396
H        15.28931522      7.56068325     21.27068329
B        15.99499989      6.85500002     20.56499863
H        16.70068359      6.14931583     21.27068329
H        16.70068359      7.56068325     19.85931396
H        15.28931522      6.14931583     24.42931557
H        15.28931522      7.56068325     25.84068108
B        15.99499989      6.85500002     25.13500023
H        16.70068359      6.14931583     25.84068108
H        16.70068359      7.56068325     24.42931557
H        15.28931522      6.14931583     28.99931526
H        15.28931522      7.56068325     30.41068268
B        15.99499989      6.85500002     29.70499992
H        16.70068359      6.14931583     30.41068268
H        16.70068359      7.56068325     28.99931526
H        15.28931522     10.71931648      1.57931626
H        15.28931522     12.13068295      2.99068356
B        15.99499989     11.42499924      2.28499985
H        16.70068359     10.71931648      2.99068356
H        16.70068359     12.13068295      1.57931626
H        16.70068359     12.13068295      6.14931583
H        15.28931522     10.71931648      6.14931583
H        15.28931522     12.13068295      7.56068325
B        15.99499989     11.42499924      6.85500002
H        16.70068359     10.71931648      7.56068325
H        16.70068359     12.13068295     10.71931648
H        15.28931522     10.71931648     10.71931648
H        15.28931522     12.13068295     12.13068295
B        15.99499989     11.42499924     11.42499924
H        16.70068359     10.71931648     12.13068295
H        16.70068359     12.13068295     15.28931522
H        15.28931522     10.71931648     15.28931522
H        15.28931522     12.13068295     16.70068359
B        15.99499989     11.42499924     15.99499989
H        16.70068359     10.71931648     16.70068359
H        16.70068359     12.13068295     19.85931396
H        15.28931522     10.71931648     19.85931396
H        15.28931522     12.13068295     21.27068329
B        15.99499989     11.42499924     20.56499863
H        16.70068359     10.71931648     21.27068329
H        16.70068359     12.13068295     24.42931557
H        15.28931522     10.71931648     24.42931557
H        15.28931522     12.13068295     25.84068108
B        15.99499989     11.42499924     25.13500023
H        16.70068359     10.71931648     25.84068108
H        16.70068359     12.13068295     28.99931526
H        15.28931522     10.71931648     28.99931526
H        15.28931522     12.13068295     30.41068268
B        15.99499989     11.42499924     29.70499992
H        16.70068359     10.71931648     30.41068268
H        16.70068359     16.70068359      1.57931626
H        15.28931522     15.28931522      1.57931626
H        15.28931522     16.70068359      2.99068356
B        15.99499989     15.99499989      2.28499985
H        16.70068359     15.28931522      2.99068356
H        16.70068359     16.70068359      6.14931583
H        15.28931522     15.28931522      6.14931583
H        15.28931522     16.70068359      7.56068325
B        15.99499989     15.99499989      6.85500002
H        16.70068359     15.28931522      7.56068325
H        16.70068359     16.70068359     10.71931648
H        15.28931522     15.28931522     10.71931648
H        15.28931522     16.70068359     12.13068295
B        15.99499989     15.99499989     11.42499924
H        16.70068359     15.28931522     12.13068295
H        16.70068359     15.28931522     16.70068359
H        16.70068359     16.70068359     15.28931522
H        15.28931522     15.28931522     15.28931522
H        15.28931522     16.70068359     16.70068359
B        15.99499989     15.99499989     15.99499989
H        16.70068359     15.28931522     21.27068329
H        16.70068359     16.70068359     19.85931396
H        15.28931522     15.28931522     19.85931396
H        15.28931522     16.70068359     21.27068329
B        15.99499989     15.99499989     20.56499863
H        16.70068359     15.28931522     25.84068108
H        16.70068359     16.70068359     24.42931557
H        15.28931522     15.28931522     24.42931557
H        15.28931522     16.70068359     25.84068108
B        15.99499989     15.99499989     25.13500023
H        16.70068359     15.28931522     30.41068268
H        16.70068359     16.70068359     28.99931526
H        15.28931522     15.28931522     28.99931526
H        15.28931522     16.70068359     30.41068268
B        15.99499989     15.99499989     29.70499992
H        16.70068359     19.85931396      2.99068356
H        16.70068359     21.27068329      1.57931626
H        15.28931522     19.85931396      1.57931626
H        15.28931522     21.27068329      2.99068356
B        15.99499989     20.56499863      2.28499985
B        15.99499989     20.56499863      6.85500002
H        16.70068359     19.85931396      7.56068325
H        16.70068359     21.27068329      6.14931583
H        15.28931522     19.85931396      6.14931583
H        15.28931522     21.27068329      7.56068325
B        15.99499989     20.56499863     11.42499924
H        16.70068359     19.85931396     12.13068295
H        16.70068359     21.27068329     10.71931648
H        15.28931522     19.85931396     10.71931648
H        15.28931522     21.27068329     12.13068295
B        15.99499989     20.56499863     15.99499989
H        16.70068359     19.85931396     16.70068359
H        16.70068359     21.27068329     15.28931522
H        15.28931522     19.85931396     15.28931522
H        15.28931522     21.27068329     16.70068359
B        15.99499989     20.56499863     20.56499863
H        16.70068359     19.85931396     21.27068329
H        16.70068359     21.27068329     19.85931396
H        15.28931522     19.85931396     19.85931396
H        15.28931522     21.27068329     21.27068329
H        15.28931522     21.27068329     25.84068108
B        15.99499989     20.56499863     25.13500023
H        16.70068359     19.85931396     25.84068108
H        16.70068359     21.27068329     24.42931557
H        15.28931522     19.85931396     24.42931557
H        15.28931522     21.27068329     30.41068268
B        15.99499989     20.56499863     29.70499992
H        16.70068359     19.85931396     30.41068268
H        16.70068359     21.27068329     28.99931526
H        15.28931522     19.85931396     28.99931526
H        15.28931522     25.84068108      2.99068356
B        15.99499989     25.13500023      2.28499985
H        16.70068359     24.42931557      2.99068356
H        16.70068359     25.84068108      1.57931626
H        15.28931522     24.42931557      1.57931626
H        15.28931522     25.84068108      7.56068325
B        15.99499989     25.13500023      6.85500002
H        16.70068359     24.42931557      7.56068325
H        16.70068359     25.84068108      6.14931583
H        15.28931522     24.42931557      6.14931583
H        15.28931522     25.84068108     12.13068295
B        15.99499989     25.13500023     11.42499924
H        16.70068359     24.42931557     12.13068295
H        16.70068359     25.84068108     10.71931648
H        15.28931522     24.42931557     10.71931648
H        15.28931522     24.42931557     15.28931522
H        15.28931522     25.84068108     16.70068359
B        15.99499989     25.13500023     15.99499989
H        16.70068359     24.42931557     16.70068359
H        16.70068359     25.84068108     15.28931522
H        15.28931522     24.42931557     19.85931396
H        15.28931522     25.84068108     21.27068329
B        15.99499989     25.13500023     20.56499863
H        16.70068359     24.42931557     21.27068329
H        16.70068359     25.84068108     19.85931396
H        15.28931522     24.42931557     24.42931557
H        15.28931522     25.84068108     25.84068108
B        15.99499989     25.13500023     25.13500023
H        16.70068359     24.42931557     25.84068108
H        16.70068359     25.84068108     24.42931557
H        15.28931522     24.42931557     28.99931526
H        15.28931522     25.84068108     30.41068268
B        15.99499989     25.13500023     29.70499992
H        16.70068359     24.42931557     30.41068268
H        16.70068359     25.84068108     28.99931526
H        15.28931522     28.99931526      1.57931626
H        15.28931522     30.41068268      2.99068356
B        15.99499989     29.70499992      2.28499985
H        16.70068359     28.99931526      2.99068356
H        16.70068359     30.41068268      1.57931626
H        15.28931522     28.99931526      6.14931583
H        15.28931522     30.41068268      7.56068325
B        15.99499989     29.70499992      6.85500002
H        16.70068359     28.99931526      7.56068325
H        16.70068359     30.41068268      6.14931583
H        15.28931522     28.99931526     10.71931648
H        15.28931522     30.41068268     12.13068295
B        15.99499989     29.70499992     11.42499924
H        16.70068359     28.99931526     12.13068295
H        16.70068359     30.41068268     10.71931648
H        15.28931522     28.99931526     15.28931522
H        15.28931522     30.41068268     16.70068359
B        15.99499989     29.70499992     15.99499989
H        16.70068359     28.99931526     16.70068359
H        16.70068359     30.41068268     15.28931522
H        15.28931522     28.99931526     19.85931396
H        15.28931522     30.41068268     21.27068329
B        15.99499989     29.70499992     20.56499863
H        16.70068359     28.99931526     21.27068329
H        16.70068359     30.41068268     19.85931396
H        16.70068359     30.41068268     24.42931557
H        15.28931522     28.99931526     24.42931557
H        15.28931522     30.41068268     25.84068108
B        15.99499989     29.70499992     25.13500023
H        16.70068359     28.99931526     25.84068108
H        16.70068359     30.41068268     28.99931526
H        15.28931522     28.99931526     28.99931526
H        15.28931522     30.41068268     30.41068268
B        15.99499989     29.70499992     29.70499992
H        16.70068359     28.99931526     30.41068268
H        21.27068329      2.99068356      1.57931626
H        19.85931396      1.57931626      1.57931626
H        19.85931396      2.99068356      2.99068356
B        20.56499863      2.28499985      2.28499985
H        21.27068329      1.57931626      2.99068356
H        21.27068329      2.99068356      6.14931583
H        19.85931396      1.57931626      6.14931583
H        19.85931396      2.99068356      7.56068325
B        20.56499863      2.28499985      6.85500002
H        21.27068329      1.57931626      7.56068325
H        21.27068329      2.99068356     10.71931648
H        19.85931396      1.57931626     10.71931648
H        19.85931396      2.99068356     12.13068295
B        20.56499863      2.28499985     11.42499924
H        21.27068329      1.57931626     12.13068295
H        21.27068329      2.99068356     15.28931522
H        19.85931396      1.57931626     15.28931522
H        19.85931396      2.99068356     16.70068359
B        20.56499863      2.28499985     15.99499989
H        21.27068329      1.57931626     16.70068359
H        21.27068329      2.99068356     19.85931396
H        19.85931396      1.57931626     19.85931396
H        19.85931396      2.99068356     21.27068329
B        20.56499863      2.28499985     20.56499863
H        21.27068329      1.57931626     21.27068329
H        21.27068329      2.99068356     24.42931557
H        19.85931396      1.57931626     24.42931557
H        19.85931396      2.99068356     25.84068108
B        20.56499863      2.28499985     25.13500023
H        21.27068329      1.57931626     25.84068108
H        21.27068329      2.99068356     28.99931526
H        19.85931396      1.57931626     28.99931526
H        19.85931396      2.99068356     30.41068268
B        20.56499863      2.28499985     29.70499992
H        21.27068329      1.57931626     30.41068268
H        21.27068329      6.14931583      2.99068356
H        21.27068329      7.56068325      1.57931626
H        19.85931396      6.14931583      1.57931626
H        19.85931396      7.56068325      2.99068356
B        20.56499863      6.85500002      2.28499985
H        21.27068329      6.14931583      7.56068325
H        21.27068329      7.56068325      6.14931583
H        19.85931396      6.14931583      6.14931583
H        19.85931396      7.56068325      7.56068325
B        20.56499863      6.85500002      6.85500002
H        21.27068329      6.14931583     12.13068295
H        21.27068329      7.56068325     10.71931648
H        19.85931396      6.14931583     10.71931648
H        19.85931396      7.56068325     12.13068295
B        20.56499863      6.85500002     11.42499924
H        21.27068329      6.14931583     16.70068359
H        21.27068329      7.56068325     15.28931522
H        19.85931396      6.14931583     15.28931522
H        19.85931396      7.56068325     16.70068359
B        20.56499863      6.85500002     15.99499989
H        21.27068329      6.14931583     21.27068329
H        21.27068329      7.56068325     19.85931396
H        19.85931396      6.14931583     19.85931396
H        19.85931396      7.56068325     21.27068329
B        20.56499863      6.85500002     20.56499863
B        20.56499863      6.85500002     25.13500023
H        21.27068329      6.14931583     25.84068108
H        21.27068329      7.56068325     24.42931557
H        19.85931396      6.14931583     24.42931557
H        19.85931396      7.56068325     25.84068108
B        20.56499863      6.85500002     29.70499992
H        21.27068329      6.14931583     30.41068268
H        21.27068329      7.56068325     28.99931526
H        19.85931396      6.14931583     28.99931526
H        19.85931396      7.56068325     30.41068268
B        20.56499863     11.42499924      2.28499985
H        21.27068329     10.71931648      2.99068356
H        21.27068329     12.13068295      1.57931626
H        19.85931396     10.71931648      1.57931626
H        19.85931396     12.13068295      2.99068356
B        20.56499863     11.42499924      6.85500002
H        21.27068329     10.71931648      7.56068325
H        21.27068329     12.13068295      6.14931583
H        19.85931396     10.71931648      6.14931583
H        19.85931396     12.13068295      7.56068325
H        19.85931396     12.13068295     12.13068295
B        20.56499863     11.42499924     11.42499924
H        21.27068329     10.71931648     12.13068295
H        21.27068329     12.13068295     10.71931648
H        19.85931396     10.71931648     10.71931648
H        19.85931396     12.13068295     16.70068359
B        20.56499863     11.42499924     15.99499989
H        21.27068329     10.71931648     16.70068359
H        21.27068329     12.13068295     15.28931522
H        19.85931396     10.71931648     15.28931522
H        19.85931396     12.13068295     21.27068329
B        20.56499863     11.42499924     20.56499863
H        21.27068329     10.71931648     21.27068329
H        21.27068329     12.13068295     19.85931396
H        19.85931396     10.71931648     19.85931396
H        19.85931396     12.13068295     25.84068108
B        20.56499863     11.42499924     25.13500023
H        21.27068329     10.71931648     25.84068108
H        21.27068329     12.13068295     24.42931557
H        19.85931396     10.71931648     24.42931557
H        19.85931396     12.13068295     30.41068268
B        20.56499863     11.42499924     29.70499992
H        21.27068329     10.71931648     30.41068268
H        21.27068329     12.13068295     28.99931526
H        19.85931396     10.71931648     28.99931526
H        19.85931396     15.28931522      1.57931626
H        19.85931396     16.70068359      2.99068356
B        20.56499863     15.99499989      2.28499985
H        21.27068329     15.28931522      2.99068356
H        21.27068329     16.70068359      1.57931626
H        19.85931396     15.28931522      6.14931583
H        19.85931396     16.70068359      7.56068325
B        20.56499863     15.99499989      6.85500002
H        21.27068329     15.28931522      7.56068325
H        21.27068329     16.70068359      6.14931583
H        19.85931396     15.28931522     10.71931648
H        19.85931396     16.70068359     12.13068295
B        20.56499863     15.99499989     11.42499924
H        21.27068329     15.28931522     12.13068295
H        21.27068329     16.70068359     10.71931648
H        19.85931396     15.28931522     15.28931522
H        19.85931396     16.70068359     16.70068359
B        20.56499863     15.99499989     15.99499989
H        21.27068329     15.28931522     16.70068359
H        21.27068329     16.70068359     15.28931522
H        19.85931396     15.28931522     19.85931396
H        19.85931396     16.70068359     21.27068329
B        20.56499863     15.99499989     20.56499863
H        21.27068329     15.28931522     21.27068329
H        21.27068329     16.70068359     19.85931396
H        19.85931396     15.28931522     24.42931557
H        19.85931396     16.70068359     25.84068108
B        20.56499863     15.99499989     25.13500023
H        21.27068329     15.28931522     25.84068108
H        21.27068329     16.70068359     24.42931557
H        19.85931396     15.28931522     28.99931526
H        19.85931396     16.70068359     30.41068268
B        20.56499863     15.99499989     29.70499992
H        21.27068329     15.28931522     30.41068268
H        21.27068329     16.70068359     28.99931526
H        19.85931396     19.85931396      1.57931626
H        19.85931396     21.27068329      2.99068356
B        20.56499863     20.56499863      2.28499985
H        21.27068329     19.85931396      2.99068356
H        21.27068329     21.27068329      1.57931626
H        19.85931396     19.85931396      6.14931583
H        19.85931396     21.27068329      7.56068325
B        20.56499863     20.56499863      6.85500002
H        21.27068329     19.85931396      7.56068325
H        21.27068329     21.27068329      6.14931583
H        21.27068329     21.27068329     10.71931648
H        19.85931396     19.85931396     10.71931648
H        19.85931396     21.27068329     12.13068295
B        20.56499863     20.56499863     11.42499924
H        21.27068329     19.85931396     12.13068295
H        21.27068329     21.27068329     15.28931522
H        19.85931396     19.85931396     15.28931522
H        19.85931396     21.27068329     16.70068359
B        20.56499863     20.56499863     15.99499989
H        21.27068329     19.85931396     16.70068359
H        21.27068329     21.27068329     19.85931396
H        19.85931396     19.85931396     19.85931396
H        19.85931396     21.27068329     21.27068329
B        20.56499863     20.56499863     20.56499863
H        21.27068329     19.85931396     21.27068329
H        21.27068329     21.27068329     24.42931557
H        19.85931396     19.85931396     24.42931557
H        19.85931396     21.27068329     25.84068108
B        20.56499863     20.56499863     25.13500023
H        21.27068329     19.85931396     25.84068108
H        21.27068329     21.27068329     28.99931526
H        19.85931396     19.85931396     28.99931526
H        19.85931396     21.27068329     30.41068268
B        20.56499863     20.56499863     29.70499992
H        21.27068329     19.85931396     30.41068268
H        21.27068329     25.84068108      1.57931626
H        19.85931396     24.42931557      1.57931626
H        19.85931396     25.84068108      2.99068356
B        20.56499863     25.13500023      2.28499985
H        21.27068329     24.42931557      2.99068356
H        21.27068329     25.84068108      6.14931583
H        19.85931396     24.42931557      6.14931583
H        19.85931396     25.84068108      7.56068325
B        20.56499863     25.13500023      6.85500002
H        21.27068329     24.42931557      7.56068325
H        21.27068329     25.84068108     10.71931648
H        19.85931396     24.42931557     10.71931648
H        19.85931396     25.84068108     12.13068295
B        20.56499863     25.13500023     11.42499924
H        21.27068329     24.42931557     12.13068295
H        21.27068329     25.84068108     15.28931522
H        19.85931396     24.42931557     15.28931522
H        19.85931396     25.84068108     16.70068359
B        20.56499863     25.13500023     15.99499989
H        21.27068329     24.42931557     16.70068359
H        21.27068329     24.42931557     21.27068329
H        21.27068329     25.84068108     19.85931396
H        19.85931396     24.42931557     19.85931396
H        19.85931396     25.84068108     21.27068329
B        20.56499863     25.13500023     20.56499863
H        21.27068329     24.42931557     25.84068108
H        21.27068329     25.84068108     24.42931557
H        19.85931396     24.42931557     24.42931557
H        19.85931396     25.84068108     25.84068108
B        20.56499863     25.13500023     25.13500023
H        21.27068329     24.42931557     30.41068268
H        21.27068329     25.84068108     28.99931526
H        19.85931396     24.42931557     28.99931526
H        19.85931396     25.84068108     30.41068268
B        20.56499863     25.13500023     29.70499992
H        21.27068329     28.99931526      2.99068356
H        21.27068329     30.41068268      1.57931626
H        19.85931396     28.99931526      1.57931626
H        19.85931396     30.41068268      2.99068356
B        20.56499863     29.70499992      2.28499985
H        21.27068329     28.99931526      7.56068325
H        21.27068329     30.41068268      6.14931583
H        19.85931396     28.99931526      6.14931583
H        19.85931396     30.41068268      7.56068325
B        20.56499863     29.70499992      6.85500002
B        20.56499863     29.70499992     11.42499924
H        21.27068329     28.99931526     12.13068295
H        21.27068329     30.41068268     10.71931648
H        19.85931396     28.99931526     10.71931648
H        19.85931396     30.41068268     12.13068295
B        20.56499863     29.70499992     15.99499989
H        21.27068329     28.99931526     16.70068359
H        21.27068329     30.41068268     15.28931522
H        19.85931396     28.99931526     15.28931522
H        19.85931396     30.41068268     16.70068359
B        20.56499863     29.70499992     20.56499863
H        21.27068329     28.99931526     21.27068329
H        21.27068329     30.41068268     19.85931396
H        19.85931396     28.99931526     19.85931396
H        19.85931396     30.41068268     21.27068329
B        20.56499863     29.70499992     25.13500023
H        21.27068329     28.99931526     25.84068108
H        21.27068329     30.41068268     24.42931557
H        19.85931396     28.99931526     24.42931557
H        19.85931396     30.41068268     25.84068108
H        19.85931396     30.41068268     30.41068268
B        20.56499863     29.70499992     29.70499992
H        21.27068329     28.99931526     30.41068268
H        21.27068329     30.41068268     28.99931526
H        19.85931396     28.99931526     28.99931526
H        24.42931557      2.99068356      2.99068356
B        25.13500023      2.28499985      2.28499985
H        25.84068108      1.57931626      2.99068356
H        25.84068108      2.99068356      1.57931626
H        24.42931557      1.57931626      1.57931626
H        24.42931557      2.99068356      7.56068325
B        25.13500023      2.28499985      6.85500002
H        25.84068108      1.57931626      7.56068325
H        25.84068108      2.99068356      6.14931583
H        24.42931557      1.57931626      6.14931583
H        24.42931557      2.99068356     12.13068295
B        25.13500023      2.28499985     11.42499924
H        25.84068108      1.57931626     12.13068295
H        25.84068108      2.99068356     10.71931648
H        24.42931557      1.57931626     10.71931648
H        24.42931557      2.99068356     16.70068359
B        25.13500023      2.28499985     15.99499989
H        25.84068108      1.57931626     16.70068359
H        25.84068108      2.99068356     15.28931522
H        24.42931557      1.57931626     15.28931522
H        24.42931557      1.57931626     19.85931396
H        24.42931557      2.99068356     21.27068329
B        25.13500023      2.28499985     20.56499863
H        25.84068108      1.57931626     21.27068329
H        25.84068108      2.99068356     19.85931396
H        24.42931557      1.57931626     24.42931557
H        24.42931557      2.99068356     25.84068108
B        25.13500023      2.28499985     25.13500023
H        25.84068108      1.57931626     25.84068108
H        25.84068108      2.99068356     24.42931557
H        24.42931557      1.57931626     28.99931526
H        24.42931557      2.99068356     30.41068268
B        25.13500023      2.28499985     29.70499992
H        25.84068108      1.57931626     30.41068268
H        25.84068108      2.99068356     28.99931526
H        24.42931557      6.14931583      1.57931626
H        24.42931557      7.56068325      2.99068356
B        25.13500023      6.85500002      2.28499985
H        25.84068108      6.14931583      2.99068356
H        25.84068108      7.56068325      1.57931626
H        24.42931557      6.14931583      6.14931583
H        24.42931557      7.56068325      7.56068325
B        25.13500023      6.85500002      6.85500002
H        25.84068108      6.14931583      7.56068325
H        25.84068108      7.56068325      6.14931583
H        24.42931557      6.14931583     10.71931648
H        24.42931557      7.56068325     12.13068295
B        25.13500023      6.85500002     11.42499924
H        25.84068108      6.14931583     12.13068295
H        25.84068108      7.56068325     10.71931648
H        24.42931557      6.14931583     15.28931522
H        24.42931557      7.56068325     16.70068359
B        25.13500023      6.85500002     15.99499989
H        25.84068108      6.14931583     16.70068359
H        25.84068108      7.56068325     15.28931522
H        24.42931557      6.14931583     19.85931396
H        24.42931557      7.56068325     21.27068329
B        25.13500023      6.85500002     20.56499863
H        25.84068108      6.14931583     21.27068329
H        25.84068108      7.56068325     19.85931396
H        24.42931557      6.14931583     24.42931557
H        24.42931557      7.56068325     25.84068108
B        25.13500023      6.85500002     25.13500023
H        25.84068108      6.14931583     25.84068108
H        25.84068108      7.56068325     24.42931557
H        25.84068108      7.56068325     28.99931526
H        24.42931557      6.14931583     28.99931526
H        24.42931557      7.56068325     30.41068268
B        25.13500023      6.85500002     29.70499992
H        25.84068108      6.14931583     30.41068268
H        25.84068108     12.13068295      1.57931626
H        24.42931557     10.71931648      1.57931626
H        24.42931557     12.13068295      2.99068356
B        25.13500023     11.42499924      2.28499985
H        25.84068108     10.71931648      2.99068356
H        25.84068108     12.13068295      6.14931583
H        24.42931557     10.71931648      6.14931583
H        24.42931557     12.13068295      7.56068325
B        25.13500023     11.42499924      6.85500002
H        25.84068108     10.71931648      7.56068325
H        25.84068108     12.13068295     10.71931648
H        24.42931557     10.71931648     10.71931648
H        24.42931557     12.13068295     12.13068295
B        25.13500023     11.42499924     11.42499924
H        25.84068108     10.71931648     12.13068295
H        25.84068108     12.13068295     15.28931522
H        24.42931557     10.71931648     15.28931522
H        24.42931557     12.13068295     16.70068359
B        25.13500023     11.42499924     15.99499989
H        25.84068108     10.71931648     16.70068359
H        25.84068108     12.13068295     19.85931396
H        24.42931557     10.71931648     19.85931396
H        24.42931557     12.13068295     21.27068329
B        25.13500023     11.42499924     20.56499863
H        25.84068108     10.71931648     21.27068329
H        25.84068108     12.13068295     24.42931557
H        24.42931557     10.71931648     24.42931557
H        24.42931557     12.13068295     25.84068108
B        25.13500023     11.42499924     25.13500023
H        25.84068108     10.71931648     25.84068108
H        25.84068108     12.13068295     28.99931526
H        24.42931557     10.71931648     28.99931526
H        24.42931557     12.13068295     30.41068268
B        25.13500023     11.42499924     29.70499992
H        25.84068108     10.71931648     30.41068268
H        25.84068108     16.70068359      1.57931626
H        24.42931557     15.28931522      1.57931626
H        24.42931557     16.70068359      2.99068356
B        25.13500023     15.99499989      2.28499985
H        25.84068108     15.28931522      2.99068356
H        25.84068108     15.28931522      7.56068325
H        25.84068108     16.70068359      6.14931583
H        24.42931557     15.28931522      6.14931583
H        24.42931557     16.70068359      7.56068325
B        25.13500023     15.99499989      6.85500002
H        25.84068108     15.28931522     12.13068295
H        25.84068108     16.70068359     10.71931648
H        24.42931557     15.28931522     10.71931648
H        24.42931557     16.70068359     12.13068295
B        25.13500023     15.99499989     11.42499924
H        25.84068108     15.28931522     16.70068359
H        25.84068108     16.70068359     15.28931522
H        24.42931557     15.28931522     15.28931522
H        24.42931557     16.70068359     16.70068359
B        25.13500023     15.99499989     15.99499989
H        25.84068108     15.28931522     21.27068329
H        25.84068108     16.70068359     19.85931396
H        24.42931557     15.28931522     19.85931396
H        24.42931557     16.70068359     21.27068329
B        25.13500023     15.99499989     20.56499863
H        25.84068108     15.28931522     25.84068108
H        25.84068108     16.70068359     24.42931557
H        24.42931557     15.28931522     24.42931557
H        24.42931557     16.70068359     25.84068108
B        25.13500023     15.99499989     25.13500023
B        25.13500023     15.99499989     29.70499992
H        25.84068108     15.28931522     30.41068268
H        25.84068108     16.70068359     28.99931526
H        24.42931557     15.28931522     28.99931526
H        24.42931557     16.70068359     30.41068268
B        25.13500023     20.56499863      2.28499985
H        25.84068108     19.85931396      2.99068356
H        25.84068108     21.27068329      1.57931626
H        24.42931557     19.85931396      1.57931626
H        24.42931557     21.27068329      2.99068356
B        25.13500023     20.56499863      6.85500002
H        25.84068108     19.85931396      7.56068325
H        25.84068108     21.27068329      6.14931583
H        24.42931557     19.85931396      6.14931583
H        24.42931557     21.27068329      7.56068325
B        25.13500023     20.56499863     11.42499924
H        25.84068108     19.85931396     12.13068295
H        25.84068108     21.27068329     10.71931648
H        24.42931557     19.85931396     10.71931648
H        24.42931557     21.27068329     12.13068295
H        24.42931557     21.27068329     16.70068359
B        25.13500023     20.56499863     15.99499989
H        25.84068108     19.85931396     16.70068359
H        25.84068108     21.27068329     15.28931522
H        24.42931557     19.85931396     15.28931522
H        24.42931557     21.27068329     21.27068329
B        25.13500023     20.56499863     20.56499863
H        25.84068108     19.85931396     21.27068329
H        25.84068108     21.27068329     19.85931396
H        24.42931557     19.85931396     19.85931396
H        24.42931557     21.27068329     25.84068108
B        25.13500023     20.56499863     25.13500023
H        25.84068108     19.85931396     25.84068108
H        25.84068108     21.27068329     24.42931557
H        24.42931557     19.85931396     24.42931557
H        24.42931557     21.27068329     30.41068268
B        25.13500023     20.56499863     29.70499992
H        25.84068108     19.85931396     30.41068268
H        25.84068108     21.27068329     28.99931526
H        24.42931557     19.85931396     28.99931526
H        24.42931557     25.84068108      2.99068356
B        25.13500023     25.13500023      2.28499985
H        25.84068108     24.42931557      2.99068356
H        25.84068108     25.84068108      1.57931626
H        24.42931557     24.42931557      1.57931626
H        24.42931557     24.42931557      6.14931583
H        24.42931557     25.84068108      7.56068325
B        25.13500023     25.13500023      6.85500002
H        25.84068108     24.42931557      7.56068325
H        25.84068108     25.84068108      6.14931583
H        24.42931557     24.42931557     10.71931648
H        24.42931557     25.84068108     12.13068295
B        25.13500023     25.13500023     11.42499924
H        25.84068108     24.42931557     12.13068295
H        25.84068108     25.84068108     10.71931648
H        24.42931557     24.42931557     15.28931522
H        24.42931557     25.84068108     16.70068359
B        25.13500023     25.13500023     15.99499989
H        25.84068108     24.42931557     16.70068359
H        25.84068108     25.84068108     15.28931522
H        24.42931557     24.42931557     19.85931396
H        24.42931557     25.84068108     21.27068329
B        25.13500023     25.13500023     20.56499863
H        25.84068108     24.42931557     21.27068329
H        25.84068108     25.84068108     19.85931396
H        24.42931557     24.42931557     24.42931557
H        24.42931557     25.84068108     25.84068108
B        25.13500023     25.13500023     25.13500023
H        25.84068108     24.42931557     25.84068108
H        25.84068108     25.84068108     24.42931557
H        24.42931557     24.42931557     28.99931526
H        24.42931557     25.84068108     30.41068268
B        25.13500023     25.13500023     29.70499992
H        25.84068108     24.42931557     30.41068268
H        25.84068108     25.84068108     28.99931526
H        24.42931557     28.99931526      1.57931626
H        24.42931557     30.41068268      2.99068356
B        25.13500023     29.70499992      2.28499985
H        25.84068108     28.99931526      2.99068356
H        25.84068108     30.41068268      1.57931626
H        24.42931557     28.99931526      6.14931583
H        24.42931557     30.41068268      7.56068325
B        25.13500023     29.70499992      6.85500002
H        25.84068108     28.99931526      7.56068325
H        25.84068108     30.41068268      6.14931583
H        24.42931557     28.99931526     10.71931648
H        24.42931557     30.41068268     12.13068295
B        25.13500023     29.70499992     11.42499924
H        25.84068108     28.99931526     12.13068295
H        25.84068108     30.41068268     10.71931648
H        25.84068108     30.41068268     15.28931522
H        24.42931557     28.99931526     15.28931522
H        24.42931557     30.41068268     16.70068359
B        25.13500023     29.70499992     15.99499989
H        25.84068108     28.99931526     16.70068359
H        25.84068108     30.41068268     19.85931396
H        24.42931557     28.99931526     19.85931396
H        24.42931557     30.41068268     21.27068329
B        25.13500023     29.70499992     20.56499863
H        25.84068108     28.99931526     21.27068329
H        25.84068108     30.41068268     24.42931557
H        24.42931557     28.99931526     24.42931557
H        24.42931557     30.41068268     25.84068108
B        25.13500023     29.70499992     25.13500023
H        25.84068108     28.99931526     25.84068108
H        25.84068108     30.41068268     28.99931526
H        24.42931557     28.99931526     28.99931526
H        24.42931557     30.41068268     30.41068268
B        25.13500023     29.70499992     29.70499992
H        25.84068108     28.99931526     30.41068268
H        30.41068268      2.99068356      1.57931626
H        28.99931526      1.57931626      1.57931626
H        28.99931526      2.99068356      2.99068356
B        29.70499992      2.28499985      2.28499985
H        30.41068268      1.57931626      2.99068356
H        30.41068268      2.99068356      6.14931583
H        28.99931526      1.57931626      6.14931583
H        28.99931526      2.99068356      7.56068325
B        29.70499992      2.28499985      6.85500002
H        30.41068268      1.57931626      7.56068325
H        30.41068268      2.99068356     10.71931648
H        28.99931526      1.57931626     10.71931648
H        28.99931526      2.99068356     12.13068295
B        29.70499992      2.28499985     11.42499924
H        30.41068268      1.57931626     12.13068295
H        30.41068268      2.99068356     15.28931522
H        28.99931526      1.57931626     15.28931522
H        28.99931526      2.99068356     16.70068359
B        29.70499992      2.28499985     15.99499989
H        30.41068268      1.57931626     16.70068359
H        30.41068268      2.99068356     19.85931396
H        28.99931526      1.57931626     19.85931396
H        28.99931526      2.99068356     21.27068329
B        29.70499992      2.28499985     20.56499863
H        30.41068268      1.57931626     21.27068329
H        30.41068268      1.57931626     25.84068108
H        30.41068268      2.99068356     24.42931557
H        28.99931526      1.57931626     24.42931557
H        28.99931526      2.99068356     25.84068108
B        29.70499992      2.28499985     25.13500023
H        30.41068268      1.57931626     30.41068268
H        30.41068268      2.99068356     28.99931526
H        28.99931526      1.57931626     28.99931526
H        28.99931526      2.99068356     30.41068268
B        29.70499992      2.28499985     29.70499992
H        30.41068268      6.14931583      2.99068356
H        30.41068268      7.56068325      1.57931626
H        28.99931526      6.14931583      1.57931626
H        28.99931526      7.56068325      2.99068356
B        29.70499992      6.85500002      2.28499985
H        30.41068268      6.14931583      7.56068325
H        30.41068268      7.56068325      6.14931583
H        28.99931526      6.14931583      6.14931583
H        28.99931526      7.56068325      7.56068325
B        29.70499992      6.85500002      6.85500002
H        30.41068268      6.14931583     12.13068295
H        30.41068268      7.56068325     10.71931648
H        28.99931526      6.14931583     10.71931648
H        28.99931526      7.56068325     12.13068295
B        29.70499992      6.85500002     11.42499924
B        29.70499992      6.85500002     15.99499989
H        30.41068268      6.14931583     16.70068359
H        30.41068268      7.56068325     15.28931522
H        28.99931526      6.14931583     15.28931522
H        28.99931526      7.56068325     16.70068359
B        29.70499992      6.85500002     20.56499863
H        30.41068268      6.14931583     21.27068329
H        30.41068268      7.56068325     19.85931396
H        28.99931526      6.14931583     19.85931396
H        28.99931526      7.56068325     21.27068329
B        29.70499992      6.85500002     25.13500023
H        30.41068268      6.14931583     25.84068108
H        30.41068268      7.56068325     24.42931557
H        28.99931526      6.14931583     24.42931557
H        28.99931526      7.56068325     25.84068108
B        29.70499992      6.85500002     29.70499992
H        30.41068268      6.14931583     30.41068268
H        30.41068268      7.56068325     28.99931526
H        28.99931526      6.14931583     28.99931526
H        28.99931526      7.56068325     30.41068268
H        28.99931526     12.13068295      2.99068356
B        29.70499992     11.42499924      2.28499985
H        30.41068268     10.71931648      2.99068356
H        30.41068268     12.13068295      1.57931626
H        28.99931526     10.71931648      1.57931626
H        28.99931526     12.13068295      7.56068325
B        29.70499992     11.42499924      6.85500002
H        30.41068268     10.71931648      7.56068325
H        30.41068268     12.13068295      6.14931583
H        28.99931526     10.71931648      6.14931583
H        28.99931526     12.13068295     12.13068295
B        29.70499992     11.42499924     11.42499924
H        30.41068268     10.71931648     12.13068295
H        30.41068268     12.13068295     10.71931648
H        28.99931526     10.71931648     10.71931648
H        28.99931526     12.13068295     16.70068359
B        29.70499992     11.42499924     15.99499989
H        30.41068268     10.71931648     16.70068359
H        30.41068268     12.13068295     15.28931522
H        28.99931526     10.71931648     15.28931522
H        28.99931526     12.13068295     21.27068329
B        29.70499992     11.42499924     20.56499863
H        30.41068268     10.71931648     21.27068329
H        30.41068268     12.13068295     19.85931396
H        28.99931526     10.71931648     19.85931396
H        28.99931526     10.71931648     24.42931557
H        28.99931526     12.13068295     25.84068108
B        29.70499992     11.42499924     25.13500023
H        30.41068268     10.71931648     25.84068108
H        30.41068268     12.13068295     24.42931557
H        28.99931526     10.71931648     28.99931526
H        28.99931526     12.13068295     30.41068268
B        29.70499992     11.42499924     29.70499992
H        30.41068268     10.71931648     30.41068268
H        30.41068268     12.13068295     28.99931526
H        28.99931526     15.28931522      1.57931626
H        28.99931526     16.70068359      2.99068356
B        29.70499992     15.99499989      2.28499985
H        30.41068268     15.28931522      2.99068356
H        30.41068268     16.70068359      1.57931626
H        28.99931526     15.28931522      6.14931583
H        28.99931526     16.70068359      7.56068325
B        29.70499992     15.99499989      6.85500002
H        30.41068268     15.28931522      7.56068325
H        30.41068268     16.70068359      6.14931583
H        28.99931526     15.28931522     10.71931648
H        28.99931526     16.70068359     12.13068295
B        29.70499992     15.99499989     11.42499924
H        30.41068268     15.28931522     12.13068295
H        30.41068268     16.70068359     10.71931648
H        28.99931526     15.28931522     15.28931522
H        28.99931526     16.70068359     16.70068359
B        29.70499992     15.99499989     15.99499989
H        30.41068268     15.28931522     16.70068359
H        30.41068268     16.70068359     15.28931522
H        28.99931526     15.28931522     19.85931396
H        28.99931526     16.70068359     21.27068329
B        29.70499992     15.99499989     20.56499863
H        30.41068268     15.28931522     21.27068329
H        30.41068268     16.70068359     19.85931396
H        28.99931526     15.28931522     24.42931557
H        28.99931526     16.70068359     25.84068108
B        29.70499992     15.99499989     25.13500023
H        30.41068268     15.28931522     25.84068108
H        30.41068268     16.70068359     24.42931557
H        28.99931526     15.28931522     28.99931526
H        28.99931526     16.70068359     30.41068268
B        29.70499992     15.99499989     29.70499992
H        30.41068268     15.28931522     30.41068268
H        30.41068268     16.70068359     28.99931526
H        30.41068268     21.27068329      1.57931626
H        28.99931526     19.85931396      1.57931626
H        28.99931526     21.27068329      2.99068356
B        29.70499992     20.56499863      2.28499985
H        30.41068268     19.85931396      2.99068356
H        30.41068268     21.27068329      6.14931583
H        28.99931526     19.85931396      6.14931583
H        28.99931526     21.27068329      7.56068325
B        29.70499992     20.56499863      6.85500002
H        30.41068268     19.85931396      7.56068325
H        30.41068268     21.27068329     10.71931648
H        28.99931526     19.85931396     10.71931648
H        28.99931526     21.27068329     12.13068295
B        29.70499992     20.56499863     11.42499924
H        30.41068268     19.85931396     12.13068295
H        30.41068268     21.27068329     15.28931522
H        28.99931526     19.85931396     15.28931522
H        28.99931526     21.27068329     16.70068359
B        29.70499992     20.56499863     15.99499989
H        30.41068268     19.85931396     16.70068359
H        30.41068268     21.27068329     19.85931396
H        28.99931526     19.85931396     19.85931396
H        28.99931526     21.27068329     21.27068329
B        29.70499992     20.56499863     20.56499863
H        30.41068268     19.85931396     21.27068329
H        30.41068268     21.27068329     24.42931557
H        28.99931526     19.85931396     24.42931557
H        28.99931526     21.27068329     25.84068108
B        29.70499992     20.56499863     25.13500023
H        30.41068268     19.85931396     25.84068108
H        30.41068268     21.27068329     28.99931526
H        28.99931526     19.85931396     28.99931526
H        28.99931526     21.27068329     30.41068268
B        29.70499992     20.56499863     29.70499992
H        30.41068268     19.85931396     30.41068268
H        30.41068268     25.84068108      1.57931626
H        28.99931526     24.42931557      1.57931626
H        28.99931526     25.84068108      2.99068356
B        29.70499992     25.13500023      2.28499985
H        30.41068268     24.42931557      2.99068356
H        30.41068268     25.84068108      6.14931583
H        28.99931526     24.42931557      6.14931583
H        28.99931526     25.84068108      7.56068325
B        29.70499992     25.13500023      6.85500002
H        30.41068268     24.42931557      7.56068325
H        30.41068268     24.42931557     12.13068295
H        30.41068268     25.84068108     10.71931648
H        28.99931526     24.42931557     10.71931648
H        28.99931526     25.84068108     12.13068295
B        29.70499992     25.13500023     11.42499924
H        30.41068268     24.42931557     16.70068359
H        30.41068268     25.84068108     15.28931522
H        28.99931526     24.42931557     15.28931522
H        28.99931526     25.84068108     16.70068359
B        29.70499992     25.13500023     15.99499989
H        30.41068268     24.42931557     21.27068329
H        30.41068268     25.84068108     19.85931396
H        28.99931526     24.42931557     19.85931396
H        28.99931526     25.84068108     21.27068329
B        29.70499992     25.13500023     20.56499863
H        30.41068268     24.42931557     25.84068108
H        30.41068268     25.84068108     24.42931557
H        28.99931526     24.42931557     24.42931557
H        28.99931526     25.84068108     25.84068108
B        29.70499992     25.13500023     25.13500023
H        30.41068268     24.42931557     30.41068268
H        30.41068268     25.84068108     28.99931526
H        28.99931526     24.42931557     28.99931526
H        28.99931526     25.84068108     30.41068268
B        29.70499992     25.13500023     29.70499992
B        29.70499992     29.70499992      2.28499985
H        30.41068268     28.99931526      2.99068356
H        30.41068268     30.41068268      1.57931626
H        28.99931526     28.99931526      1.57931626
H        28.99931526     30.41068268      2.99068356
B        29.70499992     29.70499992      6.85500002
H        30.41068268     28.99931526      7.56068325
H        30.41068268     30.41068268      6.14931583
H        28.99931526     28.99931526      6.14931583
H        28.99931526     30.41068268      7.56068325
B        29.70499992     29.70499992     11.42499924
H        30.41068268     28.99931526     12.13068295
H        30.41068268     30.41068268     10.71931648
H        28.99931526     28.99931526     10.71931648
H        28.99931526     30.41068268     12.13068295
B        29.70499992     29.70499992     15.99499989
H        30.41068268     28.99931526     16.70068359
H        30.41068268     30.41068268     15.28931522
H        28.99931526     28.99931526     15.28931522
H        28.99931526     30.41068268     16.70068359
H        28.99931526     30.41068268     21.27068329
B        29.70499992     29.70499992     20.56499863
H        30.41068268     28.99931526     21.27068329
H        30.41068268     30.41068268     19.85931396
H        28.99931526     28.99931526     19.85931396
H        28.99931526     30.41068268     25.84068108
B        29.70499992     29.70499992     25.13500023
H        30.41068268     28.99931526     25.84068108
H        30.41068268     30.41068268     24.42931557
H        28.99931526     28.99931526     24.42931557
H        28.99931526     30.41068268     30.41068268
B        29.70499992     29.70499992     29.70499992
H        30.41068268     28.99931526     30.41068268
H        30.41068268     30.41068268     28.99931526
H        28.99931526     28.99931526     28.99931526
