3075

Na        2.20715880     -0.25226036      4.75920200
Na        2.30088782      0.02828363      9.27298355
Na        2.46100044     -0.22044413     13.50680447
Na        2.31487465     -0.21718557     18.42008972
Na        2.25007796     -0.19766957     22.78820419
Na        2.31835914      0.13689786     27.38485909
Na        2.29927945     -0.60026658     31.94649887
Na        2.21213889      4.61531544      9.16829205
Na        2.28448009      4.64834595     13.33929825
Na        2.27578473      4.70758915     18.29848099
Na        2.41613841      4.43513250     22.75656509
Na        2.25956511      4.15848827     27.28422737
Na        2.23296213      4.47236967     31.91568947
Na       -0.06790098      6.83795118      4.55629873
Na        2.14752984      9.26347733      9.21432304
Na        2.32378125      8.76225758     13.87665749
Na        2.24729085      8.86994362     18.50541687
Na        2.37545729      9.08552361     22.86935806
Na        2.16070533      9.10343075     27.31864738
Na       -0.02542973      9.15245628     34.16045380
Na        2.27419257     13.79400539      4.50000429
Na        2.16896844     13.77261829      9.35414505
Na        2.52851653     13.91720963     13.86054230
Na        2.08794093     13.94929504     18.10144424
Na        2.42447424     13.89126110     23.05361176
Na        2.39643431     13.84087086     27.43194580
Na        2.30114245     13.35352802     32.20088959
Na        2.30760860     18.50447464      4.57159185
Na        2.30077934     18.23757362      9.23465347
Na        2.32113338     18.10598183     14.09716320
Na        0.30504668     18.02906227     20.44957352
Na        2.28316069     18.36897087     22.72075844
Na        2.28373313     18.35523415     27.28917122
Na        2.52278543     18.20785713     32.00102234
Na        2.41164565     22.88981438      4.72669697
Na        2.20944619     22.65673828      9.43798733
Na        0.25000054     24.85733032     13.80349445
Na        2.09030294     22.66286659     18.15295792
Na        2.34193540     22.86769295     22.49668121
Na        2.37871957     22.95103645     27.45787239
Na        2.41973901     22.98709679     31.79346848
Na        4.75063372     25.00651360      4.78145742
Na        2.39894104     27.35876656      8.65953255
Na       -0.10473522     27.34257317     11.62161160
Na        2.45240164     27.12215996     18.03593063
Na        2.39566708     27.41841698     22.77539825
Na        2.42621875     27.52768517     27.52685738
Na        2.13778424     27.27004623     32.01825333
Na        6.94235039     -0.02215062      4.13099051
Na        9.59163761      2.11536241      9.07564640
Na        7.01807308     -0.02733370     13.79995823
Na        6.91169786     -0.06360312     18.23129272
Na        6.90737534      0.08785384     22.83176422
Na        6.73541546     -0.15721741     27.55840874
Na        6.56081963      0.13904178     31.90922165
Na        4.42815924      4.86424971      2.29891181
Na        6.96860981      4.64736795      9.02018929
Na        6.64259863      4.84328365     13.47764015
Na        6.82291460      4.42575598     18.00587845
Na        7.22840071      4.87401676     22.64530182
Na        7.03686094      4.80577564     27.59355545
Na        9.15603161      4.67826271     34.23994446
Na        6.80575514      9.04525089      4.55797148
Na        6.89583969      8.96561337      9.14416790
Na        6.92855310      9.44766331     13.93837261
Na        6.76401758      8.96441746     18.27280617
Na        6.69023180      9.12862873     22.88321877
Na        7.03532267      9.25413227     27.63644981
Na        6.90447330      9.17523956     32.04215622
Na        6.79728222     13.50486946      4.78336763
Na        6.95612001     13.64608860      8.95723248
Na        6.95707846     13.62471581     14.00629616
Na        6.71125031     13.57204533     18.70675087
Na        6.99056435     13.63542938     22.32093239
Na        6.93555117     13.59875679     27.41889000
Na        6.90464544     13.67504883     31.65530205
Na        6.89124203     18.03527069      4.36186266
Na        6.85906124     18.30753708      9.15199471
Na        6.78064823     18.40357018     13.55231380
Na        6.97895622     18.55368996     18.14623070
Na        6.92886543     18.11353493     22.94166183
Na        6.89252901     18.51305199     27.39419365
Na        9.49062538     18.27759171     33.75905228
Na        6.83291912     22.52509880      4.63980389
Na        7.01291990     22.88246155      9.33290768
Na        6.87292051     23.06697655     13.94949245
Na        6.67113924     22.67776871     18.50688553
Na        6.74678898     22.67683983     22.85814857
Na        6.76448679     22.82035828     26.99339104
Na        6.83764744     22.86392021     32.26229095
Na        6.91757822     27.68924332      9.35585594
Na        4.74519253     27.31999207     11.26142788
Na        6.99972534     27.13025284     18.05730629
Na        6.74760342     27.62061882     22.75346375
Na        8.91981506     25.17344475     31.96545792
Na        6.57455301     27.66788673     31.84331131
Na       11.39910221      0.09056231      4.63191700
Na       11.43831635     -0.17161134      9.16104889
Na       11.47251797     -0.43254855     13.51269722
Na        9.50234032      0.10719443     15.90627861
Na       11.56540871      0.02646069     27.08424568
Na        8.80249691     -2.41705275     31.77955246
Na       11.32669830      4.23498249      4.24280119
Na       11.39896679      4.72092962      9.18742466
Na       11.35705662      4.69783020     13.58124161
Na       11.29289532      4.25514412     18.37287331
Na       11.41570473      4.44757986     22.58419991
Na       11.30988407      4.59687996     27.40288925
Na       11.20229816      4.69260931     31.74891472
Na       11.54593468      8.96366310      4.67522097
Na       11.12157154      9.40849495      8.98249054
Na        9.26330280     11.48264790     13.63759041
Na       11.05335522      8.88517857     18.55054665
Na       11.22091293      9.14473248     22.72128868
Na       11.46764660      9.22297573     27.32780457
Na       11.17565346      8.64579868     32.00387192
Na       11.42050076     13.38675785      4.66252518
Na       13.77597427     15.98726273      9.36004066
Na       11.40081787     13.57772160     13.62878990
Na       11.52502728     14.07183266     18.22730255
Na       11.32824421     14.18933201     23.17590141
Na       11.74992847     13.43749905     27.45135498
Na       11.25753212     13.66554165     32.46330643
Na       13.63408566     18.06019974      2.16889238
Na       11.15966511     18.36727524      8.99215126
Na       11.27138710     18.56455231     13.58897495
Na       11.50846004     18.09666443     18.26346207
Na       11.32057858     18.28027725     23.35020447
Na        8.97458649     20.72821999     27.24728394
Na       11.25363922     18.27632904     31.55400085
Na       11.52897930     23.14279366      4.80848312
Na       11.33150768     22.80623436      9.18103504
Na       11.40225887     22.34966087     13.47051334
Na       11.26147270     22.73230362     18.30908394
Na       11.26846123     22.88458252     23.18218803
Na       11.45122337     22.93529892     27.37237549
Na       11.58407593     22.78901863     31.96013069
Na        9.03326988     29.74075699      4.24758482
Na       11.64378929     27.25865555      8.80022621
Na       11.60593700     27.19839859     13.60694790
Na        8.88808441     29.46039963     18.29247284
Na       11.41091537     27.40614891     23.06208229
Na       11.34386826     27.34554863     27.49623489
Na       11.32950592     27.57330132     32.23000336
Na       15.74444294      0.07715026      4.59073448
Na       15.77142143     -0.19944090      9.23217297
Na       16.08843040     -0.28218254     13.70788860
Na       13.49707794     -0.06012101     15.98509979
Na       16.19696999      0.12573044     22.74122047
Na       16.09934998      0.44176549     27.56003189
Na       16.16540146     -0.19742671     31.86906242
Na       15.93695545      4.68323135      4.43897438
Na       15.67683601      4.89719439      8.85591984
Na       16.02060318      4.56643391     13.84064484
Na       16.14451027      4.37939310     18.27712059
Na       16.07582664      4.44598389     22.53199577
Na       15.77889729      4.31699038     27.31468391
Na       16.15670586      4.58090496     31.62290382
Na       16.00844765      9.02056980      4.71702766
Na       13.77582073      8.85495663      6.85518837
Na       16.09395409      8.64771652     13.41699028
Na       16.10897064      9.06383228     18.46323967
Na       16.25573730      8.93275547     23.02935600
Na       13.71640205      8.67747402     25.02641869
Na       16.03841972      9.24883842     31.83037949
Na       15.96333599     13.51770878      4.50749683
Na       16.07717514     13.43517017      9.26461506
Na       15.94884682     13.69159412     13.95226479
Na       15.98802567     13.61446190     18.26637840
Na       15.89181423     13.47060585     22.81724358
Na       18.49448967     16.02392197     27.19524193
Na       15.87516499     13.63125515     31.84779549
Na       16.05656052     18.20115089      4.81960964
Na       15.85592079     18.20400620      8.86146355
Na       18.23319054     17.86758232     16.00717163
Na       16.11330414     18.32053566     18.33597946
Na       16.03204155     18.18836975     22.72709465
Na       16.28725624     18.18004417     27.75729179
Na       13.71011448     18.09859276     29.63655281
Na       15.98916626     22.40940285      4.50288868
Na       18.00783730     20.53476334      9.09539413
Na       18.02303505     22.76828766     11.51999187
Na       16.03183365     22.88641167     18.18227386
Na       13.33569241     25.01460648     22.97513771
Na       16.12638855     22.93406487     27.36192322
Na       15.91575432     22.85451317     31.87601852
Na       16.04901314     27.27685738      4.02306938
Na       15.92091179     27.49311447      8.90712357
Na       18.43589211     29.43565941     13.95131683
Na       15.91123867     27.32606697     18.46973610
Na       15.81041908     27.34092140     22.93208122
Na       15.75114918     27.74950600     27.29709435
Na       16.33620644     27.31146812     31.79127693
Na       20.24961090     -0.14949290      4.39242887
Na       20.30539513      0.07341314      9.55604935
Na       20.55897522     -0.03726479     13.90922642
Na       20.58095741      0.00324628     18.46349335
Na       20.64462280     -0.19832884     22.72142982
Na       18.54375458      0.42234120     29.86859322
Na       20.56633377      0.14431222     31.79072762
Na       20.44343948      4.50964165      4.47782707
Na       20.49890900      4.82849455      9.14107609
Na       20.49944687      4.66636753     13.85885906
Na       20.35467148      4.46852398     18.14075279
Na       22.82589340      2.17985654     22.68630219
Na       18.42528534      2.40574646     27.78265953
Na       20.49653435      4.44911480     32.18824005
Na       20.45794678      9.02248478      4.21548891
Na       20.64252090      8.50980186      9.34171200
Na       20.66940308      9.02797127     13.41924000
Na       20.52709579      8.95611572     18.16053391
Na       20.62314796      9.11719036     22.80830574
Na       18.32733727      9.20867729     29.37684631
Na       20.53007317      9.35749722     32.08245468
Na       20.64636040     13.52071285      4.62761211
Na       20.67249107     13.46604633      9.10642052
Na       20.47232246     13.25862694     13.81047726
Na       20.78291702     13.63578129     18.20186806
Na       20.43543053     13.60557079     22.87463379
Na       20.61743164     13.65680504     27.41938019
Na       20.37137032     13.62441730     32.10157394
Na       20.59937096     18.49828339      4.64727163
Na       20.44983673     18.34878349      9.19234180
Na       20.62310410     18.27345276     13.59772110
Na       20.43240356     18.03534508     18.12168121
Na       20.39397621     18.08512115     22.94216919
Na       20.50249863     18.21419334     27.23901558
Na       20.35042381     18.13380432     31.93114662
Na       20.47330475     22.62989616      4.74729109
Na       20.46065521     22.71031380      9.33496475
Na       20.64513397     22.83283806     13.69622040
Na       18.42618752     25.06656075     18.22994614
Na       20.76438141     22.86242294     22.65023613
Na       20.55468559     23.04182625     27.77225304
Na       20.79742813     23.10168839     32.05318451
Na       20.53220367     27.36475182      4.19482708
Na       20.43662071     27.42571068      9.15850544
Na       16.13708878     27.45719147     14.08454895
Na       20.80725288     27.53909874     18.18706131
Na       20.46345711     27.61137390     22.86480713
Na       20.59652138     27.38766861     27.50748825
Na       20.65116501     27.16801834     31.70262909
Na       22.53949547      2.19864273      4.64427042
Na       22.56794930     -0.01022305      6.78027916
Na       25.21896553     -0.17834188     13.73253918
Na       25.19755173      0.08451010     18.62771225
Na       25.13417816     -0.05321351     23.00519371
Na       25.24135780      0.03319044     27.50136566
Na       25.08019829      0.15059592     32.36310577
Na       24.98880386      4.50141954      9.33178234
Na       24.95777893      4.61149311     13.72663021
Na       25.26685905      4.96305084     18.41259003
Na       25.26812744      4.62023211     22.43178177
Na       25.26981926      4.18346930     27.22327423
Na       25.10012436      4.56138134     31.90741348
Na       24.90619469      8.96998215      4.65997410
Na       25.19013405      9.23398113      8.93149853
Na       25.07514572      9.48692322     13.63826847
Na       25.02753830      9.29107761     18.38148689
Na       25.24913025      9.37112904     22.94883728
Na       25.03533936      9.04430199     27.35824394
Na       24.95659256      9.24304485     31.88346672
Na       25.13752747     13.86811543      4.76407194
Na       25.21588516     13.44793129      9.07499027
Na       25.09892845     13.86207294     13.93769073
Na       25.29882812     13.92172813     18.48521805
Na       25.10125160     13.37782764     22.70984840
Na       25.19942856     13.88457203     27.22905922
Na       24.98748016     13.73481655     32.03748703
Na       25.05949974     18.48782730      4.27996731
Na       25.08959007     18.86072540      9.28419971
Na       25.33400917     18.52841568     14.00331020
Na       25.25502586     17.71187973     18.11898994
Na       25.37069702     18.20287514     22.59370041
Na       24.99923897     18.20700645     27.67575836
Na       25.16169739     18.30794907     32.19721222
Na       25.27780342     22.83520317      4.86689568
Na       24.97936249     22.45768929      9.11651516
Na       25.28144455     22.76580620     13.72459507
Na       25.28269577     22.79283905     18.36669159
Na       25.10149956     22.72490692     22.68856621
Na       25.27063370     22.83301353     27.53436089
Na       25.28988075     22.78463364     32.17364883
Na       24.83062172     27.19016075      4.68517590
Na       27.63949585     29.77614403      9.06555939
Na       25.36868858     27.47385788     13.75441742
Na       25.33186913     27.57470512     18.43029594
Na       25.02581596     27.53223038     22.77536774
Na       25.16361046     27.17643738     27.41926575
Na       24.87240791     27.38475800     32.53888321
Na       29.68769455     -0.05067774      4.62883854
Na       29.77384949     -0.02931800      9.42746162
Na       29.75212860      0.24467650     13.79102516
Na       29.84928894      0.02546318     18.12278748
Na       29.91321564     -0.63330626     22.77108002
Na       29.54841995      0.04919274     27.58781433
Na       29.76976585     -0.02996264     31.75160027
Na       31.61499786      4.49891996      2.41782355
Na       29.73167229      4.93114948      9.22767258
Na       29.77004814      4.45170879     13.79273605
Na       29.72586823      4.50912571     18.16084862
Na       29.68795776      4.89256048     22.81962776
Na       29.81097031      4.58663559     27.25926018
Na       29.38698387      4.80336332     32.03898239
Na       31.61279678      9.23816395      6.96566963
Na       29.53248787      8.96600342      9.50605488
Na       29.59316444      9.34473324     13.67900944
Na       29.57529831      9.10482693     18.62586212
Na       29.70327377      8.89860439     23.07585144
Na       29.76265335      9.08979130     27.11774445
Na       29.73142815      9.07239532     32.00386810
Na       29.58975410     13.67797279      4.55693150
Na       29.61126328     13.83621883      8.84985447
Na       30.00924492     13.44776535     13.50977230
Na       32.01139832     13.46425056     20.34744072
Na       32.08971786     15.94622421     22.82659531
Na       29.80487442     13.84955406     27.21366882
Na       31.77999306     11.50575256     32.03777695
Na       29.85359764     18.08014107      4.67751074
Na       29.59832954     18.76171684      8.98155689
Na       29.87493706     18.22982216     13.67064285
Na       29.83765221     18.10067940     18.55246353
Na       31.60308456     18.20117760     25.26357460
Na       29.76642418     18.08905983     27.60778427
Na       27.16330147     15.76996231     31.99865532
Na       29.97363472     23.06173897      4.47456360
Na       27.42638397     25.14360809      9.23903656
Na       29.64173698     22.90164375     13.72696972
Na       31.70018196     24.99349785     18.35289955
Na       29.66135597     22.88043976     22.62975883
Na       31.95652580     23.25114441     29.65044403
Na       29.70566750     22.69919395     31.89301491
Na       27.27420616     29.47365379      4.79625034
Na       29.77096748     27.06925011     13.73250866
Na       29.41220093     27.46074295     18.16571045
Na       29.66735840     27.80780792     22.76408386
Na       29.58811378     26.99679947     27.64130783
Na       29.62022591     27.66793823     31.92141914
Na       -0.61979479      0.14538454      6.99478006
Na        0.09506647      2.20024085      9.18721294
Na        0.29087183      2.15980029     13.90850258
Na        0.07215364      2.08293152     18.62151146
Na       -0.17119554      2.06474018     22.86614227
Na        0.00679190      2.22948933     27.22682190
Na        0.33688697      2.31970000     32.19895935
Na        2.25680828      4.39140987      4.56659794
Na        0.11264274      6.76833773      9.57029819
Na       -0.29946911      6.82156086     13.69375324
Na       -0.25609258      6.74738026     18.39410591
Na        0.31036159      6.75296450     22.79577255
Na       -0.09687141      6.94656038     27.66108704
Na        0.19474310      6.95095968     32.00306320
Na       -0.07362874     11.26951218      4.44213104
Na       -0.10022309     11.33466053      9.08222103
Na       -0.18843444     11.17273426     13.91836166
Na       -0.12913300     11.30372334     18.14561081
Na        0.20737465     11.36338806     22.72273064
Na       -0.01845998     11.46279049     27.33698082
Na        2.26708817      9.16911983     31.92678642
Na        0.08147632     16.24031639      4.57984018
Na       -0.05276019     15.91129017      9.65428257
Na       -0.18314964     15.97673512     13.96168518
Na       -1.89734864     13.95921135     18.25888443
Na       -2.22635293     18.26614952     22.85785294
Na       -0.13359782     16.02995491     27.47654152
Na       -0.17789404     16.08753395     32.13776779
Na       -0.26847684     20.61291313      4.37794065
Na       -0.16268249     20.57047081      9.44220066
Na        0.05953515     17.98611641     16.09261703
Na        0.09487744     22.79348755     16.27204323
Na       -0.21877660     20.86421967     22.75001144
Na       -2.02304649     22.78049850     27.44518089
Na       -0.11039421     18.08423233     34.32895279
Na        0.01602018     25.29916954      4.47324657
Na        0.13221218     24.94163895      9.30086136
Na        2.29431391     27.41349411     13.28712654
Na        2.22977018     22.58597183     13.65649986
Na       -0.20010848     25.18818855     22.55363464
Na        0.30157292     25.28743935     27.42114067
Na       -0.23592597     24.95403290     31.85665894
Na        2.36932492     27.31312370      4.56289721
Na       -0.10620436     29.72823715      9.19410038
Na       -0.13835388     29.52798843     13.66354942
Na        0.16145451     29.68752289     18.38175774
Na        0.16401605     29.48544312     22.98849869
Na        0.05805086     29.59895897     27.30344772
Na        0.12201770     29.75135231     32.08570099
Na        4.58158207      2.31399059      4.35132551
Na        4.62175226      2.45940065      9.09573269
Na        4.57044411      2.39062929     13.72280502
Na        4.34116697      2.04957700     18.51034737
Na        4.85610771      2.37433219     22.78779602
Na        4.70349979      2.02465343     27.49613953
Na        4.29036045      2.38343644     31.93099594
Na        4.40011406      6.91529036      4.63713503
Na        4.41364145      6.76921511      9.32252502
Na        4.59136009      6.88949728     13.74132824
Na        4.75685740      6.69570780     18.12125015
Na        4.55816269      6.82472229     22.50406456
Na        4.28645039      6.71889830     27.44053078
Na        4.58232212      6.90935135     31.98789978
Na        4.47630072     11.29235172      4.48650312
Na        4.65851641     11.42387104      9.23703098
Na        4.64258480     11.42603302     13.62362480
Na        4.24299765     11.63684177     18.39192200
Na        4.69188786     11.49744034     22.87128258
Na        4.26782703     11.45937252     27.37018394
Na        4.46269560     11.20464611     32.21260452
Na        4.40397406     16.13117790      4.53546190
Na        4.36769962     15.64232063      8.98810005
Na        4.82163048     16.10595131     13.58821297
Na        4.88066816     16.08336830     18.35230827
Na        4.54152775     16.15169525     22.62245369
Na        4.48306131     16.07115364     27.59146309
Na        4.12960863     18.28804207     34.31715775
Na        4.41396952     20.47134399      4.66520357
Na        4.80513811     20.69282722      9.39741707
Na        4.50402164     20.76371193     13.76226425
Na        4.86489296     18.27633286     20.50378609
Na        4.66450024     20.55890274     22.89960480
Na        4.45234966     20.53465843     27.40409088
Na        4.55351210     15.77643585     32.07374954
Na        6.95053434     27.36211777      4.51477671
Na        4.42014551     25.23766136      9.16920567
Na        4.43037271     25.10727310     13.60378170
Na        4.64138794     25.01531792     18.29964066
Na        4.70376778     25.10337830     22.95481682
Na        4.84543943     24.97966957     27.50986862
Na        4.40764904     27.49953270     29.52089119
Na        4.49355459     29.60320091      4.76940966
Na        4.48075390     29.89603043      9.26642323
Na        6.78563595     27.58804131     13.73859978
Na        4.61559248     29.61189270     18.17382050
Na        4.44919062     29.74078178     22.72511673
Na        4.49708891     29.61284256     27.44455910
Na        4.64272261     27.53426552     34.26925659
Na        6.81891251      4.47947407      4.55430746
Na        6.95892859      0.04830879      8.72398758
Na        9.07373142      2.22485876     13.51982117
Na       13.88048077     -2.36825204     18.08607864
Na        9.24298668      2.54316711     22.81231499
Na        9.41671848     -0.04361567     29.64326096
Na        8.93250847      2.16225457     31.77152061
Na        9.19108009      6.62715244      4.66440392
Na        9.35897064      6.68948650      9.15631485
Na        8.95975304      6.87129784     13.69431019
Na        8.83308697      4.64373636     20.39370537
Na        9.23191833      7.01077127     22.81441498
Na        9.30333328      7.07531691     27.52638435
Na        9.29828644      4.44172049     29.84961891
Na        8.93238926     11.43925190      4.29814672
Na        9.13687801     11.49082470      9.27335262
Na        8.99936485      9.05209064     15.94204426
Na        8.97265244     11.44550323     18.10896301
Na        9.21201992     11.54000568     23.03331566
Na        9.56125259     11.47809505     27.26428604
Na        9.27720356     11.25496292     32.06121826
Na        8.93319988     15.97353935      4.59635448
Na        9.16942978     15.99392319      9.01539230
Na        9.18000317     16.03451347     13.84567738
Na        8.94088078     16.04627991     18.24160194
Na        9.12647152     16.08043480     22.98135948
Na       11.34733391     18.19192314     27.38419533
Na        9.26577282     15.97858334     32.02920532
Na        9.28099823     20.59739685      4.47345209
Na        9.09790897     20.66970253      9.03645420
Na        9.34804535     20.67060661     13.62286091
Na        9.33107662     20.49357224     18.49536896
Na        9.22513485     20.35597610     22.94368935
Na        8.90126038     18.48017693     29.51855469
Na        6.83134413     18.51363754     32.11872864
Na        9.36526203     27.37573051      6.74334717
Na        8.84614182     25.28444672      8.94127369
Na        9.22827721     25.04868698     13.45382881
Na        9.13370800     25.08413887     17.91638565
Na        9.15570927     24.99682045     22.77363396
Na        9.15325069     25.22885704     27.18299103
Na        8.93905830     23.16006660     34.51859283
Na        9.08539867     32.05640030      6.60777426
Na        9.25390434     29.76083946      8.73870850
Na        9.01107883     29.64760208     13.78127670
Na        9.23969173     30.00308609     22.66022301
Na        9.02425385     27.33026314     29.51353264
Na       11.41608906     31.96038818     32.12882233
Na       13.95726395      2.33579707      4.62071276
Na       13.48951054      2.52260256      9.32982159
Na       14.06999874      4.49417543     11.71610641
Na       13.88962364      2.11297822     18.15315628
Na       13.85651588      2.33907270     22.60947609
Na       13.47933769      2.56731582     27.15629005
Na       13.73159504      2.14071608     32.03776932
Na       13.73937225      6.78835487      4.25950956
Na       13.73349953      6.92308855      9.25253201
Na       11.69476700      9.01152325     13.58897781
Na       13.29731464      6.73215008     18.60143089
Na       13.75560665      6.92847967     22.26083374
Na       13.59514046      6.78878403     27.55582619
Na       13.72934246      6.90219641     31.95446777
Na       13.92445946     11.42649937      4.61274147
Na       11.48614502     13.78149128      9.00805759
Na       13.86513519     11.50401497     13.37820530
Na       13.39913464     11.41089725     18.56651688
Na       13.78474236     13.75615501     25.27095032
Na       13.99252510     11.36890984     27.40896988
Na       13.53009701     11.29385567     32.07629395
Na       13.70681095     15.83629227      4.74368715
Na       13.67282963     18.38724136     11.51641560
Na       13.50403881     16.07753372     13.50240803
Na       13.73658276     15.73473263     18.55462837
Na       13.73636818     15.96809196     22.97045135
Na       15.95352840     18.30201721     31.92072105
Na       13.65232754     20.49439049      4.16386080
Na       13.58582687     20.67742920      9.07565117
Na       14.02803421     20.60161018     13.93720531
Na       13.73392200     20.71509743     18.34038353
Na       13.60317326     20.41087151     22.75777626
Na       13.35455608     20.59816551     27.49921608
Na       13.84893894     20.60052490     31.75788307
Na       13.61659241     25.03362656      4.81267023
Na       13.69764900     24.96391106      9.75611305
Na       13.78115463     24.97403717     13.42388630
Na       13.40236187     25.28436470     18.26082230
Na       13.68737602     27.22348595     25.21982956
Na       13.53734970     25.33301353     27.99452209
Na       13.71694374     25.30003166     32.27227020
Na       13.76358700     29.77421761      4.46993351
Na       13.79977703     29.70934868      9.18087196
Na       13.69085789     32.06183624     11.44161034
Na       11.36361504     27.50045776     18.42946434
Na       11.44020557     32.05431747     23.12804413
Na       13.53205967     29.85430145     27.30397606
Na       14.05206585     29.65255928     32.15613556
Na       18.46472549      2.21460962      4.47633791
Na       18.44924927      2.41434598      8.92624950
Na       18.00233841      2.41764402     13.48445129
Na       16.15752602      0.17104509     18.34380341
Na       18.47499847      2.31358266     23.13543129
Na       18.53688812      4.45516825     25.33790207
Na       18.18362427      2.41993499     32.09677887
Na       18.15167236      6.70707226      4.50493288
Na       17.84672165      6.99247169      8.79016018
Na       18.59946251      6.65211964     13.71200466
Na       18.17781448      6.91202211     18.31171608
Na       18.53870583      6.81030321     22.70776367
Na       18.62149429      6.59661770     27.43965912
Na       18.45151711      6.89634562     31.80779076
Na       18.14771271     11.33361626      4.80509377
Na       18.21849632     11.19158745      9.26387215
Na       18.28276253     11.37476444     13.47300434
Na       18.40575409     11.46173191     18.25204849
Na       18.36057091     11.38712025     22.40625763
Na       18.19979668     11.55174541     27.23144531
Na       18.28457069     11.33344841     31.93175507
Na       18.15995407     16.14708519      4.54309464
Na       17.84070396     15.66660023      9.22645092
Na       18.46709251     15.98758698     13.70221043
Na       18.52519608     16.03683853     18.39531136
Na       18.22334290     15.86689568     22.64725113
Na       18.23934746     18.57377243     29.55917931
Na       18.19548035     15.79873085     31.86601257
Na       18.31545448     20.25500679      4.64198399
Na       15.88549232     23.42090225      8.92397594
Na       18.03219223     20.42817307     13.73408508
Na       20.79895401     23.00144958     18.12198257
Na       18.22319412     20.67266655     22.75516701
Na       18.14272499     23.54675674     25.07488632
Na       18.06224442     20.51122665     32.02199936
Na       18.34969902     25.18600655      4.67792797
Na       18.61900711     25.00070000      9.04025459
Na       18.04643440     27.30871201     11.53180790
Na       18.18666077     25.22894287     22.51985741
Na       18.19644547     25.32622337     27.36869621
Na       18.28824806     24.86237717     32.17665100
Na       18.02417183     29.43210983      4.74511147
Na       20.40678978     27.17491341     13.64186096
Na       18.39538574     29.68533325     18.36005592
Na       17.87534714     29.87367821     22.95586014
Na       18.14022255     29.80030441     27.46554375
Na       18.55773926     29.61925697     32.09314728
Na       25.08704758      4.64995003      4.69540358
Na       22.52914429      2.36618209      9.10835743
Na       22.72026062      2.22385502     13.98192596
Na       22.86823845      2.35806084     18.38016319
Na       23.10069084      2.20043993     27.19321060
Na       22.90865707      2.30563593     31.71625710
Na       22.81114578      6.99580193      4.58382797
Na       23.09250069      6.82082367      8.79589558
Na       23.20406532      6.96811152     13.79228592
Na       22.80484772      7.02905989     18.47928619
Na       22.73998833      6.70395327     23.21050262
Na       22.73155594      7.06832457     27.38536835
Na       22.79645729      6.56959057     31.80257607
Na       23.00628090     11.45289803      4.76974106
Na       22.89354515     11.46371555      8.67149353
Na       22.79668999     11.71533585     13.71386719
Na       22.48645401     11.33618736     18.32743263
Na       22.97946739      9.50901318     25.10244751
Na       22.91752434     11.49508095     27.57872963
Na       22.92583466     11.61268044     31.70405006
Na       22.64730835     16.18587112      4.93582487
Na       22.87510681     15.89996147      9.30224228
Na       22.50494385     15.99608898     13.56742191
Na       22.77982712     15.85163689     18.70162582
Na       23.17185402     16.14010811     23.20928192
Na       22.75691795     16.02805328     27.18832779
Na       22.79023933     15.98887920     32.15917587
Na       22.71435928     20.75648499      4.80055285
Na       22.53215599     20.67496490      9.10937023
Na       22.91854858     20.51270676     13.89453506
Na       22.85059166     20.17744637     18.20607758
Na       23.10530472     20.52896309     22.96205521
Na       22.63802338     20.78110313     27.33395386
Na       22.85470009     20.76678848     32.03263855
Na       22.85310555     25.15726280      4.86618853
Na       22.78911781     24.99502945      9.54468822
Na       23.17634201     25.04760361     13.69964218
Na       22.95963860     25.21380043     18.20395851
Na       23.03583908     25.04776001     22.91319084
Na       22.84468842     25.14885330     27.61913681
Na       22.81549835     25.17084503     31.91227341
Na       22.51039886     29.58138466      4.81367493
Na       22.66658401     29.86942291      9.22386932
Na       22.80204582     29.77804184     13.80497932
Na       22.76578522     29.73312569     18.48364830
Na       23.03306007     29.78212738     22.99107742
Na       22.95993805     29.54768753     27.77171516
Na       23.15311813     29.61089706     32.07942963
Na       27.41526413      2.17024326      4.79139614
Na       27.36966133      2.41557980      9.09881115
Na       27.28118706      2.33385587     13.71197128
Na       27.42531013      2.26369262     18.35599136
Na       27.55899429      2.25868511     22.69353485
Na       27.61814117      2.17912602     27.45440292
Na       27.04697990      2.33838558     31.80673599
Na       27.19375992      6.69266939      4.71562719
Na       27.51034546      6.78669786      9.35039902
Na       27.49090767      6.88880062     13.64897442
Na       27.36798859      6.97506714     18.24004364
Na       27.33753014      6.81604671     22.51717758
Na       27.51278114      6.70335340     27.32815170
Na       27.41097260      6.80521917     31.87446022
Na       27.42595673     11.40378666      4.38865995
Na       27.51075745     11.47594643      9.31773567
Na       27.56051826      9.18655586     15.89211750
Na       27.69614220     13.88000488     15.87633324
Na       27.29456520     11.43140221     23.10369110
Na       27.63797951     11.52089310     27.37525940
Na       27.64431381     11.50003052     31.69774818
Na       27.30013657     15.90543079      4.62246752
Na       27.07454109     16.31791306      9.32600975
Na       27.28926468     15.98763180     13.89860058
Na       27.79266548     15.97190952     17.90189743
Na       27.53522110     16.02074242     22.63981438
Na       27.43632889     15.92366123     27.67129135
Na       27.56501961     20.82454491      4.58809805
Na       27.44182587     20.77347946      8.90132904
Na       27.63559723     20.93716049     13.88164997
Na       27.33443260     20.48875999     18.16248322
Na       27.22823143     20.71698380     22.96397209
Na       27.21179581     20.64369965     27.37537193
Na       27.33368874     20.74142838     31.89949417
Na       27.21773720     25.09254265      4.45429564
Na       27.36598587     27.28883362      6.86215305
Na       27.79690552     25.22582245     13.77389622
Na       29.75461769     23.07221413     18.18259430
Na       27.26873207     25.17605400     22.86993408
Na       27.56920815     25.06983757     27.37170982
Na       27.44463730     25.14486885     31.77213669
Na       29.52745247     27.39192200      4.87810755
Na       25.09724808     32.03966904      9.32820225
Na       27.66654396     29.82640266     13.93853283
Na       27.40581322     29.78519821     17.93294525
Na       27.06684685     29.94772911     22.50092697
Na       27.50605392     29.44002342     27.57263565
Na       27.09721565     29.87509537     31.69693565
Na        0.10553784     -0.14794007      2.31665468
Na       -0.01831284     -2.31823611      4.45542955
Na        0.18267161     -0.07716016     11.54060555
Na        0.38223225      0.16629438     16.05487442
Na        0.00125203     -0.12660697     20.48091507
Na        0.15497750      0.16386098     25.19697571
Na        0.13504690     -0.05832987     29.78884888
Na       -2.39806247      4.47415686      4.77498388
Na       -0.15263231      4.66293621      6.84681940
Na       -0.18545607      4.05818224     11.52714634
Na        0.25957620      4.71616125     16.12959480
Na       -0.03314855      4.55864620     20.59359932
Na       -0.06679622      4.49203777     25.22167969
Na       -0.32567284      4.66006517     29.96091652
Na       -2.56801033      8.80748940      4.74412203
Na        2.17006230      9.17506218      4.71406031
Na       -0.03145586      9.17230511     11.36155128
Na       -0.10115424      9.11834431     15.95080471
Na       -0.11488494      9.56377602     20.59489250
Na        0.04553283      8.80729198     25.06307602
Na       -0.07669568      9.49828148     29.63088608
Na       -0.02136102     13.63265800      2.46811604
Na        0.05488382     14.04185390      6.89613390
Na       -0.11747112     13.74541473     11.51035690
Na        0.02694825     13.69192410     15.95119762
Na       -2.29376745     13.53764725     22.91253281
Na        0.15358628     13.72164154     25.28865623
Na        0.14282778     13.71430016     29.92042160
Na       -2.34024930     18.30677223     -0.02719472
Na        0.09750524     18.34037971      7.15198803
Na        0.26071498     18.59607506     11.59120750
Na        2.35965800     18.10798836     17.75508308
Na       -0.15078631     20.56335258     18.29981232
Na        0.06685258     20.52982521     27.82127190
Na       -0.22914416     18.41221428     29.82511711
Na        0.08715189     22.60610008      1.96921611
Na        0.11915199     22.77027130      6.69083071
Na       -1.98134398     22.81764221      9.26334763
Na       -0.07203614     20.57604218     14.06458759
Na        0.03839579     22.72291374     20.57519150
Na        0.07219333     22.70928955     24.97075081
Na       -0.13867365     20.60917282     31.97133636
Na        0.51269394     27.57562256      2.25687933
Na        0.10557163     27.43181801      6.85348129
Na       -2.27714062     27.27277946      9.06067276
Na       -0.06763516     27.57265472     16.11766434
Na        0.12519722     27.36769676     20.43797302
Na        0.37648836     27.23868370     24.99616814
Na        0.16487119     27.45180702     29.75321770
Na        4.60914040     -0.20064907      2.16732669
Na        4.63898182      0.01951171      6.77707624
Na        4.74255085     -0.23601426     11.46021366
Na        4.51674080      0.02748736     15.81173325
Na        4.52754307     -0.10848087     20.65012169
Na        4.69334507      0.03754531     25.26558685
Na        4.49283361     -0.00785288     29.99530411
Na        0.31529775      2.18428969      4.19422436
Na        4.43184805      4.44387865      6.71623468
Na        4.81356812      4.62697649     11.22324467
Na        4.40383625      4.48570251     15.82182026
Na        4.84434748      4.64755726     20.53451920
Na        4.82898808      4.92428684     25.14745331
Na        4.52686882      4.40583944     29.47606277
Na        4.33234787      8.83316040      2.34190178
Na        4.46558285      9.24127483      6.81860209
Na        4.63508701      9.27218342     11.30163956
Na        4.47719669      9.38594627     16.02818680
Na        4.64156246      9.10410500     20.39168739
Na        4.26479197      9.34349060     25.16492271
Na        4.76707745      9.04043579     29.48090363
Na        4.88433313     13.79322529      2.48922825
Na        4.54527473     13.51412773      6.83342075
Na        4.94281626     13.66232109     11.44443130
Na        4.42435122     13.96371460     16.04713821
Na        4.35276985     13.90468121     20.54110718
Na        4.51257086     13.71936512     25.02159500
Na        4.70880890     13.86500263     29.63082886
Na        4.41350698     20.54016304     -0.21992756
Na        4.78569031     18.35014725      6.82035065
Na        4.08129263     18.35540581     11.55584812
Na        4.82080603     18.28933144     15.95712090
Na        4.25433540     20.64820862     18.27583504
Na        4.63059044     18.21773529     25.16777420
Na        4.42062855     18.10587692     29.76498413
Na        4.54590321     22.87148857      2.50906444
Na        4.38602638     22.96498299      7.24433565
Na        4.63313866     22.84413910     11.58677197
Na        4.26126480     22.68947601     15.97168446
Na        4.59160376     22.54293823     20.59177589
Na        4.15349245     23.04622078     25.20131683
Na        4.89875507     22.86638832     29.88044167
Na        4.54170036     25.26252365     -0.02899380
Na        4.91792345     27.52068901      6.83743382
Na        4.37839746     29.61156464     13.70862484
Na        4.91315317     26.96645164     15.82689095
Na        4.76921892     27.28126335     20.53317451
Na        4.55746078     27.66822815     25.27491188
Na        6.75531864     27.34047508     27.55692101
Na        9.43139076     -0.13352479      2.13657188
Na        8.96505737      2.11130810      4.32377529
Na        9.09426785     -0.27639201     11.25763798
Na       11.62798977     -0.53925252     18.10108185
Na        9.31252670      0.00563480     20.62059975
Na        8.95727348      0.00177090     25.05395126
Na        8.90838528     -2.34144950     27.49980354
Na        6.77590466      4.36205101     -0.21133813
Na        9.10659504      3.99011230      6.69941998
Na        9.27423859      4.32489014     11.43869686
Na        9.04859543      4.32383013     15.87679863
Na        9.08028412      2.01729512     18.46244812
Na        9.26506901      4.81626844     25.12619781
Na        8.84054947      2.30315685     27.31051064
Na        9.16323948      8.88413906      1.99143720
Na        8.95000553      9.04789734      6.88681555
Na        9.20150852      9.07887363     11.26245785
Na        9.14137650      6.66392899     18.00764465
Na        9.01031494      9.33724976     20.62272453
Na        9.10916138      9.24553204     25.13361359
Na        9.01741123      9.00183868     29.79732895
Na        9.05010509     13.74022198      2.31873274
Na        9.21364212     13.18146133      6.95925379
Na        9.17914200     13.87559700     11.61070728
Na        9.36686993     13.66834927     16.01355553
Na        9.28538036     13.59100437     20.56273270
Na        8.93040943     13.80264950     25.17100525
Na        9.34692192     13.78903770     29.61593056
Na       11.44954109     18.07690048      4.30436134
Na        9.09001637     18.53002930      6.80116272
Na        9.43074512     18.41191101     11.47263050
Na        9.16475010     18.28985786     15.90591049
Na        9.30306530     18.34437180     20.47223091
Na        8.80270481     16.26153374     26.97860146
Na        9.17252445     20.72290802     32.08403397
Na        9.40601349     25.38184357      4.40254068
Na        9.49775696     23.21623039      6.93519020
Na        9.10427475     22.85275459     11.36758709
Na        9.16400433     22.73809242     16.03109360
Na        8.77882385     22.83756828     20.55440140
Na        9.00300407     22.75362778     25.13397408
Na        8.91709709     22.57519913     29.72887993
Na        8.93122387     27.44252777      2.11661124
Na       11.47521305     27.47168922      4.81720734
Na        8.73318386     27.50380707     11.33611488
Na        9.40574169     27.37942314     15.62132645
Na        8.95069981     27.21882629     20.62445450
Na        9.13314247     27.55740929     25.07477188
Na       13.69686794     -0.01334515      2.07020974
Na       13.22104645     -0.09114908      6.99721861
Na       13.70315647      2.33041811     13.82797909
Na       14.10841084     -2.16358566     13.71418476
Na       13.45957375     -0.16856663     20.41423416
Na       13.78852177      0.18424290     25.03663063
Na       13.48265743     -0.26838011     29.36556244
Na       13.59651470      4.62259865      2.07227278
Na       13.39165211      4.86115789      6.77335501
Na       13.52221489      6.85976839     13.82467556
Na       13.68526745      4.58611679     16.05986977
Na       13.69614601      4.25107384     20.51714325
Na       13.38365364      4.43546772     24.89995766
Na       13.55905628      4.42356348     29.63330460
Na       13.46265030      9.25384521      2.29598713
Na       13.98970318     11.12683964      9.19366169
Na       13.53996277      9.16177082     11.40874386
Na       13.43784237      9.03854561     16.43349266
Na       14.03603840      9.25720215     20.64840698
Na       14.03244591     11.34046841     23.01012039
Na       13.52034950      8.82175159     29.57932854
Na       14.00909805     13.82648754      2.21259475
Na       13.60226345     13.69285679      6.75048685
Na       13.63739300     13.57386971     11.51584625
Na       13.63033772     13.46263123     15.98209381
Na       13.43906116     13.39695454     20.82587242
Na       13.96845722     16.07799339     27.61623192
Na       13.72669220     13.45652580     29.84169579
Na       13.65495586     16.12990952      0.23930685
Na       13.67985344     18.26414299      6.69865513
Na       15.87598801     17.90248108     13.88107204
Na       13.68781662     18.02570534     16.08225632
Na       13.60756969     18.05433846     20.55390549
Na       14.12283516     18.28181076     25.13942337
Na       16.15076065     13.64688301     27.53912163
Na       13.79854202     22.91620255      2.11193132
Na       13.72012329     22.76758385      6.62729979
Na       13.71744919     22.77355576     11.49770546
Na       14.02906418     23.10314941     15.83433247
Na       13.40238953     23.11701202     20.55476189
Na       13.72598171     22.73834610     25.26835060
Na       13.46707249     22.69699669     29.71832657
Na       13.56969738     27.53704834      2.38878703
Na       13.91137886     27.37228012      6.67603827
Na       13.77272892     27.53479195     11.42348576
Na       13.86263371     27.07501221     15.77143192
Na       14.08505821     27.58957100     20.60257339
Na       14.08223820     29.80496407     22.91277695
Na       13.75247002     27.62290001     29.81796455
Na       18.11103821     -0.07455511      2.28566098
Na       18.04188919      0.12733467      6.93654776
Na       18.03619385      0.15369031     11.49779034
Na       17.94907951      0.47725186     15.99227333
Na       18.02189064      0.58978325     20.29443932
Na       18.57037544     -0.05917706     25.06031799
Na       20.74061012      0.48223406     27.18890381
Na       18.27858734      4.70228100      2.28174734
Na       18.24902153      4.45276403      6.73339558
Na       18.21933174      4.68911362     11.31045532
Na       17.92908287      4.38697481     16.05597115
Na       18.34565735      4.38948011     20.42402267
Na       20.71405602      4.54206562     22.43110466
Na       18.27878189      4.55742645     29.63331413
Na       18.04558945      9.29452229      2.33165669
Na       18.08484268      9.18768787      7.00422668
Na       18.22324944      9.19002056     11.45094967
Na       18.11153603      9.33260250     15.90376663
Na       18.37707329      9.12693596     20.34727097
Na       18.25886917      9.23288822     25.13405800
Na       16.06360054      8.81736946     27.32294083
Na       18.21026230     13.51490402      2.38833785
Na       18.19018173     13.85911942      6.83367872
Na       18.42164230     13.66967201     11.45326805
Na       18.32019043     14.09568119     15.89065742
Na       18.12994194     13.79155636     20.49164009
Na       18.01188660     13.84248257     25.25097275
Na       18.21360397     13.50361729     29.63749123
Na       18.30036163     18.00368118      2.23514128
Na       18.26812744     18.48995209      6.86867094
Na       18.21338081     18.20436287     11.57023144
Na       18.45583534     20.46548080     18.06072235
Na       18.27065277     18.09046745     20.58682251
Na       18.05691910     17.93432808     24.96246910
Na       18.18371201     20.43837738     27.06503296
Na       18.16928673     22.84081078      2.32870817
Na       18.24799919     22.80075455      6.92173815
Na       17.87883186     25.02075005     13.75827694
Na       18.20740509     22.78344154     16.01291847
Na       18.70946312     22.86416435     20.47151947
Na       15.77853680     23.10881233     22.84281540
Na       18.17896080     23.34406853     29.66704750
Na       18.43430901     27.32072067      2.21927381
Na       18.15951920     27.43063545      6.97575903
Na       18.27594948     29.59911919      9.36549854
Na       18.50879669     27.38620377     16.23607826
Na       18.01866722     27.43901825     20.50047493
Na       18.28666306     27.52474213     24.90136528
Na       18.71197128     27.22231102     29.44043159
Na       22.92114830     -0.21755888      2.35893106
Na       24.84813499      0.37959668      4.38123703
Na       22.97860336      0.22537421     11.60962772
Na       22.93428230      0.17119119     16.15975380
Na       22.75651550     -0.03555698     20.52813148
Na       22.86026955     -0.22948015     25.11233711
Na       22.76812553      0.07391470     29.74031830
Na       22.90307808      4.52228498      2.01688766
Na       22.64308548      4.59298944      6.90365124
Na       22.48568916      4.75916862     11.39204788
Na       23.03475952      4.65791941     16.16663933
Na       22.89854240      4.74473524     20.54446030
Na       22.62168312      4.35886526     25.43152237
Na       22.76292801      4.68366146     29.46043015
Na       22.97452736      9.26123524      1.98900950
Na       22.62544441      9.22571945      6.74476099
Na       23.12278557      9.12801361     11.39933681
Na       23.06323814      9.28411674     15.91962814
Na       22.89912987      8.99674797     20.69716644
Na       20.63366318      9.01582050     27.21086121
Na       22.96223259      9.21084118     29.52935600
Na       22.80572891     13.68157482      2.35424590
Na       22.95795822     13.84281826      6.89163017
Na       23.03845215     13.55307007     11.38450527
Na       22.87938499     13.97200584     15.85690880
Na       23.04330063     13.86601830     20.53202248
Na       22.96568108     13.28571987     24.91939545
Na       23.01578140     13.84162045     29.51834297
Na       22.77651024     18.50276375      2.36663413
Na       22.74685097     18.00318718      6.91821432
Na       23.22992516     18.32619476     11.48968601
Na       22.69684410     17.98491669     15.93025970
Na       22.58732796     18.35375977     20.76841354
Na       22.68572426     18.34341431     25.10419655
Na       22.67799187     18.68351936     29.72157288
Na       23.07672691     22.91431427      2.59203744
Na       22.89909554     22.84026909      6.94493628
Na       22.82357216     22.89494133     11.61586380
Na       22.79347420     22.98109436     16.00901985
Na       22.92687798     22.90913010     20.67421913
Na       23.04819679     23.04690933     25.29065323
Na       22.67424965     22.52417374     29.97328377
Na       22.75521088     27.50796700      2.41925955
Na       22.58874321     27.62141609      6.98932171
Na       22.71073151     27.48253059     11.38052654
Na       22.99756432     27.61470604     16.02148628
Na       22.92548752     27.69538689     20.81830788
Na       22.46390152     27.46575165     25.30029869
Na       22.82207870     27.27844620     29.89355659
Na       27.70948029      0.17835547      2.39927268
Na       26.99895096     -0.06200806      6.67939806
Na       27.64087486      0.07099196     11.45141697
Na       27.18530846     -0.05558660     16.10391808
Na       27.61909103      0.17695059     20.56240654
Na       27.69516754      0.14153688     24.86810112
Na       27.28211594      0.03980007     29.69895935
Na       27.32459259      4.63091755      2.39098525
Na       27.24379921      4.39311361      7.06230497
Na       27.47914124      4.42109776     11.50163651
Na       27.31539917      4.59709024     16.04761696
Na       27.83548927      4.52336645     20.56723404
Na       27.35189819      4.43097210     25.05302429
Na       27.27074242      4.67014027     29.75508881
Na       27.41243172      9.00130844      2.35431314
Na       27.31723022      9.39083576      6.79980803
Na       27.43219948      9.30212784     11.66561508
Na       27.34228706     11.51690578     18.29503250
Na       27.33244896      9.17880344     20.25720024
Na       27.25890541      8.96760750     24.78202438
Na       27.70541191      9.01116562     29.68965149
Na       27.63223648     13.53429604      2.34777093
Na       27.58281517     13.64947796      6.94303322
Na       27.29407883     14.15491486     11.40890789
Na       27.50302505     11.53948784     13.65048790
Na       27.64520454     13.76175594     20.36320877
Na       27.23198318     13.82047558     25.50479317
Na       27.49676514     13.79159451     29.76865768
Na       27.35533905     17.87970924      2.23608541
Na       27.00544739     18.21648979      6.62926579
Na       27.75884819     18.41126251     11.36444283
Na       27.54753876     18.57745171     15.96901321
Na       27.68383598     18.29346466     20.43516541
Na       27.48898125     18.12463760     25.22757721
Na       27.24353600     18.14596748     29.82612419
Na       27.55065918     22.79037285      2.39762378
Na       27.67856789     23.00259972      7.03270197
Na       27.38308334     22.57748604     11.54975033
Na       27.50694084     22.84047127     16.28242111
Na       27.26886177     23.30878258     20.42403030
Na       27.34626961     22.90880585     25.28162766
Na       27.61929893     22.61452103     29.66098213
Na       27.72554398     27.06469154      2.16406107
Na       25.34391785     27.23320961      9.14425564
Na       27.45809174     27.73172379     11.42372227
Na       27.38761711     27.24997330     15.83360291
Na       27.23749542     27.33641624     20.36406136
Na       27.23749924     27.39949226     24.99278831
Na       27.20636559     27.31530952     29.80512238
O         0.00289296     -0.07378910      4.77539682
O        -0.15096645     -0.19510627      9.45433521
O         0.18904567     -0.02473840     13.69411087
O        -0.04344357     -0.09141203     18.38391304
O         0.08104785     -0.12538119     22.60618210
O         0.15648663      0.08652722     27.44444466
O         0.18224230     -0.23690142     32.01517105
O        -0.17765377      4.41641235      4.61901474
O         0.00304327      4.48735428      9.36808586
O         0.10316171      4.46325779     13.77118492
O         0.13353767      4.64443874     18.39928627
O        -0.01192378      4.37605190     22.84774971
O        -0.01952716      4.58760262     27.48527145
O        -0.13500281      4.83583117     32.25975037
O        -0.31217057      9.06949711      4.57341719
O         0.00209556      8.96765232      9.32754993
O        -0.21249813      9.09637928     13.64839363
O         0.02891513      9.10540009     18.50378609
O        -0.08938935      9.08774662     22.71317101
O        -0.02682380      9.07202530     27.19104195
O         0.20337796      9.16742516     31.77689171
O         0.14248873     13.93348980      4.59693241
O        -0.15233171     13.55991077      9.09803677
O         0.43204197     13.73867035     13.67696285
O         0.10947843     13.41710758     18.21603203
O         0.05374945     13.77576542     22.89509964
O         0.10063904     13.74479103     27.59677124
O         0.14850694     13.66206169     32.15466309
O         0.08412410     18.39686775      4.60393000
O        -0.12198957     18.38741302      9.31250191
O         0.06189327     18.21046448     13.74852467
O        -0.05463792     18.47056770     18.32336807
O         0.12976627     18.26996803     22.94850731
O         0.00984051     18.41172981     27.65175056
O        -0.18626642     18.40818214     31.97500992
O         0.14420380     22.82125664      4.59573221
O         0.10305662     22.67625618      8.98420048
O         0.00873745     22.78533936     14.05281544
O        -0.05360385     22.84903526     18.31809998
O         0.22743866     22.89266396     22.83470345
O         0.08079229     22.92162704     27.51335907
O        -0.03316152     22.78535080     31.83892059
O         0.29687336     27.37730026      4.58906078
O         0.11356127     27.51133919      9.17033386
O         0.26655993     27.25334167     13.71424198
O         0.04701528     27.22315407     18.37341309
O        -0.06944559     27.34217072     22.71728706
O        -0.00851731     27.34499931     27.56510353
O        -0.13243908     27.42969513     32.01805496
O         4.57255554      0.23596157      4.59657335
O         4.57080460      0.11437359      9.26310158
O         4.76640034     -0.15639563     13.56875706
O         4.63558960     -0.07049347     18.24441910
O         4.55913544      0.03101980     22.77142715
O         4.34276009     -0.11668666     27.40573120
O         4.54538679      0.31117228     32.05289841
O         4.46107292      4.75757790      4.55797434
O         4.60903025      4.59247828      8.96819878
O         4.51646090      4.57631063     13.51242542
O         4.43351746      4.50695801     18.27727127
O         4.79733181      4.62042141     22.69088745
O         4.57751894      4.50140285     27.43402481
O         4.50002718      4.65261650     32.07539749
O         4.53518009      9.21890736      4.49692202
O         4.80006027      9.20350742      9.13745117
O         4.63819981      9.02903938     13.79316139
O         4.53585911      9.03228569     18.24935722
O         4.45162916      9.25310802     22.86567497
O         4.53932858      9.22510242     27.29580688
O         4.61744452      8.96874523     32.07926941
O         4.49538708     13.80690289      4.68051481
O         4.62871075     13.44583035      9.32489300
O         4.55998039     13.78982353     13.83154392
O         4.57231617     13.95773506     18.22827339
O         4.79339457     13.82656097     22.69703484
O         4.73750687     13.72230816     27.33449554
O         4.66652966     13.46201420     32.28896713
O         4.53414631     18.19411469      4.51102495
O         4.45928192     18.29748154      9.08646679
O         4.46315050     18.32577515     13.88808250
O         4.50227976     18.47282982     18.24513626
O         4.59684563     18.46186829     22.81744194
O         4.43861485     18.29425430     27.41847801
O         4.62659597     18.17100716     32.07070923
O         4.63213062     22.77046394      4.77078772
O         4.70189285     23.10485458      9.26362038
O         4.54319382     22.89733315     13.84321213
O         4.39098167     22.71018028     18.32797432
O         4.60922194     22.80266380     22.81960106
O         4.58777618     22.78857803     27.54029846
O         4.67874241     22.93425369     32.00464249
O         4.68927288     27.51320076      4.37018108
O         4.43720388     27.46279716      9.04135609
O         4.56885958     27.37293625     13.75491047
O         4.66632318     27.38041878     18.29366875
O         4.45705128     27.55226517     22.68949509
O         4.58751631     27.24836540     27.25883675
O         4.26863861     27.48453903     31.92228699
O         9.08283901     -0.01693410      4.37179947
O         9.08132553      0.01434025      9.02362633
O         9.23164368     -0.02639811     13.42931271
O         9.28585720     -0.41389570     18.25824738
O         9.11171532      0.18852755     23.07983780
O         9.04506588      0.00416048     27.32950211
O         9.04334927     -0.14284784     31.81475449
O         9.12422085      4.31269312      4.53418636
O         9.21412945      4.52167416      8.99055195
O         8.89605522      4.51429844     13.65199947
O         8.88842583      4.54507685     18.11222649
O         9.26074219      4.73603058     22.71757698
O         9.31866169      4.65921021     27.34904671
O         9.00994205      4.58367348     31.96004868
O         9.03503418      9.10718727      4.54405165
O         8.98749352      9.14845276      9.13359737
O         9.25478363      9.20516491     13.57165623
O         8.88841629      9.11179352     18.36883736
O         8.97487640      9.30167770     22.79732323
O         9.41001034      9.29419231     27.38582611
O         9.07964993      9.23905373     31.85662079
O         9.04820442     13.65937710      4.55047226
O         9.11967659     13.78203773      9.24676895
O         9.22625256     13.72804356     13.79896545
O         9.07396221     13.91726112     18.30566788
O         9.07908344     13.83964443     22.80908394
O         9.23019123     13.59313107     27.28248787
O         9.00288105     13.69313049     31.98212433
O         9.06535435     18.16232109      4.63682365
O         9.02445889     18.32511330      9.31383705
O         9.15561008     18.49121094     13.84603596
O         9.19188976     18.24286270     18.16836357
O         9.19532967     18.22999382     22.59609413
O         9.08093548     18.54586411     27.54983711
O         9.19572449     18.46031952     31.81507111
O         9.07603073     23.07994270      4.71784496
O         9.15182209     22.94063187      9.14685345
O         9.11598206     22.79635048     13.84379292
O         8.87195492     22.76056862     18.25370598
O         8.98106194     22.66945267     22.98666954
O         9.16540909     22.95947838     27.32510376
O         9.22781277     22.82046509     31.97620201
O         9.17338562     27.49530602      4.53243971
O         9.18076324     27.55825615      8.99074745
O         8.99225330     27.49638557     13.46236992
O         9.25790119     27.27063370     18.22143745
O         9.06105232     27.36574745     22.85686111
O         9.08776665     27.44786644     27.36160088
O         8.84919643     27.46812820     31.79272270
O        13.52141666      0.15178122      4.60715151
O        13.62812328      0.08022571      9.18204498
O        13.82818604     -0.02617259     13.59339905
O        13.80903149     -0.05337458     18.29509926
O        13.85097408      0.08020938     22.83405304
O        13.87340736     -0.20728427     27.21548462
O        13.51305008     -0.38458532     31.82341194
O        13.69532490      4.56116486      4.65214252
O        13.54129028      4.80439377      9.05296803
O        13.66895962      4.74216890     13.91678143
O        13.76483250      4.29140759     18.22143745
O        13.43043327      4.43364096     22.75733566
O        13.63488197      4.55965042     27.36441612
O        13.77113724      4.50750256     31.86533546
O        13.74123955      9.18716908      4.47723246
O        13.37728882      9.08570099      9.23829937
O        13.88143158      9.17973900     13.48563957
O        13.62725544      8.90463352     18.59384727
O        13.86708260      9.10127354     22.79116821
O        13.79651546      9.09711170     27.40192223
O        13.58161163      9.08796978     31.84824181
O        13.80058193     13.47958279      4.47880125
O        13.76076317     13.61058903      9.25765705
O        13.66348076     13.61458302     13.76114941
O        13.86064434     13.57331753     18.49281502
O        13.61625099     13.75628185     23.03307533
O        13.98425961     13.64040279     27.72644424
O        13.46751881     13.73252201     32.03342438
O        13.71410179     18.14513969      4.43252277
O        13.71764469     18.13151741      9.08815002
O        13.75524426     18.37723160     13.83663654
O        13.82031345     17.82055473     18.36967468
O        13.74437141     18.16134262     22.68069649
O        13.65174007     18.49337387     27.33578873
O        13.68800831     18.31977463     31.99480820
O        13.67753887     22.70421982      4.40661240
O        13.76295948     22.99054718      8.88222790
O        13.71439743     22.81975937     13.58393383
O        13.67760468     22.98534012     18.28026199
O        13.59132290     22.83104134     22.94236755
O        13.54620075     22.88988113     27.65748787
O        13.71053791     22.91614532     32.03474808
O        13.69859600     27.42159653      4.54575539
O        13.67272377     27.53096771      8.88485909
O        13.71465206     27.32044983     13.68395042
O        13.72168636     27.47169495     18.27522469
O        13.59581661     27.47590637     22.81066132
O        13.53487682     27.60656166     27.44579887
O        13.93285465     27.58248329     32.14355469
O        18.10738182     -0.15324530      4.66693068
O        18.27646446     -0.05216581      9.12688732
O        18.18633652     -0.19268796     14.05767059
O        18.23925209     -0.00493296     18.21616554
O        18.32247353      0.11879536     22.71611595
O        18.38152122      0.08319776     27.47894669
O        18.20029068     -0.12599471     32.05566788
O        18.17464828      4.51051331      4.61670923
O        18.31233597      4.75152540      9.09537315
O        18.28262329      4.59725761     13.51395035
O        18.27140999      4.58569336     18.22078514
O        18.40686226      4.53253937     22.70311165
O        18.07482910      4.54518890     27.43723679
O        18.28207207      4.55777884     32.01673889
O        18.19601440      9.06180477      4.82421255
O        18.49649620      8.95773983      9.10753441
O        18.39056587      9.07029533     13.58500004
O        18.04532051      9.25728416     18.12122345
O        18.53711510      9.09010983     22.65267563
O        18.64608765      9.18642139     27.32534790
O        18.31439972      9.21512604     32.08249283
O        18.28683472     13.75741196      4.76229191
O        18.36467171     13.34380341      9.04337978
O        18.21699333     13.57435894     13.56025505
O        18.30202103     13.88062572     18.31398964
O        18.29882240     13.57697105     23.04107094
O        18.32625198     13.90534306     27.66058159
O        18.13962173     13.60003948     31.86160278
O        18.34577942     18.22019386      4.48562860
O        17.97375298     18.26408195      9.07707977
O        18.32490349     18.07476616     13.78551102
O        18.42087173     18.16424561     18.29928780
O        18.22636414     18.20392990     22.94781685
O        18.35717583     18.26968002     27.30320549
O        18.22054100     18.29541206     31.72770500
O        18.18828964     22.87546730      4.69537973
O        18.45703697     22.89618111      9.08027458
O        18.33446693     22.84161377     13.80936432
O        18.43080711     22.61801529     17.98922729
O        18.34073448     23.04830933     22.89303589
O        18.36601067     23.05128860     27.42023659
O        18.38511658     22.66942215     31.85518456
O        18.22746658     27.29163933      4.39230204
O        18.26579094     27.50416946      9.26799011
O        18.18387985     27.36411095     13.76546860
O        18.38388443     27.29942703     18.33251953
O        18.19823456     27.54918671     22.74511528
O        18.29669952     27.48256683     27.15754700
O        18.54787445     27.15380478     31.87162590
O        22.61729050      0.03092347      4.59991884
O        22.95546150      0.03979597      9.36061668
O        22.73884773      0.02771077     13.73192596
O        22.97226334      0.01016892     18.37561417
O        23.04313278     -0.03202657     22.91934013
O        22.92053604      0.15004317     27.44135475
O        23.01561928      0.00543902     32.02671432
O        22.81529236      4.47495985      4.47971058
O        22.70513916      4.60518742      9.05438900
O        22.75250435      4.67923450     13.74675274
O        22.65232849      4.63851881     18.30033302
O        22.94295502      4.29168653     22.78994560
O        23.09435654      4.49452925     27.39601326
O        22.78155518      4.38144064     31.75638199
O        22.72731781      9.08554173      4.33060694
O        23.10838318      9.09974766      9.16794109
O        22.85601425      9.27921867     13.56379128
O        22.71400452      9.18318272     18.54293633
O        22.95961952      8.92058086     22.90285110
O        22.94681168      9.16120052     27.46086121
O        22.81858444      9.06132603     31.68752289
O        22.94422150     13.76886940      4.74200869
O        23.13341713     13.67270088      8.99025536
O        22.73843002     13.79966164     13.62796974
O        22.90725899     13.81535721     18.15837669
O        22.75263023     14.10751343     22.80754089
O        23.02289581     13.72641945     27.31048584
O        22.76785851     13.79685402     32.29552460
O        22.84811020     18.43998528      4.60877609
O        22.67761421     18.16129494      9.03062344
O        22.88452339     18.11757851     13.61605167
O        22.71415138     18.04025841     18.30707169
O        23.01821899     18.28973389     22.78237343
O        22.61190605     18.20316124     27.33827591
O        22.82784081     18.48741913     31.98001289
O        23.02609062     22.82522011      4.68750858
O        22.85123825     22.75403023      9.27323341
O        22.94198608     22.86856270     13.80772114
O        22.89297867     22.85394478     18.11436844
O        22.84346199     22.75848007     23.08363342
O        22.81248856     23.03964043     27.59412956
O        23.12093544     22.92245674     32.28140640
O        22.76339912     27.55185509      4.57387352
O        22.88487434     27.30087090      9.10704136
O        22.77377129     27.21809578     13.62452030
O        23.02724648     27.57124710     18.33956909
O        22.88752365     27.46570396     22.97797394
O        22.75539589     27.43452454     27.70804024
O        22.82226944     27.20968819     32.15082169
O        27.38573074      0.02902829      4.49783850
O        27.41394615      0.02803478      9.15408897
O        27.51170349      0.01880173     13.71136856
O        27.43529320     -0.00773030     18.42871284
O        27.81784821      0.14570853     22.74270439
O        27.52478027     -0.28825366     27.09110069
O        27.39820290      0.14037207     32.00011826
O        27.11096954      4.45260000      4.57908678
O        27.55991745      4.62360573      9.21756935
O        27.50880241      4.74743748     13.73407841
O        27.43072891      4.81062698     18.29155540
O        27.52078247      4.48732424     22.84450150
O        27.51356316      4.51985216     27.45369720
O        27.29223061      4.62697220     32.02736664
O        27.16856003      9.04634571      4.65867615
O        27.38379669      8.97168732      9.07795334
O        27.43380737      9.16423130     13.76392841
O        27.44244766      9.09617901     18.13108635
O        27.51595306      9.06229115     22.66722679
O        27.57238960      9.18766594     27.37093544
O        27.35265160      9.15348053     32.04715729
O        27.32155228     13.76409912      4.68317175
O        27.42023468     13.73413658      9.19105721
O        27.58149147     13.82334137     13.62997723
O        27.57936478     13.91675282     18.08765984
O        27.48590851     13.68022537     22.86313248
O        27.57669067     13.70568085     27.55964470
O        27.30257416     13.51158524     32.01735687
O        27.31405067     18.26104927      4.43914461
O        27.39503098     18.37199020      9.34763622
O        27.53208351     18.23174477     13.66386604
O        27.43729019     18.21992874     18.20684814
O        27.50345421     18.34952927     22.85206985
O        27.20183945     18.18750572     27.51627731
O        27.32415390     18.16901016     31.96641922
O        27.52614403     22.94188309      4.69435930
O        27.69205666     22.70763779      9.23463726
O        27.37581062     22.99861336     13.85368919
O        27.58404160     22.56188965     18.34519958
O        27.28811646     22.76399612     22.89808464
O        27.45656395     22.87592506     27.51521492
O        27.68578911     22.83676529     31.85821533
O        27.41401863     27.19157410      4.63443136
O        27.56815529     27.38877296      9.19428062
O        27.64383507     27.54304123     13.47512054
O        27.28665161     27.73397064     17.88544464
O        27.31844330     27.67648697     22.75679207
O        27.38761711     27.24172211     27.46269226
O        27.04100227     27.37724495     32.08732986
H         1.57931626      1.57931626      1.57931626
H         1.57931626      2.99068356      2.99068356
B         2.28499985      2.28499985      2.28499985
H         2.99068356      1.57931626      2.99068356
H         2.99068356      2.99068356      1.57931626
H         1.57931626      1.57931626      6.14931583
H         1.57931626      2.99068356      7.56068325
B         2.28499985      2.28499985      6.85500002
H         2.99068356      1.57931626      7.56068325
H         2.99068356      2.99068356      6.14931583
H         2.99068356      2.99068356     10.71931648
H         1.57931626      1.57931626     10.71931648
H         1.57931626      2.99068356     12.13068295
B         2.28499985      2.28499985     11.42499924
H         2.99068356      1.57931626     12.13068295
H         2.99068356      2.99068356     15.28931522
H         1.57931626      1.57931626     15.28931522
H         1.57931626      2.99068356     16.70068359
B         2.28499985      2.28499985     15.99499989
H         2.99068356      1.57931626     16.70068359
H         2.99068356      2.99068356     19.85931396
H         1.57931626      1.57931626     19.85931396
H         1.57931626      2.99068356     21.27068329
B         2.28499985      2.28499985     20.56499863
H         2.99068356      1.57931626     21.27068329
H         2.99068356      2.99068356     24.42931557
H         1.57931626      1.57931626     24.42931557
H         1.57931626      2.99068356     25.84068108
B         2.28499985      2.28499985     25.13500023
H         2.99068356      1.57931626     25.84068108
H         2.99068356      2.99068356     28.99931526
H         1.57931626      1.57931626     28.99931526
H         1.57931626      2.99068356     30.41068268
B         2.28499985      2.28499985     29.70499992
H         2.99068356      1.57931626     30.41068268
H         2.99068356      7.56068325      1.57931626
H         1.57931626      6.14931583      1.57931626
H         1.57931626      7.56068325      2.99068356
B         2.28499985      6.85500002      2.28499985
H         2.99068356      6.14931583      2.99068356
H         2.99068356      7.56068325      6.14931583
H         1.57931626      6.14931583      6.14931583
H         1.57931626      7.56068325      7.56068325
B         2.28499985      6.85500002      6.85500002
H         2.99068356      6.14931583      7.56068325
H         2.99068356      7.56068325     10.71931648
H         1.57931626      6.14931583     10.71931648
H         1.57931626      7.56068325     12.13068295
B         2.28499985      6.85500002     11.42499924
H         2.99068356      6.14931583     12.13068295
H         2.99068356      7.56068325     15.28931522
H         1.57931626      6.14931583     15.28931522
H         1.57931626      7.56068325     16.70068359
B         2.28499985      6.85500002     15.99499989
H         2.99068356      6.14931583     16.70068359
H         2.99068356      6.14931583     21.27068329
H         2.99068356      7.56068325     19.85931396
H         1.57931626      6.14931583     19.85931396
H         1.57931626      7.56068325     21.27068329
B         2.28499985      6.85500002     20.56499863
H         2.99068356      6.14931583     25.84068108
H         2.99068356      7.56068325     24.42931557
H         1.57931626      6.14931583     24.42931557
H         1.57931626      7.56068325     25.84068108
B         2.28499985      6.85500002     25.13500023
H         2.99068356      6.14931583     30.41068268
H         2.99068356      7.56068325     28.99931526
H         1.57931626      6.14931583     28.99931526
H         1.57931626      7.56068325     30.41068268
B         2.28499985      6.85500002     29.70499992
H         2.99068356     10.71931648      2.99068356
H         2.99068356     12.13068295      1.57931626
H         1.57931626     10.71931648      1.57931626
H         1.57931626     12.13068295      2.99068356
B         2.28499985     11.42499924      2.28499985
H         2.99068356     10.71931648      7.56068325
H         2.99068356     12.13068295      6.14931583
H         1.57931626     10.71931648      6.14931583
H         1.57931626     12.13068295      7.56068325
B         2.28499985     11.42499924      6.85500002
B         2.28499985     11.42499924     11.42499924
H         2.99068356     10.71931648     12.13068295
H         2.99068356     12.13068295     10.71931648
H         1.57931626     10.71931648     10.71931648
H         1.57931626     12.13068295     12.13068295
B         2.28499985     11.42499924     15.99499989
H         2.99068356     10.71931648     16.70068359
H         2.99068356     12.13068295     15.28931522
H         1.57931626     10.71931648     15.28931522
H         1.57931626     12.13068295     16.70068359
B         2.28499985     11.42499924     20.56499863
H         2.99068356     10.71931648     21.27068329
H         2.99068356     12.13068295     19.85931396
H         1.57931626     10.71931648     19.85931396
H         1.57931626     12.13068295     21.27068329
B         2.28499985     11.42499924     25.13500023
H         2.99068356     10.71931648     25.84068108
H         2.99068356     12.13068295     24.42931557
H         1.57931626     10.71931648     24.42931557
H         1.57931626     12.13068295     25.84068108
H         1.57931626     12.13068295     30.41068268
B         2.28499985     11.42499924     29.70499992
H         2.99068356     10.71931648     30.41068268
H         2.99068356     12.13068295     28.99931526
H         1.57931626     10.71931648     28.99931526
H         1.57931626     16.70068359      2.99068356
B         2.28499985     15.99499989      2.28499985
H         2.99068356     15.28931522      2.99068356
H         2.99068356     16.70068359      1.57931626
H         1.57931626     15.28931522      1.57931626
H         1.57931626     16.70068359      7.56068325
B         2.28499985     15.99499989      6.85500002
H         2.99068356     15.28931522      7.56068325
H         2.99068356     16.70068359      6.14931583
H         1.57931626     15.28931522      6.14931583
H         1.57931626     16.70068359     12.13068295
B         2.28499985     15.99499989     11.42499924
H         2.99068356     15.28931522     12.13068295
H         2.99068356     16.70068359     10.71931648
H         1.57931626     15.28931522     10.71931648
H         1.57931626     16.70068359     16.70068359
B         2.28499985     15.99499989     15.99499989
H         2.99068356     15.28931522     16.70068359
H         2.99068356     16.70068359     15.28931522
H         1.57931626     15.28931522     15.28931522
H         1.57931626     15.28931522     19.85931396
H         1.57931626     16.70068359     21.27068329
B         2.28499985     15.99499989     20.56499863
H         2.99068356     15.28931522     21.27068329
H         2.99068356     16.70068359     19.85931396
H         1.57931626     15.28931522     24.42931557
H         1.57931626     16.70068359     25.84068108
B         2.28499985     15.99499989     25.13500023
H         2.99068356     15.28931522     25.84068108
H         2.99068356     16.70068359     24.42931557
H         1.57931626     15.28931522     28.99931526
H         1.57931626     16.70068359     30.41068268
B         2.28499985     15.99499989     29.70499992
H         2.99068356     15.28931522     30.41068268
H         2.99068356     16.70068359     28.99931526
H         1.57931626     19.85931396      1.57931626
H         1.57931626     21.27068329      2.99068356
B         2.28499985     20.56499863      2.28499985
H         2.99068356     19.85931396      2.99068356
H         2.99068356     21.27068329      1.57931626
H         1.57931626     19.85931396      6.14931583
H         1.57931626     21.27068329      7.56068325
B         2.28499985     20.56499863      6.85500002
H         2.99068356     19.85931396      7.56068325
H         2.99068356     21.27068329      6.14931583
H         1.57931626     19.85931396     10.71931648
H         1.57931626     21.27068329     12.13068295
B         2.28499985     20.56499863     11.42499924
H         2.99068356     19.85931396     12.13068295
H         2.99068356     21.27068329     10.71931648
H         1.57931626     19.85931396     15.28931522
H         1.57931626     21.27068329     16.70068359
B         2.28499985     20.56499863     15.99499989
H         2.99068356     19.85931396     16.70068359
H         2.99068356     21.27068329     15.28931522
H         1.57931626     19.85931396     19.85931396
H         1.57931626     21.27068329     21.27068329
B         2.28499985     20.56499863     20.56499863
H         2.99068356     19.85931396     21.27068329
H         2.99068356     21.27068329     19.85931396
H         1.57931626     19.85931396     24.42931557
H         1.57931626     21.27068329     25.84068108
B         2.28499985     20.56499863     25.13500023
H         2.99068356     19.85931396     25.84068108
H         2.99068356     21.27068329     24.42931557
H         2.99068356     21.27068329     28.99931526
H         1.57931626     19.85931396     28.99931526
H         1.57931626     21.27068329     30.41068268
B         2.28499985     20.56499863     29.70499992
H         2.99068356     19.85931396     30.41068268
H         2.99068356     25.84068108      1.57931626
H         1.57931626     24.42931557      1.57931626
H         1.57931626     25.84068108      2.99068356
B         2.28499985     25.13500023      2.28499985
H         2.99068356     24.42931557      2.99068356
H         2.99068356     25.84068108      6.14931583
H         1.57931626     24.42931557      6.14931583
H         1.57931626     25.84068108      7.56068325
B         2.28499985     25.13500023      6.85500002
H         2.99068356     24.42931557      7.56068325
H         2.99068356     25.84068108     10.71931648
H         1.57931626     24.42931557     10.71931648
H         1.57931626     25.84068108     12.13068295
B         2.28499985     25.13500023     11.42499924
H         2.99068356     24.42931557     12.13068295
H         2.99068356     25.84068108     15.28931522
H         1.57931626     24.42931557     15.28931522
H         1.57931626     25.84068108     16.70068359
B         2.28499985     25.13500023     15.99499989
H         2.99068356     24.42931557     16.70068359
H         2.99068356     25.84068108     19.85931396
H         1.57931626     24.42931557     19.85931396
H         1.57931626     25.84068108     21.27068329
B         2.28499985     25.13500023     20.56499863
H         2.99068356     24.42931557     21.27068329
H         2.99068356     25.84068108     24.42931557
H         1.57931626     24.42931557     24.42931557
H         1.57931626     25.84068108     25.84068108
B         2.28499985     25.13500023     25.13500023
H         2.99068356     24.42931557     25.84068108
H         2.99068356     25.84068108     28.99931526
H         1.57931626     24.42931557     28.99931526
H         1.57931626     25.84068108     30.41068268
B         2.28499985     25.13500023     29.70499992
H         2.99068356     24.42931557     30.41068268
H         2.99068356     30.41068268      1.57931626
H         1.57931626     28.99931526      1.57931626
H         1.57931626     30.41068268      2.99068356
B         2.28499985     29.70499992      2.28499985
H         2.99068356     28.99931526      2.99068356
H         2.99068356     28.99931526      7.56068325
H         2.99068356     30.41068268      6.14931583
H         1.57931626     28.99931526      6.14931583
H         1.57931626     30.41068268      7.56068325
B         2.28499985     29.70499992      6.85500002
H         2.99068356     28.99931526     12.13068295
H         2.99068356     30.41068268     10.71931648
H         1.57931626     28.99931526     10.71931648
H         1.57931626     30.41068268     12.13068295
B         2.28499985     29.70499992     11.42499924
H         2.99068356     28.99931526     16.70068359
H         2.99068356     30.41068268     15.28931522
H         1.57931626     28.99931526     15.28931522
H         1.57931626     30.41068268     16.70068359
B         2.28499985     29.70499992     15.99499989
H         2.99068356     28.99931526     21.27068329
H         2.99068356     30.41068268     19.85931396
H         1.57931626     28.99931526     19.85931396
H         1.57931626     30.41068268     21.27068329
B         2.28499985     29.70499992     20.56499863
H         2.99068356     28.99931526     25.84068108
H         2.99068356     30.41068268     24.42931557
H         1.57931626     28.99931526     24.42931557
H         1.57931626     30.41068268     25.84068108
B         2.28499985     29.70499992     25.13500023
B         2.28499985     29.70499992     29.70499992
H         2.99068356     28.99931526     30.41068268
H         2.99068356     30.41068268     28.99931526
H         1.57931626     28.99931526     28.99931526
H         1.57931626     30.41068268     30.41068268
B         6.85500002      2.28499985      2.28499985
H         7.56068325      1.57931626      2.99068356
H         7.56068325      2.99068356      1.57931626
H         6.14931583      1.57931626      1.57931626
H         6.14931583      2.99068356      2.99068356
B         6.85500002      2.28499985      6.85500002
H         7.56068325      1.57931626      7.56068325
H         7.56068325      2.99068356      6.14931583
H         6.14931583      1.57931626      6.14931583
H         6.14931583      2.99068356      7.56068325
B         6.85500002      2.28499985     11.42499924
H         7.56068325      1.57931626     12.13068295
H         7.56068325      2.99068356     10.71931648
H         6.14931583      1.57931626     10.71931648
H         6.14931583      2.99068356     12.13068295
H         6.14931583      2.99068356     16.70068359
B         6.85500002      2.28499985     15.99499989
H         7.56068325      1.57931626     16.70068359
H         7.56068325      2.99068356     15.28931522
H         6.14931583      1.57931626     15.28931522
H         6.14931583      2.99068356     21.27068329
B         6.85500002      2.28499985     20.56499863
H         7.56068325      1.57931626     21.27068329
H         7.56068325      2.99068356     19.85931396
H         6.14931583      1.57931626     19.85931396
H         6.14931583      2.99068356     25.84068108
B         6.85500002      2.28499985     25.13500023
H         7.56068325      1.57931626     25.84068108
H         7.56068325      2.99068356     24.42931557
H         6.14931583      1.57931626     24.42931557
H         6.14931583      2.99068356     30.41068268
B         6.85500002      2.28499985     29.70499992
H         7.56068325      1.57931626     30.41068268
H         7.56068325      2.99068356     28.99931526
H         6.14931583      1.57931626     28.99931526
H         6.14931583      7.56068325      2.99068356
B         6.85500002      6.85500002      2.28499985
H         7.56068325      6.14931583      2.99068356
H         7.56068325      7.56068325      1.57931626
H         6.14931583      6.14931583      1.57931626
H         6.14931583      6.14931583      6.14931583
H         6.14931583      7.56068325      7.56068325
B         6.85500002      6.85500002      6.85500002
H         7.56068325      6.14931583      7.56068325
H         7.56068325      7.56068325      6.14931583
H         6.14931583      6.14931583     10.71931648
H         6.14931583      7.56068325     12.13068295
B         6.85500002      6.85500002     11.42499924
H         7.56068325      6.14931583     12.13068295
H         7.56068325      7.56068325     10.71931648
H         6.14931583      6.14931583     15.28931522
H         6.14931583      7.56068325     16.70068359
B         6.85500002      6.85500002     15.99499989
H         7.56068325      6.14931583     16.70068359
H         7.56068325      7.56068325     15.28931522
H         6.14931583      6.14931583     19.85931396
H         6.14931583      7.56068325     21.27068329
B         6.85500002      6.85500002     20.56499863
H         7.56068325      6.14931583     21.27068329
H         7.56068325      7.56068325     19.85931396
H         6.14931583      6.14931583     24.42931557
H         6.14931583      7.56068325     25.84068108
B         6.85500002      6.85500002     25.13500023
H         7.56068325      6.14931583     25.84068108
H         7.56068325      7.56068325     24.42931557
H         6.14931583      6.14931583     28.99931526
H         6.14931583      7.56068325     30.41068268
B         6.85500002      6.85500002     29.70499992
H         7.56068325      6.14931583     30.41068268
H         7.56068325      7.56068325     28.99931526
H         6.14931583     10.71931648      1.57931626
H         6.14931583     12.13068295      2.99068356
B         6.85500002     11.42499924      2.28499985
H         7.56068325     10.71931648      2.99068356
H         7.56068325     12.13068295      1.57931626
H         6.14931583     10.71931648      6.14931583
H         6.14931583     12.13068295      7.56068325
B         6.85500002     11.42499924      6.85500002
H         7.56068325     10.71931648      7.56068325
H         7.56068325     12.13068295      6.14931583
H         6.14931583     10.71931648     10.71931648
H         6.14931583     12.13068295     12.13068295
B         6.85500002     11.42499924     11.42499924
H         7.56068325     10.71931648     12.13068295
H         7.56068325     12.13068295     10.71931648
H         7.56068325     12.13068295     15.28931522
H         6.14931583     10.71931648     15.28931522
H         6.14931583     12.13068295     16.70068359
B         6.85500002     11.42499924     15.99499989
H         7.56068325     10.71931648     16.70068359
H         7.56068325     12.13068295     19.85931396
H         6.14931583     10.71931648     19.85931396
H         6.14931583     12.13068295     21.27068329
B         6.85500002     11.42499924     20.56499863
H         7.56068325     10.71931648     21.27068329
H         7.56068325     12.13068295     24.42931557
H         6.14931583     10.71931648     24.42931557
H         6.14931583     12.13068295     25.84068108
B         6.85500002     11.42499924     25.13500023
H         7.56068325     10.71931648     25.84068108
H         7.56068325     12.13068295     28.99931526
H         6.14931583     10.71931648     28.99931526
H         6.14931583     12.13068295     30.41068268
B         6.85500002     11.42499924     29.70499992
H         7.56068325     10.71931648     30.41068268
H         7.56068325     16.70068359      1.57931626
H         6.14931583     15.28931522      1.57931626
H         6.14931583     16.70068359      2.99068356
B         6.85500002     15.99499989      2.28499985
H         7.56068325     15.28931522      2.99068356
H         7.56068325     16.70068359      6.14931583
H         6.14931583     15.28931522      6.14931583
H         6.14931583     16.70068359      7.56068325
B         6.85500002     15.99499989      6.85500002
H         7.56068325     15.28931522      7.56068325
H         7.56068325     16.70068359     10.71931648
H         6.14931583     15.28931522     10.71931648
H         6.14931583     16.70068359     12.13068295
B         6.85500002     15.99499989     11.42499924
H         7.56068325     15.28931522     12.13068295
H         7.56068325     16.70068359     15.28931522
H         6.14931583     15.28931522     15.28931522
H         6.14931583     16.70068359     16.70068359
B         6.85500002     15.99499989     15.99499989
H         7.56068325     15.28931522     16.70068359
H         7.56068325     16.70068359     19.85931396
H         6.14931583     15.28931522     19.85931396
H         6.14931583     16.70068359     21.27068329
B         6.85500002     15.99499989     20.56499863
H         7.56068325     15.28931522     21.27068329
H         7.56068325     15.28931522     25.84068108
H         7.56068325     16.70068359     24.42931557
H         6.14931583     15.28931522     24.42931557
H         6.14931583     16.70068359     25.84068108
B         6.85500002     15.99499989     25.13500023
H         7.56068325     15.28931522     30.41068268
H         7.56068325     16.70068359     28.99931526
H         6.14931583     15.28931522     28.99931526
H         6.14931583     16.70068359     30.41068268
B         6.85500002     15.99499989     29.70499992
H         7.56068325     19.85931396      2.99068356
H         7.56068325     21.27068329      1.57931626
H         6.14931583     19.85931396      1.57931626
H         6.14931583     21.27068329      2.99068356
B         6.85500002     20.56499863      2.28499985
H         7.56068325     19.85931396      7.56068325
H         7.56068325     21.27068329      6.14931583
H         6.14931583     19.85931396      6.14931583
H         6.14931583     21.27068329      7.56068325
B         6.85500002     20.56499863      6.85500002
H         7.56068325     19.85931396     12.13068295
H         7.56068325     21.27068329     10.71931648
H         6.14931583     19.85931396     10.71931648
H         6.14931583     21.27068329     12.13068295
B         6.85500002     20.56499863     11.42499924
B         6.85500002     20.56499863     15.99499989
H         7.56068325     19.85931396     16.70068359
H         7.56068325     21.27068329     15.28931522
H         6.14931583     19.85931396     15.28931522
H         6.14931583     21.27068329     16.70068359
B         6.85500002     20.56499863     20.56499863
H         7.56068325     19.85931396     21.27068329
H         7.56068325     21.27068329     19.85931396
H         6.14931583     19.85931396     19.85931396
H         6.14931583     21.27068329     21.27068329
B         6.85500002     20.56499863     25.13500023
H         7.56068325     19.85931396     25.84068108
H         7.56068325     21.27068329     24.42931557
H         6.14931583     19.85931396     24.42931557
H         6.14931583     21.27068329     25.84068108
B         6.85500002     20.56499863     29.70499992
H         7.56068325     19.85931396     30.41068268
H         7.56068325     21.27068329     28.99931526
H         6.14931583     19.85931396     28.99931526
H         6.14931583     21.27068329     30.41068268
H         6.14931583     25.84068108      2.99068356
B         6.85500002     25.13500023      2.28499985
H         7.56068325     24.42931557      2.99068356
H         7.56068325     25.84068108      1.57931626
H         6.14931583     24.42931557      1.57931626
H         6.14931583     25.84068108      7.56068325
B         6.85500002     25.13500023      6.85500002
H         7.56068325     24.42931557      7.56068325
H         7.56068325     25.84068108      6.14931583
H         6.14931583     24.42931557      6.14931583
H         6.14931583     25.84068108     12.13068295
B         6.85500002     25.13500023     11.42499924
H         7.56068325     24.42931557     12.13068295
H         7.56068325     25.84068108     10.71931648
H         6.14931583     24.42931557     10.71931648
H         6.14931583     25.84068108     16.70068359
B         6.85500002     25.13500023     15.99499989
H         7.56068325     24.42931557     16.70068359
H         7.56068325     25.84068108     15.28931522
H         6.14931583     24.42931557     15.28931522
H         6.14931583     25.84068108     21.27068329
B         6.85500002     25.13500023     20.56499863
H         7.56068325     24.42931557     21.27068329
H         7.56068325     25.84068108     19.85931396
H         6.14931583     24.42931557     19.85931396
H         6.14931583     24.42931557     24.42931557
H         6.14931583     25.84068108     25.84068108
B         6.85500002     25.13500023     25.13500023
H         7.56068325     24.42931557     25.84068108
H         7.56068325     25.84068108     24.42931557
H         6.14931583     24.42931557     28.99931526
H         6.14931583     25.84068108     30.41068268
B         6.85500002     25.13500023     29.70499992
H         7.56068325     24.42931557     30.41068268
H         7.56068325     25.84068108     28.99931526
H         6.14931583     28.99931526      1.57931626
H         6.14931583     30.41068268      2.99068356
B         6.85500002     29.70499992      2.28499985
H         7.56068325     28.99931526      2.99068356
H         7.56068325     30.41068268      1.57931626
H         6.14931583     28.99931526      6.14931583
H         6.14931583     30.41068268      7.56068325
B         6.85500002     29.70499992      6.85500002
H         7.56068325     28.99931526      7.56068325
H         7.56068325     30.41068268      6.14931583
H         6.14931583     28.99931526     10.71931648
H         6.14931583     30.41068268     12.13068295
B         6.85500002     29.70499992     11.42499924
H         7.56068325     28.99931526     12.13068295
H         7.56068325     30.41068268     10.71931648
H         6.14931583     28.99931526     15.28931522
H         6.14931583     30.41068268     16.70068359
B         6.85500002     29.70499992     15.99499989
H         7.56068325     28.99931526     16.70068359
H         7.56068325     30.41068268     15.28931522
H         6.14931583     28.99931526     19.85931396
H         6.14931583     30.41068268     21.27068329
B         6.85500002     29.70499992     20.56499863
H         7.56068325     28.99931526     21.27068329
H         7.56068325     30.41068268     19.85931396
H         6.14931583     28.99931526     24.42931557
H         6.14931583     30.41068268     25.84068108
B         6.85500002     29.70499992     25.13500023
H         7.56068325     28.99931526     25.84068108
H         7.56068325     30.41068268     24.42931557
H         6.14931583     28.99931526     28.99931526
H         6.14931583     30.41068268     30.41068268
B         6.85500002     29.70499992     29.70499992
H         7.56068325     28.99931526     30.41068268
H         7.56068325     30.41068268     28.99931526
H        12.13068295      2.99068356      1.57931626
H        10.71931648      1.57931626      1.57931626
H        10.71931648      2.99068356      2.99068356
B        11.42499924      2.28499985      2.28499985
H        12.13068295      1.57931626      2.99068356
H        12.13068295      2.99068356      6.14931583
H        10.71931648      1.57931626      6.14931583
H        10.71931648      2.99068356      7.56068325
B        11.42499924      2.28499985      6.85500002
H        12.13068295      1.57931626      7.56068325
H        12.13068295      2.99068356     10.71931648
H        10.71931648      1.57931626     10.71931648
H        10.71931648      2.99068356     12.13068295
B        11.42499924      2.28499985     11.42499924
H        12.13068295      1.57931626     12.13068295
H        12.13068295      2.99068356     15.28931522
H        10.71931648      1.57931626     15.28931522
H        10.71931648      2.99068356     16.70068359
B        11.42499924      2.28499985     15.99499989
H        12.13068295      1.57931626     16.70068359
H        12.13068295      2.99068356     19.85931396
H        10.71931648      1.57931626     19.85931396
H        10.71931648      2.99068356     21.27068329
B        11.42499924      2.28499985     20.56499863
H        12.13068295      1.57931626     21.27068329
H        12.13068295      2.99068356     24.42931557
H        10.71931648      1.57931626     24.42931557
H        10.71931648      2.99068356     25.84068108
B        11.42499924      2.28499985     25.13500023
H        12.13068295      1.57931626     25.84068108
H        12.13068295      2.99068356     28.99931526
H        10.71931648      1.57931626     28.99931526
H        10.71931648      2.99068356     30.41068268
B        11.42499924      2.28499985     29.70499992
H        12.13068295      1.57931626     30.41068268
H        12.13068295      7.56068325      1.57931626
H        10.71931648      6.14931583      1.57931626
H        10.71931648      7.56068325      2.99068356
B        11.42499924      6.85500002      2.28499985
H        12.13068295      6.14931583      2.99068356
H        12.13068295      7.56068325      6.14931583
H        10.71931648      6.14931583      6.14931583
H        10.71931648      7.56068325      7.56068325
B        11.42499924      6.85500002      6.85500002
H        12.13068295      6.14931583      7.56068325
H        12.13068295      6.14931583     12.13068295
H        12.13068295      7.56068325     10.71931648
H        10.71931648      6.14931583     10.71931648
H        10.71931648      7.56068325     12.13068295
B        11.42499924      6.85500002     11.42499924
H        12.13068295      6.14931583     16.70068359
H        12.13068295      7.56068325     15.28931522
H        10.71931648      6.14931583     15.28931522
H        10.71931648      7.56068325     16.70068359
B        11.42499924      6.85500002     15.99499989
H        12.13068295      6.14931583     21.27068329
H        12.13068295      7.56068325     19.85931396
H        10.71931648      6.14931583     19.85931396
H        10.71931648      7.56068325     21.27068329
B        11.42499924      6.85500002     20.56499863
H        12.13068295      6.14931583     25.84068108
H        12.13068295      7.56068325     24.42931557
H        10.71931648      6.14931583     24.42931557
H        10.71931648      7.56068325     25.84068108
B        11.42499924      6.85500002     25.13500023
H        12.13068295      6.14931583     30.41068268
H        12.13068295      7.56068325     28.99931526
H        10.71931648      6.14931583     28.99931526
H        10.71931648      7.56068325     30.41068268
B        11.42499924      6.85500002     29.70499992
B        11.42499924     11.42499924      2.28499985
H        12.13068295     10.71931648      2.99068356
H        12.13068295     12.13068295      1.57931626
H        10.71931648     10.71931648      1.57931626
H        10.71931648     12.13068295      2.99068356
B        11.42499924     11.42499924      6.85500002
H        12.13068295     10.71931648      7.56068325
H        12.13068295     12.13068295      6.14931583
H        10.71931648     10.71931648      6.14931583
H        10.71931648     12.13068295      7.56068325
B        11.42499924     11.42499924     11.42499924
H        12.13068295     10.71931648     12.13068295
H        12.13068295     12.13068295     10.71931648
H        10.71931648     10.71931648     10.71931648
H        10.71931648     12.13068295     12.13068295
B        11.42499924     11.42499924     15.99499989
H        12.13068295     10.71931648     16.70068359
H        12.13068295     12.13068295     15.28931522
H        10.71931648     10.71931648     15.28931522
H        10.71931648     12.13068295     16.70068359
H        10.71931648     12.13068295     21.27068329
B        11.42499924     11.42499924     20.56499863
H        12.13068295     10.71931648     21.27068329
H        12.13068295     12.13068295     19.85931396
H        10.71931648     10.71931648     19.85931396
H        10.71931648     12.13068295     25.84068108
B        11.42499924     11.42499924     25.13500023
H        12.13068295     10.71931648     25.84068108
H        12.13068295     12.13068295     24.42931557
H        10.71931648     10.71931648     24.42931557
H        10.71931648     12.13068295     30.41068268
B        11.42499924     11.42499924     29.70499992
H        12.13068295     10.71931648     30.41068268
H        12.13068295     12.13068295     28.99931526
H        10.71931648     10.71931648     28.99931526
H        10.71931648     16.70068359      2.99068356
B        11.42499924     15.99499989      2.28499985
H        12.13068295     15.28931522      2.99068356
H        12.13068295     16.70068359      1.57931626
H        10.71931648     15.28931522      1.57931626
H        10.71931648     16.70068359      7.56068325
B        11.42499924     15.99499989      6.85500002
H        12.13068295     15.28931522      7.56068325
H        12.13068295     16.70068359      6.14931583
H        10.71931648     15.28931522      6.14931583
H        10.71931648     15.28931522     10.71931648
H        10.71931648     16.70068359     12.13068295
B        11.42499924     15.99499989     11.42499924
H        12.13068295     15.28931522     12.13068295
H        12.13068295     16.70068359     10.71931648
H        10.71931648     15.28931522     15.28931522
H        10.71931648     16.70068359     16.70068359
B        11.42499924     15.99499989     15.99499989
H        12.13068295     15.28931522     16.70068359
H        12.13068295     16.70068359     15.28931522
H        10.71931648     15.28931522     19.85931396
H        10.71931648     16.70068359     21.27068329
B        11.42499924     15.99499989     20.56499863
H        12.13068295     15.28931522     21.27068329
H        12.13068295     16.70068359     19.85931396
H        10.71931648     15.28931522     24.42931557
H        10.71931648     16.70068359     25.84068108
B        11.42499924     15.99499989     25.13500023
H        12.13068295     15.28931522     25.84068108
H        12.13068295     16.70068359     24.42931557
H        10.71931648     15.28931522     28.99931526
H        10.71931648     16.70068359     30.41068268
B        11.42499924     15.99499989     29.70499992
H        12.13068295     15.28931522     30.41068268
H        12.13068295     16.70068359     28.99931526
H        10.71931648     19.85931396      1.57931626
H        10.71931648     21.27068329      2.99068356
B        11.42499924     20.56499863      2.28499985
H        12.13068295     19.85931396      2.99068356
H        12.13068295     21.27068329      1.57931626
H        10.71931648     19.85931396      6.14931583
H        10.71931648     21.27068329      7.56068325
B        11.42499924     20.56499863      6.85500002
H        12.13068295     19.85931396      7.56068325
H        12.13068295     21.27068329      6.14931583
H        10.71931648     19.85931396     10.71931648
H        10.71931648     21.27068329     12.13068295
B        11.42499924     20.56499863     11.42499924
H        12.13068295     19.85931396     12.13068295
H        12.13068295     21.27068329     10.71931648
H        10.71931648     19.85931396     15.28931522
H        10.71931648     21.27068329     16.70068359
B        11.42499924     20.56499863     15.99499989
H        12.13068295     19.85931396     16.70068359
H        12.13068295     21.27068329     15.28931522
H        12.13068295     21.27068329     19.85931396
H        10.71931648     19.85931396     19.85931396
H        10.71931648     21.27068329     21.27068329
B        11.42499924     20.56499863     20.56499863
H        12.13068295     19.85931396     21.27068329
H        12.13068295     21.27068329     24.42931557
H        10.71931648     19.85931396     24.42931557
H        10.71931648     21.27068329     25.84068108
B        11.42499924     20.56499863     25.13500023
H        12.13068295     19.85931396     25.84068108
H        12.13068295     21.27068329     28.99931526
H        10.71931648     19.85931396     28.99931526
H        10.71931648     21.27068329     30.41068268
B        11.42499924     20.56499863     29.70499992
H        12.13068295     19.85931396     30.41068268
H        12.13068295     25.84068108      1.57931626
H        10.71931648     24.42931557      1.57931626
H        10.71931648     25.84068108      2.99068356
B        11.42499924     25.13500023      2.28499985
H        12.13068295     24.42931557      2.99068356
H        12.13068295     25.84068108      6.14931583
H        10.71931648     24.42931557      6.14931583
H        10.71931648     25.84068108      7.56068325
B        11.42499924     25.13500023      6.85500002
H        12.13068295     24.42931557      7.56068325
H        12.13068295     25.84068108     10.71931648
H        10.71931648     24.42931557     10.71931648
H        10.71931648     25.84068108     12.13068295
B        11.42499924     25.13500023     11.42499924
H        12.13068295     24.42931557     12.13068295
H        12.13068295     25.84068108     15.28931522
H        10.71931648     24.42931557     15.28931522
H        10.71931648     25.84068108     16.70068359
B        11.42499924     25.13500023     15.99499989
H        12.13068295     24.42931557     16.70068359
H        12.13068295     25.84068108     19.85931396
H        10.71931648     24.42931557     19.85931396
H        10.71931648     25.84068108     21.27068329
B        11.42499924     25.13500023     20.56499863
H        12.13068295     24.42931557     21.27068329
H        12.13068295     25.84068108     24.42931557
H        10.71931648     24.42931557     24.42931557
H        10.71931648     25.84068108     25.84068108
B        11.42499924     25.13500023     25.13500023
H        12.13068295     24.42931557     25.84068108
H        12.13068295     24.42931557     30.41068268
H        12.13068295     25.84068108     28.99931526
H        10.71931648     24.42931557     28.99931526
H        10.71931648     25.84068108     30.41068268
B        11.42499924     25.13500023     29.70499992
H        12.13068295     28.99931526      2.99068356
H        12.13068295     30.41068268      1.57931626
H        10.71931648     28.99931526      1.57931626
H        10.71931648     30.41068268      2.99068356
B        11.42499924     29.70499992      2.28499985
H        12.13068295     28.99931526      7.56068325
H        12.13068295     30.41068268      6.14931583
H        10.71931648     28.99931526      6.14931583
H        10.71931648     30.41068268      7.56068325
B        11.42499924     29.70499992      6.85500002
H        12.13068295     28.99931526     12.13068295
H        12.13068295     30.41068268     10.71931648
H        10.71931648     28.99931526     10.71931648
H        10.71931648     30.41068268     12.13068295
B        11.42499924     29.70499992     11.42499924
H        12.13068295     28.99931526     16.70068359
H        12.13068295     30.41068268     15.28931522
H        10.71931648     28.99931526     15.28931522
H        10.71931648     30.41068268     16.70068359
B        11.42499924     29.70499992     15.99499989
B        11.42499924     29.70499992     20.56499863
H        12.13068295     28.99931526     21.27068329
H        12.13068295     30.41068268     19.85931396
H        10.71931648     28.99931526     19.85931396
H        10.71931648     30.41068268     21.27068329
B        11.42499924     29.70499992     25.13500023
H        12.13068295     28.99931526     25.84068108
H        12.13068295     30.41068268     24.42931557
H        10.71931648     28.99931526     24.42931557
H        10.71931648     30.41068268     25.84068108
B        11.42499924     29.70499992     29.70499992
H        12.13068295     28.99931526     30.41068268
H        12.13068295     30.41068268     28.99931526
H        10.71931648     28.99931526     28.99931526
H        10.71931648     30.41068268     30.41068268
B        15.99499989      2.28499985      2.28499985
H        16.70068359      1.57931626      2.99068356
H        16.70068359      2.99068356      1.57931626
H        15.28931522      1.57931626      1.57931626
H        15.28931522      2.99068356      2.99068356
H        15.28931522      2.99068356      7.56068325
B        15.99499989      2.28499985      6.85500002
H        16.70068359      1.57931626      7.56068325
H        16.70068359      2.99068356      6.14931583
H        15.28931522      1.57931626      6.14931583
H        15.28931522      2.99068356     12.13068295
B        15.99499989      2.28499985     11.42499924
H        16.70068359      1.57931626     12.13068295
H        16.70068359      2.99068356     10.71931648
H        15.28931522      1.57931626     10.71931648
H        15.28931522      2.99068356     16.70068359
B        15.99499989      2.28499985     15.99499989
H        16.70068359      1.57931626     16.70068359
H        16.70068359      2.99068356     15.28931522
H        15.28931522      1.57931626     15.28931522
H        15.28931522      2.99068356     21.27068329
B        15.99499989      2.28499985     20.56499863
H        16.70068359      1.57931626     21.27068329
H        16.70068359      2.99068356     19.85931396
H        15.28931522      1.57931626     19.85931396
H        15.28931522      2.99068356     25.84068108
B        15.99499989      2.28499985     25.13500023
H        16.70068359      1.57931626     25.84068108
H        16.70068359      2.99068356     24.42931557
H        15.28931522      1.57931626     24.42931557
H        15.28931522      1.57931626     28.99931526
H        15.28931522      2.99068356     30.41068268
B        15.99499989      2.28499985     29.70499992
H        16.70068359      1.57931626     30.41068268
H        16.70068359      2.99068356     28.99931526
H        15.28931522      6.14931583      1.57931626
H        15.28931522      7.56068325      2.99068356
B        15.99499989      6.85500002      2.28499985
H        16.70068359      6.14931583      2.99068356
H        16.70068359      7.56068325      1.57931626
H        15.28931522      6.14931583      6.14931583
H        15.28931522      7.56068325      7.56068325
B        15.99499989      6.85500002      6.85500002
H        16.70068359      6.14931583      7.56068325
H        16.70068359      7.56068325      6.14931583
H        15.28931522      6.14931583     10.71931648
H        15.28931522      7.56068325     12.13068295
B        15.99499989      6.85500002     11.42499924
H        16.70068359      6.14931583     12.13068295
H        16.70068359      7.56068325     10.71931648
H        15.28931522      6.14931583     15.28931522
H        15.28931522      7.56068325     16.70068359
B        15.99499989      6.85500002     15.99499989
H        16.70068359      6.14931583     16.70068359
H        16.70068359      7.56068325     15.28931522
H        15.28931522      6.14931583     19.85931396
H        15.28931522      7.56068325     21.27068329
B        15.99499989      6.85500002     20.56499863
H        16.70068359      6.14931583     21.27068329
H        16.70068359      7.56068325     19.85931396
H        15.28931522      6.14931583     24.42931557
H        15.28931522      7.56068325     25.84068108
B        15.99499989      6.85500002     25.13500023
H        16.70068359      6.14931583     25.84068108
H        16.70068359      7.56068325     24.42931557
H        15.28931522      6.14931583     28.99931526
H        15.28931522      7.56068325     30.41068268
B        15.99499989      6.85500002     29.70499992
H        16.70068359      6.14931583     30.41068268
H        16.70068359      7.56068325     28.99931526
H        15.28931522     10.71931648      1.57931626
H        15.28931522     12.13068295      2.99068356
B        15.99499989     11.42499924      2.28499985
H        16.70068359     10.71931648      2.99068356
H        16.70068359     12.13068295      1.57931626
H        16.70068359     12.13068295      6.14931583
H        15.28931522     10.71931648      6.14931583
H        15.28931522     12.13068295      7.56068325
B        15.99499989     11.42499924      6.85500002
H        16.70068359     10.71931648      7.56068325
H        16.70068359     12.13068295     10.71931648
H        15.28931522     10.71931648     10.71931648
H        15.28931522     12.13068295     12.13068295
B        15.99499989     11.42499924     11.42499924
H        16.70068359     10.71931648     12.13068295
H        16.70068359     12.13068295     15.28931522
H        15.28931522     10.71931648     15.28931522
H        15.28931522     12.13068295     16.70068359
B        15.99499989     11.42499924     15.99499989
H        16.70068359     10.71931648     16.70068359
H        16.70068359     12.13068295     19.85931396
H        15.28931522     10.71931648     19.85931396
H        15.28931522     12.13068295     21.27068329
B        15.99499989     11.42499924     20.56499863
H        16.70068359     10.71931648     21.27068329
H        16.70068359     12.13068295     24.42931557
H        15.28931522     10.71931648     24.42931557
H        15.28931522     12.13068295     25.84068108
B        15.99499989     11.42499924     25.13500023
H        16.70068359     10.71931648     25.84068108
H        16.70068359     12.13068295     28.99931526
H        15.28931522     10.71931648     28.99931526
H        15.28931522     12.13068295     30.41068268
B        15.99499989     11.42499924     29.70499992
H        16.70068359     10.71931648     30.41068268
H        16.70068359     16.70068359      1.57931626
H        15.28931522     15.28931522      1.57931626
H        15.28931522     16.70068359      2.99068356
B        15.99499989     15.99499989      2.28499985
H        16.70068359     15.28931522      2.99068356
H        16.70068359     16.70068359      6.14931583
H        15.28931522     15.28931522      6.14931583
H        15.28931522     16.70068359      7.56068325
B        15.99499989     15.99499989      6.85500002
H        16.70068359     15.28931522      7.56068325
H        16.70068359     16.70068359     10.71931648
H        15.28931522     15.28931522     10.71931648
H        15.28931522     16.70068359     12.13068295
B        15.99499989     15.99499989     11.42499924
H        16.70068359     15.28931522     12.13068295
H        16.70068359     15.28931522     16.70068359
H        16.70068359     16.70068359     15.28931522
H        15.28931522     15.28931522     15.28931522
H        15.28931522     16.70068359     16.70068359
B        15.99499989     15.99499989     15.99499989
H        16.70068359     15.28931522     21.27068329
H        16.70068359     16.70068359     19.85931396
H        15.28931522     15.28931522     19.85931396
H        15.28931522     16.70068359     21.27068329
B        15.99499989     15.99499989     20.56499863
H        16.70068359     15.28931522     25.84068108
H        16.70068359     16.70068359     24.42931557
H        15.28931522     15.28931522     24.42931557
H        15.28931522     16.70068359     25.84068108
B        15.99499989     15.99499989     25.13500023
H        16.70068359     15.28931522     30.41068268
H        16.70068359     16.70068359     28.99931526
H        15.28931522     15.28931522     28.99931526
H        15.28931522     16.70068359     30.41068268
B        15.99499989     15.99499989     29.70499992
H        16.70068359     19.85931396      2.99068356
H        16.70068359     21.27068329      1.57931626
H        15.28931522     19.85931396      1.57931626
H        15.28931522     21.27068329      2.99068356
B        15.99499989     20.56499863      2.28499985
B        15.99499989     20.56499863      6.85500002
H        16.70068359     19.85931396      7.56068325
H        16.70068359     21.27068329      6.14931583
H        15.28931522     19.85931396      6.14931583
H        15.28931522     21.27068329      7.56068325
B        15.99499989     20.56499863     11.42499924
H        16.70068359     19.85931396     12.13068295
H        16.70068359     21.27068329     10.71931648
H        15.28931522     19.85931396     10.71931648
H        15.28931522     21.27068329     12.13068295
B        15.99499989     20.56499863     15.99499989
H        16.70068359     19.85931396     16.70068359
H        16.70068359     21.27068329     15.28931522
H        15.28931522     19.85931396     15.28931522
H        15.28931522     21.27068329     16.70068359
B        15.99499989     20.56499863     20.56499863
H        16.70068359     19.85931396     21.27068329
H        16.70068359     21.27068329     19.85931396
H        15.28931522     19.85931396     19.85931396
H        15.28931522     21.27068329     21.27068329
H        15.28931522     21.27068329     25.84068108
B        15.99499989     20.56499863     25.13500023
H        16.70068359     19.85931396     25.84068108
H        16.70068359     21.27068329     24.42931557
H        15.28931522     19.85931396     24.42931557
H        15.28931522     21.27068329     30.41068268
B        15.99499989     20.56499863     29.70499992
H        16.70068359     19.85931396     30.41068268
H        16.70068359     21.27068329     28.99931526
H        15.28931522     19.85931396     28.99931526
H        15.28931522     25.84068108      2.99068356
B        15.99499989     25.13500023      2.28499985
H        16.70068359     24.42931557      2.99068356
H        16.70068359     25.84068108      1.57931626
H        15.28931522     24.42931557      1.57931626
H        15.28931522     25.84068108      7.56068325
B        15.99499989     25.13500023      6.85500002
H        16.70068359     24.42931557      7.56068325
H        16.70068359     25.84068108      6.14931583
H        15.28931522     24.42931557      6.14931583
H        15.28931522     25.84068108     12.13068295
B        15.99499989     25.13500023     11.42499924
H        16.70068359     24.42931557     12.13068295
H        16.70068359     25.84068108     10.71931648
H        15.28931522     24.42931557     10.71931648
H        15.28931522     24.42931557     15.28931522
H        15.28931522     25.84068108     16.70068359
B        15.99499989     25.13500023     15.99499989
H        16.70068359     24.42931557     16.70068359
H        16.70068359     25.84068108     15.28931522
H        15.28931522     24.42931557     19.85931396
H        15.28931522     25.84068108     21.27068329
B        15.99499989     25.13500023     20.56499863
H        16.70068359     24.42931557     21.27068329
H        16.70068359     25.84068108     19.85931396
H        15.28931522     24.42931557     24.42931557
H        15.28931522     25.84068108     25.84068108
B        15.99499989     25.13500023     25.13500023
H        16.70068359     24.42931557     25.84068108
H        16.70068359     25.84068108     24.42931557
H        15.28931522     24.42931557     28.99931526
H        15.28931522     25.84068108     30.41068268
B        15.99499989     25.13500023     29.70499992
H        16.70068359     24.42931557     30.41068268
H        16.70068359     25.84068108     28.99931526
H        15.28931522     28.99931526      1.57931626
H        15.28931522     30.41068268      2.99068356
B        15.99499989     29.70499992      2.28499985
H        16.70068359     28.99931526      2.99068356
H        16.70068359     30.41068268      1.57931626
H        15.28931522     28.99931526      6.14931583
H        15.28931522     30.41068268      7.56068325
B        15.99499989     29.70499992      6.85500002
H        16.70068359     28.99931526      7.56068325
H        16.70068359     30.41068268      6.14931583
H        15.28931522     28.99931526     10.71931648
H        15.28931522     30.41068268     12.13068295
B        15.99499989     29.70499992     11.42499924
H        16.70068359     28.99931526     12.13068295
H        16.70068359     30.41068268     10.71931648
H        15.28931522     28.99931526     15.28931522
H        15.28931522     30.41068268     16.70068359
B        15.99499989     29.70499992     15.99499989
H        16.70068359     28.99931526     16.70068359
H        16.70068359     30.41068268     15.28931522
H        15.28931522     28.99931526     19.85931396
H        15.28931522     30.41068268     21.27068329
B        15.99499989     29.70499992     20.56499863
H        16.70068359     28.99931526     21.27068329
H        16.70068359     30.41068268     19.85931396
H        16.70068359     30.41068268     24.42931557
H        15.28931522     28.99931526     24.42931557
H        15.28931522     30.41068268     25.84068108
B        15.99499989     29.70499992     25.13500023
H        16.70068359     28.99931526     25.84068108
H        16.70068359     30.41068268     28.99931526
H        15.28931522     28.99931526     28.99931526
H        15.28931522     30.41068268     30.41068268
B        15.99499989     29.70499992     29.70499992
H        16.70068359     28.99931526     30.41068268
H        21.27068329      2.99068356      1.57931626
H        19.85931396      1.57931626      1.57931626
H        19.85931396      2.99068356      2.99068356
B        20.56499863      2.28499985      2.28499985
H        21.27068329      1.57931626      2.99068356
H        21.27068329      2.99068356      6.14931583
H        19.85931396      1.57931626      6.14931583
H        19.85931396      2.99068356      7.56068325
B        20.56499863      2.28499985      6.85500002
H        21.27068329      1.57931626      7.56068325
H        21.27068329      2.99068356     10.71931648
H        19.85931396      1.57931626     10.71931648
H        19.85931396      2.99068356     12.13068295
B        20.56499863      2.28499985     11.42499924
H        21.27068329      1.57931626     12.13068295
H        21.27068329      2.99068356     15.28931522
H        19.85931396      1.57931626     15.28931522
H        19.85931396      2.99068356     16.70068359
B        20.56499863      2.28499985     15.99499989
H        21.27068329      1.57931626     16.70068359
H        21.27068329      2.99068356     19.85931396
H        19.85931396      1.57931626     19.85931396
H        19.85931396      2.99068356     21.27068329
B        20.56499863      2.28499985     20.56499863
H        21.27068329      1.57931626     21.27068329
H        21.27068329      2.99068356     24.42931557
H        19.85931396      1.57931626     24.42931557
H        19.85931396      2.99068356     25.84068108
B        20.56499863      2.28499985     25.13500023
H        21.27068329      1.57931626     25.84068108
H        21.27068329      2.99068356     28.99931526
H        19.85931396      1.57931626     28.99931526
H        19.85931396      2.99068356     30.41068268
B        20.56499863      2.28499985     29.70499992
H        21.27068329      1.57931626     30.41068268
H        21.27068329      6.14931583      2.99068356
H        21.27068329      7.56068325      1.57931626
H        19.85931396      6.14931583      1.57931626
H        19.85931396      7.56068325      2.99068356
B        20.56499863      6.85500002      2.28499985
H        21.27068329      6.14931583      7.56068325
H        21.27068329      7.56068325      6.14931583
H        19.85931396      6.14931583      6.14931583
H        19.85931396      7.56068325      7.56068325
B        20.56499863      6.85500002      6.85500002
H        21.27068329      6.14931583     12.13068295
H        21.27068329      7.56068325     10.71931648
H        19.85931396      6.14931583     10.71931648
H        19.85931396      7.56068325     12.13068295
B        20.56499863      6.85500002     11.42499924
H        21.27068329      6.14931583     16.70068359
H        21.27068329      7.56068325     15.28931522
H        19.85931396      6.14931583     15.28931522
H        19.85931396      7.56068325     16.70068359
B        20.56499863      6.85500002     15.99499989
H        21.27068329      6.14931583     21.27068329
H        21.27068329      7.56068325     19.85931396
H        19.85931396      6.14931583     19.85931396
H        19.85931396      7.56068325     21.27068329
B        20.56499863      6.85500002     20.56499863
B        20.56499863      6.85500002     25.13500023
H        21.27068329      6.14931583     25.84068108
H        21.27068329      7.56068325     24.42931557
H        19.85931396      6.14931583     24.42931557
H        19.85931396      7.56068325     25.84068108
B        20.56499863      6.85500002     29.70499992
H        21.27068329      6.14931583     30.41068268
H        21.27068329      7.56068325     28.99931526
H        19.85931396      6.14931583     28.99931526
H        19.85931396      7.56068325     30.41068268
B        20.56499863     11.42499924      2.28499985
H        21.27068329     10.71931648      2.99068356
H        21.27068329     12.13068295      1.57931626
H        19.85931396     10.71931648      1.57931626
H        19.85931396     12.13068295      2.99068356
B        20.56499863     11.42499924      6.85500002
H        21.27068329     10.71931648      7.56068325
H        21.27068329     12.13068295      6.14931583
H        19.85931396     10.71931648      6.14931583
H        19.85931396     12.13068295      7.56068325
H        19.85931396     12.13068295     12.13068295
B        20.56499863     11.42499924     11.42499924
H        21.27068329     10.71931648     12.13068295
H        21.27068329     12.13068295     10.71931648
H        19.85931396     10.71931648     10.71931648
H        19.85931396     12.13068295     16.70068359
B        20.56499863     11.42499924     15.99499989
H        21.27068329     10.71931648     16.70068359
H        21.27068329     12.13068295     15.28931522
H        19.85931396     10.71931648     15.28931522
H        19.85931396     12.13068295     21.27068329
B        20.56499863     11.42499924     20.56499863
H        21.27068329     10.71931648     21.27068329
H        21.27068329     12.13068295     19.85931396
H        19.85931396     10.71931648     19.85931396
H        19.85931396     12.13068295     25.84068108
B        20.56499863     11.42499924     25.13500023
H        21.27068329     10.71931648     25.84068108
H        21.27068329     12.13068295     24.42931557
H        19.85931396     10.71931648     24.42931557
H        19.85931396     12.13068295     30.41068268
B        20.56499863     11.42499924     29.70499992
H        21.27068329     10.71931648     30.41068268
H        21.27068329     12.13068295     28.99931526
H        19.85931396     10.71931648     28.99931526
H        19.85931396     15.28931522      1.57931626
H        19.85931396     16.70068359      2.99068356
B        20.56499863     15.99499989      2.28499985
H        21.27068329     15.28931522      2.99068356
H        21.27068329     16.70068359      1.57931626
H        19.85931396     15.28931522      6.14931583
H        19.85931396     16.70068359      7.56068325
B        20.56499863     15.99499989      6.85500002
H        21.27068329     15.28931522      7.56068325
H        21.27068329     16.70068359      6.14931583
H        19.85931396     15.28931522     10.71931648
H        19.85931396     16.70068359     12.13068295
B        20.56499863     15.99499989     11.42499924
H        21.27068329     15.28931522     12.13068295
H        21.27068329     16.70068359     10.71931648
H        19.85931396     15.28931522     15.28931522
H        19.85931396     16.70068359     16.70068359
B        20.56499863     15.99499989     15.99499989
H        21.27068329     15.28931522     16.70068359
H        21.27068329     16.70068359     15.28931522
H        19.85931396     15.28931522     19.85931396
H        19.85931396     16.70068359     21.27068329
B        20.56499863     15.99499989     20.56499863
H        21.27068329     15.28931522     21.27068329
H        21.27068329     16.70068359     19.85931396
H        19.85931396     15.28931522     24.42931557
H        19.85931396     16.70068359     25.84068108
B        20.56499863     15.99499989     25.13500023
H        21.27068329     15.28931522     25.84068108
H        21.27068329     16.70068359     24.42931557
H        19.85931396     15.28931522     28.99931526
H        19.85931396     16.70068359     30.41068268
B        20.56499863     15.99499989     29.70499992
H        21.27068329     15.28931522     30.41068268
H        21.27068329     16.70068359     28.99931526
H        19.85931396     19.85931396      1.57931626
H        19.85931396     21.27068329      2.99068356
B        20.56499863     20.56499863      2.28499985
H        21.27068329     19.85931396      2.99068356
H        21.27068329     21.27068329      1.57931626
H        19.85931396     19.85931396      6.14931583
H        19.85931396     21.27068329      7.56068325
B        20.56499863     20.56499863      6.85500002
H        21.27068329     19.85931396      7.56068325
H        21.27068329     21.27068329      6.14931583
H        21.27068329     21.27068329     10.71931648
H        19.85931396     19.85931396     10.71931648
H        19.85931396     21.27068329     12.13068295
B        20.56499863     20.56499863     11.42499924
H        21.27068329     19.85931396     12.13068295
H        21.27068329     21.27068329     15.28931522
H        19.85931396     19.85931396     15.28931522
H        19.85931396     21.27068329     16.70068359
B        20.56499863     20.56499863     15.99499989
H        21.27068329     19.85931396     16.70068359
H        21.27068329     21.27068329     19.85931396
H        19.85931396     19.85931396     19.85931396
H        19.85931396     21.27068329     21.27068329
B        20.56499863     20.56499863     20.56499863
H        21.27068329     19.85931396     21.27068329
H        21.27068329     21.27068329     24.42931557
H        19.85931396     19.85931396     24.42931557
H        19.85931396     21.27068329     25.84068108
B        20.56499863     20.56499863     25.13500023
H        21.27068329     19.85931396     25.84068108
H        21.27068329     21.27068329     28.99931526
H        19.85931396     19.85931396     28.99931526
H        19.85931396     21.27068329     30.41068268
B        20.56499863     20.56499863     29.70499992
H        21.27068329     19.85931396     30.41068268
H        21.27068329     25.84068108      1.57931626
H        19.85931396     24.42931557      1.57931626
H        19.85931396     25.84068108      2.99068356
B        20.56499863     25.13500023      2.28499985
H        21.27068329     24.42931557      2.99068356
H        21.27068329     25.84068108      6.14931583
H        19.85931396     24.42931557      6.14931583
H        19.85931396     25.84068108      7.56068325
B        20.56499863     25.13500023      6.85500002
H        21.27068329     24.42931557      7.56068325
H        21.27068329     25.84068108     10.71931648
H        19.85931396     24.42931557     10.71931648
H        19.85931396     25.84068108     12.13068295
B        20.56499863     25.13500023     11.42499924
H        21.27068329     24.42931557     12.13068295
H        21.27068329     25.84068108     15.28931522
H        19.85931396     24.42931557     15.28931522
H        19.85931396     25.84068108     16.70068359
B        20.56499863     25.13500023     15.99499989
H        21.27068329     24.42931557     16.70068359
H        21.27068329     24.42931557     21.27068329
H        21.27068329     25.84068108     19.85931396
H        19.85931396     24.42931557     19.85931396
H        19.85931396     25.84068108     21.27068329
B        20.56499863     25.13500023     20.56499863
H        21.27068329     24.42931557     25.84068108
H        21.27068329     25.84068108     24.42931557
H        19.85931396     24.42931557     24.42931557
H        19.85931396     25.84068108     25.84068108
B        20.56499863     25.13500023     25.13500023
H        21.27068329     24.42931557     30.41068268
H        21.27068329     25.84068108     28.99931526
H        19.85931396     24.42931557     28.99931526
H        19.85931396     25.84068108     30.41068268
B        20.56499863     25.13500023     29.70499992
H        21.27068329     28.99931526      2.99068356
H        21.27068329     30.41068268      1.57931626
H        19.85931396     28.99931526      1.57931626
H        19.85931396     30.41068268      2.99068356
B        20.56499863     29.70499992      2.28499985
H        21.27068329     28.99931526      7.56068325
H        21.27068329     30.41068268      6.14931583
H        19.85931396     28.99931526      6.14931583
H        19.85931396     30.41068268      7.56068325
B        20.56499863     29.70499992      6.85500002
B        20.56499863     29.70499992     11.42499924
H        21.27068329     28.99931526     12.13068295
H        21.27068329     30.41068268     10.71931648
H        19.85931396     28.99931526     10.71931648
H        19.85931396     30.41068268     12.13068295
B        20.56499863     29.70499992     15.99499989
H        21.27068329     28.99931526     16.70068359
H        21.27068329     30.41068268     15.28931522
H        19.85931396     28.99931526     15.28931522
H        19.85931396     30.41068268     16.70068359
B        20.56499863     29.70499992     20.56499863
H        21.27068329     28.99931526     21.27068329
H        21.27068329     30.41068268     19.85931396
H        19.85931396     28.99931526     19.85931396
H        19.85931396     30.41068268     21.27068329
B        20.56499863     29.70499992     25.13500023
H        21.27068329     28.99931526     25.84068108
H        21.27068329     30.41068268     24.42931557
H        19.85931396     28.99931526     24.42931557
H        19.85931396     30.41068268     25.84068108
H        19.85931396     30.41068268     30.41068268
B        20.56499863     29.70499992     29.70499992
H        21.27068329     28.99931526     30.41068268
H        21.27068329     30.41068268     28.99931526
H        19.85931396     28.99931526     28.99931526
H        24.42931557      2.99068356      2.99068356
B        25.13500023      2.28499985      2.28499985
H        25.84068108      1.57931626      2.99068356
H        25.84068108      2.99068356      1.57931626
H        24.42931557      1.57931626      1.57931626
H        24.42931557      2.99068356      7.56068325
B        25.13500023      2.28499985      6.85500002
H        25.84068108      1.57931626      7.56068325
H        25.84068108      2.99068356      6.14931583
H        24.42931557      1.57931626      6.14931583
H        24.42931557      2.99068356     12.13068295
B        25.13500023      2.28499985     11.42499924
H        25.84068108      1.57931626     12.13068295
H        25.84068108      2.99068356     10.71931648
H        24.42931557      1.57931626     10.71931648
H        24.42931557      2.99068356     16.70068359
B        25.13500023      2.28499985     15.99499989
H        25.84068108      1.57931626     16.70068359
H        25.84068108      2.99068356     15.28931522
H        24.42931557      1.57931626     15.28931522
H        24.42931557      1.57931626     19.85931396
H        24.42931557      2.99068356     21.27068329
B        25.13500023      2.28499985     20.56499863
H        25.84068108      1.57931626     21.27068329
H        25.84068108      2.99068356     19.85931396
H        24.42931557      1.57931626     24.42931557
H        24.42931557      2.99068356     25.84068108
B        25.13500023      2.28499985     25.13500023
H        25.84068108      1.57931626     25.84068108
H        25.84068108      2.99068356     24.42931557
H        24.42931557      1.57931626     28.99931526
H        24.42931557      2.99068356     30.41068268
B        25.13500023      2.28499985     29.70499992
H        25.84068108      1.57931626     30.41068268
H        25.84068108      2.99068356     28.99931526
H        24.42931557      6.14931583      1.57931626
H        24.42931557      7.56068325      2.99068356
B        25.13500023      6.85500002      2.28499985
H        25.84068108      6.14931583      2.99068356
H        25.84068108      7.56068325      1.57931626
H        24.42931557      6.14931583      6.14931583
H        24.42931557      7.56068325      7.56068325
B        25.13500023      6.85500002      6.85500002
H        25.84068108      6.14931583      7.56068325
H        25.84068108      7.56068325      6.14931583
H        24.42931557      6.14931583     10.71931648
H        24.42931557      7.56068325     12.13068295
B        25.13500023      6.85500002     11.42499924
H        25.84068108      6.14931583     12.13068295
H        25.84068108      7.56068325     10.71931648
H        24.42931557      6.14931583     15.28931522
H        24.42931557      7.56068325     16.70068359
B        25.13500023      6.85500002     15.99499989
H        25.84068108      6.14931583     16.70068359
H        25.84068108      7.56068325     15.28931522
H        24.42931557      6.14931583     19.85931396
H        24.42931557      7.56068325     21.27068329
B        25.13500023      6.85500002     20.56499863
H        25.84068108      6.14931583     21.27068329
H        25.84068108      7.56068325     19.85931396
H        24.42931557      6.14931583     24.42931557
H        24.42931557      7.56068325     25.84068108
B        25.13500023      6.85500002     25.13500023
H        25.84068108      6.14931583     25.84068108
H        25.84068108      7.56068325     24.42931557
H        25.84068108      7.56068325     28.99931526
H        24.42931557      6.14931583     28.99931526
H        24.42931557      7.56068325     30.41068268
B        25.13500023      6.85500002     29.70499992
H        25.84068108      6.14931583     30.41068268
H        25.84068108     12.13068295      1.57931626
H        24.42931557     10.71931648      1.57931626
H        24.42931557     12.13068295      2.99068356
B        25.13500023     11.42499924      2.28499985
H        25.84068108     10.71931648      2.99068356
H        25.84068108     12.13068295      6.14931583
H        24.42931557     10.71931648      6.14931583
H        24.42931557     12.13068295      7.56068325
B        25.13500023     11.42499924      6.85500002
H        25.84068108     10.71931648      7.56068325
H        25.84068108     12.13068295     10.71931648
H        24.42931557     10.71931648     10.71931648
H        24.42931557     12.13068295     12.13068295
B        25.13500023     11.42499924     11.42499924
H        25.84068108     10.71931648     12.13068295
H        25.84068108     12.13068295     15.28931522
H        24.42931557     10.71931648     15.28931522
H        24.42931557     12.13068295     16.70068359
B        25.13500023     11.42499924     15.99499989
H        25.84068108     10.71931648     16.70068359
H        25.84068108     12.13068295     19.85931396
H        24.42931557     10.71931648     19.85931396
H        24.42931557     12.13068295     21.27068329
B        25.13500023     11.42499924     20.56499863
H        25.84068108     10.71931648     21.27068329
H        25.84068108     12.13068295     24.42931557
H        24.42931557     10.71931648     24.42931557
H        24.42931557     12.13068295     25.84068108
B        25.13500023     11.42499924     25.13500023
H        25.84068108     10.71931648     25.84068108
H        25.84068108     12.13068295     28.99931526
H        24.42931557     10.71931648     28.99931526
H        24.42931557     12.13068295     30.41068268
B        25.13500023     11.42499924     29.70499992
H        25.84068108     10.71931648     30.41068268
H        25.84068108     16.70068359      1.57931626
H        24.42931557     15.28931522      1.57931626
H        24.42931557     16.70068359      2.99068356
B        25.13500023     15.99499989      2.28499985
H        25.84068108     15.28931522      2.99068356
H        25.84068108     15.28931522      7.56068325
H        25.84068108     16.70068359      6.14931583
H        24.42931557     15.28931522      6.14931583
H        24.42931557     16.70068359      7.56068325
B        25.13500023     15.99499989      6.85500002
H        25.84068108     15.28931522     12.13068295
H        25.84068108     16.70068359     10.71931648
H        24.42931557     15.28931522     10.71931648
H        24.42931557     16.70068359     12.13068295
B        25.13500023     15.99499989     11.42499924
H        25.84068108     15.28931522     16.70068359
H        25.84068108     16.70068359     15.28931522
H        24.42931557     15.28931522     15.28931522
H        24.42931557     16.70068359     16.70068359
B        25.13500023     15.99499989     15.99499989
H        25.84068108     15.28931522     21.27068329
H        25.84068108     16.70068359     19.85931396
H        24.42931557     15.28931522     19.85931396
H        24.42931557     16.70068359     21.27068329
B        25.13500023     15.99499989     20.56499863
H        25.84068108     15.28931522     25.84068108
H        25.84068108     16.70068359     24.42931557
H        24.42931557     15.28931522     24.42931557
H        24.42931557     16.70068359     25.84068108
B        25.13500023     15.99499989     25.13500023
B        25.13500023     15.99499989     29.70499992
H        25.84068108     15.28931522     30.41068268
H        25.84068108     16.70068359     28.99931526
H        24.42931557     15.28931522     28.99931526
H        24.42931557     16.70068359     30.41068268
B        25.13500023     20.56499863      2.28499985
H        25.84068108     19.85931396      2.99068356
H        25.84068108     21.27068329      1.57931626
H        24.42931557     19.85931396      1.57931626
H        24.42931557     21.27068329      2.99068356
B        25.13500023     20.56499863      6.85500002
H        25.84068108     19.85931396      7.56068325
H        25.84068108     21.27068329      6.14931583
H        24.42931557     19.85931396      6.14931583
H        24.42931557     21.27068329      7.56068325
B        25.13500023     20.56499863     11.42499924
H        25.84068108     19.85931396     12.13068295
H        25.84068108     21.27068329     10.71931648
H        24.42931557     19.85931396     10.71931648
H        24.42931557     21.27068329     12.13068295
H        24.42931557     21.27068329     16.70068359
B        25.13500023     20.56499863     15.99499989
H        25.84068108     19.85931396     16.70068359
H        25.84068108     21.27068329     15.28931522
H        24.42931557     19.85931396     15.28931522
H        24.42931557     21.27068329     21.27068329
B        25.13500023     20.56499863     20.56499863
H        25.84068108     19.85931396     21.27068329
H        25.84068108     21.27068329     19.85931396
H        24.42931557     19.85931396     19.85931396
H        24.42931557     21.27068329     25.84068108
B        25.13500023     20.56499863     25.13500023
H        25.84068108     19.85931396     25.84068108
H        25.84068108     21.27068329     24.42931557
H        24.42931557     19.85931396     24.42931557
H        24.42931557     21.27068329     30.41068268
B        25.13500023     20.56499863     29.70499992
H        25.84068108     19.85931396     30.41068268
H        25.84068108     21.27068329     28.99931526
H        24.42931557     19.85931396     28.99931526
H        24.42931557     25.84068108      2.99068356
B        25.13500023     25.13500023      2.28499985
H        25.84068108     24.42931557      2.99068356
H        25.84068108     25.84068108      1.57931626
H        24.42931557     24.42931557      1.57931626
H        24.42931557     24.42931557      6.14931583
H        24.42931557     25.84068108      7.56068325
B        25.13500023     25.13500023      6.85500002
H        25.84068108     24.42931557      7.56068325
H        25.84068108     25.84068108      6.14931583
H        24.42931557     24.42931557     10.71931648
H        24.42931557     25.84068108     12.13068295
B        25.13500023     25.13500023     11.42499924
H        25.84068108     24.42931557     12.13068295
H        25.84068108     25.84068108     10.71931648
H        24.42931557     24.42931557     15.28931522
H        24.42931557     25.84068108     16.70068359
B        25.13500023     25.13500023     15.99499989
H        25.84068108     24.42931557     16.70068359
H        25.84068108     25.84068108     15.28931522
H        24.42931557     24.42931557     19.85931396
H        24.42931557     25.84068108     21.27068329
B        25.13500023     25.13500023     20.56499863
H        25.84068108     24.42931557     21.27068329
H        25.84068108     25.84068108     19.85931396
H        24.42931557     24.42931557     24.42931557
H        24.42931557     25.84068108     25.84068108
B        25.13500023     25.13500023     25.13500023
H        25.84068108     24.42931557     25.84068108
H        25.84068108     25.84068108     24.42931557
H        24.42931557     24.42931557     28.99931526
H        24.42931557     25.84068108     30.41068268
B        25.13500023     25.13500023     29.70499992
H        25.84068108     24.42931557     30.41068268
H        25.84068108     25.84068108     28.99931526
H        24.42931557     28.99931526      1.57931626
H        24.42931557     30.41068268      2.99068356
B        25.13500023     29.70499992      2.28499985
H        25.84068108     28.99931526      2.99068356
H        25.84068108     30.41068268      1.57931626
H        24.42931557     28.99931526      6.14931583
H        24.42931557     30.41068268      7.56068325
B        25.13500023     29.70499992      6.85500002
H        25.84068108     28.99931526      7.56068325
H        25.84068108     30.41068268      6.14931583
H        24.42931557     28.99931526     10.71931648
H        24.42931557     30.41068268     12.13068295
B        25.13500023     29.70499992     11.42499924
H        25.84068108     28.99931526     12.13068295
H        25.84068108     30.41068268     10.71931648
H        25.84068108     30.41068268     15.28931522
H        24.42931557     28.99931526     15.28931522
H        24.42931557     30.41068268     16.70068359
B        25.13500023     29.70499992     15.99499989
H        25.84068108     28.99931526     16.70068359
H        25.84068108     30.41068268     19.85931396
H        24.42931557     28.99931526     19.85931396
H        24.42931557     30.41068268     21.27068329
B        25.13500023     29.70499992     20.56499863
H        25.84068108     28.99931526     21.27068329
H        25.84068108     30.41068268     24.42931557
H        24.42931557     28.99931526     24.42931557
H        24.42931557     30.41068268     25.84068108
B        25.13500023     29.70499992     25.13500023
H        25.84068108     28.99931526     25.84068108
H        25.84068108     30.41068268     28.99931526
H        24.42931557     28.99931526     28.99931526
H        24.42931557     30.41068268     30.41068268
B        25.13500023     29.70499992     29.70499992
H        25.84068108     28.99931526     30.41068268
H        30.41068268      2.99068356      1.57931626
H        28.99931526      1.57931626      1.57931626
H        28.99931526      2.99068356      2.99068356
B        29.70499992      2.28499985      2.28499985
H        30.41068268      1.57931626      2.99068356
H        30.41068268      2.99068356      6.14931583
H        28.99931526      1.57931626      6.14931583
H        28.99931526      2.99068356      7.56068325
B        29.70499992      2.28499985      6.85500002
H        30.41068268      1.57931626      7.56068325
H        30.41068268      2.99068356     10.71931648
H        28.99931526      1.57931626     10.71931648
H        28.99931526      2.99068356     12.13068295
B        29.70499992      2.28499985     11.42499924
H        30.41068268      1.57931626     12.13068295
H        30.41068268      2.99068356     15.28931522
H        28.99931526      1.57931626     15.28931522
H        28.99931526      2.99068356     16.70068359
B        29.70499992      2.28499985     15.99499989
H        30.41068268      1.57931626     16.70068359
H        30.41068268      2.99068356     19.85931396
H        28.99931526      1.57931626     19.85931396
H        28.99931526      2.99068356     21.27068329
B        29.70499992      2.28499985     20.56499863
H        30.41068268      1.57931626     21.27068329
H        30.41068268      1.57931626     25.84068108
H        30.41068268      2.99068356     24.42931557
H        28.99931526      1.57931626     24.42931557
H        28.99931526      2.99068356     25.84068108
B        29.70499992      2.28499985     25.13500023
H        30.41068268      1.57931626     30.41068268
H        30.41068268      2.99068356     28.99931526
H        28.99931526      1.57931626     28.99931526
H        28.99931526      2.99068356     30.41068268
B        29.70499992      2.28499985     29.70499992
H        30.41068268      6.14931583      2.99068356
H        30.41068268      7.56068325      1.57931626
H        28.99931526      6.14931583      1.57931626
H        28.99931526      7.56068325      2.99068356
B        29.70499992      6.85500002      2.28499985
H        30.41068268      6.14931583      7.56068325
H        30.41068268      7.56068325      6.14931583
H        28.99931526      6.14931583      6.14931583
H        28.99931526      7.56068325      7.56068325
B        29.70499992      6.85500002      6.85500002
H        30.41068268      6.14931583     12.13068295
H        30.41068268      7.56068325     10.71931648
H        28.99931526      6.14931583     10.71931648
H        28.99931526      7.56068325     12.13068295
B        29.70499992      6.85500002     11.42499924
B        29.70499992      6.85500002     15.99499989
H        30.41068268      6.14931583     16.70068359
H        30.41068268      7.56068325     15.28931522
H        28.99931526      6.14931583     15.28931522
H        28.99931526      7.56068325     16.70068359
B        29.70499992      6.85500002     20.56499863
H        30.41068268      6.14931583     21.27068329
H        30.41068268      7.56068325     19.85931396
H        28.99931526      6.14931583     19.85931396
H        28.99931526      7.56068325     21.27068329
B        29.70499992      6.85500002     25.13500023
H        30.41068268      6.14931583     25.84068108
H        30.41068268      7.56068325     24.42931557
H        28.99931526      6.14931583     24.42931557
H        28.99931526      7.56068325     25.84068108
B        29.70499992      6.85500002     29.70499992
H        30.41068268      6.14931583     30.41068268
H        30.41068268      7.56068325     28.99931526
H        28.99931526      6.14931583     28.99931526
H        28.99931526      7.56068325     30.41068268
H        28.99931526     12.13068295      2.99068356
B        29.70499992     11.42499924      2.28499985
H        30.41068268     10.71931648      2.99068356
H        30.41068268     12.13068295      1.57931626
H        28.99931526     10.71931648      1.57931626
H        28.99931526     12.13068295      7.56068325
B        29.70499992     11.42499924      6.85500002
H        30.41068268     10.71931648      7.56068325
H        30.41068268     12.13068295      6.14931583
H        28.99931526     10.71931648      6.14931583
H        28.99931526     12.13068295     12.13068295
B        29.70499992     11.42499924     11.42499924
H        30.41068268     10.71931648     12.13068295
H        30.41068268     12.13068295     10.71931648
H        28.99931526     10.71931648     10.71931648
H        28.99931526     12.13068295     16.70068359
B        29.70499992     11.42499924     15.99499989
H        30.41068268     10.71931648     16.70068359
H        30.41068268     12.13068295     15.28931522
H        28.99931526     10.71931648     15.28931522
H        28.99931526     12.13068295     21.27068329
B        29.70499992     11.42499924     20.56499863
H        30.41068268     10.71931648     21.27068329
H        30.41068268     12.13068295     19.85931396
H        28.99931526     10.71931648     19.85931396
H        28.99931526     10.71931648     24.42931557
H        28.99931526     12.13068295     25.84068108
B        29.70499992     11.42499924     25.13500023
H        30.41068268     10.71931648     25.84068108
H        30.41068268     12.13068295     24.42931557
H        28.99931526     10.71931648     28.99931526
H        28.99931526     12.13068295     30.41068268
B        29.70499992     11.42499924     29.70499992
H        30.41068268     10.71931648     30.41068268
H        30.41068268     12.13068295     28.99931526
H        28.99931526     15.28931522      1.57931626
H        28.99931526     16.70068359      2.99068356
B        29.70499992     15.99499989      2.28499985
H        30.41068268     15.28931522      2.99068356
H        30.41068268     16.70068359      1.57931626
H        28.99931526     15.28931522      6.14931583
H        28.99931526     16.70068359      7.56068325
B        29.70499992     15.99499989      6.85500002
H        30.41068268     15.28931522      7.56068325
H        30.41068268     16.70068359      6.14931583
H        28.99931526     15.28931522     10.71931648
H        28.99931526     16.70068359     12.13068295
B        29.70499992     15.99499989     11.42499924
H        30.41068268     15.28931522     12.13068295
H        30.41068268     16.70068359     10.71931648
H        28.99931526     15.28931522     15.28931522
H        28.99931526     16.70068359     16.70068359
B        29.70499992     15.99499989     15.99499989
H        30.41068268     15.28931522     16.70068359
H        30.41068268     16.70068359     15.28931522
H        28.99931526     15.28931522     19.85931396
H        28.99931526     16.70068359     21.27068329
B        29.70499992     15.99499989     20.56499863
H        30.41068268     15.28931522     21.27068329
H        30.41068268     16.70068359     19.85931396
H        28.99931526     15.28931522     24.42931557
H        28.99931526     16.70068359     25.84068108
B        29.70499992     15.99499989     25.13500023
H        30.41068268     15.28931522     25.84068108
H        30.41068268     16.70068359     24.42931557
H        28.99931526     15.28931522     28.99931526
H        28.99931526     16.70068359     30.41068268
B        29.70499992     15.99499989     29.70499992
H        30.41068268     15.28931522     30.41068268
H        30.41068268     16.70068359     28.99931526
H        30.41068268     21.27068329      1.57931626
H        28.99931526     19.85931396      1.57931626
H        28.99931526     21.27068329      2.99068356
B        29.70499992     20.56499863      2.28499985
H        30.41068268     19.85931396      2.99068356
H        30.41068268     21.27068329      6.14931583
H        28.99931526     19.85931396      6.14931583
H        28.99931526     21.27068329      7.56068325
B        29.70499992     20.56499863      6.85500002
H        30.41068268     19.85931396      7.56068325
H        30.41068268     21.27068329     10.71931648
H        28.99931526     19.85931396     10.71931648
H        28.99931526     21.27068329     12.13068295
B        29.70499992     20.56499863     11.42499924
H        30.41068268     19.85931396     12.13068295
H        30.41068268     21.27068329     15.28931522
H        28.99931526     19.85931396     15.28931522
H        28.99931526     21.27068329     16.70068359
B        29.70499992     20.56499863     15.99499989
H        30.41068268     19.85931396     16.70068359
H        30.41068268     21.27068329     19.85931396
H        28.99931526     19.85931396     19.85931396
H        28.99931526     21.27068329     21.27068329
B        29.70499992     20.56499863     20.56499863
H        30.41068268     19.85931396     21.27068329
H        30.41068268     21.27068329     24.42931557
H        28.99931526     19.85931396     24.42931557
H        28.99931526     21.27068329     25.84068108
B        29.70499992     20.56499863     25.13500023
H        30.41068268     19.85931396     25.84068108
H        30.41068268     21.27068329     28.99931526
H        28.99931526     19.85931396     28.99931526
H        28.99931526     21.27068329     30.41068268
B        29.70499992     20.56499863     29.70499992
H        30.41068268     19.85931396     30.41068268
H        30.41068268     25.84068108      1.57931626
H        28.99931526     24.42931557      1.57931626
H        28.99931526     25.84068108      2.99068356
B        29.70499992     25.13500023      2.28499985
H        30.41068268     24.42931557      2.99068356
H        30.41068268     25.84068108      6.14931583
H        28.99931526     24.42931557      6.14931583
H        28.99931526     25.84068108      7.56068325
B        29.70499992     25.13500023      6.85500002
H        30.41068268     24.42931557      7.56068325
H        30.41068268     24.42931557     12.13068295
H        30.41068268     25.84068108     10.71931648
H        28.99931526     24.42931557     10.71931648
H        28.99931526     25.84068108     12.13068295
B        29.70499992     25.13500023     11.42499924
H        30.41068268     24.42931557     16.70068359
H        30.41068268     25.84068108     15.28931522
H        28.99931526     24.42931557     15.28931522
H        28.99931526     25.84068108     16.70068359
B        29.70499992     25.13500023     15.99499989
H        30.41068268     24.42931557     21.27068329
H        30.41068268     25.84068108     19.85931396
H        28.99931526     24.42931557     19.85931396
H        28.99931526     25.84068108     21.27068329
B        29.70499992     25.13500023     20.56499863
H        30.41068268     24.42931557     25.84068108
H        30.41068268     25.84068108     24.42931557
H        28.99931526     24.42931557     24.42931557
H        28.99931526     25.84068108     25.84068108
B        29.70499992     25.13500023     25.13500023
H        30.41068268     24.42931557     30.41068268
H        30.41068268     25.84068108     28.99931526
H        28.99931526     24.42931557     28.99931526
H        28.99931526     25.84068108     30.41068268
B        29.70499992     25.13500023     29.70499992
B        29.70499992     29.70499992      2.28499985
H        30.41068268     28.99931526      2.99068356
H        30.41068268     30.41068268      1.57931626
H        28.99931526     28.99931526      1.57931626
H        28.99931526     30.41068268      2.99068356
B        29.70499992     29.70499992      6.85500002
H        30.41068268     28.99931526      7.56068325
H        30.41068268     30.41068268      6.14931583
H        28.99931526     28.99931526      6.14931583
H        28.99931526     30.41068268      7.56068325
B        29.70499992     29.70499992     11.42499924
H        30.41068268     28.99931526     12.13068295
H        30.41068268     30.41068268     10.71931648
H        28.99931526     28.99931526     10.71931648
H        28.99931526     30.41068268     12.13068295
B        29.70499992     29.70499992     15.99499989
H        30.41068268     28.99931526     16.70068359
H        30.41068268     30.41068268     15.28931522
H        28.99931526     28.99931526     15.28931522
H        28.99931526     30.41068268     16.70068359
H        28.99931526     30.41068268     21.27068329
B        29.70499992     29.70499992     20.56499863
H        30.41068268     28.99931526     21.27068329
H        30.41068268     30.41068268     19.85931396
H        28.99931526     28.99931526     19.85931396
H        28.99931526     30.41068268     25.84068108
B        29.70499992     29.70499992     25.13500023
H        30.41068268     28.99931526     25.84068108
H        30.41068268     30.41068268     24.42931557
H        28.99931526     28.99931526     24.42931557
H        28.99931526     30.41068268     30.41068268
B        29.70499992     29.70499992     29.70499992
H        30.41068268     28.99931526     30.41068268
H        30.41068268     30.41068268     28.99931526
H        28.99931526     28.99931526     28.99931526
