3075

Na        2.26027441      0.07073661      4.82487822
Na        2.04640913      0.11013141      8.99000740
Na        2.38572407      0.06715945     13.48074436
Na        2.42218351      0.05326511     18.29323387
Na        4.61317062      0.27815646     20.67037010
Na       -0.13537785     -0.00395049     25.08930206
Na        2.08438468     -0.08574527     32.41473007
Na        6.86162949      9.03617668      8.95714855
Na        2.13646317      4.71740437     13.57081509
Na        2.09393740      4.51406670     18.39675140
Na        2.24227405      4.03366184     22.64883614
Na        2.37627840      4.65971756     27.44912910
Na        2.11290932      4.79501009     31.97084618
Na        0.32598305      9.29445457      6.74453497
Na        0.15157770     11.42076015      9.01690960
Na        2.18748164      9.15796661     13.74097061
Na        2.27816725      8.98746300     17.89032364
Na        2.29243612      8.89950848     23.04232216
Na        4.43508339      8.77560139     25.09425545
Na       -0.01529760      9.11129189     29.66226768
Na        4.67115879     11.20703411      4.48292112
Na        4.00454521     13.48183060      6.64028263
Na        2.30950570     13.56136417     13.43970871
Na        2.01715517     13.75768852     18.42368126
Na        2.38244414     13.59993935     22.74814606
Na        2.19127059     13.85673618     27.40946198
Na        2.21985388     13.57659531     31.91868973
Na        2.23114657     18.02231216      4.25346661
Na        2.00337243     18.38969612      9.11555862
Na        2.30759573     18.05735779     13.36612988
Na        2.53320885     18.32398605     18.47170639
Na        2.44408751     18.36756325     23.12149048
Na        2.31430936     18.34842682     27.66049576
Na        2.33690834     18.60754967     31.98210716
Na        2.21308351     22.67294312      4.53501034
Na        5.13422775     22.96818924     11.30495167
Na        2.44309926     22.83979225     13.59455109
Na        2.18527651     22.86285973     18.03816223
Na        2.33197808     23.48112488     22.72575378
Na        4.52991867     22.29855156     25.03170586
Na       -0.27495405     20.41061020     32.38778687
Na        2.24264336     27.53602791      4.88338137
Na        4.70167828     27.64317131      6.76763105
Na       -0.00961145     27.38845444     11.42883492
Na        2.08975577     27.44377518     18.40760994
Na        2.13922572     27.15425682     22.95691109
Na        2.36525536     26.95978546     27.24826813
Na        2.06624889     27.65632820     32.20615387
Na       11.33263016      5.00478220      4.74522734
Na        6.87172985     -0.13205349      9.13714314
Na        4.38637829      0.24762675     15.82748127
Na        6.98725080     -0.11593008     17.91109657
Na        4.64733887      2.11609554     22.80644798
Na        9.11449242     -0.02347030     25.09002876
Na        8.92099476      0.33046448     29.72236061
Na        4.44929743      6.92758036      4.28720951
Na        8.74705791      2.11360288      9.27954960
Na        6.84207010      4.57683563     13.54872227
Na        7.11359262      4.70749760     18.04379845
Na        9.04154587      4.42588902     20.51717758
Na        4.52473974      4.51137257     29.73376656
Na        6.91731548      4.57805300     32.07583237
Na        6.60974073      8.88731384      4.66842127
Na        4.78237629      6.80185795      9.06823158
Na        9.06502056      8.76642609     16.37704086
Na        9.55233574     11.44281006     18.42441368
Na        6.90674305      9.20264530     22.82994080
Na        6.66683435      9.55110931     27.29605103
Na        6.52531862      8.90317154     32.53292084
Na        6.66626310     13.80268478      4.64518547
Na        6.81151056     13.49527740      8.64958858
Na        6.99330091     13.81011200     14.04610443
Na        4.99950981     15.88481236     18.12213516
Na        6.79795122     13.86571217     22.77648544
Na       11.35342503     14.08343792     27.68197823
Na        6.91620922     13.41555595     31.91156578
Na        6.79857874     18.41006470      4.27851820
Na        4.52462006     15.86964035      8.73123360
Na        6.78446007     18.47334862     13.78655910
Na        7.05881834     18.27359772     18.11932373
Na        8.90084934     18.40438843     20.65502167
Na        7.16011095     14.06319237     27.45449257
Na        6.52378607     18.77670097     31.78652000
Na        6.80989408     23.14514732      4.66163588
Na        6.71756792     22.65203094      9.01876926
Na        9.38766098     25.15861130     14.05891991
Na        6.62023830     22.84863091     18.11220169
Na        4.70957899     25.09264183     22.71629143
Na        9.16299343     23.06760597     25.20262146
Na        4.64162683     22.74586678     29.57608223
Na        9.19833946     31.88929939     11.08627605
Na        2.28791857     27.20622444      9.27555180
Na        9.46364498     29.62674904     18.43739510
Na        4.45353127     29.53584099     22.42318153
Na        9.43043995     27.46213722     25.17756844
Na        6.77486897     27.45019341     31.60626221
Na       11.48586941      0.13687770      4.75999260
Na       11.36179256      0.00408470      8.89634514
Na       13.61952019      0.05136799     11.34437561
Na       11.47369766      0.22810158     18.39552116
Na       11.64173222     -4.50698090     27.40350151
Na       11.54233456      0.29027027     32.07221985
Na       13.95338535      4.93287849      2.15315270
Na       11.39398956      4.20160770      9.25602436
Na       11.45277405      4.64063072     14.01464176
Na       11.48122883      4.62692928     18.25350761
Na       11.52694416      4.54331207     22.48679924
Na       11.54721165      4.64336061     27.08787346
Na       13.15701580      4.37341881     29.62451935
Na       13.78543377      9.00105190      2.17205811
Na       11.59058571      8.86794853      8.94293785
Na       11.43936825      9.10055923     13.77698517
Na       11.44371891      9.00680161     18.29113770
Na       11.38897228      9.18729305     22.64590073
Na       11.29565239      9.31268406     27.46717262
Na       11.45125389      9.20811844     32.03312302
Na       11.25382328     13.71117973      4.62122011
Na       11.72034264     13.49151230      9.20459270
Na       11.30110550     13.31386185     13.66419125
Na       11.77980423     13.47772694     18.28630066
Na       11.29948521     13.84695911     22.89451408
Na       13.73993206     14.21088505     25.17828178
Na       11.48229313     13.81616783     31.86494064
Na       11.43882942     18.18815231      4.25570869
Na       11.32497597     18.28936768      9.11566830
Na        8.93961239     18.36508942     11.29964256
Na       13.20297909     18.29882240     20.65413857
Na       11.37096119     18.32231140     22.85629082
Na       13.63751507     16.26132965     27.53690147
Na       11.60254765     18.41690445     32.33440018
Na        8.67122650     27.39434242      6.84929132
Na       13.78468513     20.87371254      8.83815193
Na        9.30294895     20.62495613     13.70205116
Na       11.47975349     22.69568443     18.03864098
Na       13.75514603     22.75400925     25.18471527
Na        9.06989002     22.90420532     29.68733215
Na       11.28918648     23.16461563     27.52359962
Na        6.76491594     27.14527130      4.43342257
Na        8.84097004     29.87624931      8.84551144
Na       11.50361156     23.00447273     13.64023113
Na       13.67594719     27.52168083     15.96179295
Na        9.08808327     25.28267097     23.27505875
Na       13.76282310     26.93932343     29.93457222
Na       11.30673981     27.19586945     32.10292053
Na       16.21345139     -0.12484871      4.85085011
Na       18.27961540      2.15832520      9.43052673
Na       18.39385796     -2.47085023     14.04191685
Na       18.12005424      2.26831555     18.34999084
Na       15.97782421     -0.04965330     22.96296692
Na       16.04755974     -0.04075647     27.03264427
Na       16.03496552     -0.01662996     32.18284988
Na       15.98795509      4.30659056      4.63474989
Na       18.58907509      2.37966585     13.95379066
Na       15.72236347      4.97689104     13.71532440
Na       18.17194557      6.62603903     18.22271156
Na       16.00471306      4.69510174     22.72944260
Na       13.78717995      2.46317768     27.20546913
Na       16.14923859      4.90533447     31.82591248
Na       15.67686176      9.09680939      4.90162420
Na       16.02540016      9.01903534      9.11401463
Na       15.90737534      9.39325333     13.69014359
Na       15.84093189      9.21870613     18.44792747
Na       15.86797619      9.36430931     22.83232117
Na       15.94658661      9.56321716     27.29754448
Na       18.10943413      9.13116741     29.60092926
Na       18.24939728     16.17480850      4.59037542
Na       16.12242889     13.86004448      9.12195492
Na       16.20839119     13.39927197     13.46476078
Na       16.06411934     13.51112080     18.33558083
Na       18.08270645     16.07656479     22.44985580
Na       16.18960190     13.85068893     27.26442719
Na       16.06545067     13.84311295     32.17191315
Na       15.76938820     18.35431099      4.28428030
Na       16.05726242     18.41384315      9.24471283
Na       15.81712246     18.08716202     13.83690739
Na       16.03269386     18.26006317     18.16766548
Na       18.11869431     20.56741714     22.79504776
Na       13.69170856     18.25206757     29.89761925
Na       15.98983955     18.25733757     32.22598648
Na       15.63050652     22.67222786      5.24336195
Na       14.00998402     23.03975677     11.45493603
Na       13.47091579     20.50845718     13.62650108
Na       18.36404991     22.89694977     15.99669456
Na       13.63237286     22.90280914     20.35865402
Na       16.07223511     22.93647003     27.21882057
Na       16.23337936     23.11128426     32.03330994
Na       18.00797462     27.20820427      7.21933126
Na       15.81756783     27.22627449      9.42507935
Na       20.68692589     22.26872253     13.78253078
Na       13.31337070     29.43217850     18.20984650
Na       15.95139885     27.35638237     22.62725067
Na       16.09887505     27.01831055     27.57433128
Na       16.03196144     27.44719315     32.35602570
Na       20.68130302     -0.01326325      4.46899176
Na       20.72061920      0.05939452      8.68033504
Na       20.40770721      0.07468798     13.68476677
Na       20.68495560      0.07609251     18.49588966
Na       22.76232338      0.33848965     20.63864136
Na       22.81391525     -0.11491784     25.05827332
Na       18.11640358      0.22196366     34.30271912
Na       22.90867996      4.90633392     -2.47014451
Na       22.75756073      2.46286297      9.06684494
Na       18.00596046      4.53227329     11.62916470
Na       20.60151672      4.65823460     18.34909058
Na       20.55056381      4.61123419     22.45492935
Na       22.93935204      2.13172793     27.32389259
Na       25.03655052      4.57362366     32.15326691
Na       20.64712334      9.33180523      4.49713755
Na       20.58434486      9.38419056      9.41513157
Na       22.79699707      8.93447304     11.37016678
Na       20.56380653      8.97649670     18.34807205
Na       18.81613922     11.29137325     22.86990738
Na       17.88704300      9.06423283     25.00404167
Na       20.64178848      9.07317066     31.89354515
Na       20.48702621     13.62245464      4.40499735
Na       20.74865532     13.58135033      9.10070133
Na       20.68144798     14.19945908     13.61217594
Na       20.55787086     13.82434750     18.69821358
Na       20.58283424     14.15520287     22.66067314
Na       20.50181007     13.60495758     27.55651855
Na       20.59289932     13.94972801     32.04614639
Na       20.45674133     18.55776787      4.32249928
Na       20.63988113     18.21738434      9.05252838
Na       20.68343735     18.25852203     13.33688831
Na       20.63109970     18.06971169     18.60577393
Na       22.95442772     20.66336823     22.76779366
Na       20.63569450     18.11509895     27.52966499
Na       20.38306427     18.18783760     32.08479691
Na       18.08611870     24.94796753      4.63434410
Na       23.03454590     22.87971115     11.56763172
Na       18.02030945     20.36305618     13.78047371
Na       18.43783569     22.84111023     20.62906647
Na       20.47848701     22.73255730     22.85243034
Na       22.86512566     22.94128418     29.68266296
Na       18.63174820     25.25231743     31.94688225
Na       20.50317955     27.05377007      4.47800827
Na       17.95428085     25.03356743      9.24104023
Na       22.79835701     24.96479225     13.54408169
Na       18.17243004     25.18624306     18.33649635
Na       20.58022499     27.39064407     22.93937492
Na       17.99245834     29.55339050     27.66523170
Na       22.59657860     27.46058655     29.66318893
Na       25.34434700     -0.23614387      4.32368088
Na       27.24100113      2.35751486      9.16003799
Na       27.27347946     -2.17464352     13.56089211
Na       23.09475708      2.14581370     18.21479225
Na       26.94131851      0.18559250     20.70599174
Na       23.21239090     -2.13998079     27.44043732
Na       25.05198097      0.01384068     31.68333244
Na       25.01163101      4.56992054      9.44614029
Na       25.32417297      4.17114687     13.59344769
Na       23.08913231      4.67909956     16.03151131
Na       27.23222160      6.85535669     22.59554672
Na       25.19216347      4.24441719     27.40397835
Na       23.35827065      4.38328648     34.29711914
Na       24.80218315      9.17501926      4.99967623
Na       25.38176155      9.26200199      9.52853680
Na       24.98952484      9.30044937     13.57887173
Na       22.87568855      9.23140812     16.02266121
Na       27.27913284      9.44729233     20.72687340
Na       25.12342644      9.26108456     27.52037430
Na       27.19256401     11.39913654     32.17307281
Na       25.48639297     13.84570885      4.85776329
Na       25.20150185     13.46714973      9.11180210
Na       27.39089966     13.78802013     15.91986370
Na       27.25729179     11.53047085     17.97978401
Na       25.13994789     14.03415203     22.70768929
Na       22.70783615     11.10496807     27.48996353
Na       29.65782547     13.50026608     32.12287521
Na       25.14083862     18.52976990      4.32183552
Na       27.62493324     15.77794743      9.04081726
Na       27.74183464     16.27239609     13.78594589
Na       26.87188911     20.61353683     18.17048454
Na       25.16940498     18.21785927     22.92462158
Na       25.16481590     18.52647018     27.50493050
Na       25.20193863     18.19769478     32.03297806
Na       25.02011108     22.90983772      4.71935654
Na       25.30417061     22.64837646      9.19880295
Na       27.45467949     24.90192413     13.26855755
Na       22.73822594     25.18592644     18.15366745
Na       27.69060326     25.07621193     22.61449432
Na       27.39035988     22.77872467     25.03941345
Na       27.56205559     18.11962700     34.20625305
Na       25.07140923     27.61405373      4.87792540
Na       27.44830704     27.31798172      6.88756752
Na       25.13456726     27.62363434     13.65250683
Na       25.30891037     27.42909622     18.21515656
Na       25.09774780     27.43161201     22.80738258
Na       23.03320122     27.80837440     25.16658783
Na       25.24183273     27.57677460     32.05784225
Na       29.77907181      0.46813515      4.73725653
Na       31.79464531     -2.28681850      8.89725590
Na       32.18190384      2.60114098     13.41566563
Na       29.55556870      0.13683589     18.53103256
Na       27.51614380      2.22620463     22.93380928
Na       29.77022362      0.35545465     27.18374062
Na       29.58508682     -0.13740516     31.66358757
Na       34.20732117      4.76934624      4.75491428
Na       32.09623337      4.85251570      6.64123774
Na       27.30197525      4.74533463     11.50160503
Na       29.52011871      4.35685539     18.36318588
Na       29.64801025      4.84468842     23.25756645
Na       27.59501839      4.39019775     29.61235237
Na       32.02705002      4.53429699     33.97223282
Na       29.49551773      9.21843338      4.86362553
Na       29.90947914      9.47899151      9.13531208
Na       31.72850800     11.47221756     13.24097729
Na       29.50891495      8.93513966     18.35944176
Na       29.63204384      9.12329578     22.76715469
Na       29.74304771      8.92826939     27.40893555
Na       31.96413040      6.92256737     32.21315384
Na       29.76822281     13.88566971      4.12864351
Na       29.93661690     13.50509834      9.17283249
Na       29.57117462     13.75139332     13.65878105
Na       27.38453102     16.01002693     18.32526588
Na       29.96642494     13.90005589     22.85767365
Na       29.78033829     13.76574230     27.35703850
Na       27.81826019     15.76825047     32.08082962
Na       32.03752136     20.51858902      4.44142199
Na       31.54127312     17.99577141      6.86790800
Na       29.88203049     18.36803246     13.49206352
Na       29.62944603     18.26865387     18.56765938
Na       29.62214470     18.23592377     22.79411125
Na       29.76018524     18.67181587     27.23167801
Na       27.44284248     13.39463711     29.61914062
Na       29.70796204     22.78814888      4.44158459
Na       31.97584343     22.79043007     11.30988026
Na       29.68025589     22.70924759     13.64645386
Na       29.66632843     22.68032646     18.26534653
Na       29.86577606     22.50789833     22.82769775
Na       29.76202965     23.14406776     27.40198326
Na       29.90833855     23.15270805     32.21817017
Na       29.48357964     27.59337997      4.52064180
Na       29.54401779     27.78555870     13.51145744
Na       29.44803619     27.06320381     18.31718826
Na       27.78670692     27.43045616     20.53982925
Na       29.62159729     27.36016846     27.17528725
Na       29.40463829     27.52795219     32.16508484
Na        0.18439487      2.44856763      4.32909155
Na       -0.06702032      2.51356626      9.09683704
Na       -2.06504273      4.16562128     13.62097359
Na        0.22043052      2.15118909     18.16675568
Na       -0.14081790      2.27627683     22.83117676
Na       -2.56526375      4.38914967     27.37036514
Na       -0.01003905      2.49212742     31.99240875
Na        4.63304329      2.37669706      4.80483198
Na        0.26096523      6.90691042      9.11422253
Na        0.18812712      7.01771784     13.56381035
Na       -0.02267425      6.68008089     18.42838860
Na       -0.05063936      6.80228043     22.60991669
Na       -0.00418331      6.68852520     27.28509521
Na       -2.17515445      4.41433764     31.90799522
Na       -0.24719959     11.50327015      4.39317894
Na       -0.14361466      9.37627983     11.46017170
Na        0.25757745     13.66807556     11.49143505
Na       -0.28487122     11.34937382     18.13671684
Na       -0.10419465     11.38966560     22.70706940
Na       -0.09040885     11.19661522     27.25572777
Na       -0.14469665     11.11325455     32.15751266
Na        0.07279661     15.75218010      4.18531322
Na        0.07159016     15.91180992      9.11226463
Na        0.05783573     16.07410431     13.76210880
Na       -0.09585927     16.06146431     18.33554459
Na        0.03887896     15.75374126     23.11706352
Na       -0.09005737     16.06873703     27.56689644
Na        0.13247529     16.00219917     32.06659698
Na        0.29368237     22.68601608      2.15130877
Na       -0.04143663     18.23354530     11.22064972
Na       -0.24688464     20.63866806     13.52722073
Na       -0.21328554     20.38430977     18.04910851
Na        0.48465708     20.40027046     23.02016830
Na        0.25838739     20.41379547     27.41408157
Na       -2.29041243     18.25362396     31.88756371
Na        0.36304492     25.34378433      4.58212900
Na       -2.59464478     27.30582809      9.44579124
Na       -0.33905205     25.12164307     13.79154587
Na        0.04955113     25.21007729     18.07489014
Na       -0.35610393     25.07751083     22.75261688
Na       -0.34376732     25.29173851     27.37333488
Na        2.60939908     22.55216599     31.54343224
Na       -0.09402751     29.91728973      4.20941067
Na       -0.33095145     25.09801292      9.12358570
Na        0.17673385     29.86018944     13.91716003
Na        0.25448504     29.78568268     18.42039490
Na       -0.19126001     29.54273796     22.65991402
Na        0.07286005     29.62156677     27.00592804
Na       -0.01905863     29.94410515     31.95892715
Na        4.86981010      0.25927395      2.13732600
Na        6.76145172      4.91108274      4.80607414
Na        4.93183374      2.57470965     13.72490978
Na        4.84153366      2.21977019     18.57688332
Na        4.65580225     -0.20102692     24.87106514
Na        7.06346464      4.87291479     27.72780228
Na        6.87596416     -0.44794479     32.11302567
Na        9.06746292      4.26327896      6.86617041
Na        4.71114540      2.47045326      9.14212227
Na        6.80757236      9.01894188     13.82009506
Na        4.47257805      6.95056725     18.66459465
Na        6.84935379      4.50026798     23.17505836
Na        4.62721539      7.08467817     27.15815353
Na        4.65626192      6.92652607     31.99862099
Na        2.27627301      9.45421505      4.14565754
Na        4.69627857      8.96615791     11.44790268
Na        4.63738871     11.38758755     14.01937389
Na        4.65619802     11.41720009     18.20341873
Na        4.70832777     11.34880829     22.74595261
Na        4.58678198     11.61589050     27.31582642
Na        2.13583279      8.94659138     31.80027771
Na        4.56059217     15.97856617      4.63632631
Na        4.65513182     14.25445652     11.35454082
Na        4.41781235     15.97227669     13.91152954
Na        4.35879469     17.97866249     15.90003300
Na        4.94296074     18.53349113     25.19861221
Na        4.67319012     16.08611870     27.34560204
Na        4.26666069     16.11493874     31.83602524
Na        4.34608221     20.43242836      4.28274918
Na        4.26259613     20.67002106      9.28508663
Na        4.59299326     20.70051384     14.04053402
Na        4.94443846     18.09819794     20.42661095
Na        4.46182442     20.55689430     22.57248688
Na        3.99344468     20.65408707     27.45915985
Na        6.71455145     22.72661018     31.72121239
Na        4.60431290     25.17586136      4.59048033
Na        4.52918625     25.00295830      8.97885609
Na        4.19691133     27.17977524     11.51367378
Na        4.60285139     24.88944817     18.41409111
Na        4.60181904     27.05912018     25.15795135
Na        7.00448895     27.36304283     27.48365402
Na        4.52400923     25.27598381     32.23065186
Na        4.65165663     29.84150124      4.60144424
Na        4.39496899     29.75493622      9.06445026
Na        4.58123207     29.78506470     13.75049686
Na        4.54500771     27.68877029     15.90396309
Na        2.00689173     31.73349190     22.73630905
Na        9.17472076     27.36576080     29.61313629
Na        4.52986431     29.86822701     32.22495270
Na        9.19188118      2.44436932      4.41170454
Na       11.52754593     -0.14392608     13.47342300
Na        9.20166397      2.13839912     13.52347183
Na        9.27312469      2.25796676     18.11542892
Na       11.54771805     -0.17725533     22.87544060
Na        9.39207268      2.36318064     27.71732140
Na        9.17729568      2.42516351     31.88291740
Na        9.38263512      6.88681173      4.52462196
Na        6.83194256      4.67886066      9.34011745
Na        9.13230419      6.87622690     13.97154617
Na        9.07358551      6.96344090     18.44481277
Na        9.38236427      6.81177044     22.80382538
Na        9.01581764      6.81249619     27.41427422
Na        9.19972706      7.01192904     31.77137947
Na        8.69403553     11.60747719      4.46792126
Na        9.43940830     11.28555775      8.97379208
Na        8.96551609      8.89975357     11.39210224
Na        7.06177950     13.55145073     17.98338509
Na        8.87843418     11.37037754     23.05714607
Na        9.30635548     11.47326756     27.21688461
Na        9.40801239     11.18626213     32.03086853
Na        9.03427029     16.19078255      4.28628254
Na        8.94406796     15.98392010      9.03064728
Na        8.95051765     16.21677971     13.47934055
Na        8.88790035     15.77231979     18.00537109
Na        9.06138229     15.98467827     22.87290955
Na        9.18605042     18.47419357     29.70327187
Na        8.95876217     16.32229233     32.04716873
Na        9.19374466     20.77417755      4.42163181
Na        9.11460495     22.75056648     11.22408962
Na        9.24506474     20.57356644      8.92124653
Na        9.46532440     20.57533646     18.15624619
Na        9.24222660     20.68359756     23.18526649
Na        7.05617380     18.02892685     27.45248985
Na        9.00989437     20.73426056     32.07909775
Na       13.46759224     27.61434937      2.19431353
Na        9.11546612     25.15495300      9.31589413
Na        6.89171934     27.30598640     13.35957336
Na        9.31056786     25.16432571     18.25186157
Na       14.01345921     24.95063972     22.50253868
Na        9.10868359     25.21021080     27.40482903
Na        9.20458984     25.03425598     32.13260269
Na        9.33018875     29.98052788      4.38704252
Na       11.25466633     27.26753044      9.04632854
Na        9.58936405     29.76939392     13.58196735
Na        9.43435955     29.77167892     22.96729851
Na        9.02982426     29.81592751     27.52362633
Na        9.38225746     29.87707138     31.81220245
Na       13.35291004      2.21833038      4.51954460
Na       14.15875435      2.20452714      9.22651196
Na       13.70895481      2.41832757     13.65593719
Na       13.59725189      2.57062602     18.32514381
Na       13.65511131      2.14428520     23.01101112
Na       11.32438850     -0.08622482     27.29163361
Na       13.64499950      2.16834664     32.06752396
Na       13.83771610      6.78204489      4.83071136
Na       13.89879227      6.65104818      8.84386158
Na       13.81997871      6.98131418     13.87882710
Na       13.78333569      4.66520834     15.92885780
Na       13.74525642      6.94092989     22.70148659
Na       13.83227444      7.06505871     27.70728683
Na       13.94360447      6.88027096     31.79962349
Na       11.42662525      9.56138802      4.49216413
Na       14.03063107     11.40482140      9.12169266
Na       13.39824963     11.29599380     13.78093719
Na       13.70484257     11.26186752     18.22002029
Na       13.72247696     11.62182426     23.24485779
Na       13.55780888      9.52902508     29.30452156
Na       13.66304779     13.53467941     34.42637253
Na       13.77023792     16.02549171      4.49742699
Na       13.72898388     16.06790924      8.98531342
Na       13.38516998     15.87465572     13.84700584
Na       13.97332668     16.03283501     18.61921120
Na       15.85211086     18.23626709     22.54094315
Na       13.63550568     16.28379059     32.35794830
Na       13.54075050     20.43842316      4.84447670
Na       13.48473835     18.44581032     11.24296570
Na       14.04644871     22.93448639     16.03520966
Na       13.53359509     20.54082108     18.21483421
Na       11.24665833     23.35235214     22.78508949
Na       13.41515160     20.68255806     27.62604904
Na       13.85693932     20.63335228     32.23797989
Na        9.20786762     25.26885223      4.44420481
Na       13.77357769     24.66212082      8.95481300
Na       11.41989517     27.23280525     13.52955627
Na       13.74938297     25.11256409     18.19588661
Na       13.68697166     20.57916069     22.85424805
Na       13.45939350     22.93097305     29.92716217
Na       13.44057369     25.06476593     32.22711945
Na       13.59510422     29.62037277      4.30263329
Na       13.56792831     29.68373489      9.30329800
Na       13.85628700     29.63343239     13.65678883
Na       15.90830708     27.43657875     18.39691353
Na       13.47047806     29.64522743     23.09813309
Na       13.97021198     29.69115448     27.44570923
Na       13.66051197     29.87711143     31.82944489
Na       18.45689583      2.37644339      4.77815962
Na       18.27670288      4.38706207      6.94093227
Na       16.04040909      0.17046177     13.99391270
Na       18.42148399      4.45919514     20.53005600
Na       18.38266182      4.81748581     29.71895599
Na       18.30666542      0.14377023     29.64217949
Na       17.81315613      2.35482407     31.69095039
Na       18.74653053      6.78533030      4.79435778
Na       15.92583370      4.48164749      8.84943199
Na       17.95623779      6.81063414     13.64836502
Na       15.99670887      4.33676529     18.25459480
Na       18.05147362      6.69767427     22.49961281
Na       18.35004425      6.77656937     27.13979530
Na       18.27939415      6.94381809     31.93286705
Na       18.14813042     11.57561111      4.61897373
Na       18.40522003     11.47712898      9.03101730
Na       18.65064240     11.39911938     13.83763599
Na       18.31999588     11.45016956     18.30960274
Na       16.07712555     13.99077034     22.58751678
Na       18.25413322     11.41120148     27.29478645
Na       18.63526344     11.56198311     32.27657700
Na       18.26734352     18.06737328      2.30880165
Na       18.71705627     15.95034885      9.25546074
Na       18.18172646     16.13046455     13.53602219
Na       18.47218323     16.09077263     18.35372543
Na       18.27736855     18.36076927     20.57567024
Na       15.76538849     18.34613419     27.51084518
Na       18.21179008     16.12125397     31.36758995
Na       18.50960732     20.63833618      4.61740685
Na       18.06878853     20.70670891      9.20121670
Na       18.22666359     24.94433212     13.56565189
Na       18.44530678     20.54465294     18.31925774
Na       18.46969223     22.73326302     25.10116959
Na       18.23411179     23.01595116     29.76341820
Na       18.58570290     18.40291214     29.68445969
Na       16.01978493     27.52940369      4.59519386
Na       20.65797424     27.17659569      9.00508785
Na       18.18756294     27.76427269     11.54873657
Na       18.08305550     25.12523842     22.66594505
Na       18.43659782     24.99439621     27.06867218
Na       20.61186218     23.04638290     31.93026543
Na       18.12403297     27.10500908      2.49537730
Na       18.44869995     27.29984474     16.16682243
Na       18.40394020     29.83424187     18.49669647
Na       20.45009422     32.08872604     23.07705307
Na       18.53218269     33.93278885     27.23041344
Na       18.05647659     29.73025513     31.84332657
Na       22.86761856      2.24866056      4.52607441
Na       23.10784340     -0.23511164     11.18087006
Na       22.83054352      2.03538704     13.55477238
Na       24.99376869      4.78942823     18.28034401
Na       22.90325546     -0.12459431     29.43952370
Na       20.45395088      4.45907688     27.72116280
Na       25.06159401      4.36182499      4.67416620
Na       22.89010048      8.98565006      6.82072067
Na       20.71131897      8.72347927     13.89362717
Na       22.94539452      6.80093908     13.41349697
Na       22.74041939      6.69610882     23.15575790
Na       22.86068344      6.94019651     27.37233925
Na       27.33252335      9.19379139     34.29395676
Na       22.92936325     11.40275002      4.66590500
Na       23.21967125     11.55278969      9.25478077
Na       22.86101151     11.51278496     13.69459343
Na       22.98981094     11.55325413     18.19164276
Na       22.81129265     11.39688587     23.02282524
Na       22.83757210     13.74939442     29.74472809
Na       22.55196190      9.25195026     34.34923935
Na       22.68606758     16.02495766      4.40880013
Na       22.89134026     16.06414795      8.96812153
Na       22.97638321     16.06270981     13.67594337
Na       22.92803001     16.03143883     18.64546585
Na       23.07114220     15.63384628     22.48830605
Na       22.69977951     15.88733578     27.69455719
Na       22.72977638     16.05521011     32.25758743
Na       22.85840797     23.19618797      6.72976351
Na       22.65924644     20.81746674      8.90458584
Na       22.73015976     20.37816048     13.38720417
Na       22.94943237     20.43844032     18.16906166
Na       23.02511597     22.83840370     20.50636864
Na       22.90422058     20.43533134     26.91212463
Na       22.97927666     20.61698151     31.82317543
Na       20.54330063     23.20318222      4.60883999
Na       22.57497215     27.71077347     11.42317772
Na       20.55785942     22.82163620      9.27669048
Na       20.47416687     27.50151253     18.52309799
Na       22.89756203     25.01986313     22.68065834
Na       22.78330994     24.96203995     27.57705688
Na       22.81990433     22.92865181     34.35541916
Na       22.94726181     29.82688332      4.95257139
Na       23.02459335     29.57694054      8.82227612
Na       25.10442543     31.82655716     13.60962296
Na       22.98460007     29.65362167     18.51386642
Na       18.20506096     29.87463379     22.90881348
Na       20.47087288     27.23969650     27.34413910
Na       22.46291924     29.61165047     31.80134392
Na       27.49494171      2.60023546      5.09222126
Na       29.72802162      0.09776597      9.10184002
Na       27.31453323      2.36398530     13.88445663
Na       27.30909157      2.39401460     18.08685303
Na       25.15565109      4.50880957     22.72542381
Na       27.34341621      0.16955175     29.50412178
Na       27.17272949      2.23903561     32.06709671
Na       29.47169495      4.99566269      4.64993477
Na       27.58324242      6.68188429      9.26719093
Na       27.69416237      6.58075428     13.86487484
Na       27.41752052      6.97363710     18.65459061
Na       25.36329842      9.30909252     23.15218925
Na       27.59607506      6.75719023     27.70770264
Na       27.10179138      6.98453903     31.80374146
Na       27.30028534     11.46109581      4.35735846
Na       27.48527718     11.19158840      9.34572506
Na       27.08455086     11.55564308     13.70372295
Na       25.05006790      9.04345894     18.58209801
Na       27.77675247     11.63011742     23.01620102
Na       27.49122810     11.29415894     27.28875732
Na       27.18110466      6.99354315     36.48807144
Na       27.48025513     16.07932472      4.87204027
Na       27.55798912     18.56668663     11.48997784
Na       25.17778969     13.88096237     13.82709408
Na       25.04069138     18.30317497     17.97825813
Na       27.54893684     16.02287865     22.89205360
Na       26.79085159     15.89963150     27.52798462
Na       27.21354294     22.81164169      2.11831045
Na       25.37923622     18.59490013      9.41765213
Na       27.28326035     20.44050980     13.64270687
Na       25.31874275     22.75489807     18.12845421
Na       27.54369736     20.54695892     22.88724136
Na       27.42650604     20.71761322     27.47153282
Na       27.34353447     20.61897469     31.79764175
Na       27.33044243     22.80702782      6.75915670
Na       24.92001915     27.29516983      9.00381947
Na       25.18636322     22.84289742     13.59394932
Na       27.37000847     25.00624275     18.07440376
Na       27.62374878     27.32821274     25.29527092
Na       27.27475929     25.21187592     27.36757660
Na       27.28072739     25.13880539     31.56691551
Na       27.43760109     29.85976982      4.86374092
Na       32.21979523     31.96888351     11.50820351
Na       27.47505760     27.64791870     11.29953003
Na       25.07460022     31.81898689     18.45552635
Na       29.86797523     31.65668869     22.72506905
Na       27.57465935     29.61297035     27.44667625
Na       27.03793526     27.36305618     34.44507217
Na       -0.18817772      0.26848915      2.36201429
Na       -0.17011781     -0.18378037      6.80395794
Na       -2.27190018      0.04238491     13.57185459
Na       -0.16164717      0.07586230     15.90610313
Na        0.14879577     -0.03740118     20.47709656
Na        0.08762197      2.17106485     27.46151733
Na        0.12840116     -0.28874889     29.54537010
Na       -0.03629570      7.15593529      4.27880239
Na        2.34735608      4.44031906      8.76880074
Na       -0.11296558      4.90458155     11.21132469
Na       -0.00955347      4.86481524     15.88171101
Na       -0.32610598      4.39416981     20.50919914
Na        0.05995999      4.31102991     24.96796417
Na        0.07088203      4.49255371     29.41649628
Na        0.17713468      9.27921867      2.37853241
Na        2.47995734      9.26577950      9.42711258
Na       -2.34414339      8.96331978     13.63958359
Na        0.02301026      9.17834949     15.81797409
Na        0.07889968      8.87751198     20.38162994
Na       -0.13972697      8.93419743     25.13490295
Na        2.30315495      9.00718307     27.63432121
Na        0.09638542     13.30463982      2.17055583
Na        0.09647648     13.73396492      6.64807940
Na        2.41901088     13.75405693      9.33696842
Na        0.07745484     13.52432919     15.97445679
Na        0.29768974     13.69795513     20.45828056
Na        0.07258399     13.30214882     25.12790489
Na       -0.31597552     13.40312576     29.74835587
Na       -0.24705370     18.12711906      2.21885943
Na        0.25689453     22.86537933      6.64627886
Na       -2.30362058     17.79145241      9.11825562
Na        0.04131824     18.22684669     16.16065216
Na       -0.13429198     18.17321777     20.69420433
Na       -0.33756953     18.24581528     25.11515617
Na        0.09094718     18.49828911     29.56039238
Na        0.03139745     25.45818329     -0.43033555
Na       -0.10125159     20.63022614      8.72227097
Na       -2.36860514     22.86760712      9.09775734
Na       -0.02096440     22.95411873     15.94352245
Na        0.05914364     22.88038254     20.49772263
Na        0.10338996     22.93729782     25.15433311
Na       -0.13313928     22.80424118     29.62961006
Na       -0.19132052     27.03140259      2.32447672
Na       -0.32633907     27.28355980      6.51018620
Na        2.41802549     23.19536209      9.31822109
Na       -0.13680892     27.34873199     16.19858932
Na        0.12215433     27.28442764     20.56590080
Na        0.06196415     27.49608231     24.97121811
Na        0.13768984     27.83689308     29.65819168
Na        6.84826374      0.04850375      4.51160622
Na        4.27185965      0.22916333      6.83268881
Na        4.33893681      0.16238511     11.23296928
Na        4.41309834     -2.13530874     18.69351768
Na        6.84837484     -0.05046766     22.64700127
Na        4.50855589      2.65387750     26.82155037
Na        2.31244445      0.11970387     27.14579391
Na        4.47022152      4.58866644      2.15410423
Na        4.58575487      4.87573290      6.76612377
Na        4.50817060      4.74759769     11.50303459
Na        4.51530409      4.45688438     16.23890877
Na        4.85883427      4.54087162     20.43476868
Na        4.46623564      4.62751770     25.12434578
Na        4.63056803      2.22182393     31.89721298
Na        4.78020239     11.31314468      0.20855877
Na        4.36076498      8.88799286      6.75826359
Na        4.66736317      7.06641340     13.76505566
Na        4.53603125      9.07773113     15.98460102
Na        4.63853455      9.19661522     20.40963936
Na        4.48256063      6.79185009     22.87866211
Na        4.54830265      9.55521202     29.61095428
Na        4.53530359     13.75831127      2.06436920
Na        2.20097566     13.75428677      4.18852139
Na        4.61640739     11.41004562      9.18716335
Na        4.24034357     13.84150505     16.01578331
Na        4.37570667     13.64745426     20.65489769
Na        4.66527462     13.65991116     24.94153976
Na        4.77018452     13.90995693     29.61353302
Na        4.34288311     18.48064423      1.83815742
Na        4.52217007     18.41721153      6.82988596
Na        4.73036242     18.52251053     11.30384064
Na        4.94850397     20.46100426     18.17084503
Na        4.62754536     15.98847580     22.80439568
Na        6.87490845     17.94633675     23.12240791
Na        4.71614313     18.55392456     29.61509895
Na        4.53756189     22.83213806      2.04427934
Na        4.34113932     22.47430038      6.68914413
Na        4.81165266     25.17066193     13.85803890
Na        4.53298664     22.92699814     16.00438499
Na        4.46017742     22.51541519     20.48888016
Na        6.91347027     22.66024208     27.45633316
Na        2.43375850     22.87908173     27.31252098
Na        4.30815887     27.34988785      2.35179830
Na        6.68252993     27.03337669      9.34990025
Na        2.09695005     26.96750641     13.78272343
Na        6.59010553     27.50855446     18.01263428
Na        4.65530968     26.99788475     20.21970558
Na        4.84561062     29.81533623     27.47266388
Na        4.10649633     27.17168427     29.97911453
Na        9.04711342      0.08580335      2.30389285
Na        8.78125668      0.13457522      6.74809313
Na        6.96099710     -0.46011716     13.85960770
Na        9.39150429     -0.25529531     15.93913555
Na        9.11118889     -0.22781233     20.21828079
Na        4.32826805      0.02051526     29.60917664
Na        6.93848228      0.48380443     27.38092041
Na        9.40400314      4.45180607      2.20709348
Na        9.34053326      6.73399401      8.93290329
Na        9.18436527      4.46801805     11.43606091
Na        9.08536720      4.63071918     15.80402470
Na        8.98472023      2.19524026     22.63325500
Na        9.00055504      4.55877447     25.28614998
Na        9.13903618      4.57447338     29.60170174
Na        9.21646786      9.24755287      2.36475396
Na        9.23679447      9.57128811      6.63784504
Na        8.99283600     11.40476131     13.82096004
Na        6.78684568      9.26050186     18.35037041
Na        9.23481464      9.29647255     20.74141121
Na        9.13897991      8.81378174     25.17061234
Na        8.60960770      9.17161369     29.48449707
Na        9.02788353     13.59743786      2.41125083
Na        9.22612953     14.23391724      6.69580221
Na        9.07472134     13.36030579     11.44706440
Na        9.47223377     13.77462482     15.97331905
Na        9.27404690     13.85686207     20.53997803
Na        9.33918953     14.00521564     25.39464760
Na        9.40108109     14.06688690     29.89544678
Na        9.21051407     18.31105423      2.10446525
Na        8.95841503     18.66682434      6.73312521
Na        6.76711798     18.34747696      9.17387295
Na        8.97091675     18.30086327     16.03015709
Na       11.26975060     18.09407616     18.35663033
Na        9.36214352     18.07465363     25.26328278
Na        9.55546284     20.61102676     27.33962822
Na       11.22389889     22.72339058      0.25888661
Na        9.23713017     23.13201714      6.50317717
Na        6.88299465     22.95476341     13.93498611
Na        8.97096062     22.90912437     15.83615208
Na        9.14532089     23.15588760     20.54607964
Na        7.07563496     22.74406815     22.61676979
Na        5.16639614     25.18198395     27.50575829
Na        9.25837898     27.42153931      2.45604396
Na       11.32024574     27.43163681      4.62580729
Na        9.01498222     27.63873291     11.48803329
Na        9.33895779     27.44327354     16.35326767
Na        9.13494682     27.33315659     20.47859192
Na        6.72177315     27.34044456     22.73867416
Na       13.90600300     -0.05054108      2.29425120
Na       13.83977509      0.48116288      6.79133272
Na       15.77979088     -0.15177046      9.37047195
Na       13.77821732     -0.33156425     15.66908741
Na       13.92151546      0.02535024     20.60491562
Na       13.48948383      0.23255675     25.29410553
Na       13.83706856      0.02595736     29.71462250
Na       11.41360950      4.61168003      0.11152758
Na       13.32390213      4.41633701      6.91984463
Na       13.51882076      4.45553017     11.39403725
Na       13.71050358      7.07551384     18.03897095
Na       14.10703468      4.67230225     20.41954422
Na       13.93735218      4.68208361     25.09712219
Na       15.92492008      4.84200907     27.08975220
Na       15.99457741      9.22541237      0.22427633
Na       13.40217495      9.26663971      6.61223125
Na       13.83637333      8.85452175     11.27157593
Na       13.60515785      9.23785210     15.86103344
Na       13.66354275      9.17295837     20.68102264
Na       13.57787800      9.59349442     25.06186485
Na       14.05892849     11.53448200     31.95911598
Na       13.74186230     11.40303898      4.37274027
Na       14.01564026     14.05103302      6.76184464
Na       13.59531307     13.86737728     11.59731197
Na       13.83899689     13.61159611     15.98263359
Na       13.49346161     13.41773415     20.73050880
Na       13.47519207     11.65583420     27.33293915
Na       13.95005131     13.90063000     29.83687973
Na       13.77991772     18.62065125      2.24834085
Na       13.76345539     18.12649918      6.66562605
Na       11.48545074     18.09000397     13.85784149
Na       13.35665512     17.94765854     16.11393929
Na       13.47777367     16.13285446     22.93869209
Na       13.61831093     18.48180199     25.18613815
Na       11.25056458     18.07458115     27.84463310
Na       13.81178570     22.78649521      2.41480613
Na       11.77868080     22.89417267      4.75404692
Na       11.49919128     22.88934898      8.97028828
Na       16.02924347     23.12193871     13.69425488
Na       15.94792271     22.88358116     17.99929047
Na       14.10871315     27.42190552     25.21261024
Na        9.02283478     22.83933830     34.13534164
Na       13.71617603     25.13319206      4.64210367
Na       13.99160290     27.35798836      6.91311741
Na       15.86712265     27.58144951     13.78491592
Na       13.68969440     25.25756454     13.95529842
Na       13.50791836     27.36595154     20.44490433
Na       11.45968056     27.37864494     22.70907402
Na       13.40567303     24.91757584     27.35558319
Na       18.53750420     -2.45925832      4.49960947
Na       18.36812782     -0.19227037      6.74405575
Na       18.25973320     -0.37319916     16.10846329
Na       16.05115891      0.10858832     18.41101646
Na       18.55653572     -0.13375008     20.35107803
Na       20.52984428      0.10227884     27.46058846
Na       20.48380470     -0.03758043     32.32268524
Na       18.52815437      4.46765327      2.47442937
Na       20.87564659      4.34814501      4.21294165
Na       18.47167397      6.91608047      9.13400459
Na       18.31866837      4.40854549     16.12341690
Na       18.44145966      2.24072266     22.65244293
Na       18.22666359      4.22829294     24.98990631
Na       20.53016281      4.70765924     32.23652267
Na       18.00148582      9.17740917      2.26285553
Na       18.49884987      9.41061497      6.68625402
Na       18.25559235      9.31975555     11.64537525
Na       18.47229958      9.07025433     15.97491550
Na       18.49187851      9.04610920     20.60312080
Na       20.50852203      9.20545292     22.67111969
Na       20.36432648      8.97013283     27.44826889
Na       18.04600143     14.02947712      2.28429770
Na       18.14669418     13.99384880      6.87171030
Na       18.34714508     13.77778339     11.25396729
Na       18.66398239     13.95927811     16.07518768
Na       18.28361130     13.47669029     20.55242538
Na       18.53329659     13.61959362     24.96440506
Na       18.16485977     13.52894974     29.87492752
Na       17.99929237     20.54968071      0.16732424
Na       17.94823837     18.32344437      6.79603767
Na       18.24854851     22.62456131     11.73584175
Na       18.12387466     18.08116913     15.93205070
Na       20.51734924     18.57699776     22.71576500
Na       18.56682396     18.38719559     25.10175514
Na       18.57418633     15.81207466     27.29762840
Na       18.17170525     22.53978539      2.40522981
Na       18.35727692     23.16814613      7.02908945
Na       16.03912926     22.90771675      9.15867615
Na       18.34133148     18.24760246     11.21421146
Na       16.11354065     22.78913116     23.21541405
Na       18.22858620     20.61470413     27.16350174
Na       20.46677971     22.61146736     27.35852432
Na       20.47468758     27.64838600      0.27571365
Na       18.07264900     29.56736183      9.19563484
Na       18.03172493     32.04320908     11.50338268
Na       14.20643330     27.54427910     11.65125370
Na       18.34348297     27.44570160     20.50783539
Na       18.13339996     27.27453995     25.14988327
Na       18.36767578     27.18585968     29.68626785
Na       22.83916283     -0.14229549      2.28774476
Na       22.76660156      0.31965455      6.77498055
Na       22.69180298     -2.26455402     13.73432827
Na       22.60982132      0.04819714     15.73103237
Na       25.04134941      0.26542658     22.77018166
Na       22.79102135      2.25585294     23.07237816
Na       22.41754341      2.43241715     31.91696358
Na       23.14135170      6.94177437     -0.03555056
Na       20.47520828      4.72764158      8.88686180
Na       25.22067642     -0.04682669      9.26288605
Na       20.68482399      4.96871090     13.86597252
Na       22.77520943      4.32040358     20.25337029
Na       22.65505791      4.59227562     25.03771591
Na       25.18119431      9.20134068     32.07453537
Na       22.88407898     11.65772820     -0.01923091
Na       23.14962196      6.49899387      4.65196848
Na       22.85467911      6.81895781      8.91924381
Na       22.75055695      4.46194220     11.61802292
Na       22.84786987      7.06030273     18.00026703
Na       22.39564705      8.98857212     25.06937408
Na       22.84329414      8.91702652     29.75936699
Na       22.80255318     13.63461304      2.38957453
Na       22.65908051     13.38997746      6.88782978
Na       23.22962952     13.68206310     11.42023754
Na       22.57852364     13.82003307     16.20984459
Na       25.22692680     13.77211952     18.16497040
Na       22.54074860     13.61674786     25.24905396
Na       25.13512802     13.90502262     32.39678574
Na       23.11682129     18.49974060      2.17100239
Na       22.79332161     18.54921722      6.68088722
Na       22.87053299     18.23217773     11.36164951
Na       22.62235260     18.12268639     16.01149940
Na       22.79087448     18.36903763     20.52676773
Na       22.76758957     17.91501045     25.43516731
Na       22.99849319     18.61436462     29.73561859
Na       22.70923233     20.63723564      4.54536295
Na       22.78111458     25.17185974      4.32470369
Na       22.93443108     25.34343910      9.45845890
Na       22.81560516     22.80548668     16.04121590
Na       20.62666893     23.07209969     18.33157349
Na       22.60536003     23.09171295     25.17266655
Na       25.12964630     22.84007263     27.30059242
Na       22.69406128     27.39879417      2.18116903
Na       22.75644493     27.10774612      6.58037424
Na       20.51637268     27.35593033     13.86663628
Na       22.58857727     27.71063423     16.08880234
Na       22.60159302     27.22568512     20.70915413
Na       22.71441078     29.90848351     22.84476280
Na       22.84899712     25.14892578     31.84649086
Na       27.31463623      0.09293404      2.41285443
Na       27.19966507      0.21950272      7.08041668
Na       27.53373909      0.13110605     11.51106262
Na       27.45895958      0.02969766     15.95167542
Na       27.56905937     -2.26702046     18.31168747
Na       27.69042778      0.01898940     25.21622658
Na       27.57330132     -2.17971110     32.33635712
Na       27.43296051      4.57140684      2.29333067
Na       27.09537315      5.00433159      6.63975000
Na       29.88935661      4.99571323      9.06752586
Na       27.52696800      4.52325392     16.21398163
Na       27.52679443      4.61941195     20.55247879
Na       27.39434242      4.57658958     25.27695847
Na       25.13829613      0.06060715     27.23867798
Na       29.54767418      9.35651302      0.22997355
Na       27.14462280      8.98686886      7.17874575
Na       27.19148254      9.07305431     11.58082676
Na       27.17760277      9.22502518     16.14999008
Na       22.85303497      9.25813580     20.67298889
Na       27.77043152      8.91906929     25.32038879
Na       27.46624756      8.78235340     29.85696602
Na       27.45911026     13.48120308      2.49282074
Na       27.48365021     13.28030777      6.71624708
Na       27.48074913     13.82094574     11.25901794
Na       29.69535446     13.84467220     18.26919365
Na       27.62256813     13.81740856     20.58544159
Na       27.82658768     13.93803120     25.08106041
Na       24.65399742     13.48570061     27.42884064
Na       29.87495613     17.96932602      4.48092031
Na       27.45799255     18.57105827      6.92604494
Na       25.05108261     18.47875977     13.46292591
Na       27.80523109     18.44463730     16.07671928
Na       27.07963371     18.27593994     20.49601936
Na       27.34442711     18.10439110     25.17038155
Na       27.39083672     18.16211128     29.75199127
Na       25.02590942     22.83256531     -0.19837235
Na       27.70772171     20.58844948      4.44453001
Na       27.33715057     20.61391640      9.13328171
Na       27.54453468     23.31742477     16.21592331
Na       27.49715424     22.69860268     20.53819466
Na       25.05547905     23.11665535     22.43046188
Na       27.68019676     22.79538536     29.71292877
Na       27.15280724     25.14810562      4.65970373
Na       27.39273262     29.61616325      9.24050140
Na       27.24500465     25.14756584      9.18274117
Na       27.44377708     27.59942245     15.87684536
Na       27.44993401     29.70655441     22.88642883
Na       25.06576920     27.36101532     27.52360153
Na       27.47185326     27.94195366     29.76330185
O        -0.08923826      0.24841861      4.53319454
O        -0.06761606      0.17771029      9.01432419
O         0.03077494      0.27073750     13.67960739
O        -0.00659248      0.05716836     18.24984360
O        -0.05309094      0.12074260     22.74739647
O        -0.01840049     -0.18307433     27.28002930
O        -0.18877047      0.12608933     31.87710190
O        -0.00365661      4.62960672      4.47236347
O         0.01013326      4.65228701      8.98937893
O         0.09503237      4.81797743     13.46701527
O         0.01363474      4.36186314     18.11500359
O        -0.06353813      4.43002367     22.78560448
O         0.03663456      4.46540737     27.28744507
O        -0.08508004      4.72537136     31.74591446
O         0.00000683      9.44811153      4.54636097
O         0.17311519      9.26418972      9.25341606
O        -0.09576010      9.23162270     13.62438965
O        -0.16866526      9.18644428     17.97630692
O        -0.06001007      9.24129486     22.73793983
O        -0.11778213      8.85426807     27.27491379
O        -0.20576628      9.03853130     32.02099609
O         0.23241174     13.62752342      4.52002954
O         0.09940063     13.55048275      9.19972038
O         0.02772765     13.71735573     13.70438671
O        -0.16150473     13.60748863     18.03883171
O         0.06238264     13.60111809     22.71316147
O        -0.02384353     13.76249409     27.32273865
O        -0.04158065     13.62900257     31.99618149
O         0.04936247     18.22110176      4.46754074
O         0.06830825     18.00064468      9.12241077
O         0.09340519     18.34986115     13.73150063
O        -0.14481482     18.21582222     18.41496849
O         0.02574883     18.18981552     22.78358269
O        -0.00784890     18.32875824     27.20746422
O        -0.09554165     18.35898018     32.09064484
O         0.10705935     22.77656364      4.61866474
O         0.13323183     22.94798660      8.73054409
O        -0.22124909     22.88754272     13.58987427
O        -0.00198567     22.85619164     18.24855232
O         0.03813030     22.73610878     22.73984718
O         0.10251983     23.03010750     27.51935959
O         0.07478876     22.77789879     31.79001999
O        -0.12794685     27.60242081      4.55455971
O         0.00970383     27.57703400      9.21013260
O        -0.36246264     27.39101601     13.68902874
O         0.06256311     27.56408119     18.45670128
O         0.09979502     27.29920197     22.71436310
O        -0.02460310     27.48736954     27.53294754
O        -0.20318489     27.60833740     32.10391998
O         4.58895922     -0.02459076      4.66354513
O         4.69774389      0.26251623      9.07337666
O         4.70450830      0.23860878     13.51332283
O         4.69260168     -0.02198396     18.40441895
O         4.67229795     -0.06611615     22.64536476
O         4.68472528      0.09559174     27.35215950
O         4.48941422     -0.01179256     31.97140312
O         4.49240446      4.81502151      4.69586468
O         4.65915108      4.61146641      9.00257492
O         4.52592993      4.72214222     13.77059174
O         4.44852734      4.32189655     18.29926872
O         4.37972260      4.43341160     22.65138054
O         4.53133821      4.64266062     27.36514473
O         4.67250443      4.60093832     31.98571396
O         4.41124296      8.99531555      4.56907320
O         4.73005962      9.02581882      9.31706524
O         4.39732599      9.11225891     13.58843136
O         4.57649946      9.02378178     18.28039360
O         4.54597187      9.16909313     22.85387039
O         4.49447250      9.30595112     27.45551109
O         4.28335333      9.15145016     31.70539856
O         4.28650761     13.62086964      4.24353218
O         4.54531050     13.72339916      9.13033295
O         4.52767515     13.70073986     13.74280548
O         4.94899035     13.67321587     18.14184189
O         4.48728752     13.66846466     22.75575447
O         4.42432499     13.97875881     27.31921005
O         4.74338293     13.64462757     32.07263947
O         4.60315323     18.14777184      4.29087067
O         4.44482470     18.25411987      8.87046719
O         4.60491800     18.39168739     13.69322300
O         4.37691736     18.24948120     18.03433037
O         4.79126310     18.16720963     22.83848000
O         4.38125277     18.37374878     27.29845428
O         4.44718409     18.38133621     31.71015358
O         4.52847338     22.88957596      4.66945171
O         4.70265722     22.78880119      8.95492363
O         4.74374390     22.85612297     13.92142963
O         4.50137806     22.56548882     18.15954399
O         4.42148447     22.83763885     22.77217484
O         4.44302368     22.86581039     27.47646523
O         4.57094002     23.25495338     31.76713943
O         4.52071524     27.58551025      4.65125942
O         4.41795635     27.30923462      9.03625488
O         4.42294550     27.45050430     13.68388748
O         4.49949169     27.16499329     18.04855347
O         4.39523268     27.34500122     22.59768486
O         4.77439737     27.32629776     27.48426819
O         4.46023512     27.46929741     32.11228943
O         9.12408352      0.20669837      4.65813017
O         8.94834709     -0.06007173      8.87570667
O         9.34278488      0.02345035     13.24773884
O         9.07153320     -0.12316670     18.10670662
O         9.24676991      0.09025071     22.72316742
O         9.27359581      0.16690297     27.32590103
O         9.08742046      0.17371249     32.03760529
O         9.18920803      4.75754547      4.63327503
O         8.97832108      4.66459799      9.26953316
O         9.13936234      4.70743513     13.70132160
O         9.18943405      4.54035616     18.25417137
O         9.15869999      4.82794762     22.92185020
O         9.22841072      4.60109949     27.43800354
O         9.05629253      4.61941051     31.79523659
O         9.40033531      9.56279659      4.55994272
O         9.43678379      9.02812099      9.05617142
O         9.18097401      8.91792965     13.78646374
O         9.22213840      9.15999317     18.45539856
O         9.21131420      9.10512733     22.96787071
O         9.00188637      9.15004539     27.44192886
O         9.31527519      9.09663677     32.17848969
O         8.92055130     13.89072514      4.79151821
O         9.18306446     13.64671803      8.93226051
O         9.14074230     13.64141846     13.83974648
O         9.50152588     13.76110363     18.11387444
O         9.10875893     13.66396809     22.80590820
O         9.06239414     13.62583542     27.61084175
O         9.24572945     13.84151268     32.23295212
O         9.03941822     18.52016258      4.46133089
O         8.87233162     18.28988457      9.08066177
O         9.25668049     18.15580368     13.75547028
O         9.02101231     17.89395142     18.35809517
O         9.29952145     18.18284607     22.99289513
O         9.10199642     18.56303978     27.38334084
O         9.16530323     18.57089424     31.94643402
O         9.37964725     23.02164841      4.48976946
O         9.10607529     22.87281990      9.07796001
O         9.03956604     22.86631775     13.67104912
O         9.25120831     23.04215813     18.07829666
O         9.12268066     23.11438942     22.80373955
O         9.16791725     22.90454865     27.45801926
O         8.98137474     22.91954231     31.99095535
O         8.95975971     27.49822426      4.64421177
O         9.01569176     27.30917740      9.14833164
O         9.30488396     27.43713760     13.55203915
O         8.81977558     27.53385925     18.46438217
O         8.96582031     27.54204941     23.06124687
O         9.30743027     27.65073013     27.37839890
O         9.04207420     27.39425659     31.82867813
O        13.75868225     -0.04062040      4.61436462
O        13.83530998     -0.09111060      9.08859825
O        13.96487522     -0.18835647     13.43174362
O        13.71436405      0.37015826     18.16816521
O        13.65390110     -0.00936876     22.76472282
O        13.78662682      0.32223445     27.31163216
O        13.77461720      0.09951984     31.97010994
O        13.67509747      4.61379433      4.76765633
O        13.68591022      4.32936335      9.04743099
O        13.59251595      4.67319393     13.83776760
O        13.83313274      4.80281591     18.26170540
O        13.83746052      4.75438452     22.90753174
O        13.66205692      4.68754673     27.32660866
O        13.52121544      4.59164095     31.98931313
O        13.54334927      9.10996437      4.44353390
O        13.89069080      9.00814056      9.14210224
O        13.74721050      9.02389336     13.58592606
O        13.47918415      9.24842453     18.33332253
O        13.69094753      9.24930382     22.94329071
O        13.90420914      9.42246342     27.32227707
O        13.64049435      9.30847740     31.84019470
O        13.37662601     13.52182102      4.65302134
O        14.06042480     13.59518528      8.83063126
O        13.70333004     13.67585564     13.74738026
O        13.90192509     13.64467907     18.40441704
O        13.59999847     13.74064255     22.88083839
O        13.69800472     14.04207706     27.44952011
O        13.91187000     13.83263397     32.04824448
O        13.52340317     18.39928246      4.52188683
O        13.70907784     18.23797798      8.98006725
O        13.71830273     18.05730820     13.76848793
O        13.47848511     18.35739899     18.55317879
O        13.69565773     18.22282028     22.79259109
O        13.57054996     18.44736099     27.61205673
O        13.79591656     18.42393684     32.09227753
O        13.69389820     22.65745163      4.58054066
O        13.64034081     22.81022835      9.35895920
O        13.89523792     22.60472870     13.77243328
O        13.72800636     22.74197388     18.16252708
O        13.70074368     22.81235695     22.92433357
O        13.63285637     22.89134026     27.51437378
O        13.56954670     22.78399277     31.97600174
O        13.75648499     27.35866737      4.28893709
O        13.72605801     27.34908676      9.20800877
O        13.69305515     27.47053528     13.79337025
O        13.74618340     27.31009865     18.25474167
O        13.79352188     27.31643677     23.00180054
O        13.90661240     27.28606224     27.46257019
O        13.53491592     27.39295578     32.08862305
O        18.39882278      0.07785356      4.65083647
O        18.10942650      0.09144598      9.04963589
O        18.14772224     -0.11408474     13.74595165
O        18.50932121     -0.02090644     18.33261490
O        18.19029617     -0.00703342     22.35553360
O        18.47077751     -0.28482297     27.71336365
O        18.18951225      0.00100200     31.95433998
O        18.25966644      4.58766317      4.47956562
O        18.00923347      4.63474178      9.27971935
O        18.30746269      4.65318108     13.66718960
O        18.40883255      4.40690470     18.27986526
O        18.04631615      4.40689087     22.80985832
O        18.16668129      4.66637278     27.57709503
O        18.34469795      4.58687592     32.22639465
O        18.23142624      9.20485210      4.57011414
O        18.41161537      9.03164673      9.11907959
O        18.33219528      9.20625210     13.91953945
O        18.21806526      9.19628906     18.25107765
O        18.15492630      8.90631771     22.93328094
O        18.06182671      9.13421917     27.17042923
O        18.44173050      9.25421715     31.87292671
O        18.22657585     13.69443130      4.64861393
O        18.39813042     13.76647568      9.08947086
O        18.37561798     13.78523159     13.85114670
O        18.48787498     13.74975395     18.42469788
O        18.48524475     13.59132767     22.74148750
O        18.29823112     13.79444408     27.38268280
O        18.51221848     13.68739223     32.02335358
O        18.26319122     18.39297867      4.58052158
O        18.37590408     18.29501343      9.05860043
O        17.99623108     18.18306923     13.69980907
O        18.45439529     18.41224480     18.28865242
O        18.38270760     18.49305725     22.87378883
O        18.39633369     18.46262360     27.43958473
O        18.12089348     18.34403038     32.04305267
O        18.25929070     22.67397690      4.71247625
O        18.25542450     22.83491707      9.56109810
O        18.33926201     22.85724640     13.88270569
O        18.41504288     23.01342773     18.45365524
O        18.41180611     22.81111717     22.93614197
O        18.33834267     22.87699318     27.41396713
O        18.53169250     22.74421120     32.07985306
O        18.27424240     27.28616333      4.73337030
O        18.20699120     27.45070457      9.61263084
O        18.07995224     27.06615257     13.77396965
O        18.29907417     27.46815491     18.41679764
O        18.10119629     27.30712128     22.71275902
O        18.19396973     27.32971764     27.47914314
O        18.08223152     27.50782585     32.12934494
O        22.78415108     -0.19597742      4.71504498
O        22.93575287     -0.04464128      9.00188065
O        22.98122215     -0.09622622     13.56260967
O        22.86544418     -0.10105157     18.17580032
O        22.85881042      0.15691799     22.88234711
O        22.87842560      0.08839192     27.21632576
O        22.70066643     -0.11898160     31.78184891
O        22.96912575      4.45368671      4.32739925
O        22.65863609      4.57482195      9.30352306
O        23.23854256      4.41589451     13.67632866
O        22.87413597      4.56041670     18.13486862
O        22.80850983      4.48720503     22.78731728
O        22.83018303      4.43475151     27.37717247
O        22.79626465      4.59120321     31.88850594
O        22.72356415      9.04068375      4.70906925
O        23.13364792      9.17868900      9.20167732
O        22.90088844      8.93106174     13.61094952
O        22.92639160      9.16622925     18.08740234
O        22.60774231      9.17533112     23.04886818
O        23.06026649      8.96154594     27.51198578
O        22.72042847      9.38356209     32.00748825
O        22.87570572     13.50630379      4.47916937
O        22.93571091     13.72574711      9.04903316
O        23.14801788     13.78855801     13.57172775
O        22.99438095     13.81565857     18.21414185
O        22.96183014     13.49454689     23.20320129
O        22.68764496     13.46982479     27.55874443
O        22.71450996     13.96674156     32.00061417
O        22.89783287     18.36237144      4.55187559
O        22.69668961     18.19953918      9.15395737
O        22.76913643     18.16314316     13.46068192
O        22.89355850     18.17098427     18.33945084
O        22.88784218     18.19739723     22.91382408
O        22.94482040     18.08232117     27.64752960
O        22.87562180     18.20639801     31.92086411
O        22.86557770     22.98324776      4.52102327
O        22.84958649     23.03312874      9.13053799
O        22.84962463     22.47711182     13.87573242
O        22.98802948     22.71553993     18.09307289
O        22.87041473     22.86025047     22.66748619
O        22.75989914     22.79396248     27.44189835
O        22.68825340     22.73746872     31.81423378
O        22.75200272     27.24754333      4.39271402
O        22.98717499     27.43344307      9.29369164
O        22.85816002     27.47502136     13.79737377
O        22.90286446     27.46986389     18.39242554
O        22.75757980     27.41736412     23.02105331
O        22.68102455     27.54045296     27.53290749
O        22.57136536     27.26132965     31.95166588
O        27.43719673      0.38167530      4.84095383
O        27.51723289     -0.26772726      9.21190262
O        27.46436310      0.05907955     13.60511971
O        27.34263611     -0.09247296     18.37464523
O        27.49064827     -0.04069545     22.84935570
O        27.65882492     -0.32945323     27.30353737
O        27.33744431     -0.08439698     32.12260437
O        27.14977264      4.85166788      4.44557714
O        27.46487617      4.73269033      9.18408203
O        27.53024864      4.46937943     14.14410591
O        27.26035309      4.62650347     18.35283089
O        27.44865990      4.63945198     22.78338051
O        27.41506577      4.79675198     27.28641319
O        27.24577713      4.51238108     32.02001953
O        27.16152573      9.38701248      4.82750607
O        27.52453613      9.22614956      9.34544754
O        27.32172585      9.04337883     13.74615383
O        27.10122681      9.21981812     18.45868874
O        27.46879768      9.31036949     22.90869713
O        27.33365440      9.05117702     27.59464073
O        27.29384422      9.28148079     32.06171417
O        27.57768631     13.83357716      4.55088186
O        27.41857529     13.46309948      9.10134125
O        27.42423630     13.88266945     13.65604305
O        27.34858322     13.74750233     18.01286888
O        27.33638191     13.94109726     22.89310455
O        27.60736656     13.64347553     27.55101585
O        27.45332527     13.57017994     32.11284637
O        27.58649826     18.36025238      4.48057604
O        27.44238281     18.29633713      9.20669937
O        27.63420868     18.36814308     13.59302235
O        27.20956421     18.43783951     18.25520325
O        27.50004387     18.31053543     22.84088135
O        27.23934937     18.42771530     27.62276077
O        27.22544861     17.99878883     31.82102776
O        27.32296753     22.92664528      4.47048092
O        27.45278740     22.83642769      8.82751846
O        27.45803261     22.64426804     13.98087978
O        27.56378555     22.78228378     18.27861404
O        27.62414551     22.77842522     22.84564781
O        27.49869347     22.95061302     27.30933762
O        27.33705711     23.01712227     32.04942322
O        27.32220268     27.56097031      4.71628571
O        27.29444695     27.24498558      9.27325630
O        27.33536339     27.56341743     13.63453865
O        27.43582535     27.37222862     18.26199150
O        27.43667221     27.34847641     22.93772697
O        27.43243217     27.49630547     27.76564980
O        27.38070297     27.45453644     32.24496460
H         1.57931626      1.57931626      1.57931626
H         1.57931626      2.99068356      2.99068356
B         2.28499985      2.28499985      2.28499985
H         2.99068356      1.57931626      2.99068356
H         2.99068356      2.99068356      1.57931626
H         1.57931626      1.57931626      6.14931583
H         1.57931626      2.99068356      7.56068325
B         2.28499985      2.28499985      6.85500002
H         2.99068356      1.57931626      7.56068325
H         2.99068356      2.99068356      6.14931583
H         2.99068356      2.99068356     10.71931648
H         1.57931626      1.57931626     10.71931648
H         1.57931626      2.99068356     12.13068295
B         2.28499985      2.28499985     11.42499924
H         2.99068356      1.57931626     12.13068295
H         2.99068356      2.99068356     15.28931522
H         1.57931626      1.57931626     15.28931522
H         1.57931626      2.99068356     16.70068359
B         2.28499985      2.28499985     15.99499989
H         2.99068356      1.57931626     16.70068359
H         2.99068356      2.99068356     19.85931396
H         1.57931626      1.57931626     19.85931396
H         1.57931626      2.99068356     21.27068329
B         2.28499985      2.28499985     20.56499863
H         2.99068356      1.57931626     21.27068329
H         2.99068356      2.99068356     24.42931557
H         1.57931626      1.57931626     24.42931557
H         1.57931626      2.99068356     25.84068108
B         2.28499985      2.28499985     25.13500023
H         2.99068356      1.57931626     25.84068108
H         2.99068356      2.99068356     28.99931526
H         1.57931626      1.57931626     28.99931526
H         1.57931626      2.99068356     30.41068268
B         2.28499985      2.28499985     29.70499992
H         2.99068356      1.57931626     30.41068268
H         2.99068356      7.56068325      1.57931626
H         1.57931626      6.14931583      1.57931626
H         1.57931626      7.56068325      2.99068356
B         2.28499985      6.85500002      2.28499985
H         2.99068356      6.14931583      2.99068356
H         2.99068356      7.56068325      6.14931583
H         1.57931626      6.14931583      6.14931583
H         1.57931626      7.56068325      7.56068325
B         2.28499985      6.85500002      6.85500002
H         2.99068356      6.14931583      7.56068325
H         2.99068356      7.56068325     10.71931648
H         1.57931626      6.14931583     10.71931648
H         1.57931626      7.56068325     12.13068295
B         2.28499985      6.85500002     11.42499924
H         2.99068356      6.14931583     12.13068295
H         2.99068356      7.56068325     15.28931522
H         1.57931626      6.14931583     15.28931522
H         1.57931626      7.56068325     16.70068359
B         2.28499985      6.85500002     15.99499989
H         2.99068356      6.14931583     16.70068359
H         2.99068356      6.14931583     21.27068329
H         2.99068356      7.56068325     19.85931396
H         1.57931626      6.14931583     19.85931396
H         1.57931626      7.56068325     21.27068329
B         2.28499985      6.85500002     20.56499863
H         2.99068356      6.14931583     25.84068108
H         2.99068356      7.56068325     24.42931557
H         1.57931626      6.14931583     24.42931557
H         1.57931626      7.56068325     25.84068108
B         2.28499985      6.85500002     25.13500023
H         2.99068356      6.14931583     30.41068268
H         2.99068356      7.56068325     28.99931526
H         1.57931626      6.14931583     28.99931526
H         1.57931626      7.56068325     30.41068268
B         2.28499985      6.85500002     29.70499992
H         2.99068356     10.71931648      2.99068356
H         2.99068356     12.13068295      1.57931626
H         1.57931626     10.71931648      1.57931626
H         1.57931626     12.13068295      2.99068356
B         2.28499985     11.42499924      2.28499985
H         2.99068356     10.71931648      7.56068325
H         2.99068356     12.13068295      6.14931583
H         1.57931626     10.71931648      6.14931583
H         1.57931626     12.13068295      7.56068325
B         2.28499985     11.42499924      6.85500002
B         2.28499985     11.42499924     11.42499924
H         2.99068356     10.71931648     12.13068295
H         2.99068356     12.13068295     10.71931648
H         1.57931626     10.71931648     10.71931648
H         1.57931626     12.13068295     12.13068295
B         2.28499985     11.42499924     15.99499989
H         2.99068356     10.71931648     16.70068359
H         2.99068356     12.13068295     15.28931522
H         1.57931626     10.71931648     15.28931522
H         1.57931626     12.13068295     16.70068359
B         2.28499985     11.42499924     20.56499863
H         2.99068356     10.71931648     21.27068329
H         2.99068356     12.13068295     19.85931396
H         1.57931626     10.71931648     19.85931396
H         1.57931626     12.13068295     21.27068329
B         2.28499985     11.42499924     25.13500023
H         2.99068356     10.71931648     25.84068108
H         2.99068356     12.13068295     24.42931557
H         1.57931626     10.71931648     24.42931557
H         1.57931626     12.13068295     25.84068108
H         1.57931626     12.13068295     30.41068268
B         2.28499985     11.42499924     29.70499992
H         2.99068356     10.71931648     30.41068268
H         2.99068356     12.13068295     28.99931526
H         1.57931626     10.71931648     28.99931526
H         1.57931626     16.70068359      2.99068356
B         2.28499985     15.99499989      2.28499985
H         2.99068356     15.28931522      2.99068356
H         2.99068356     16.70068359      1.57931626
H         1.57931626     15.28931522      1.57931626
H         1.57931626     16.70068359      7.56068325
B         2.28499985     15.99499989      6.85500002
H         2.99068356     15.28931522      7.56068325
H         2.99068356     16.70068359      6.14931583
H         1.57931626     15.28931522      6.14931583
H         1.57931626     16.70068359     12.13068295
B         2.28499985     15.99499989     11.42499924
H         2.99068356     15.28931522     12.13068295
H         2.99068356     16.70068359     10.71931648
H         1.57931626     15.28931522     10.71931648
H         1.57931626     16.70068359     16.70068359
B         2.28499985     15.99499989     15.99499989
H         2.99068356     15.28931522     16.70068359
H         2.99068356     16.70068359     15.28931522
H         1.57931626     15.28931522     15.28931522
H         1.57931626     15.28931522     19.85931396
H         1.57931626     16.70068359     21.27068329
B         2.28499985     15.99499989     20.56499863
H         2.99068356     15.28931522     21.27068329
H         2.99068356     16.70068359     19.85931396
H         1.57931626     15.28931522     24.42931557
H         1.57931626     16.70068359     25.84068108
B         2.28499985     15.99499989     25.13500023
H         2.99068356     15.28931522     25.84068108
H         2.99068356     16.70068359     24.42931557
H         1.57931626     15.28931522     28.99931526
H         1.57931626     16.70068359     30.41068268
B         2.28499985     15.99499989     29.70499992
H         2.99068356     15.28931522     30.41068268
H         2.99068356     16.70068359     28.99931526
H         1.57931626     19.85931396      1.57931626
H         1.57931626     21.27068329      2.99068356
B         2.28499985     20.56499863      2.28499985
H         2.99068356     19.85931396      2.99068356
H         2.99068356     21.27068329      1.57931626
H         1.57931626     19.85931396      6.14931583
H         1.57931626     21.27068329      7.56068325
B         2.28499985     20.56499863      6.85500002
H         2.99068356     19.85931396      7.56068325
H         2.99068356     21.27068329      6.14931583
H         1.57931626     19.85931396     10.71931648
H         1.57931626     21.27068329     12.13068295
B         2.28499985     20.56499863     11.42499924
H         2.99068356     19.85931396     12.13068295
H         2.99068356     21.27068329     10.71931648
H         1.57931626     19.85931396     15.28931522
H         1.57931626     21.27068329     16.70068359
B         2.28499985     20.56499863     15.99499989
H         2.99068356     19.85931396     16.70068359
H         2.99068356     21.27068329     15.28931522
H         1.57931626     19.85931396     19.85931396
H         1.57931626     21.27068329     21.27068329
B         2.28499985     20.56499863     20.56499863
H         2.99068356     19.85931396     21.27068329
H         2.99068356     21.27068329     19.85931396
H         1.57931626     19.85931396     24.42931557
H         1.57931626     21.27068329     25.84068108
B         2.28499985     20.56499863     25.13500023
H         2.99068356     19.85931396     25.84068108
H         2.99068356     21.27068329     24.42931557
H         2.99068356     21.27068329     28.99931526
H         1.57931626     19.85931396     28.99931526
H         1.57931626     21.27068329     30.41068268
B         2.28499985     20.56499863     29.70499992
H         2.99068356     19.85931396     30.41068268
H         2.99068356     25.84068108      1.57931626
H         1.57931626     24.42931557      1.57931626
H         1.57931626     25.84068108      2.99068356
B         2.28499985     25.13500023      2.28499985
H         2.99068356     24.42931557      2.99068356
H         2.99068356     25.84068108      6.14931583
H         1.57931626     24.42931557      6.14931583
H         1.57931626     25.84068108      7.56068325
B         2.28499985     25.13500023      6.85500002
H         2.99068356     24.42931557      7.56068325
H         2.99068356     25.84068108     10.71931648
H         1.57931626     24.42931557     10.71931648
H         1.57931626     25.84068108     12.13068295
B         2.28499985     25.13500023     11.42499924
H         2.99068356     24.42931557     12.13068295
H         2.99068356     25.84068108     15.28931522
H         1.57931626     24.42931557     15.28931522
H         1.57931626     25.84068108     16.70068359
B         2.28499985     25.13500023     15.99499989
H         2.99068356     24.42931557     16.70068359
H         2.99068356     25.84068108     19.85931396
H         1.57931626     24.42931557     19.85931396
H         1.57931626     25.84068108     21.27068329
B         2.28499985     25.13500023     20.56499863
H         2.99068356     24.42931557     21.27068329
H         2.99068356     25.84068108     24.42931557
H         1.57931626     24.42931557     24.42931557
H         1.57931626     25.84068108     25.84068108
B         2.28499985     25.13500023     25.13500023
H         2.99068356     24.42931557     25.84068108
H         2.99068356     25.84068108     28.99931526
H         1.57931626     24.42931557     28.99931526
H         1.57931626     25.84068108     30.41068268
B         2.28499985     25.13500023     29.70499992
H         2.99068356     24.42931557     30.41068268
H         2.99068356     30.41068268      1.57931626
H         1.57931626     28.99931526      1.57931626
H         1.57931626     30.41068268      2.99068356
B         2.28499985     29.70499992      2.28499985
H         2.99068356     28.99931526      2.99068356
H         2.99068356     28.99931526      7.56068325
H         2.99068356     30.41068268      6.14931583
H         1.57931626     28.99931526      6.14931583
H         1.57931626     30.41068268      7.56068325
B         2.28499985     29.70499992      6.85500002
H         2.99068356     28.99931526     12.13068295
H         2.99068356     30.41068268     10.71931648
H         1.57931626     28.99931526     10.71931648
H         1.57931626     30.41068268     12.13068295
B         2.28499985     29.70499992     11.42499924
H         2.99068356     28.99931526     16.70068359
H         2.99068356     30.41068268     15.28931522
H         1.57931626     28.99931526     15.28931522
H         1.57931626     30.41068268     16.70068359
B         2.28499985     29.70499992     15.99499989
H         2.99068356     28.99931526     21.27068329
H         2.99068356     30.41068268     19.85931396
H         1.57931626     28.99931526     19.85931396
H         1.57931626     30.41068268     21.27068329
B         2.28499985     29.70499992     20.56499863
H         2.99068356     28.99931526     25.84068108
H         2.99068356     30.41068268     24.42931557
H         1.57931626     28.99931526     24.42931557
H         1.57931626     30.41068268     25.84068108
B         2.28499985     29.70499992     25.13500023
B         2.28499985     29.70499992     29.70499992
H         2.99068356     28.99931526     30.41068268
H         2.99068356     30.41068268     28.99931526
H         1.57931626     28.99931526     28.99931526
H         1.57931626     30.41068268     30.41068268
B         6.85500002      2.28499985      2.28499985
H         7.56068325      1.57931626      2.99068356
H         7.56068325      2.99068356      1.57931626
H         6.14931583      1.57931626      1.57931626
H         6.14931583      2.99068356      2.99068356
B         6.85500002      2.28499985      6.85500002
H         7.56068325      1.57931626      7.56068325
H         7.56068325      2.99068356      6.14931583
H         6.14931583      1.57931626      6.14931583
H         6.14931583      2.99068356      7.56068325
B         6.85500002      2.28499985     11.42499924
H         7.56068325      1.57931626     12.13068295
H         7.56068325      2.99068356     10.71931648
H         6.14931583      1.57931626     10.71931648
H         6.14931583      2.99068356     12.13068295
H         6.14931583      2.99068356     16.70068359
B         6.85500002      2.28499985     15.99499989
H         7.56068325      1.57931626     16.70068359
H         7.56068325      2.99068356     15.28931522
H         6.14931583      1.57931626     15.28931522
H         6.14931583      2.99068356     21.27068329
B         6.85500002      2.28499985     20.56499863
H         7.56068325      1.57931626     21.27068329
H         7.56068325      2.99068356     19.85931396
H         6.14931583      1.57931626     19.85931396
H         6.14931583      2.99068356     25.84068108
B         6.85500002      2.28499985     25.13500023
H         7.56068325      1.57931626     25.84068108
H         7.56068325      2.99068356     24.42931557
H         6.14931583      1.57931626     24.42931557
H         6.14931583      2.99068356     30.41068268
B         6.85500002      2.28499985     29.70499992
H         7.56068325      1.57931626     30.41068268
H         7.56068325      2.99068356     28.99931526
H         6.14931583      1.57931626     28.99931526
H         6.14931583      7.56068325      2.99068356
B         6.85500002      6.85500002      2.28499985
H         7.56068325      6.14931583      2.99068356
H         7.56068325      7.56068325      1.57931626
H         6.14931583      6.14931583      1.57931626
H         6.14931583      6.14931583      6.14931583
H         6.14931583      7.56068325      7.56068325
B         6.85500002      6.85500002      6.85500002
H         7.56068325      6.14931583      7.56068325
H         7.56068325      7.56068325      6.14931583
H         6.14931583      6.14931583     10.71931648
H         6.14931583      7.56068325     12.13068295
B         6.85500002      6.85500002     11.42499924
H         7.56068325      6.14931583     12.13068295
H         7.56068325      7.56068325     10.71931648
H         6.14931583      6.14931583     15.28931522
H         6.14931583      7.56068325     16.70068359
B         6.85500002      6.85500002     15.99499989
H         7.56068325      6.14931583     16.70068359
H         7.56068325      7.56068325     15.28931522
H         6.14931583      6.14931583     19.85931396
H         6.14931583      7.56068325     21.27068329
B         6.85500002      6.85500002     20.56499863
H         7.56068325      6.14931583     21.27068329
H         7.56068325      7.56068325     19.85931396
H         6.14931583      6.14931583     24.42931557
H         6.14931583      7.56068325     25.84068108
B         6.85500002      6.85500002     25.13500023
H         7.56068325      6.14931583     25.84068108
H         7.56068325      7.56068325     24.42931557
H         6.14931583      6.14931583     28.99931526
H         6.14931583      7.56068325     30.41068268
B         6.85500002      6.85500002     29.70499992
H         7.56068325      6.14931583     30.41068268
H         7.56068325      7.56068325     28.99931526
H         6.14931583     10.71931648      1.57931626
H         6.14931583     12.13068295      2.99068356
B         6.85500002     11.42499924      2.28499985
H         7.56068325     10.71931648      2.99068356
H         7.56068325     12.13068295      1.57931626
H         6.14931583     10.71931648      6.14931583
H         6.14931583     12.13068295      7.56068325
B         6.85500002     11.42499924      6.85500002
H         7.56068325     10.71931648      7.56068325
H         7.56068325     12.13068295      6.14931583
H         6.14931583     10.71931648     10.71931648
H         6.14931583     12.13068295     12.13068295
B         6.85500002     11.42499924     11.42499924
H         7.56068325     10.71931648     12.13068295
H         7.56068325     12.13068295     10.71931648
H         7.56068325     12.13068295     15.28931522
H         6.14931583     10.71931648     15.28931522
H         6.14931583     12.13068295     16.70068359
B         6.85500002     11.42499924     15.99499989
H         7.56068325     10.71931648     16.70068359
H         7.56068325     12.13068295     19.85931396
H         6.14931583     10.71931648     19.85931396
H         6.14931583     12.13068295     21.27068329
B         6.85500002     11.42499924     20.56499863
H         7.56068325     10.71931648     21.27068329
H         7.56068325     12.13068295     24.42931557
H         6.14931583     10.71931648     24.42931557
H         6.14931583     12.13068295     25.84068108
B         6.85500002     11.42499924     25.13500023
H         7.56068325     10.71931648     25.84068108
H         7.56068325     12.13068295     28.99931526
H         6.14931583     10.71931648     28.99931526
H         6.14931583     12.13068295     30.41068268
B         6.85500002     11.42499924     29.70499992
H         7.56068325     10.71931648     30.41068268
H         7.56068325     16.70068359      1.57931626
H         6.14931583     15.28931522      1.57931626
H         6.14931583     16.70068359      2.99068356
B         6.85500002     15.99499989      2.28499985
H         7.56068325     15.28931522      2.99068356
H         7.56068325     16.70068359      6.14931583
H         6.14931583     15.28931522      6.14931583
H         6.14931583     16.70068359      7.56068325
B         6.85500002     15.99499989      6.85500002
H         7.56068325     15.28931522      7.56068325
H         7.56068325     16.70068359     10.71931648
H         6.14931583     15.28931522     10.71931648
H         6.14931583     16.70068359     12.13068295
B         6.85500002     15.99499989     11.42499924
H         7.56068325     15.28931522     12.13068295
H         7.56068325     16.70068359     15.28931522
H         6.14931583     15.28931522     15.28931522
H         6.14931583     16.70068359     16.70068359
B         6.85500002     15.99499989     15.99499989
H         7.56068325     15.28931522     16.70068359
H         7.56068325     16.70068359     19.85931396
H         6.14931583     15.28931522     19.85931396
H         6.14931583     16.70068359     21.27068329
B         6.85500002     15.99499989     20.56499863
H         7.56068325     15.28931522     21.27068329
H         7.56068325     15.28931522     25.84068108
H         7.56068325     16.70068359     24.42931557
H         6.14931583     15.28931522     24.42931557
H         6.14931583     16.70068359     25.84068108
B         6.85500002     15.99499989     25.13500023
H         7.56068325     15.28931522     30.41068268
H         7.56068325     16.70068359     28.99931526
H         6.14931583     15.28931522     28.99931526
H         6.14931583     16.70068359     30.41068268
B         6.85500002     15.99499989     29.70499992
H         7.56068325     19.85931396      2.99068356
H         7.56068325     21.27068329      1.57931626
H         6.14931583     19.85931396      1.57931626
H         6.14931583     21.27068329      2.99068356
B         6.85500002     20.56499863      2.28499985
H         7.56068325     19.85931396      7.56068325
H         7.56068325     21.27068329      6.14931583
H         6.14931583     19.85931396      6.14931583
H         6.14931583     21.27068329      7.56068325
B         6.85500002     20.56499863      6.85500002
H         7.56068325     19.85931396     12.13068295
H         7.56068325     21.27068329     10.71931648
H         6.14931583     19.85931396     10.71931648
H         6.14931583     21.27068329     12.13068295
B         6.85500002     20.56499863     11.42499924
B         6.85500002     20.56499863     15.99499989
H         7.56068325     19.85931396     16.70068359
H         7.56068325     21.27068329     15.28931522
H         6.14931583     19.85931396     15.28931522
H         6.14931583     21.27068329     16.70068359
B         6.85500002     20.56499863     20.56499863
H         7.56068325     19.85931396     21.27068329
H         7.56068325     21.27068329     19.85931396
H         6.14931583     19.85931396     19.85931396
H         6.14931583     21.27068329     21.27068329
B         6.85500002     20.56499863     25.13500023
H         7.56068325     19.85931396     25.84068108
H         7.56068325     21.27068329     24.42931557
H         6.14931583     19.85931396     24.42931557
H         6.14931583     21.27068329     25.84068108
B         6.85500002     20.56499863     29.70499992
H         7.56068325     19.85931396     30.41068268
H         7.56068325     21.27068329     28.99931526
H         6.14931583     19.85931396     28.99931526
H         6.14931583     21.27068329     30.41068268
H         6.14931583     25.84068108      2.99068356
B         6.85500002     25.13500023      2.28499985
H         7.56068325     24.42931557      2.99068356
H         7.56068325     25.84068108      1.57931626
H         6.14931583     24.42931557      1.57931626
H         6.14931583     25.84068108      7.56068325
B         6.85500002     25.13500023      6.85500002
H         7.56068325     24.42931557      7.56068325
H         7.56068325     25.84068108      6.14931583
H         6.14931583     24.42931557      6.14931583
H         6.14931583     25.84068108     12.13068295
B         6.85500002     25.13500023     11.42499924
H         7.56068325     24.42931557     12.13068295
H         7.56068325     25.84068108     10.71931648
H         6.14931583     24.42931557     10.71931648
H         6.14931583     25.84068108     16.70068359
B         6.85500002     25.13500023     15.99499989
H         7.56068325     24.42931557     16.70068359
H         7.56068325     25.84068108     15.28931522
H         6.14931583     24.42931557     15.28931522
H         6.14931583     25.84068108     21.27068329
B         6.85500002     25.13500023     20.56499863
H         7.56068325     24.42931557     21.27068329
H         7.56068325     25.84068108     19.85931396
H         6.14931583     24.42931557     19.85931396
H         6.14931583     24.42931557     24.42931557
H         6.14931583     25.84068108     25.84068108
B         6.85500002     25.13500023     25.13500023
H         7.56068325     24.42931557     25.84068108
H         7.56068325     25.84068108     24.42931557
H         6.14931583     24.42931557     28.99931526
H         6.14931583     25.84068108     30.41068268
B         6.85500002     25.13500023     29.70499992
H         7.56068325     24.42931557     30.41068268
H         7.56068325     25.84068108     28.99931526
H         6.14931583     28.99931526      1.57931626
H         6.14931583     30.41068268      2.99068356
B         6.85500002     29.70499992      2.28499985
H         7.56068325     28.99931526      2.99068356
H         7.56068325     30.41068268      1.57931626
H         6.14931583     28.99931526      6.14931583
H         6.14931583     30.41068268      7.56068325
B         6.85500002     29.70499992      6.85500002
H         7.56068325     28.99931526      7.56068325
H         7.56068325     30.41068268      6.14931583
H         6.14931583     28.99931526     10.71931648
H         6.14931583     30.41068268     12.13068295
B         6.85500002     29.70499992     11.42499924
H         7.56068325     28.99931526     12.13068295
H         7.56068325     30.41068268     10.71931648
H         6.14931583     28.99931526     15.28931522
H         6.14931583     30.41068268     16.70068359
B         6.85500002     29.70499992     15.99499989
H         7.56068325     28.99931526     16.70068359
H         7.56068325     30.41068268     15.28931522
H         6.14931583     28.99931526     19.85931396
H         6.14931583     30.41068268     21.27068329
B         6.85500002     29.70499992     20.56499863
H         7.56068325     28.99931526     21.27068329
H         7.56068325     30.41068268     19.85931396
H         6.14931583     28.99931526     24.42931557
H         6.14931583     30.41068268     25.84068108
B         6.85500002     29.70499992     25.13500023
H         7.56068325     28.99931526     25.84068108
H         7.56068325     30.41068268     24.42931557
H         6.14931583     28.99931526     28.99931526
H         6.14931583     30.41068268     30.41068268
B         6.85500002     29.70499992     29.70499992
H         7.56068325     28.99931526     30.41068268
H         7.56068325     30.41068268     28.99931526
H        12.13068295      2.99068356      1.57931626
H        10.71931648      1.57931626      1.57931626
H        10.71931648      2.99068356      2.99068356
B        11.42499924      2.28499985      2.28499985
H        12.13068295      1.57931626      2.99068356
H        12.13068295      2.99068356      6.14931583
H        10.71931648      1.57931626      6.14931583
H        10.71931648      2.99068356      7.56068325
B        11.42499924      2.28499985      6.85500002
H        12.13068295      1.57931626      7.56068325
H        12.13068295      2.99068356     10.71931648
H        10.71931648      1.57931626     10.71931648
H        10.71931648      2.99068356     12.13068295
B        11.42499924      2.28499985     11.42499924
H        12.13068295      1.57931626     12.13068295
H        12.13068295      2.99068356     15.28931522
H        10.71931648      1.57931626     15.28931522
H        10.71931648      2.99068356     16.70068359
B        11.42499924      2.28499985     15.99499989
H        12.13068295      1.57931626     16.70068359
H        12.13068295      2.99068356     19.85931396
H        10.71931648      1.57931626     19.85931396
H        10.71931648      2.99068356     21.27068329
B        11.42499924      2.28499985     20.56499863
H        12.13068295      1.57931626     21.27068329
H        12.13068295      2.99068356     24.42931557
H        10.71931648      1.57931626     24.42931557
H        10.71931648      2.99068356     25.84068108
B        11.42499924      2.28499985     25.13500023
H        12.13068295      1.57931626     25.84068108
H        12.13068295      2.99068356     28.99931526
H        10.71931648      1.57931626     28.99931526
H        10.71931648      2.99068356     30.41068268
B        11.42499924      2.28499985     29.70499992
H        12.13068295      1.57931626     30.41068268
H        12.13068295      7.56068325      1.57931626
H        10.71931648      6.14931583      1.57931626
H        10.71931648      7.56068325      2.99068356
B        11.42499924      6.85500002      2.28499985
H        12.13068295      6.14931583      2.99068356
H        12.13068295      7.56068325      6.14931583
H        10.71931648      6.14931583      6.14931583
H        10.71931648      7.56068325      7.56068325
B        11.42499924      6.85500002      6.85500002
H        12.13068295      6.14931583      7.56068325
H        12.13068295      6.14931583     12.13068295
H        12.13068295      7.56068325     10.71931648
H        10.71931648      6.14931583     10.71931648
H        10.71931648      7.56068325     12.13068295
B        11.42499924      6.85500002     11.42499924
H        12.13068295      6.14931583     16.70068359
H        12.13068295      7.56068325     15.28931522
H        10.71931648      6.14931583     15.28931522
H        10.71931648      7.56068325     16.70068359
B        11.42499924      6.85500002     15.99499989
H        12.13068295      6.14931583     21.27068329
H        12.13068295      7.56068325     19.85931396
H        10.71931648      6.14931583     19.85931396
H        10.71931648      7.56068325     21.27068329
B        11.42499924      6.85500002     20.56499863
H        12.13068295      6.14931583     25.84068108
H        12.13068295      7.56068325     24.42931557
H        10.71931648      6.14931583     24.42931557
H        10.71931648      7.56068325     25.84068108
B        11.42499924      6.85500002     25.13500023
H        12.13068295      6.14931583     30.41068268
H        12.13068295      7.56068325     28.99931526
H        10.71931648      6.14931583     28.99931526
H        10.71931648      7.56068325     30.41068268
B        11.42499924      6.85500002     29.70499992
B        11.42499924     11.42499924      2.28499985
H        12.13068295     10.71931648      2.99068356
H        12.13068295     12.13068295      1.57931626
H        10.71931648     10.71931648      1.57931626
H        10.71931648     12.13068295      2.99068356
B        11.42499924     11.42499924      6.85500002
H        12.13068295     10.71931648      7.56068325
H        12.13068295     12.13068295      6.14931583
H        10.71931648     10.71931648      6.14931583
H        10.71931648     12.13068295      7.56068325
B        11.42499924     11.42499924     11.42499924
H        12.13068295     10.71931648     12.13068295
H        12.13068295     12.13068295     10.71931648
H        10.71931648     10.71931648     10.71931648
H        10.71931648     12.13068295     12.13068295
B        11.42499924     11.42499924     15.99499989
H        12.13068295     10.71931648     16.70068359
H        12.13068295     12.13068295     15.28931522
H        10.71931648     10.71931648     15.28931522
H        10.71931648     12.13068295     16.70068359
H        10.71931648     12.13068295     21.27068329
B        11.42499924     11.42499924     20.56499863
H        12.13068295     10.71931648     21.27068329
H        12.13068295     12.13068295     19.85931396
H        10.71931648     10.71931648     19.85931396
H        10.71931648     12.13068295     25.84068108
B        11.42499924     11.42499924     25.13500023
H        12.13068295     10.71931648     25.84068108
H        12.13068295     12.13068295     24.42931557
H        10.71931648     10.71931648     24.42931557
H        10.71931648     12.13068295     30.41068268
B        11.42499924     11.42499924     29.70499992
H        12.13068295     10.71931648     30.41068268
H        12.13068295     12.13068295     28.99931526
H        10.71931648     10.71931648     28.99931526
H        10.71931648     16.70068359      2.99068356
B        11.42499924     15.99499989      2.28499985
H        12.13068295     15.28931522      2.99068356
H        12.13068295     16.70068359      1.57931626
H        10.71931648     15.28931522      1.57931626
H        10.71931648     16.70068359      7.56068325
B        11.42499924     15.99499989      6.85500002
H        12.13068295     15.28931522      7.56068325
H        12.13068295     16.70068359      6.14931583
H        10.71931648     15.28931522      6.14931583
H        10.71931648     15.28931522     10.71931648
H        10.71931648     16.70068359     12.13068295
B        11.42499924     15.99499989     11.42499924
H        12.13068295     15.28931522     12.13068295
H        12.13068295     16.70068359     10.71931648
H        10.71931648     15.28931522     15.28931522
H        10.71931648     16.70068359     16.70068359
B        11.42499924     15.99499989     15.99499989
H        12.13068295     15.28931522     16.70068359
H        12.13068295     16.70068359     15.28931522
H        10.71931648     15.28931522     19.85931396
H        10.71931648     16.70068359     21.27068329
B        11.42499924     15.99499989     20.56499863
H        12.13068295     15.28931522     21.27068329
H        12.13068295     16.70068359     19.85931396
H        10.71931648     15.28931522     24.42931557
H        10.71931648     16.70068359     25.84068108
B        11.42499924     15.99499989     25.13500023
H        12.13068295     15.28931522     25.84068108
H        12.13068295     16.70068359     24.42931557
H        10.71931648     15.28931522     28.99931526
H        10.71931648     16.70068359     30.41068268
B        11.42499924     15.99499989     29.70499992
H        12.13068295     15.28931522     30.41068268
H        12.13068295     16.70068359     28.99931526
H        10.71931648     19.85931396      1.57931626
H        10.71931648     21.27068329      2.99068356
B        11.42499924     20.56499863      2.28499985
H        12.13068295     19.85931396      2.99068356
H        12.13068295     21.27068329      1.57931626
H        10.71931648     19.85931396      6.14931583
H        10.71931648     21.27068329      7.56068325
B        11.42499924     20.56499863      6.85500002
H        12.13068295     19.85931396      7.56068325
H        12.13068295     21.27068329      6.14931583
H        10.71931648     19.85931396     10.71931648
H        10.71931648     21.27068329     12.13068295
B        11.42499924     20.56499863     11.42499924
H        12.13068295     19.85931396     12.13068295
H        12.13068295     21.27068329     10.71931648
H        10.71931648     19.85931396     15.28931522
H        10.71931648     21.27068329     16.70068359
B        11.42499924     20.56499863     15.99499989
H        12.13068295     19.85931396     16.70068359
H        12.13068295     21.27068329     15.28931522
H        12.13068295     21.27068329     19.85931396
H        10.71931648     19.85931396     19.85931396
H        10.71931648     21.27068329     21.27068329
B        11.42499924     20.56499863     20.56499863
H        12.13068295     19.85931396     21.27068329
H        12.13068295     21.27068329     24.42931557
H        10.71931648     19.85931396     24.42931557
H        10.71931648     21.27068329     25.84068108
B        11.42499924     20.56499863     25.13500023
H        12.13068295     19.85931396     25.84068108
H        12.13068295     21.27068329     28.99931526
H        10.71931648     19.85931396     28.99931526
H        10.71931648     21.27068329     30.41068268
B        11.42499924     20.56499863     29.70499992
H        12.13068295     19.85931396     30.41068268
H        12.13068295     25.84068108      1.57931626
H        10.71931648     24.42931557      1.57931626
H        10.71931648     25.84068108      2.99068356
B        11.42499924     25.13500023      2.28499985
H        12.13068295     24.42931557      2.99068356
H        12.13068295     25.84068108      6.14931583
H        10.71931648     24.42931557      6.14931583
H        10.71931648     25.84068108      7.56068325
B        11.42499924     25.13500023      6.85500002
H        12.13068295     24.42931557      7.56068325
H        12.13068295     25.84068108     10.71931648
H        10.71931648     24.42931557     10.71931648
H        10.71931648     25.84068108     12.13068295
B        11.42499924     25.13500023     11.42499924
H        12.13068295     24.42931557     12.13068295
H        12.13068295     25.84068108     15.28931522
H        10.71931648     24.42931557     15.28931522
H        10.71931648     25.84068108     16.70068359
B        11.42499924     25.13500023     15.99499989
H        12.13068295     24.42931557     16.70068359
H        12.13068295     25.84068108     19.85931396
H        10.71931648     24.42931557     19.85931396
H        10.71931648     25.84068108     21.27068329
B        11.42499924     25.13500023     20.56499863
H        12.13068295     24.42931557     21.27068329
H        12.13068295     25.84068108     24.42931557
H        10.71931648     24.42931557     24.42931557
H        10.71931648     25.84068108     25.84068108
B        11.42499924     25.13500023     25.13500023
H        12.13068295     24.42931557     25.84068108
H        12.13068295     24.42931557     30.41068268
H        12.13068295     25.84068108     28.99931526
H        10.71931648     24.42931557     28.99931526
H        10.71931648     25.84068108     30.41068268
B        11.42499924     25.13500023     29.70499992
H        12.13068295     28.99931526      2.99068356
H        12.13068295     30.41068268      1.57931626
H        10.71931648     28.99931526      1.57931626
H        10.71931648     30.41068268      2.99068356
B        11.42499924     29.70499992      2.28499985
H        12.13068295     28.99931526      7.56068325
H        12.13068295     30.41068268      6.14931583
H        10.71931648     28.99931526      6.14931583
H        10.71931648     30.41068268      7.56068325
B        11.42499924     29.70499992      6.85500002
H        12.13068295     28.99931526     12.13068295
H        12.13068295     30.41068268     10.71931648
H        10.71931648     28.99931526     10.71931648
H        10.71931648     30.41068268     12.13068295
B        11.42499924     29.70499992     11.42499924
H        12.13068295     28.99931526     16.70068359
H        12.13068295     30.41068268     15.28931522
H        10.71931648     28.99931526     15.28931522
H        10.71931648     30.41068268     16.70068359
B        11.42499924     29.70499992     15.99499989
B        11.42499924     29.70499992     20.56499863
H        12.13068295     28.99931526     21.27068329
H        12.13068295     30.41068268     19.85931396
H        10.71931648     28.99931526     19.85931396
H        10.71931648     30.41068268     21.27068329
B        11.42499924     29.70499992     25.13500023
H        12.13068295     28.99931526     25.84068108
H        12.13068295     30.41068268     24.42931557
H        10.71931648     28.99931526     24.42931557
H        10.71931648     30.41068268     25.84068108
B        11.42499924     29.70499992     29.70499992
H        12.13068295     28.99931526     30.41068268
H        12.13068295     30.41068268     28.99931526
H        10.71931648     28.99931526     28.99931526
H        10.71931648     30.41068268     30.41068268
B        15.99499989      2.28499985      2.28499985
H        16.70068359      1.57931626      2.99068356
H        16.70068359      2.99068356      1.57931626
H        15.28931522      1.57931626      1.57931626
H        15.28931522      2.99068356      2.99068356
H        15.28931522      2.99068356      7.56068325
B        15.99499989      2.28499985      6.85500002
H        16.70068359      1.57931626      7.56068325
H        16.70068359      2.99068356      6.14931583
H        15.28931522      1.57931626      6.14931583
H        15.28931522      2.99068356     12.13068295
B        15.99499989      2.28499985     11.42499924
H        16.70068359      1.57931626     12.13068295
H        16.70068359      2.99068356     10.71931648
H        15.28931522      1.57931626     10.71931648
H        15.28931522      2.99068356     16.70068359
B        15.99499989      2.28499985     15.99499989
H        16.70068359      1.57931626     16.70068359
H        16.70068359      2.99068356     15.28931522
H        15.28931522      1.57931626     15.28931522
H        15.28931522      2.99068356     21.27068329
B        15.99499989      2.28499985     20.56499863
H        16.70068359      1.57931626     21.27068329
H        16.70068359      2.99068356     19.85931396
H        15.28931522      1.57931626     19.85931396
H        15.28931522      2.99068356     25.84068108
B        15.99499989      2.28499985     25.13500023
H        16.70068359      1.57931626     25.84068108
H        16.70068359      2.99068356     24.42931557
H        15.28931522      1.57931626     24.42931557
H        15.28931522      1.57931626     28.99931526
H        15.28931522      2.99068356     30.41068268
B        15.99499989      2.28499985     29.70499992
H        16.70068359      1.57931626     30.41068268
H        16.70068359      2.99068356     28.99931526
H        15.28931522      6.14931583      1.57931626
H        15.28931522      7.56068325      2.99068356
B        15.99499989      6.85500002      2.28499985
H        16.70068359      6.14931583      2.99068356
H        16.70068359      7.56068325      1.57931626
H        15.28931522      6.14931583      6.14931583
H        15.28931522      7.56068325      7.56068325
B        15.99499989      6.85500002      6.85500002
H        16.70068359      6.14931583      7.56068325
H        16.70068359      7.56068325      6.14931583
H        15.28931522      6.14931583     10.71931648
H        15.28931522      7.56068325     12.13068295
B        15.99499989      6.85500002     11.42499924
H        16.70068359      6.14931583     12.13068295
H        16.70068359      7.56068325     10.71931648
H        15.28931522      6.14931583     15.28931522
H        15.28931522      7.56068325     16.70068359
B        15.99499989      6.85500002     15.99499989
H        16.70068359      6.14931583     16.70068359
H        16.70068359      7.56068325     15.28931522
H        15.28931522      6.14931583     19.85931396
H        15.28931522      7.56068325     21.27068329
B        15.99499989      6.85500002     20.56499863
H        16.70068359      6.14931583     21.27068329
H        16.70068359      7.56068325     19.85931396
H        15.28931522      6.14931583     24.42931557
H        15.28931522      7.56068325     25.84068108
B        15.99499989      6.85500002     25.13500023
H        16.70068359      6.14931583     25.84068108
H        16.70068359      7.56068325     24.42931557
H        15.28931522      6.14931583     28.99931526
H        15.28931522      7.56068325     30.41068268
B        15.99499989      6.85500002     29.70499992
H        16.70068359      6.14931583     30.41068268
H        16.70068359      7.56068325     28.99931526
H        15.28931522     10.71931648      1.57931626
H        15.28931522     12.13068295      2.99068356
B        15.99499989     11.42499924      2.28499985
H        16.70068359     10.71931648      2.99068356
H        16.70068359     12.13068295      1.57931626
H        16.70068359     12.13068295      6.14931583
H        15.28931522     10.71931648      6.14931583
H        15.28931522     12.13068295      7.56068325
B        15.99499989     11.42499924      6.85500002
H        16.70068359     10.71931648      7.56068325
H        16.70068359     12.13068295     10.71931648
H        15.28931522     10.71931648     10.71931648
H        15.28931522     12.13068295     12.13068295
B        15.99499989     11.42499924     11.42499924
H        16.70068359     10.71931648     12.13068295
H        16.70068359     12.13068295     15.28931522
H        15.28931522     10.71931648     15.28931522
H        15.28931522     12.13068295     16.70068359
B        15.99499989     11.42499924     15.99499989
H        16.70068359     10.71931648     16.70068359
H        16.70068359     12.13068295     19.85931396
H        15.28931522     10.71931648     19.85931396
H        15.28931522     12.13068295     21.27068329
B        15.99499989     11.42499924     20.56499863
H        16.70068359     10.71931648     21.27068329
H        16.70068359     12.13068295     24.42931557
H        15.28931522     10.71931648     24.42931557
H        15.28931522     12.13068295     25.84068108
B        15.99499989     11.42499924     25.13500023
H        16.70068359     10.71931648     25.84068108
H        16.70068359     12.13068295     28.99931526
H        15.28931522     10.71931648     28.99931526
H        15.28931522     12.13068295     30.41068268
B        15.99499989     11.42499924     29.70499992
H        16.70068359     10.71931648     30.41068268
H        16.70068359     16.70068359      1.57931626
H        15.28931522     15.28931522      1.57931626
H        15.28931522     16.70068359      2.99068356
B        15.99499989     15.99499989      2.28499985
H        16.70068359     15.28931522      2.99068356
H        16.70068359     16.70068359      6.14931583
H        15.28931522     15.28931522      6.14931583
H        15.28931522     16.70068359      7.56068325
B        15.99499989     15.99499989      6.85500002
H        16.70068359     15.28931522      7.56068325
H        16.70068359     16.70068359     10.71931648
H        15.28931522     15.28931522     10.71931648
H        15.28931522     16.70068359     12.13068295
B        15.99499989     15.99499989     11.42499924
H        16.70068359     15.28931522     12.13068295
H        16.70068359     15.28931522     16.70068359
H        16.70068359     16.70068359     15.28931522
H        15.28931522     15.28931522     15.28931522
H        15.28931522     16.70068359     16.70068359
B        15.99499989     15.99499989     15.99499989
H        16.70068359     15.28931522     21.27068329
H        16.70068359     16.70068359     19.85931396
H        15.28931522     15.28931522     19.85931396
H        15.28931522     16.70068359     21.27068329
B        15.99499989     15.99499989     20.56499863
H        16.70068359     15.28931522     25.84068108
H        16.70068359     16.70068359     24.42931557
H        15.28931522     15.28931522     24.42931557
H        15.28931522     16.70068359     25.84068108
B        15.99499989     15.99499989     25.13500023
H        16.70068359     15.28931522     30.41068268
H        16.70068359     16.70068359     28.99931526
H        15.28931522     15.28931522     28.99931526
H        15.28931522     16.70068359     30.41068268
B        15.99499989     15.99499989     29.70499992
H        16.70068359     19.85931396      2.99068356
H        16.70068359     21.27068329      1.57931626
H        15.28931522     19.85931396      1.57931626
H        15.28931522     21.27068329      2.99068356
B        15.99499989     20.56499863      2.28499985
B        15.99499989     20.56499863      6.85500002
H        16.70068359     19.85931396      7.56068325
H        16.70068359     21.27068329      6.14931583
H        15.28931522     19.85931396      6.14931583
H        15.28931522     21.27068329      7.56068325
B        15.99499989     20.56499863     11.42499924
H        16.70068359     19.85931396     12.13068295
H        16.70068359     21.27068329     10.71931648
H        15.28931522     19.85931396     10.71931648
H        15.28931522     21.27068329     12.13068295
B        15.99499989     20.56499863     15.99499989
H        16.70068359     19.85931396     16.70068359
H        16.70068359     21.27068329     15.28931522
H        15.28931522     19.85931396     15.28931522
H        15.28931522     21.27068329     16.70068359
B        15.99499989     20.56499863     20.56499863
H        16.70068359     19.85931396     21.27068329
H        16.70068359     21.27068329     19.85931396
H        15.28931522     19.85931396     19.85931396
H        15.28931522     21.27068329     21.27068329
H        15.28931522     21.27068329     25.84068108
B        15.99499989     20.56499863     25.13500023
H        16.70068359     19.85931396     25.84068108
H        16.70068359     21.27068329     24.42931557
H        15.28931522     19.85931396     24.42931557
H        15.28931522     21.27068329     30.41068268
B        15.99499989     20.56499863     29.70499992
H        16.70068359     19.85931396     30.41068268
H        16.70068359     21.27068329     28.99931526
H        15.28931522     19.85931396     28.99931526
H        15.28931522     25.84068108      2.99068356
B        15.99499989     25.13500023      2.28499985
H        16.70068359     24.42931557      2.99068356
H        16.70068359     25.84068108      1.57931626
H        15.28931522     24.42931557      1.57931626
H        15.28931522     25.84068108      7.56068325
B        15.99499989     25.13500023      6.85500002
H        16.70068359     24.42931557      7.56068325
H        16.70068359     25.84068108      6.14931583
H        15.28931522     24.42931557      6.14931583
H        15.28931522     25.84068108     12.13068295
B        15.99499989     25.13500023     11.42499924
H        16.70068359     24.42931557     12.13068295
H        16.70068359     25.84068108     10.71931648
H        15.28931522     24.42931557     10.71931648
H        15.28931522     24.42931557     15.28931522
H        15.28931522     25.84068108     16.70068359
B        15.99499989     25.13500023     15.99499989
H        16.70068359     24.42931557     16.70068359
H        16.70068359     25.84068108     15.28931522
H        15.28931522     24.42931557     19.85931396
H        15.28931522     25.84068108     21.27068329
B        15.99499989     25.13500023     20.56499863
H        16.70068359     24.42931557     21.27068329
H        16.70068359     25.84068108     19.85931396
H        15.28931522     24.42931557     24.42931557
H        15.28931522     25.84068108     25.84068108
B        15.99499989     25.13500023     25.13500023
H        16.70068359     24.42931557     25.84068108
H        16.70068359     25.84068108     24.42931557
H        15.28931522     24.42931557     28.99931526
H        15.28931522     25.84068108     30.41068268
B        15.99499989     25.13500023     29.70499992
H        16.70068359     24.42931557     30.41068268
H        16.70068359     25.84068108     28.99931526
H        15.28931522     28.99931526      1.57931626
H        15.28931522     30.41068268      2.99068356
B        15.99499989     29.70499992      2.28499985
H        16.70068359     28.99931526      2.99068356
H        16.70068359     30.41068268      1.57931626
H        15.28931522     28.99931526      6.14931583
H        15.28931522     30.41068268      7.56068325
B        15.99499989     29.70499992      6.85500002
H        16.70068359     28.99931526      7.56068325
H        16.70068359     30.41068268      6.14931583
H        15.28931522     28.99931526     10.71931648
H        15.28931522     30.41068268     12.13068295
B        15.99499989     29.70499992     11.42499924
H        16.70068359     28.99931526     12.13068295
H        16.70068359     30.41068268     10.71931648
H        15.28931522     28.99931526     15.28931522
H        15.28931522     30.41068268     16.70068359
B        15.99499989     29.70499992     15.99499989
H        16.70068359     28.99931526     16.70068359
H        16.70068359     30.41068268     15.28931522
H        15.28931522     28.99931526     19.85931396
H        15.28931522     30.41068268     21.27068329
B        15.99499989     29.70499992     20.56499863
H        16.70068359     28.99931526     21.27068329
H        16.70068359     30.41068268     19.85931396
H        16.70068359     30.41068268     24.42931557
H        15.28931522     28.99931526     24.42931557
H        15.28931522     30.41068268     25.84068108
B        15.99499989     29.70499992     25.13500023
H        16.70068359     28.99931526     25.84068108
H        16.70068359     30.41068268     28.99931526
H        15.28931522     28.99931526     28.99931526
H        15.28931522     30.41068268     30.41068268
B        15.99499989     29.70499992     29.70499992
H        16.70068359     28.99931526     30.41068268
H        21.27068329      2.99068356      1.57931626
H        19.85931396      1.57931626      1.57931626
H        19.85931396      2.99068356      2.99068356
B        20.56499863      2.28499985      2.28499985
H        21.27068329      1.57931626      2.99068356
H        21.27068329      2.99068356      6.14931583
H        19.85931396      1.57931626      6.14931583
H        19.85931396      2.99068356      7.56068325
B        20.56499863      2.28499985      6.85500002
H        21.27068329      1.57931626      7.56068325
H        21.27068329      2.99068356     10.71931648
H        19.85931396      1.57931626     10.71931648
H        19.85931396      2.99068356     12.13068295
B        20.56499863      2.28499985     11.42499924
H        21.27068329      1.57931626     12.13068295
H        21.27068329      2.99068356     15.28931522
H        19.85931396      1.57931626     15.28931522
H        19.85931396      2.99068356     16.70068359
B        20.56499863      2.28499985     15.99499989
H        21.27068329      1.57931626     16.70068359
H        21.27068329      2.99068356     19.85931396
H        19.85931396      1.57931626     19.85931396
H        19.85931396      2.99068356     21.27068329
B        20.56499863      2.28499985     20.56499863
H        21.27068329      1.57931626     21.27068329
H        21.27068329      2.99068356     24.42931557
H        19.85931396      1.57931626     24.42931557
H        19.85931396      2.99068356     25.84068108
B        20.56499863      2.28499985     25.13500023
H        21.27068329      1.57931626     25.84068108
H        21.27068329      2.99068356     28.99931526
H        19.85931396      1.57931626     28.99931526
H        19.85931396      2.99068356     30.41068268
B        20.56499863      2.28499985     29.70499992
H        21.27068329      1.57931626     30.41068268
H        21.27068329      6.14931583      2.99068356
H        21.27068329      7.56068325      1.57931626
H        19.85931396      6.14931583      1.57931626
H        19.85931396      7.56068325      2.99068356
B        20.56499863      6.85500002      2.28499985
H        21.27068329      6.14931583      7.56068325
H        21.27068329      7.56068325      6.14931583
H        19.85931396      6.14931583      6.14931583
H        19.85931396      7.56068325      7.56068325
B        20.56499863      6.85500002      6.85500002
H        21.27068329      6.14931583     12.13068295
H        21.27068329      7.56068325     10.71931648
H        19.85931396      6.14931583     10.71931648
H        19.85931396      7.56068325     12.13068295
B        20.56499863      6.85500002     11.42499924
H        21.27068329      6.14931583     16.70068359
H        21.27068329      7.56068325     15.28931522
H        19.85931396      6.14931583     15.28931522
H        19.85931396      7.56068325     16.70068359
B        20.56499863      6.85500002     15.99499989
H        21.27068329      6.14931583     21.27068329
H        21.27068329      7.56068325     19.85931396
H        19.85931396      6.14931583     19.85931396
H        19.85931396      7.56068325     21.27068329
B        20.56499863      6.85500002     20.56499863
B        20.56499863      6.85500002     25.13500023
H        21.27068329      6.14931583     25.84068108
H        21.27068329      7.56068325     24.42931557
H        19.85931396      6.14931583     24.42931557
H        19.85931396      7.56068325     25.84068108
B        20.56499863      6.85500002     29.70499992
H        21.27068329      6.14931583     30.41068268
H        21.27068329      7.56068325     28.99931526
H        19.85931396      6.14931583     28.99931526
H        19.85931396      7.56068325     30.41068268
B        20.56499863     11.42499924      2.28499985
H        21.27068329     10.71931648      2.99068356
H        21.27068329     12.13068295      1.57931626
H        19.85931396     10.71931648      1.57931626
H        19.85931396     12.13068295      2.99068356
B        20.56499863     11.42499924      6.85500002
H        21.27068329     10.71931648      7.56068325
H        21.27068329     12.13068295      6.14931583
H        19.85931396     10.71931648      6.14931583
H        19.85931396     12.13068295      7.56068325
H        19.85931396     12.13068295     12.13068295
B        20.56499863     11.42499924     11.42499924
H        21.27068329     10.71931648     12.13068295
H        21.27068329     12.13068295     10.71931648
H        19.85931396     10.71931648     10.71931648
H        19.85931396     12.13068295     16.70068359
B        20.56499863     11.42499924     15.99499989
H        21.27068329     10.71931648     16.70068359
H        21.27068329     12.13068295     15.28931522
H        19.85931396     10.71931648     15.28931522
H        19.85931396     12.13068295     21.27068329
B        20.56499863     11.42499924     20.56499863
H        21.27068329     10.71931648     21.27068329
H        21.27068329     12.13068295     19.85931396
H        19.85931396     10.71931648     19.85931396
H        19.85931396     12.13068295     25.84068108
B        20.56499863     11.42499924     25.13500023
H        21.27068329     10.71931648     25.84068108
H        21.27068329     12.13068295     24.42931557
H        19.85931396     10.71931648     24.42931557
H        19.85931396     12.13068295     30.41068268
B        20.56499863     11.42499924     29.70499992
H        21.27068329     10.71931648     30.41068268
H        21.27068329     12.13068295     28.99931526
H        19.85931396     10.71931648     28.99931526
H        19.85931396     15.28931522      1.57931626
H        19.85931396     16.70068359      2.99068356
B        20.56499863     15.99499989      2.28499985
H        21.27068329     15.28931522      2.99068356
H        21.27068329     16.70068359      1.57931626
H        19.85931396     15.28931522      6.14931583
H        19.85931396     16.70068359      7.56068325
B        20.56499863     15.99499989      6.85500002
H        21.27068329     15.28931522      7.56068325
H        21.27068329     16.70068359      6.14931583
H        19.85931396     15.28931522     10.71931648
H        19.85931396     16.70068359     12.13068295
B        20.56499863     15.99499989     11.42499924
H        21.27068329     15.28931522     12.13068295
H        21.27068329     16.70068359     10.71931648
H        19.85931396     15.28931522     15.28931522
H        19.85931396     16.70068359     16.70068359
B        20.56499863     15.99499989     15.99499989
H        21.27068329     15.28931522     16.70068359
H        21.27068329     16.70068359     15.28931522
H        19.85931396     15.28931522     19.85931396
H        19.85931396     16.70068359     21.27068329
B        20.56499863     15.99499989     20.56499863
H        21.27068329     15.28931522     21.27068329
H        21.27068329     16.70068359     19.85931396
H        19.85931396     15.28931522     24.42931557
H        19.85931396     16.70068359     25.84068108
B        20.56499863     15.99499989     25.13500023
H        21.27068329     15.28931522     25.84068108
H        21.27068329     16.70068359     24.42931557
H        19.85931396     15.28931522     28.99931526
H        19.85931396     16.70068359     30.41068268
B        20.56499863     15.99499989     29.70499992
H        21.27068329     15.28931522     30.41068268
H        21.27068329     16.70068359     28.99931526
H        19.85931396     19.85931396      1.57931626
H        19.85931396     21.27068329      2.99068356
B        20.56499863     20.56499863      2.28499985
H        21.27068329     19.85931396      2.99068356
H        21.27068329     21.27068329      1.57931626
H        19.85931396     19.85931396      6.14931583
H        19.85931396     21.27068329      7.56068325
B        20.56499863     20.56499863      6.85500002
H        21.27068329     19.85931396      7.56068325
H        21.27068329     21.27068329      6.14931583
H        21.27068329     21.27068329     10.71931648
H        19.85931396     19.85931396     10.71931648
H        19.85931396     21.27068329     12.13068295
B        20.56499863     20.56499863     11.42499924
H        21.27068329     19.85931396     12.13068295
H        21.27068329     21.27068329     15.28931522
H        19.85931396     19.85931396     15.28931522
H        19.85931396     21.27068329     16.70068359
B        20.56499863     20.56499863     15.99499989
H        21.27068329     19.85931396     16.70068359
H        21.27068329     21.27068329     19.85931396
H        19.85931396     19.85931396     19.85931396
H        19.85931396     21.27068329     21.27068329
B        20.56499863     20.56499863     20.56499863
H        21.27068329     19.85931396     21.27068329
H        21.27068329     21.27068329     24.42931557
H        19.85931396     19.85931396     24.42931557
H        19.85931396     21.27068329     25.84068108
B        20.56499863     20.56499863     25.13500023
H        21.27068329     19.85931396     25.84068108
H        21.27068329     21.27068329     28.99931526
H        19.85931396     19.85931396     28.99931526
H        19.85931396     21.27068329     30.41068268
B        20.56499863     20.56499863     29.70499992
H        21.27068329     19.85931396     30.41068268
H        21.27068329     25.84068108      1.57931626
H        19.85931396     24.42931557      1.57931626
H        19.85931396     25.84068108      2.99068356
B        20.56499863     25.13500023      2.28499985
H        21.27068329     24.42931557      2.99068356
H        21.27068329     25.84068108      6.14931583
H        19.85931396     24.42931557      6.14931583
H        19.85931396     25.84068108      7.56068325
B        20.56499863     25.13500023      6.85500002
H        21.27068329     24.42931557      7.56068325
H        21.27068329     25.84068108     10.71931648
H        19.85931396     24.42931557     10.71931648
H        19.85931396     25.84068108     12.13068295
B        20.56499863     25.13500023     11.42499924
H        21.27068329     24.42931557     12.13068295
H        21.27068329     25.84068108     15.28931522
H        19.85931396     24.42931557     15.28931522
H        19.85931396     25.84068108     16.70068359
B        20.56499863     25.13500023     15.99499989
H        21.27068329     24.42931557     16.70068359
H        21.27068329     24.42931557     21.27068329
H        21.27068329     25.84068108     19.85931396
H        19.85931396     24.42931557     19.85931396
H        19.85931396     25.84068108     21.27068329
B        20.56499863     25.13500023     20.56499863
H        21.27068329     24.42931557     25.84068108
H        21.27068329     25.84068108     24.42931557
H        19.85931396     24.42931557     24.42931557
H        19.85931396     25.84068108     25.84068108
B        20.56499863     25.13500023     25.13500023
H        21.27068329     24.42931557     30.41068268
H        21.27068329     25.84068108     28.99931526
H        19.85931396     24.42931557     28.99931526
H        19.85931396     25.84068108     30.41068268
B        20.56499863     25.13500023     29.70499992
H        21.27068329     28.99931526      2.99068356
H        21.27068329     30.41068268      1.57931626
H        19.85931396     28.99931526      1.57931626
H        19.85931396     30.41068268      2.99068356
B        20.56499863     29.70499992      2.28499985
H        21.27068329     28.99931526      7.56068325
H        21.27068329     30.41068268      6.14931583
H        19.85931396     28.99931526      6.14931583
H        19.85931396     30.41068268      7.56068325
B        20.56499863     29.70499992      6.85500002
B        20.56499863     29.70499992     11.42499924
H        21.27068329     28.99931526     12.13068295
H        21.27068329     30.41068268     10.71931648
H        19.85931396     28.99931526     10.71931648
H        19.85931396     30.41068268     12.13068295
B        20.56499863     29.70499992     15.99499989
H        21.27068329     28.99931526     16.70068359
H        21.27068329     30.41068268     15.28931522
H        19.85931396     28.99931526     15.28931522
H        19.85931396     30.41068268     16.70068359
B        20.56499863     29.70499992     20.56499863
H        21.27068329     28.99931526     21.27068329
H        21.27068329     30.41068268     19.85931396
H        19.85931396     28.99931526     19.85931396
H        19.85931396     30.41068268     21.27068329
B        20.56499863     29.70499992     25.13500023
H        21.27068329     28.99931526     25.84068108
H        21.27068329     30.41068268     24.42931557
H        19.85931396     28.99931526     24.42931557
H        19.85931396     30.41068268     25.84068108
H        19.85931396     30.41068268     30.41068268
B        20.56499863     29.70499992     29.70499992
H        21.27068329     28.99931526     30.41068268
H        21.27068329     30.41068268     28.99931526
H        19.85931396     28.99931526     28.99931526
H        24.42931557      2.99068356      2.99068356
B        25.13500023      2.28499985      2.28499985
H        25.84068108      1.57931626      2.99068356
H        25.84068108      2.99068356      1.57931626
H        24.42931557      1.57931626      1.57931626
H        24.42931557      2.99068356      7.56068325
B        25.13500023      2.28499985      6.85500002
H        25.84068108      1.57931626      7.56068325
H        25.84068108      2.99068356      6.14931583
H        24.42931557      1.57931626      6.14931583
H        24.42931557      2.99068356     12.13068295
B        25.13500023      2.28499985     11.42499924
H        25.84068108      1.57931626     12.13068295
H        25.84068108      2.99068356     10.71931648
H        24.42931557      1.57931626     10.71931648
H        24.42931557      2.99068356     16.70068359
B        25.13500023      2.28499985     15.99499989
H        25.84068108      1.57931626     16.70068359
H        25.84068108      2.99068356     15.28931522
H        24.42931557      1.57931626     15.28931522
H        24.42931557      1.57931626     19.85931396
H        24.42931557      2.99068356     21.27068329
B        25.13500023      2.28499985     20.56499863
H        25.84068108      1.57931626     21.27068329
H        25.84068108      2.99068356     19.85931396
H        24.42931557      1.57931626     24.42931557
H        24.42931557      2.99068356     25.84068108
B        25.13500023      2.28499985     25.13500023
H        25.84068108      1.57931626     25.84068108
H        25.84068108      2.99068356     24.42931557
H        24.42931557      1.57931626     28.99931526
H        24.42931557      2.99068356     30.41068268
B        25.13500023      2.28499985     29.70499992
H        25.84068108      1.57931626     30.41068268
H        25.84068108      2.99068356     28.99931526
H        24.42931557      6.14931583      1.57931626
H        24.42931557      7.56068325      2.99068356
B        25.13500023      6.85500002      2.28499985
H        25.84068108      6.14931583      2.99068356
H        25.84068108      7.56068325      1.57931626
H        24.42931557      6.14931583      6.14931583
H        24.42931557      7.56068325      7.56068325
B        25.13500023      6.85500002      6.85500002
H        25.84068108      6.14931583      7.56068325
H        25.84068108      7.56068325      6.14931583
H        24.42931557      6.14931583     10.71931648
H        24.42931557      7.56068325     12.13068295
B        25.13500023      6.85500002     11.42499924
H        25.84068108      6.14931583     12.13068295
H        25.84068108      7.56068325     10.71931648
H        24.42931557      6.14931583     15.28931522
H        24.42931557      7.56068325     16.70068359
B        25.13500023      6.85500002     15.99499989
H        25.84068108      6.14931583     16.70068359
H        25.84068108      7.56068325     15.28931522
H        24.42931557      6.14931583     19.85931396
H        24.42931557      7.56068325     21.27068329
B        25.13500023      6.85500002     20.56499863
H        25.84068108      6.14931583     21.27068329
H        25.84068108      7.56068325     19.85931396
H        24.42931557      6.14931583     24.42931557
H        24.42931557      7.56068325     25.84068108
B        25.13500023      6.85500002     25.13500023
H        25.84068108      6.14931583     25.84068108
H        25.84068108      7.56068325     24.42931557
H        25.84068108      7.56068325     28.99931526
H        24.42931557      6.14931583     28.99931526
H        24.42931557      7.56068325     30.41068268
B        25.13500023      6.85500002     29.70499992
H        25.84068108      6.14931583     30.41068268
H        25.84068108     12.13068295      1.57931626
H        24.42931557     10.71931648      1.57931626
H        24.42931557     12.13068295      2.99068356
B        25.13500023     11.42499924      2.28499985
H        25.84068108     10.71931648      2.99068356
H        25.84068108     12.13068295      6.14931583
H        24.42931557     10.71931648      6.14931583
H        24.42931557     12.13068295      7.56068325
B        25.13500023     11.42499924      6.85500002
H        25.84068108     10.71931648      7.56068325
H        25.84068108     12.13068295     10.71931648
H        24.42931557     10.71931648     10.71931648
H        24.42931557     12.13068295     12.13068295
B        25.13500023     11.42499924     11.42499924
H        25.84068108     10.71931648     12.13068295
H        25.84068108     12.13068295     15.28931522
H        24.42931557     10.71931648     15.28931522
H        24.42931557     12.13068295     16.70068359
B        25.13500023     11.42499924     15.99499989
H        25.84068108     10.71931648     16.70068359
H        25.84068108     12.13068295     19.85931396
H        24.42931557     10.71931648     19.85931396
H        24.42931557     12.13068295     21.27068329
B        25.13500023     11.42499924     20.56499863
H        25.84068108     10.71931648     21.27068329
H        25.84068108     12.13068295     24.42931557
H        24.42931557     10.71931648     24.42931557
H        24.42931557     12.13068295     25.84068108
B        25.13500023     11.42499924     25.13500023
H        25.84068108     10.71931648     25.84068108
H        25.84068108     12.13068295     28.99931526
H        24.42931557     10.71931648     28.99931526
H        24.42931557     12.13068295     30.41068268
B        25.13500023     11.42499924     29.70499992
H        25.84068108     10.71931648     30.41068268
H        25.84068108     16.70068359      1.57931626
H        24.42931557     15.28931522      1.57931626
H        24.42931557     16.70068359      2.99068356
B        25.13500023     15.99499989      2.28499985
H        25.84068108     15.28931522      2.99068356
H        25.84068108     15.28931522      7.56068325
H        25.84068108     16.70068359      6.14931583
H        24.42931557     15.28931522      6.14931583
H        24.42931557     16.70068359      7.56068325
B        25.13500023     15.99499989      6.85500002
H        25.84068108     15.28931522     12.13068295
H        25.84068108     16.70068359     10.71931648
H        24.42931557     15.28931522     10.71931648
H        24.42931557     16.70068359     12.13068295
B        25.13500023     15.99499989     11.42499924
H        25.84068108     15.28931522     16.70068359
H        25.84068108     16.70068359     15.28931522
H        24.42931557     15.28931522     15.28931522
H        24.42931557     16.70068359     16.70068359
B        25.13500023     15.99499989     15.99499989
H        25.84068108     15.28931522     21.27068329
H        25.84068108     16.70068359     19.85931396
H        24.42931557     15.28931522     19.85931396
H        24.42931557     16.70068359     21.27068329
B        25.13500023     15.99499989     20.56499863
H        25.84068108     15.28931522     25.84068108
H        25.84068108     16.70068359     24.42931557
H        24.42931557     15.28931522     24.42931557
H        24.42931557     16.70068359     25.84068108
B        25.13500023     15.99499989     25.13500023
B        25.13500023     15.99499989     29.70499992
H        25.84068108     15.28931522     30.41068268
H        25.84068108     16.70068359     28.99931526
H        24.42931557     15.28931522     28.99931526
H        24.42931557     16.70068359     30.41068268
B        25.13500023     20.56499863      2.28499985
H        25.84068108     19.85931396      2.99068356
H        25.84068108     21.27068329      1.57931626
H        24.42931557     19.85931396      1.57931626
H        24.42931557     21.27068329      2.99068356
B        25.13500023     20.56499863      6.85500002
H        25.84068108     19.85931396      7.56068325
H        25.84068108     21.27068329      6.14931583
H        24.42931557     19.85931396      6.14931583
H        24.42931557     21.27068329      7.56068325
B        25.13500023     20.56499863     11.42499924
H        25.84068108     19.85931396     12.13068295
H        25.84068108     21.27068329     10.71931648
H        24.42931557     19.85931396     10.71931648
H        24.42931557     21.27068329     12.13068295
H        24.42931557     21.27068329     16.70068359
B        25.13500023     20.56499863     15.99499989
H        25.84068108     19.85931396     16.70068359
H        25.84068108     21.27068329     15.28931522
H        24.42931557     19.85931396     15.28931522
H        24.42931557     21.27068329     21.27068329
B        25.13500023     20.56499863     20.56499863
H        25.84068108     19.85931396     21.27068329
H        25.84068108     21.27068329     19.85931396
H        24.42931557     19.85931396     19.85931396
H        24.42931557     21.27068329     25.84068108
B        25.13500023     20.56499863     25.13500023
H        25.84068108     19.85931396     25.84068108
H        25.84068108     21.27068329     24.42931557
H        24.42931557     19.85931396     24.42931557
H        24.42931557     21.27068329     30.41068268
B        25.13500023     20.56499863     29.70499992
H        25.84068108     19.85931396     30.41068268
H        25.84068108     21.27068329     28.99931526
H        24.42931557     19.85931396     28.99931526
H        24.42931557     25.84068108      2.99068356
B        25.13500023     25.13500023      2.28499985
H        25.84068108     24.42931557      2.99068356
H        25.84068108     25.84068108      1.57931626
H        24.42931557     24.42931557      1.57931626
H        24.42931557     24.42931557      6.14931583
H        24.42931557     25.84068108      7.56068325
B        25.13500023     25.13500023      6.85500002
H        25.84068108     24.42931557      7.56068325
H        25.84068108     25.84068108      6.14931583
H        24.42931557     24.42931557     10.71931648
H        24.42931557     25.84068108     12.13068295
B        25.13500023     25.13500023     11.42499924
H        25.84068108     24.42931557     12.13068295
H        25.84068108     25.84068108     10.71931648
H        24.42931557     24.42931557     15.28931522
H        24.42931557     25.84068108     16.70068359
B        25.13500023     25.13500023     15.99499989
H        25.84068108     24.42931557     16.70068359
H        25.84068108     25.84068108     15.28931522
H        24.42931557     24.42931557     19.85931396
H        24.42931557     25.84068108     21.27068329
B        25.13500023     25.13500023     20.56499863
H        25.84068108     24.42931557     21.27068329
H        25.84068108     25.84068108     19.85931396
H        24.42931557     24.42931557     24.42931557
H        24.42931557     25.84068108     25.84068108
B        25.13500023     25.13500023     25.13500023
H        25.84068108     24.42931557     25.84068108
H        25.84068108     25.84068108     24.42931557
H        24.42931557     24.42931557     28.99931526
H        24.42931557     25.84068108     30.41068268
B        25.13500023     25.13500023     29.70499992
H        25.84068108     24.42931557     30.41068268
H        25.84068108     25.84068108     28.99931526
H        24.42931557     28.99931526      1.57931626
H        24.42931557     30.41068268      2.99068356
B        25.13500023     29.70499992      2.28499985
H        25.84068108     28.99931526      2.99068356
H        25.84068108     30.41068268      1.57931626
H        24.42931557     28.99931526      6.14931583
H        24.42931557     30.41068268      7.56068325
B        25.13500023     29.70499992      6.85500002
H        25.84068108     28.99931526      7.56068325
H        25.84068108     30.41068268      6.14931583
H        24.42931557     28.99931526     10.71931648
H        24.42931557     30.41068268     12.13068295
B        25.13500023     29.70499992     11.42499924
H        25.84068108     28.99931526     12.13068295
H        25.84068108     30.41068268     10.71931648
H        25.84068108     30.41068268     15.28931522
H        24.42931557     28.99931526     15.28931522
H        24.42931557     30.41068268     16.70068359
B        25.13500023     29.70499992     15.99499989
H        25.84068108     28.99931526     16.70068359
H        25.84068108     30.41068268     19.85931396
H        24.42931557     28.99931526     19.85931396
H        24.42931557     30.41068268     21.27068329
B        25.13500023     29.70499992     20.56499863
H        25.84068108     28.99931526     21.27068329
H        25.84068108     30.41068268     24.42931557
H        24.42931557     28.99931526     24.42931557
H        24.42931557     30.41068268     25.84068108
B        25.13500023     29.70499992     25.13500023
H        25.84068108     28.99931526     25.84068108
H        25.84068108     30.41068268     28.99931526
H        24.42931557     28.99931526     28.99931526
H        24.42931557     30.41068268     30.41068268
B        25.13500023     29.70499992     29.70499992
H        25.84068108     28.99931526     30.41068268
H        30.41068268      2.99068356      1.57931626
H        28.99931526      1.57931626      1.57931626
H        28.99931526      2.99068356      2.99068356
B        29.70499992      2.28499985      2.28499985
H        30.41068268      1.57931626      2.99068356
H        30.41068268      2.99068356      6.14931583
H        28.99931526      1.57931626      6.14931583
H        28.99931526      2.99068356      7.56068325
B        29.70499992      2.28499985      6.85500002
H        30.41068268      1.57931626      7.56068325
H        30.41068268      2.99068356     10.71931648
H        28.99931526      1.57931626     10.71931648
H        28.99931526      2.99068356     12.13068295
B        29.70499992      2.28499985     11.42499924
H        30.41068268      1.57931626     12.13068295
H        30.41068268      2.99068356     15.28931522
H        28.99931526      1.57931626     15.28931522
H        28.99931526      2.99068356     16.70068359
B        29.70499992      2.28499985     15.99499989
H        30.41068268      1.57931626     16.70068359
H        30.41068268      2.99068356     19.85931396
H        28.99931526      1.57931626     19.85931396
H        28.99931526      2.99068356     21.27068329
B        29.70499992      2.28499985     20.56499863
H        30.41068268      1.57931626     21.27068329
H        30.41068268      1.57931626     25.84068108
H        30.41068268      2.99068356     24.42931557
H        28.99931526      1.57931626     24.42931557
H        28.99931526      2.99068356     25.84068108
B        29.70499992      2.28499985     25.13500023
H        30.41068268      1.57931626     30.41068268
H        30.41068268      2.99068356     28.99931526
H        28.99931526      1.57931626     28.99931526
H        28.99931526      2.99068356     30.41068268
B        29.70499992      2.28499985     29.70499992
H        30.41068268      6.14931583      2.99068356
H        30.41068268      7.56068325      1.57931626
H        28.99931526      6.14931583      1.57931626
H        28.99931526      7.56068325      2.99068356
B        29.70499992      6.85500002      2.28499985
H        30.41068268      6.14931583      7.56068325
H        30.41068268      7.56068325      6.14931583
H        28.99931526      6.14931583      6.14931583
H        28.99931526      7.56068325      7.56068325
B        29.70499992      6.85500002      6.85500002
H        30.41068268      6.14931583     12.13068295
H        30.41068268      7.56068325     10.71931648
H        28.99931526      6.14931583     10.71931648
H        28.99931526      7.56068325     12.13068295
B        29.70499992      6.85500002     11.42499924
B        29.70499992      6.85500002     15.99499989
H        30.41068268      6.14931583     16.70068359
H        30.41068268      7.56068325     15.28931522
H        28.99931526      6.14931583     15.28931522
H        28.99931526      7.56068325     16.70068359
B        29.70499992      6.85500002     20.56499863
H        30.41068268      6.14931583     21.27068329
H        30.41068268      7.56068325     19.85931396
H        28.99931526      6.14931583     19.85931396
H        28.99931526      7.56068325     21.27068329
B        29.70499992      6.85500002     25.13500023
H        30.41068268      6.14931583     25.84068108
H        30.41068268      7.56068325     24.42931557
H        28.99931526      6.14931583     24.42931557
H        28.99931526      7.56068325     25.84068108
B        29.70499992      6.85500002     29.70499992
H        30.41068268      6.14931583     30.41068268
H        30.41068268      7.56068325     28.99931526
H        28.99931526      6.14931583     28.99931526
H        28.99931526      7.56068325     30.41068268
H        28.99931526     12.13068295      2.99068356
B        29.70499992     11.42499924      2.28499985
H        30.41068268     10.71931648      2.99068356
H        30.41068268     12.13068295      1.57931626
H        28.99931526     10.71931648      1.57931626
H        28.99931526     12.13068295      7.56068325
B        29.70499992     11.42499924      6.85500002
H        30.41068268     10.71931648      7.56068325
H        30.41068268     12.13068295      6.14931583
H        28.99931526     10.71931648      6.14931583
H        28.99931526     12.13068295     12.13068295
B        29.70499992     11.42499924     11.42499924
H        30.41068268     10.71931648     12.13068295
H        30.41068268     12.13068295     10.71931648
H        28.99931526     10.71931648     10.71931648
H        28.99931526     12.13068295     16.70068359
B        29.70499992     11.42499924     15.99499989
H        30.41068268     10.71931648     16.70068359
H        30.41068268     12.13068295     15.28931522
H        28.99931526     10.71931648     15.28931522
H        28.99931526     12.13068295     21.27068329
B        29.70499992     11.42499924     20.56499863
H        30.41068268     10.71931648     21.27068329
H        30.41068268     12.13068295     19.85931396
H        28.99931526     10.71931648     19.85931396
H        28.99931526     10.71931648     24.42931557
H        28.99931526     12.13068295     25.84068108
B        29.70499992     11.42499924     25.13500023
H        30.41068268     10.71931648     25.84068108
H        30.41068268     12.13068295     24.42931557
H        28.99931526     10.71931648     28.99931526
H        28.99931526     12.13068295     30.41068268
B        29.70499992     11.42499924     29.70499992
H        30.41068268     10.71931648     30.41068268
H        30.41068268     12.13068295     28.99931526
H        28.99931526     15.28931522      1.57931626
H        28.99931526     16.70068359      2.99068356
B        29.70499992     15.99499989      2.28499985
H        30.41068268     15.28931522      2.99068356
H        30.41068268     16.70068359      1.57931626
H        28.99931526     15.28931522      6.14931583
H        28.99931526     16.70068359      7.56068325
B        29.70499992     15.99499989      6.85500002
H        30.41068268     15.28931522      7.56068325
H        30.41068268     16.70068359      6.14931583
H        28.99931526     15.28931522     10.71931648
H        28.99931526     16.70068359     12.13068295
B        29.70499992     15.99499989     11.42499924
H        30.41068268     15.28931522     12.13068295
H        30.41068268     16.70068359     10.71931648
H        28.99931526     15.28931522     15.28931522
H        28.99931526     16.70068359     16.70068359
B        29.70499992     15.99499989     15.99499989
H        30.41068268     15.28931522     16.70068359
H        30.41068268     16.70068359     15.28931522
H        28.99931526     15.28931522     19.85931396
H        28.99931526     16.70068359     21.27068329
B        29.70499992     15.99499989     20.56499863
H        30.41068268     15.28931522     21.27068329
H        30.41068268     16.70068359     19.85931396
H        28.99931526     15.28931522     24.42931557
H        28.99931526     16.70068359     25.84068108
B        29.70499992     15.99499989     25.13500023
H        30.41068268     15.28931522     25.84068108
H        30.41068268     16.70068359     24.42931557
H        28.99931526     15.28931522     28.99931526
H        28.99931526     16.70068359     30.41068268
B        29.70499992     15.99499989     29.70499992
H        30.41068268     15.28931522     30.41068268
H        30.41068268     16.70068359     28.99931526
H        30.41068268     21.27068329      1.57931626
H        28.99931526     19.85931396      1.57931626
H        28.99931526     21.27068329      2.99068356
B        29.70499992     20.56499863      2.28499985
H        30.41068268     19.85931396      2.99068356
H        30.41068268     21.27068329      6.14931583
H        28.99931526     19.85931396      6.14931583
H        28.99931526     21.27068329      7.56068325
B        29.70499992     20.56499863      6.85500002
H        30.41068268     19.85931396      7.56068325
H        30.41068268     21.27068329     10.71931648
H        28.99931526     19.85931396     10.71931648
H        28.99931526     21.27068329     12.13068295
B        29.70499992     20.56499863     11.42499924
H        30.41068268     19.85931396     12.13068295
H        30.41068268     21.27068329     15.28931522
H        28.99931526     19.85931396     15.28931522
H        28.99931526     21.27068329     16.70068359
B        29.70499992     20.56499863     15.99499989
H        30.41068268     19.85931396     16.70068359
H        30.41068268     21.27068329     19.85931396
H        28.99931526     19.85931396     19.85931396
H        28.99931526     21.27068329     21.27068329
B        29.70499992     20.56499863     20.56499863
H        30.41068268     19.85931396     21.27068329
H        30.41068268     21.27068329     24.42931557
H        28.99931526     19.85931396     24.42931557
H        28.99931526     21.27068329     25.84068108
B        29.70499992     20.56499863     25.13500023
H        30.41068268     19.85931396     25.84068108
H        30.41068268     21.27068329     28.99931526
H        28.99931526     19.85931396     28.99931526
H        28.99931526     21.27068329     30.41068268
B        29.70499992     20.56499863     29.70499992
H        30.41068268     19.85931396     30.41068268
H        30.41068268     25.84068108      1.57931626
H        28.99931526     24.42931557      1.57931626
H        28.99931526     25.84068108      2.99068356
B        29.70499992     25.13500023      2.28499985
H        30.41068268     24.42931557      2.99068356
H        30.41068268     25.84068108      6.14931583
H        28.99931526     24.42931557      6.14931583
H        28.99931526     25.84068108      7.56068325
B        29.70499992     25.13500023      6.85500002
H        30.41068268     24.42931557      7.56068325
H        30.41068268     24.42931557     12.13068295
H        30.41068268     25.84068108     10.71931648
H        28.99931526     24.42931557     10.71931648
H        28.99931526     25.84068108     12.13068295
B        29.70499992     25.13500023     11.42499924
H        30.41068268     24.42931557     16.70068359
H        30.41068268     25.84068108     15.28931522
H        28.99931526     24.42931557     15.28931522
H        28.99931526     25.84068108     16.70068359
B        29.70499992     25.13500023     15.99499989
H        30.41068268     24.42931557     21.27068329
H        30.41068268     25.84068108     19.85931396
H        28.99931526     24.42931557     19.85931396
H        28.99931526     25.84068108     21.27068329
B        29.70499992     25.13500023     20.56499863
H        30.41068268     24.42931557     25.84068108
H        30.41068268     25.84068108     24.42931557
H        28.99931526     24.42931557     24.42931557
H        28.99931526     25.84068108     25.84068108
B        29.70499992     25.13500023     25.13500023
H        30.41068268     24.42931557     30.41068268
H        30.41068268     25.84068108     28.99931526
H        28.99931526     24.42931557     28.99931526
H        28.99931526     25.84068108     30.41068268
B        29.70499992     25.13500023     29.70499992
B        29.70499992     29.70499992      2.28499985
H        30.41068268     28.99931526      2.99068356
H        30.41068268     30.41068268      1.57931626
H        28.99931526     28.99931526      1.57931626
H        28.99931526     30.41068268      2.99068356
B        29.70499992     29.70499992      6.85500002
H        30.41068268     28.99931526      7.56068325
H        30.41068268     30.41068268      6.14931583
H        28.99931526     28.99931526      6.14931583
H        28.99931526     30.41068268      7.56068325
B        29.70499992     29.70499992     11.42499924
H        30.41068268     28.99931526     12.13068295
H        30.41068268     30.41068268     10.71931648
H        28.99931526     28.99931526     10.71931648
H        28.99931526     30.41068268     12.13068295
B        29.70499992     29.70499992     15.99499989
H        30.41068268     28.99931526     16.70068359
H        30.41068268     30.41068268     15.28931522
H        28.99931526     28.99931526     15.28931522
H        28.99931526     30.41068268     16.70068359
H        28.99931526     30.41068268     21.27068329
B        29.70499992     29.70499992     20.56499863
H        30.41068268     28.99931526     21.27068329
H        30.41068268     30.41068268     19.85931396
H        28.99931526     28.99931526     19.85931396
H        28.99931526     30.41068268     25.84068108
B        29.70499992     29.70499992     25.13500023
H        30.41068268     28.99931526     25.84068108
H        30.41068268     30.41068268     24.42931557
H        28.99931526     28.99931526     24.42931557
H        28.99931526     30.41068268     30.41068268
B        29.70499992     29.70499992     29.70499992
H        30.41068268     28.99931526     30.41068268
H        30.41068268     30.41068268     28.99931526
H        28.99931526     28.99931526     28.99931526
