648

Na       -8.04302502     46.10182953    -82.46131134
Na     -144.73051453     -6.38786888    -69.91587830
Na      116.72906494    107.76346588     19.54212761
Na      -15.05175591     18.74123383      2.70653725
Na        8.61527920    -90.47126770    -14.46999264
Na      111.80690002     74.81193542     22.89408302
Na      -47.74309921   -104.85814667     52.59708405
Na      -73.48722839     -0.19038016      3.39240551
Na     -107.31116486      8.18764114     70.79906464
Na       22.42008018    -69.11397552      6.67749453
Na       60.65248871     52.50672531    -87.13806152
Na      -28.64096069    -65.55344391     58.83906937
Na      175.86579895    -11.41764164    -27.97635460
Na      -26.83880806     -3.11772633     -2.82422161
Na       -2.03664804    120.52574921    -14.70790482
Na       -9.56458664     79.40482330    -66.02771759
Na       94.73008728     -1.60319114    117.13832092
Na       54.41830826      8.77454472     28.15240097
Na       23.64789009      6.02145338    -39.85259247
Na        4.05471373    -31.35992432     25.21008682
Na      157.44049072     44.63507462     59.27377319
Na      149.63665771    -26.04411697      6.08911467
Na      136.13583374    -65.10714722    -23.04535294
Na      115.35894775      8.11067581     31.33373260
Na      -27.46729660     35.37621689     -6.47077322
Na      -10.40021324     31.34132576    -48.63709259
Na        6.42916870    119.95040131     70.20368195
Na      158.01979065     32.94971466     -2.30923390
Na      -48.04117203     25.71176338     -5.99695826
Na       32.32250595    -12.23616314    -86.46622467
Na     -150.41940308     55.87306213    -48.88230133
Na       23.94566917     43.88619614     27.88669586
Na       11.35384941     33.91252899    -13.87058067
Na       86.63744354    112.53591156     -0.94058961
Na       -3.21540308    -14.43508816     49.88080978
Na      141.87995911    -32.50608826     10.41349983
Na        2.60155630     43.25008011    -64.88072968
Na      166.16267395     -6.35419846     16.78408623
Na      -53.51883698     76.43215942    -39.42220688
Na       89.73579407    -43.63974380    -10.54445076
Na     -113.50099182    103.95945740     16.28618622
Na     -104.37070465     48.24876785     69.58294678
Na       27.03682899    103.57068634     57.43899918
Na        5.32393312    -39.74831009    -25.98322487
Na       56.74898529    -48.09216690     32.24148941
Na       77.25591278     44.22543716     65.40190125
Na      120.30633545    -39.84039307     74.67002869
Na      -19.04355812     27.10008049      1.84165013
Na      141.21029663     33.31707382     73.71775818
Na       21.40934563    -50.16401291     19.14522171
Na      -24.07524109      6.31050158     66.14418793
Na      -14.17956543     22.36375046    -32.46180344
Na      -11.81239986     -0.55278444    107.60028076
Na     -154.34799194    -41.09236145     27.94104195
Na      -38.06616974     10.95756435     -8.91936970
Na      -38.87995529    -75.80101776     70.43930054
Na       -2.27815342     22.44860840     10.74959087
Na        9.35415840     95.57283783    -14.52057362
Na       34.35300064    -22.06131935     44.51359177
Na       34.73480988     61.23233032     56.79478836
Na       23.61801720     27.25572586     53.21584702
Na       11.29819584     30.88867950     10.10865879
Na      -78.35848999     73.65065765     91.48173523
Na      112.49572754    -16.49344254     -5.00225687
Na       41.25008011     72.98607635    -19.08394051
Na      111.76596069     48.51920700      6.65046787
Na       34.60246277     53.11807632     22.37327957
Na      -62.73848724     66.49440765     14.44610882
Na       58.22233582      5.77303410    -14.14236069
Na      -75.10790253     -4.18415165    -31.43240166
Na        2.03168416    115.93849945     -1.03864157
Na      147.33932495     56.36119080    -49.44268799
Na       96.47623444     -8.15535641    -22.65184402
Na      -37.21988297   -107.53723907    -69.16576385
Na     -120.77680206     -6.71123123     27.43905640
Na      -18.62672997    -36.63228226    -22.72013283
Na      -39.32467651    -24.95571899     11.37789440
Na        3.10374522    -96.25048828      9.42784500
Na       62.30270767    -36.71732330     77.75702667
Na       -8.71749210     22.59296989     62.19543839
Na       68.68518829     87.36798859     69.90113068
Na        7.89154482    -78.45125580    -72.95032501
Na       43.58651352     31.44289780    -10.35698128
Na      -66.06906128     18.83195686    -10.25336933
Na      -22.94940567     43.30698776   -107.14300537
Na      196.52618408      2.11409426    -35.99870300
Na       79.50337982    -36.54252625     35.04031754
Na      -96.19131470    104.35377502    -34.56735992
Na       26.83785629     65.66852570    -10.10450077
Na       98.85835266    141.36129761    -58.20199203
Na       26.49510384    -13.26286983     53.45057678
Na       39.29117584    -14.54096031     -0.66365695
Na      -27.77478981     14.50137424     61.97721863
Na       26.61677170     -2.86632943     83.44453430
Na      -70.05964661    -10.62040520     62.19110870
Na       85.74423218    -31.76237869     22.93478775
Na      -15.88405037     35.37522507     39.94983673
Na       11.68677044     39.80510330     35.46446991
Na     -121.94750977    -26.54511833      6.52446508
Na       47.81756973    -48.13835907     14.69865417
Na      152.41336060     28.61861992     95.36112213
Na      -45.23838425     75.77669525    -36.56042480
Na       -6.73147917    -52.85568237     23.43761826
Na      -69.77812195     74.13410950     18.99524689
Na       36.55847931     17.29006958     45.35110474
Na       46.19423676     19.35535812   -136.16647339
Na       15.10332012    137.61073303     61.33874130
Na       44.64406204    -37.13521957     52.96636581
Na     -112.81674957     -7.59832621    -48.16176987
Na       23.14326859     64.87129974     27.69941139
Na        1.90253854     22.90206718     40.92821884
Na     -155.30104065    -23.36050987   -119.32957458
Na      -25.68769264     65.05482483    -44.48361206
Na      -50.23141861    -19.42304993     32.34376907
Na       43.80238724     68.83506775    -19.31978416
Na       33.33576584     47.75659943    -10.84884357
Na     -136.71842957    -15.12154293     78.94573212
Na      -52.14692307     -6.93928909     22.64079094
Na       32.10321045     61.39031601     18.97804832
Na      -27.16763306     94.93548584     -6.27660131
Na      -49.47246170    -78.17391205     23.79203606
Na       18.20797920    -10.74967766     -1.42972124
Na       26.34146309    -99.21517944     73.79428864
Na       44.54000092      1.19466424     79.19345093
Na      -26.72272873     31.43705750     53.87937546
Na       66.51909637     74.77512360     45.47837067
Na       62.79494858    149.58073425    -15.21723080
Na      -82.26583862    -84.16623688    -14.16808319
Na     -104.88833618     -9.27586555    -69.86745453
Na      101.85823059    -39.84730530     11.26109219
Na       64.47009277     19.31968880    100.85752869
Na      141.25415039     49.56131363     65.68938446
Na      146.85165405     93.21208954     -5.52740574
Na        4.98727083     16.16876793    -78.67639160
Na       31.73516655     31.65342522     70.50574493
Na      138.56993103    -24.90637398     28.17759705
Na      -18.72753716    -29.27112007     74.56266022
Na       -7.45532608    -73.06656647     19.42578697
Na      -75.07171631    -22.48050880     36.64918137
Na      -64.98488617     48.25632095     51.35327530
Na       47.54812241     11.04161835     15.62177849
Na      -31.81216812     31.51307487    -26.83145905
Na      104.86522675     85.52030182     -5.66968393
Na      -18.77695656    -28.91074181     87.00920868
Na      -71.27089691    -40.12200928      8.54848862
Na       14.80167580     86.02182770    -56.83086395
Na       13.64099312     53.87723160      7.60581255
Na     -125.58454895    -39.89574432    -10.15322971
Na       92.57707214     56.97132492    -38.99144745
Na      -35.91917419    -28.06641769     27.61603928
Na       10.17355919     57.12437820     -1.39078391
Na      -20.97116470    -18.18561172     31.71428299
Na       41.02221680      1.42757678     53.35618973
Na       33.21789551    106.91133881     15.07820225
Na      137.13388062     56.95497131    -18.57920074
Na     -125.64913940    -74.05175781     15.32850933
Na       58.29620743    -11.74492645    -43.82667923
Na       27.49520683     95.29654694    -44.19484329
Na       62.46970749    -41.99462891    104.63516235
Na      -85.96912384     72.83744049    -52.09905243
Na       80.84835815     66.77695465     90.93621826
Na       30.57460403      2.99710703     49.35606766
Na       31.22121620     90.47290039     18.76942062
Na      -45.97061539     16.03730774     32.21831894
Na       69.69110107    -23.14551544     -2.27130485
Na      103.98866272     -3.33615232     11.06511688
Na       -7.09432507    -15.35497379     82.48196411
Na       -3.17017603    104.57586670     50.53744888
Na      105.99332428     84.17278290     14.79777813
Na     -138.57293701    -85.89747620    -27.86093521
Na      -74.27636719     86.76091766      6.72526407
Na       34.96217728    -23.46482086     30.97689247
Na        7.00610161    -44.76823044      2.88375854
Na      -68.99552917      1.85848343     61.50178909
Na      112.78712463     82.11036682     42.92084885
Na       56.01552963     70.24822998     16.28513718
Na      -85.64237976    -19.93755913     57.12395096
Na      172.43519592    -11.51882267     85.48131561
Na      -22.02426147      5.72898245     18.07042122
Na      -72.50930786     51.06418610     11.34130859
Na       94.32217407     10.80491638     40.23636246
Na      111.33958435     40.16744232    -35.71644974
Na       13.11166477    -14.17114067     33.13202286
Na       92.49942017     13.99004173    -38.68789673
Na       -2.18590784     56.79258347    -57.58148193
Na      -81.67267609     34.01320648     54.07708359
Na        9.71374130    -22.13462448     27.11695480
Na      -82.46963501     -6.40885401    -78.14361572
Na      104.48680115     -8.22544479     79.75299835
Na       69.02568054     71.16452789    -73.86943817
Na       45.37075806    -70.94744110     60.18153763
Na       22.11764336    -42.92261887     65.17239380
Na       -5.82787800     22.35523033    -67.30763245
Na       15.33185577    -62.48509216     57.13705826
Na      -61.27970123     68.86865997     44.87422562
Na       35.64175034    -11.01173306     19.77295876
Na       26.58252716    -44.20690536     -1.67652762
Na       24.68867874    -53.45532227     29.22243690
Na       18.63884544     90.69486237    -86.34217834
Na      171.87904358    -75.68169403     11.17122078
Na       14.62603474      2.84202266    -27.02091408
Na       44.15820312     49.45229721     31.43048477
Na       -3.65001774     41.97549057    -11.25964165
Na      -93.95297241    -62.20391464     -1.82434344
Na     -121.88224030     50.50611877     22.19607353
Na      -61.86425400    -36.74324417     69.91445923
Na       20.21923828     34.72322464   -116.30635834
Na     -131.78814697     -2.52278018    -24.15661240
Na       73.13861084    -31.05521011    -17.90565300
Na      -74.25667572    -11.66990566     44.44971085
Na       93.23188782     18.52397919     38.94346619
Na      -79.06101227     32.96580124    -53.41312408
Na      -31.73464966     28.20409012    -43.51852417
Na      179.57872009     10.71514225     -2.83781433
Na       79.54051971      8.69344997     87.44659424
Na      -65.54921722   -111.01200104    108.72383118
S         8.80729961     25.20896149     11.61442757
P         9.19701672     24.49098015      9.69183159
S         7.93399048     24.89767456      6.34393263
S         5.93083620     25.07322121      9.07585621
S         8.90182114     22.52521896      9.14367485
P         7.77997637     25.47484970      8.29290771
S         8.32082558     27.49636269      8.22149944
S        10.95169353     25.23178291      9.08971500
S         8.85446835     25.38577080     19.65704155
P         9.16084862     24.79632568     17.70681381
S         8.09394741     25.34523773     14.58432961
S         5.79493380     25.41557503     16.99963570
P         7.62298441     26.00219345     16.34116554
S         8.91633701     22.83768654     17.74175453
S         8.07874584     27.93959618     16.45199394
S        10.94375992     25.39560509     16.99329758
S        10.77993393     25.61908340     25.47039795
P         8.93637466     25.15795898     26.14944839
S         5.54735851     25.69619751     25.27922630
S         7.83964109     25.42538452     22.91583252
S         7.74017811     28.18882751     25.09991074
S         8.50870419     23.11407852     26.01609993
P         7.35822725     26.12926102     24.71489906
S         8.75784779     25.76416969     28.08559608
S         5.67603159      8.15979290      9.14698792
S        10.91920376      8.12762642      9.01652527
S         7.84263945      7.98316669      6.30495405
S         8.82791615      5.53112698      9.15905285
S         8.49464226      8.33103752     11.49062252
P         7.58204126      8.64865780      8.29428291
P         9.05630875      7.58365297      9.66396332
S         8.03980923     10.58045197      8.22839069
S         5.62961245      8.20586967     17.65746880
S        10.64510536      8.35985947     17.40671921
S         7.63765764      8.06765842     14.82004261
S         8.62577152      5.65566301     17.70443916
S         8.23634720      8.24505997     19.88767815
P         7.39408064      8.80798817     16.66330719
P         8.78991890      7.77871752     18.04165077
S         7.96790314     10.86464596     16.57349968
S        10.84564495      8.49010658     25.59305573
S         8.01151943      8.22522926     23.23319054
S         8.59016895      5.85511541     26.21675873
P         7.70808983      8.73968983     25.11525726
S         8.80525208      8.44034863     28.34847260
P         9.11860657      7.79226446     26.46543312
S         8.07740021     10.76819324     25.21055031
S         5.77997684      8.29337215     25.61022377
P         8.95131016     16.09756088      9.92184448
S         7.79604959     19.04235840      8.82833576
S         5.68141794     16.68856812      9.45243359
S        10.68436241     16.76971817      9.48052788
S         7.79984236     16.38120461      6.64297676
S         8.35229397     14.26004505      9.61537361
S         8.52775478     16.83353806     11.71536350
P         7.43554878     17.04281807      8.69502735
P         8.68137646     15.88731194     17.84703064
S         7.54840088     18.87052536     16.89741135
S         5.24813032     16.50025177     17.25731087
S        10.59453773     16.40977669     17.36797905
S         7.37885523     16.06154823     14.74591923
S         8.34448719     13.93890190     17.80025673
S         8.17879581     16.41122818     19.71652412
P         7.15072250     16.84737206     16.54560661
P         7.33505440     17.29840660     25.02851868
S         7.84487438     19.36704826     25.19416618
S         5.67235899     16.64021683     25.89262581
S        10.62339783     16.81547546     25.87102699
S         7.44532394     16.76251030     23.04434395
S         8.45550728     14.28606510     26.34239578
S         8.29494381     16.90606880     28.37320709
P         8.80358410     16.31192398     26.45178413
P        15.94483662      0.71573895      7.40884542
S        16.25615883      2.76935077      7.74821854
S        17.16467094     -2.36815977      8.58283234
S        19.33190155      0.09797534      8.12572956
S        16.93409157      0.40034652     10.63152218
P        17.36711693     -0.31810397      8.83800125
S        16.30675697     -0.03627986      5.70861197
S        14.16773415      0.25718644      8.20626259
P        16.34321594      0.69466203     16.56475639
S        16.60877800      2.80965257     16.72711563
S        17.14205551     -2.27875614     17.61602211
S        19.59527397      0.13487087     17.29996109
S        17.40023232      0.45708913     19.88479233
P        17.78131294     -0.35436147     17.95161819
S        16.64719200      0.03755423     14.60984135
S        14.41436958     -0.06470246     17.35454750
S        16.85929680      1.98563635     25.22114944
P        16.25350761      0.01750366     25.17912483
S        17.49567795     -3.05029464     26.26602554
S        17.11240005     -0.54486865     28.37631035
S        19.47814941     -0.28193673     25.77921295
P        17.77037048     -0.95556599     26.50047874
S        14.45707512     -0.37271053     26.08804512
S        16.64407349     -0.75179219     23.39083672
S        16.82501221      8.50165558     10.99928761
P        15.88648224      8.83095264      7.97118330
P        17.30686951      7.66012669      9.34803104
S        16.07058525     10.90157318      8.24660969
S        14.10851955      8.33598042      8.73502254
S        19.19753265      8.10001469      8.59652710
S        16.30621719      8.03764629      6.15581226
S        17.09228516      5.71160555      9.12503719
S        17.14025307      8.27510548     19.93324852
P        15.94335842      8.77500248     16.65699768
P        17.32512665      7.65969467     18.00929260
S        16.27455521     10.73826408     16.89555740
S        14.00182819      8.31567764     17.23474693
S        19.14362526      8.35942268     17.15828896
S        16.43959808      8.00298500     14.82165813
S        17.00395966      5.58888721     17.93234062
S        17.58142853      8.38455296      3.09394503
P        17.84844780      7.64207458      1.12727273
S        16.73830414     10.61559582      0.23667017
P        16.48336983      8.71747494     -0.26144299
S        14.47265816      8.23202991      0.36657506
S        19.74531746      8.23251438      0.45677292
S        16.76796722      7.78132629     -1.91552770
S        17.43941498      5.72243738      0.86145449
S        16.97924042     13.99192715      9.06898975
S        16.90071869     16.71171761     11.04885769
P        15.80459213     17.04537773      7.75902367
P        17.33196259     15.98509502      9.05769920
S        16.24890327     18.98518372      8.04190922
S        13.98066139     16.54346275      8.46883583
S        19.07653999     16.54303932      8.39833164
S        16.22081947     16.45078850      5.84238672
S        17.10242462     13.79970074     17.61473083
S        16.99454880     16.32426453     20.05864525
P        15.82587242     16.81506538     16.51997566
P        17.33785248     15.84598255     18.00822258
S        16.42055702     18.77725983     16.82443810
S        13.86081600     16.42121887     17.41954041
S        19.12848282     16.43269730     17.43441772
S        16.16833878     15.90888023     14.85718822
S        16.99903107     14.46231937      0.93936801
S        17.51369286     17.25822830      2.72968006
P        17.67933083     16.50238419      0.90715331
P        16.18254852     17.51003075     -0.43737385
S        16.46655464     19.65688896     -0.10424981
S        14.51299572     16.54464912     -0.09968203
S        19.59937668     16.74666405      0.01866560
S        16.65057755     16.96521950     -2.38917160
P        24.86075974      0.41341007      8.42833233
S        25.04705811      2.46889305      8.69561005
S        25.66469574     -2.70171356      9.80692482
S        28.03493118     -0.37390950      8.81411648
S        25.22810173     -0.22891589      6.41440821
S        26.05096817      0.02277613     11.57124710
S        23.04574776     -0.54609942      8.77088451
P        26.27014351     -0.70991766      9.78599644
P        24.59389114      0.29380283     16.37723160
S        24.67394257      2.32713199     16.56277275
S        25.46588135     -2.75257826     17.50615692
S        27.88397598     -0.32692221     16.86455917
S        24.95538521     -0.28128931     14.40722370
S        25.51988029      0.06263553     19.65170479
S        22.78000641     -0.27611440     17.05294228
P        26.08111954     -0.78889853     17.83893013
S         2.29353166     25.28466797     25.81753159
P        -1.09176457     25.70558548     25.11050987
S        -0.43074253     27.58878517     25.50320625
S         0.08597255     22.67722702     26.58457756
S         0.31795362     25.29537201     28.63579941
S        -2.87053251     25.13145638     25.73988724
S        -0.61274362     25.16519356     23.16845131
P         0.63404810     24.73758507     26.65800476
S         0.22640140      5.65097141      9.50984478
P        -0.84973741      8.75055695      8.29794884
S        -0.54080999     10.68861008      8.52448368
S         0.22366542      8.48838043     11.53953362
S        -2.49766231      8.07916355      9.24522972
P         0.38726872      7.65527058      9.73745728
S         2.26206136      8.08002090      8.88914013
S        -0.26215661      8.17986488      6.29742956
S         0.18751158      5.89339447     17.64869881
P        -1.01975787      8.94409657     16.40525246
S        -0.74746197     11.05535316     16.54330444
S         0.23713295      8.59472275     19.61072540
S        -2.85530901      8.31197739     16.97737503
P         0.47073323      7.97784328     17.81336021
S         2.45091176      8.11766243     16.96009064
S        -0.47062171      8.40717506     14.51212025
S         0.03969660      6.21545601      0.70915592
S        -0.47747183     11.07693386     -0.07302384
P        -0.86121380      9.10963440     -0.33451754
S        -2.67156219      8.61689377      0.07637960
S         0.60435593      9.09248447      2.83414888
P         0.64868164      8.21209717      1.00959897
S         2.53387070      8.71604633      0.25045320
S        -0.29768562      8.67655373     -2.30692506
S         0.33771065     14.30043602      9.42975044
P        -0.89228356     17.40410233      8.22741890
S        -0.48452795     19.42162132      8.31703949
S         0.11945162     17.11277008     11.53640556
S        -2.66796017     16.99010086      8.93720818
P         0.46468368     16.29896736      9.57709408
S         2.29941535     16.99148178      8.93040848
S        -0.68690777     16.92533112      6.36480904
S        -0.02453875     14.34567261     17.53762436
P        -1.14813554     17.45424652     16.39497948
S        -0.80893284     19.42859268     16.50996208
S        -0.11727657     16.85925674     19.68427277
S        -3.16508150     16.91844940     17.04475403
P         0.26272976     16.37406731     17.72574425
S         1.99275339     16.90531540     16.95773315
S        -0.81166756     16.57871056     14.50997543
S         0.10477790     13.95997429      0.86812198
P        -0.95782518     16.96319008     -0.22155011
S        -0.61057198     19.00647926     -0.04324750
S        -2.79986858     16.59944344      0.28800985
S         0.49141479     16.57769394      3.03135729
P         0.50773633     15.98712540      1.10808861
S         2.42169333     16.57291603      0.43341258
S        -0.37179649     16.23200798     -2.04678631
S         3.92916298      6.25804806      4.00733757
S         3.92197537      4.82271528      7.00440645
P         4.36238718      2.97013998      4.09449768
S         6.42472458      3.33607411      4.23390007
P         3.36284614      4.65644121      5.07454252
S         3.63301516      2.78165126      2.27182722
S         3.88546920      1.41388690      5.47232628
S         1.47490001      4.23422432      4.81243277
S         4.40930414      6.43679571     12.53629971
S         4.38110352      5.10040569     15.46608639
P         4.78253937      3.23924756     12.66354942
S         6.79490519      3.59900689     12.69616508
P         3.68945765      4.85075665     13.60391426
S         4.05267668      2.91032553     10.84212589
S         4.21291399      1.58013737     13.83178520
S         1.69658566      4.41837835     13.32311630
S         3.60303092      6.86705971     20.76487732
S         3.62303209      5.40365171     23.87585068
P         4.21094847      3.43194604     20.84678459
S         6.26582098      3.68712211     20.98678398
P         3.17865562      5.06738758     21.91910744
S         3.53899360      3.13908243     19.05961609
S         3.64416528      1.93836486     22.11707306
S         1.21944666      4.79988575     21.74381447
S         4.77036333     13.15554333      7.09682465
S         1.86160922     12.61399746      5.16927528
P         4.96323204     11.67747974      4.30749798
S         4.27486038     11.79549313      2.42331243
P         3.94114709     13.36419010      5.20830059
S         4.37675571      9.80466270      5.16649246
S         6.87386274     12.17254639      4.56369066
S         4.41279650     14.99652290      4.13518190
S         1.18932700     12.79053211     13.25405788
S         3.86986113     15.05250072     12.22385120
S         3.63400698     13.43726063     15.20574093
P         4.25279760     11.66276550     12.57978916
S         6.18788195     12.13768387     12.46624947
P         3.13603497     13.42822075     13.28800488
S         3.39470935     11.50619411     10.68552876
S         3.51907706     10.08734894     13.70196247
S         1.74049711     13.32065582     21.84455490
S         3.81624365     15.23068905     20.60173225
S         4.58430195     13.68977356     23.83398628
P         4.74993038     11.77860355     21.04734039
S         6.75000143     12.10794258     21.23033333
P         3.74607325     13.64192104     21.79888344
S         4.36219501     11.77174759     19.13110733
S         4.09557533     10.13022327     22.10364914
S         1.54595768     21.18311882      4.97408152
S         4.50548506     23.01618958      4.05782986
S         4.28289127     21.62868690      7.06255054
P         4.86211681     19.91514587      4.35110521
S         6.83988476     20.30224228      4.36418867
P         3.58992338     21.49888229      5.19754791
S         3.86492896     19.68034744      2.56851792
S         4.32156897     18.30951691      5.45163965
S         2.04396987     21.12029266     13.52382374
S         4.54747009     23.23453331     12.29680061
S         4.79483938     22.19989204     15.53144646
P         5.18470621     19.98641014     12.58450508
S         7.09984732     20.31712914     12.92792797
P         4.07751179     21.65041542     13.66873074
S         4.45519161     20.10897255     10.74376297
S         4.36403465     18.50394058     13.75417328
S         1.63856304     21.69052124     21.73507881
S         4.01595688     23.63101006     20.84946823
S         3.93975449     22.14887619     24.10610390
P         4.56626320     20.33943748     21.05488396
S         6.58994246     20.77684975     20.99745560
P         3.58849096     22.01186752     21.95747185
S         3.77976537     20.08554459     19.10829544
S         3.93838167     18.93846703     22.36431122
S        12.53635120      1.52703512      4.90170908
S        10.11631966      4.48434353      4.50661182
S        12.71511745      6.52204323      3.48470092
S        12.75605106      5.10004616      6.42377424
P        13.23336220      3.09161520      3.52474356
S        15.15995598      3.63200068      3.79471731
P        12.05718231      4.91039371      4.53017426
S        12.52528191      2.92478967      1.64774144
S        12.54164791      1.25424278     13.85520267
S        10.04886913      4.14317369     13.40378380
S        12.56597424      6.19218540     12.31404400
S        12.61320400      4.68814659     15.37801266
P        13.11767197      2.85198808     12.61735725
S        15.10500622      3.14287090     12.66133595
P        12.07100010      4.53415537     13.44635868
S        12.45656872      2.81429648     10.82762051
S        12.65994644      1.73801708     21.94339180
S        10.02598095      4.70729494     21.38491058
S        12.59448433      6.72422886     20.53744698
S        12.63832188      5.05875444     23.42049980
P        13.03233337      3.29841018     20.57721901
S        15.15750217      3.67531538     20.79872704
P        12.02480888      5.02657413     21.47378349
S        12.35093784      3.00099039     18.77343750
S        12.06550121     10.16847992      5.42248917
S         9.83953094     12.82858658      5.09827995
S        12.22787857     15.05086613      4.03335905
S        12.47143841     13.61040020      7.07073736
P        12.83913994     11.78177643      4.22419024
S        14.87790203     11.98976612      4.43097973
P        11.76323509     13.48556995      5.21613312
S        12.20325851     11.42074871      2.25717640
S        11.94569969      9.59880161     14.05895042
S         9.52993870     12.51281548     13.83153152
S        11.69484329     14.73264313     12.67321587
S        12.04306221     13.27517700     15.85622597
P        12.73788166     11.23196602     12.97399235
S        14.72889423     11.18127728     13.14437771
P        11.55051994     12.98671722     13.92987061
S        11.87043667     11.15836716     11.18168354
S        12.22641659     11.33577156     19.46466446
S        12.41849995      9.88615990     22.50600243
S         9.88297749     12.89207554     22.05653000
S        12.36366177     14.87537193     21.10636330
S        12.67168808     13.45839500     24.25098991
P        12.93193913     11.55614185     21.35653496
S        14.92558289     11.92699623     21.61357689
P        11.86833000     13.30174541     22.31609535
S        12.48230362     20.32152176      1.84767342
S        12.38469982     18.37407303      4.98263454
S        10.03407288     21.19792366      4.77561283
S        12.49487591     23.28174591      3.57854366
S        12.68684769     22.41775131      6.63084316
P        12.96747780     19.98001480      3.86478019
S        15.06055450     20.32927322      4.04205084
P        11.96052265     21.75839233      4.67803478
S        12.43700695     19.71113586     10.93148613
S        12.65337658     18.24667931     14.11236191
S        10.09594917     21.35367012     13.28752804
S        12.69025040     23.35655785     12.60105228
S        12.79742241     21.67782784     15.63163662
P        13.15311241     19.95032692     12.88921452
S        15.22714710     20.47215080     12.72189426
P        12.07338715     21.92548943     13.76856709
S        12.37103462     19.63275337     19.01250839
S        12.75531387     18.45981979     21.97598267
S        10.10986805     21.41928864     21.55030441
S        12.63547134     23.29583168     20.58996201
S        12.71859932     21.78966713     23.85420227
P        13.17135811     20.01937103     20.89035225
S        15.18503284     20.34561729     21.05022240
P        12.13317585     21.71586990     21.95968628
P        20.57391357      4.98447514      5.13597441
S        21.04788971      2.91151500      2.19154191
S        21.39721298      1.79541159      5.21520758
S        18.61009407      4.71371222      5.00204992
S        21.37191200      6.43655634      3.91508675
S        21.21973228      5.16424465      7.02505207
P        21.67937660      3.43655849      4.05127478
S        23.64537048      3.61086512      4.31216764
S        23.52799225      3.41231537     12.15196705
P        20.40958595      4.92222643     12.75918007
S        20.98423195      2.86541009      9.93803883
S        20.92335892      1.73053229     12.98493576
S        18.38049698      4.35799265     12.74392223
S        21.00854874      6.56119728     11.74487495
S        21.35435867      5.10472965     14.63638306
P        21.61941338      3.27528644     11.82898903
S        24.12811661      3.44673753     21.31417656
P        20.92366791      4.87490082     21.97787666
S        21.08087730      3.15770555     19.31605530
S        21.62231636      1.41692495     22.21912956
S        18.87621117      4.46325064     21.77356529
S        21.54093742      6.52768278     20.77323914
S        21.55789757      5.11140680     23.88048172
P        22.09544563      3.00561380     21.10513115
S        23.98827171     12.12607384      4.13655710
P        20.67359352     13.34696484      5.03081036
S        21.28602600     11.39749622      2.32587934
S        20.88916779     10.28311825      5.40871668
S        18.67519951     12.91130924      4.99057198
S        21.18905067     15.09176636      4.02570820
S        21.46630669     13.46794224      6.95939589
P        21.75114632     11.68602085      4.25287294
S        23.42895508     12.05933285     12.55347061
P        20.39665794     13.50832844     13.23453426
S        20.82999992     11.70089531     10.39867878
S        20.58288574     10.24206257     13.50866795
S        18.51680565     13.04514885     13.16344452
S        20.55471230     15.33104801     12.11447620
S        21.10048103     13.78361607     15.02096081
P        21.47808647     11.75897884     12.35108376
P        21.70111465     11.44795036     20.98265076
S        23.57712173     11.97766399     20.96243095
P        20.44578552     13.13712883     21.72307777
S        20.65652084     11.20432663     19.29419518
S        21.19103241      9.64651966     22.37934875
S        18.40427971     12.89659405     21.66298485
S        21.34871483     14.86166191     20.88604164
S        20.96000099     13.17563152     23.81042862
P        21.90262604     20.14593124      4.11370468
S        23.83497238     20.21138191      4.55878258
P        20.67774391     21.95595360      5.08837128
S        21.29226875     20.15025139      2.20740461
S        20.95074081     18.52521324      5.12063646
S        18.71233368     21.37701225      5.31472635
S        20.87691116     23.42944145      3.93473220
S        21.44623756     22.46952248      6.94799042
P        21.12915421     20.06374168     12.37023067
S        23.11254883     20.69808388     12.78285599
P        19.97884941     21.78658867     13.49558449
S        20.49856567     19.93897629     10.38885117
S        20.29909134     18.50616837     13.48123932
S        18.00140190     21.49296188     13.49940205
S        20.54785919     23.20294380     11.92941666
S        20.74909973     22.02501869     15.32503319
S        20.65267754     23.95976448     21.34696579
P        21.60306168     20.43974686     20.78242493
S        21.25360489     18.63274193     21.57129288
P        20.65522575     22.00603104     22.03111458
S        23.68834496     20.53681946     20.74134064
S        20.79756927     20.88370895     19.02092552
S        21.31634712     21.91250992     23.90322876
S        18.84081841     21.13978577     21.89418411
