648

Na      156.74148560     -0.10438670     34.93405151
Na      -85.81858826    -55.03161240      9.19684410
Na      127.69717407    -11.69054508     -6.82177830
Na      -38.15297318     -9.17668533     26.70935249
Na      -30.49261856     29.93539810      0.79874957
Na     -121.14441681     -1.59012187    -46.85582352
Na      130.58192444     30.33921051    -25.02421570
Na       10.57756424     95.17958832     42.69857407
Na      -31.27381706    -24.34106255     55.88479233
Na       32.01218414     69.83591461     73.56473541
Na      -77.76606750     -1.84108233    -37.98183060
Na      -14.76666451      9.72297478     64.31755066
Na       19.35317802     45.54466629     59.75812912
Na     -102.78677368      8.33927536     53.42010880
Na      -65.14609528     22.40664482    -54.34053040
Na       60.61170578     60.91060638    -24.92627907
Na       59.12800598     43.40737152    -41.94685364
Na       49.34879684     56.30146790    -45.81451035
Na       89.02727509     38.31171036      8.00471020
Na      -17.18937683     13.72768784    -14.54791546
Na       -0.60637915     42.78205490      0.74873024
Na      -94.09162140      5.09116030     18.84276390
Na        1.89374232   -147.40541077    -11.71074867
Na      129.86355591     17.93251991    106.48051453
Na      -79.06499481     43.89726639     15.12166882
Na      -66.10463715    -14.71887493      9.54859543
Na      -31.21946907    111.87875366    -20.11515808
Na      -27.91159248    -65.67623138      6.18110371
Na       66.25660706     55.59205627    -24.51709175
Na      -92.42128754    -12.16454411     47.14991379
Na       25.26926804     29.81749916    -28.48219872
Na       62.71583176      4.63717413     59.61948013
Na      -31.46142769     18.37221909    -58.70683289
Na     -150.72529602    146.46820068    -58.99771118
Na      -26.22068405     55.97624969     60.07503510
Na       50.22025681     38.94094086    -11.72324276
Na       16.05050087     42.43173599    -49.74329758
Na       31.83811188    -69.24240875     12.67100525
Na      -31.40149879     21.65282059     47.57246780
Na       70.57798767     68.89360809    -25.71635437
Na       36.05063629    116.04656982    -37.11371994
Na      -39.46665573    -66.49755096     81.34191895
Na       36.04179764     -3.41251087     55.90777588
Na      -89.22888947    -17.25826645      9.38354492
Na       55.10852432     59.56859970    -16.03252029
Na       89.04817200   -100.25969696     23.28433037
Na       74.19956970    -75.05742645    -44.23449326
Na       73.99845123    -91.86271667    116.88825226
Na      155.05151367     13.73966503     73.15231323
Na       66.38322449     33.01576233     -5.59018230
Na       89.33699036    -68.69702148     77.43300629
Na      -49.85326004    -80.15881348    -37.45516968
Na        2.41550088     46.92672729     30.90995407
Na       29.95244789    -59.32521820      9.70165825
Na      -13.95528889     56.61593628     47.89617920
Na     -120.97929382     75.00050354     72.09229279
Na      -76.55184174     51.30897141     34.91110229
Na       90.28878784     26.51683235    -44.18386078
Na       62.60610580    -23.86938858     13.61360931
Na       37.40606308    152.17337036     35.53258133
Na      -13.60456276     33.29214859     -7.62995100
Na      -21.59531784     56.14932632     33.64401245
Na      103.48239899     78.91633606    -83.68679810
Na      -63.93811417     73.07780457    -59.37896729
Na        6.96025276   -119.44925690     52.48369980
Na       -5.97335577     -3.26180458    106.90086365
Na      -14.92653847    105.92458344    -36.82431412
Na       69.97093964      2.17217398     34.08419037
Na      -61.08472061     75.19589233     20.96883202
Na       72.00279236     84.12457275    -15.27794170
Na      113.18020630    -44.97017670     80.90620422
Na       58.60380554     88.95745850     56.04256058
Na      217.83105469      9.85846519    -27.39167404
Na      -51.47496033     25.43816185    -31.93571663
Na      132.76905823      9.40122318     56.57903290
Na      -68.40403748    -37.26782608    -74.72576141
Na       99.90506744    -59.61780167     -6.92837381
Na      -34.32418442     77.65833282    -33.71236801
Na       95.57712555     39.48919296    -71.41990662
Na       80.19704437     13.29194927    -42.68669128
Na       19.82838631    -11.44570923     14.35641861
Na      -58.87131119     -3.87782240     26.89156342
Na       39.35494232    143.87277222    -83.38740540
Na      -60.99570465    -15.32234383     30.33845901
Na       -0.97720122    115.02973175    -24.59859085
Na      176.23114014    -61.65722656      4.25556660
Na     -156.97029114     38.48683929    -33.50735474
Na        1.41664982     52.04328537    -46.44009018
Na       51.97819901     78.31957245     26.34093857
Na      -96.05200958     26.82669830     56.98194122
Na        0.00013616     73.02765656      1.36766076
Na      -96.65227509    -94.72892761     -3.04728889
Na       48.24747467    -74.63621521     73.86055756
Na      -48.53761292     22.43853760     73.11543274
Na       24.61503601     21.86581230    -15.64690304
Na      -37.98502731     -3.57162857     75.51922607
Na      105.81038666     13.09090996    -76.81114960
Na      -46.91900253     25.13384247   -100.55443573
Na       35.49861145     34.85599136     20.26809120
Na       31.38588715    -35.44181824     30.02439308
Na       88.51741028     38.40027618     50.64591217
Na     -134.60079956     21.42265701    -37.48212814
Na       52.60225296    -40.49201584     26.16651154
Na      143.04235840     10.02409935    -16.57515335
Na       74.94705963     64.32151794    -29.11467552
Na        3.09349179    103.45478058     -2.47013640
Na        4.19532156     50.23495483     43.85039902
Na     -142.09783936     17.92851448     12.96865940
Na      -38.62015152    -88.48845673     93.76617432
Na      143.23420715   -104.51734161     93.63814545
Na       91.42606354     55.71975327    -33.95377731
Na      -80.02112579     46.88234329     50.50303650
Na       -9.99484539    100.08356476     54.49251556
Na      -17.59532738     39.26094818     69.23410797
Na       49.01515198    120.20561218    -71.04940796
Na      -81.46060181      5.89084578     56.71422958
Na       46.57955170     21.91267014     -9.45508575
Na       40.35622406    -86.66135406    -12.22928333
Na       27.05374146     35.21014023    114.34056854
Na      -39.38690567    -20.90638924    -33.18254471
Na      -35.54648972     16.95092201     60.50224304
Na       49.38520050      4.27909088     93.19177246
Na       92.05216980     19.48130035    -45.76916885
Na       36.04544067     26.13000679    -21.28289604
Na       19.94211578      5.37152195    123.68158722
Na       71.00621033     89.33178711    -41.67904663
Na      116.30754852     65.54685211     29.85592461
Na      -80.88719177    -25.92442703     94.62968445
Na       32.06250381    -40.17704773     90.55925751
Na      -52.27474213    -45.62847519    102.38700104
Na     -157.53314209    106.15125275     -8.52676105
Na      154.97822571     85.39837646     21.76882935
Na       50.89984512     10.83393097    110.55490875
Na      -36.34233093     49.00144196    -88.50120544
Na      -43.08204651      5.04013157     56.44852066
Na       66.73495483    115.04718781    -24.53671265
Na      -42.38365936    -54.00098801     94.50141907
Na     -140.16642761     76.59183502     68.95661926
Na       31.38533211    -91.56203461     73.58781433
Na     -127.82839203     -7.34236813    -41.95759964
Na       92.51782990     70.12842560     22.05991173
Na      -41.52288818     21.49822617    -37.67872238
Na      -42.97207642     31.52947807     34.69631577
Na       79.05387115    -19.40071297     30.10674286
Na      -22.29434776     43.46249008     39.01610565
Na      -47.60268784    -29.58206177     85.74208069
Na       56.82034683    -35.33455658    123.44716644
Na       62.20973206     29.34645271      0.76268232
Na       43.75701141     35.03280640    -12.53796387
Na      -94.00554657     52.23381042     42.83532715
Na      -17.79810905      1.04643476    -75.69648743
Na       23.34220314     -1.96125674     80.85715485
Na      156.21401978    -29.72951889     -0.01104161
Na      -81.23657990     84.32859039    -74.93331146
Na      -15.50012207    -83.10671234    122.37317657
Na       39.92603683    -14.88158607    -35.86133957
Na       54.34387970    114.21446228     66.13939667
Na       46.05104446     38.62086868     76.01523590
Na       52.98850632    -41.45860672     80.90480804
Na       17.28588295    -62.48870468     10.61325741
Na      100.04164124     57.71440887    -38.10621643
Na      -34.82968903     13.82532215     -7.07509661
Na       92.13762665    -25.05079079    -16.04378128
Na       21.14769173    101.42058563    -40.90764618
Na       92.74833679    -72.39517212     39.06422806
Na       27.80644989    -49.42631149     89.22953033
Na     -140.61743164     42.41933823     86.01628113
Na      -81.25739288   -144.58274841     70.05125427
Na     -110.36587524     56.68581772    112.40615082
Na      -44.23275757    104.02990723    -11.74780083
Na      -70.18292236     33.72486877    -84.04290771
Na      -94.33426666     -3.36181951     51.06452179
Na       -8.77633762     28.99280739     -3.10093832
Na       46.86424637    -76.90018463    -24.48047638
Na      262.03308105    -24.44936371     34.58356857
Na      -48.63007355     39.10687256    -20.34473801
Na      184.18501282     -3.71373224     33.63027191
Na      -42.93398666     55.22420502    124.03454590
Na      -21.00769615     -8.78944397    -49.98682785
Na       -1.21216798     44.44822693    -54.81186676
Na      -66.27519989    128.36643982   -131.71276855
Na        4.56981707    -79.65972900    -34.71041870
Na       21.26590538     -9.35364342    111.64142609
Na       84.56161499     42.98747635     54.66968918
Na       25.20653343     65.25347137     35.86919785
Na      172.03292847    -15.70467567     -3.03055549
Na      -73.22625732     40.55981445    -88.73838043
Na       10.26799107     95.28696442     26.18323517
Na      -11.63992977    -86.30271912     98.38903809
Na      -73.35750580    -33.44695282     97.88941956
Na       19.72692680     44.08954620     30.65261841
Na      -31.55670547     -7.67367125    -12.61283398
Na       29.55608749     -8.80517483     43.36963272
Na      190.50807190     49.98759460     52.20591354
Na       29.72477531      4.94303513     67.50347137
Na      139.23246765     72.33812714    -16.65939903
Na      -36.77217102     94.81660461     14.85564613
Na       -5.94373322     26.49026299     38.30714035
Na       16.46646881   -100.70916748      0.43783811
Na       27.67432594      9.95791054     42.70481491
Na      -32.53763580     10.05584049     51.81801987
Na       -2.24382496     60.96247482     74.63739777
Na       -5.59662294    -19.29363251     38.57329941
Na     -103.31248474    -73.97487640     90.73094177
Na      -88.96761322    -33.23369980     56.36769104
Na       20.30328941     67.37947845     -3.50156021
Na       -9.78517532      5.97453594      5.92848682
Na     -108.46290588     51.83595276    -30.38582993
Na      -44.30664062     -1.61278975    -37.68109131
Na      -26.53320503    -28.82391739     93.60710907
Na      -34.09571075    -13.34207630     -3.24393058
Na      115.92456818    -44.24493408    -37.71960068
Na      120.13855743     86.32350922     43.55259705
Na       75.20633698    -18.11440849    -31.36854362
Na        6.29452610    146.17329407    -61.11134720
Na       23.46216774     49.07607269     21.21726990
S         9.46876621     24.16855240      9.54143429
P        10.00772285     23.64436913      7.64641857
S         8.77818203     23.99520493      4.39146376
S         6.74560690     24.11066055      6.94418097
S         9.52017403     21.67566681      7.64492416
P         8.57559299     24.74474525      6.30402946
S         8.81049728     26.73485184      6.49740887
S        11.76777649     24.19837379      6.84953690
S         9.74687099     24.94405556     17.84718132
P        10.18861198     24.26200867     15.90341568
S         9.01757908     24.79287910     12.84708118
S         6.70200491     24.91909409     15.41726875
P         8.58181953     25.35069847     14.71222973
S         9.71927643     22.35213089     15.84597874
S         8.89065838     27.38175964     14.67706776
S        12.05403900     24.83635521     15.48585510
S        11.92011642     24.34912682     23.99028778
P        10.02353477     23.93269539     24.58410263
S         6.65348959     24.26804352     24.04402161
S         9.01791286     24.31892776     21.35979080
S         9.18898296     26.91118431     23.38165665
S         9.85266209     21.82688141     24.42214012
P         8.53582859     24.96377373     23.19758797
S         9.77407837     24.56095314     26.48767281
S         6.75623703      7.29310513      6.96752501
S        12.01655197      7.40127707      7.03242874
S         9.03059673      7.47930861      4.28567743
S         9.56262493      4.92706871      7.54074812
S         9.89900208      7.77310181      9.50785828
P         8.64148521      7.95191145      6.29145575
P        10.12010956      6.91512299      7.77082491
S         8.94522285      9.95844173      6.56250715
S         6.61131954      6.90923023     15.40061855
S        11.58640003      6.70594692     15.11773968
S         9.00245953      7.03220654     13.13768578
S         9.52432346      4.63404560     16.31297684
S         9.37366295      7.52051640     18.19207764
P         8.41661644      7.53816891     15.05492878
P         9.82629299      6.62660408     16.29663277
S         8.67157173      9.55556679     15.55561447
S        11.87047863      7.83013296     23.93868065
S         8.77123451      7.21066761     21.29954147
S         9.93799400      5.03602934     24.10396957
P         8.57877827      8.13546562     23.00420189
S         9.66700649      7.26146364     26.61426544
P        10.06163025      7.12768030     24.56570816
S         9.22249126     10.22275066     22.89207268
S         6.90936375      7.72744751     23.96449089
P        10.23847771     14.71708012      7.69429874
S         9.13607597     17.81777382      6.48262310
S         7.13579655     15.39934731      7.29104662
S        12.16945744     15.46773434      7.38639784
S         8.82008076     15.21828842      4.38201094
S         9.91629791     12.74856091      7.60666370
S         9.71058464     15.42730045      9.49402809
P         8.85321808     15.88323498      6.34819508
P        10.21507740     15.78059483     16.50828934
S         9.02605438     18.88205338     15.18797874
S         6.82256079     16.25867271     15.73333168
S        12.22022820     16.23575020     15.98194599
S         8.89074707     16.22523117     13.22841930
S         9.77455807     13.93070698     16.11573410
S         9.82645702     16.60364532     18.37378311
P         8.60399628     16.87623787     15.24916744
P         8.53747845     16.23681068     23.56220245
S         9.02930069     18.24942589     23.69056511
S         6.69946194     15.62522125     24.15214729
S        11.78679752     15.88247395     24.16170883
S         8.69935226     15.67257977     21.55014038
S         9.49341393     13.31662750     24.79613686
S         9.60728359     15.79310513     26.99337196
P        10.02466011     15.34500885     25.00130081
P        16.97824860     -0.31027201      6.40171337
S        17.22137070      1.71625471      6.63641119
S        17.92292976     -3.22314572      7.64676905
S        20.50144768     -1.08563733      7.10929298
S        18.38106918     -0.67821944      9.76606750
P        18.55123138     -1.31526256      7.75587845
S        17.66787338     -0.93748719      4.59354210
S        15.28652954     -1.05593622      7.09921551
P        17.40313911     -0.31595236     14.63396549
S        17.90021706      1.62095261     14.99596500
S        18.51269531     -3.26718950     16.03913689
S        20.66493988     -0.78587669     15.24221897
S        18.31128883     -0.73147905     17.85041618
P        18.89385033     -1.33287346     15.92181873
S        17.70798302     -0.96768928     12.66546345
S        15.65768909     -0.89958072     15.42041874
S        17.95085526      0.99771351     23.54034042
P        17.26116753     -1.06931734     23.39529228
S        18.56082726     -3.93395543     24.50214958
S        18.34343529     -1.43879342     26.78384972
S        20.47366333     -1.38428426     24.01620102
P        18.79948807     -1.91607380     24.86783028
S        15.32434750     -1.44799888     24.15691185
S        17.63279915     -1.66352034     21.53921509
S        18.17959785      8.24412632      9.87915611
P        17.10913467      8.85028744      6.45678759
P        18.61747169      7.69049263      7.89230442
S        17.40061188     10.85038948      6.61690664
S        15.32122135      8.31723022      7.23350239
S        20.45082664      8.26537132      7.14305830
S        17.47836113      8.07572079      4.58610964
S        18.25044823      5.76015854      7.77112007
S        17.84229851      7.45080566     18.38809013
P        16.75742149      8.00986958     15.27613258
P        18.17914200      6.82854223     16.46714592
S        16.95311737      9.93828678     15.38805294
S        14.94050884      7.47094584     15.98727512
S        19.96737099      7.51655817     15.94244003
S        17.16944504      7.19663048     13.28226185
S        17.69213295      4.86970091     16.49985504
S        17.90723991      7.60419226      1.35437357
P        18.40052795      6.73413563     -0.35399622
S        17.14936638      9.81708050     -1.33587730
P        16.85150719      7.77136898     -1.66743553
S        14.97717190      7.19152689     -0.87168783
S        20.28059387      6.99267244     -1.00803423
S        17.41757202      6.99662781     -3.60827088
S        18.03947258      4.59962893     -0.61596423
S        17.95698929     13.76711082      7.93978834
S        18.26666260     16.33815575      9.90533257
P        16.92225838     16.75842476      6.59881830
P        18.36677933     15.71613026      7.89315510
S        17.34811783     18.82117844      6.84274960
S        14.88173676     16.08112335      7.05559921
S        20.21356010     16.21551895      7.14060307
S        17.41131401     16.13885880      4.83975792
S        18.29772568     13.41565132     16.55652618
S        18.21874809     15.87076569     18.51753998
P        17.11324883     16.42632294     15.42419624
P        18.53885078     15.34524345     16.65151596
S        17.56524849     18.33759117     15.39843655
S        15.08093071     15.97763443     15.92865372
S        20.32442665     16.00877762     15.89634514
S        17.50846100     15.75500202     13.61762524
S        18.01560593     13.03985977     -0.49885479
S        18.06256676     15.76885128      1.61039257
P        18.34631348     14.95693588     -0.26308864
P        17.01402473     15.98129368     -1.59960818
S        17.31515694     18.03891563     -1.45205271
S        15.18472862     15.54847813     -0.83760774
S        20.20863914     15.58915329     -0.96209472
S        17.41090012     15.45865822     -3.45319724
P        25.65235329     -1.27195668      6.77641392
S        26.01192474      0.76418114      6.91081524
S        26.56919098     -4.26485014      8.09597301
S        28.96281624     -1.69481957      7.34541512
S        26.37137604     -1.48400450      4.77453899
S        27.07437325     -1.44074368     10.06073570
S        23.89360809     -1.80332184      7.45061398
P        27.15650749     -2.12053013      8.15764141
P        25.83124161     -0.14951177     14.85346317
S        26.35562706      1.73798585     15.36868763
S        26.90900421     -3.24826121     16.23519325
S        29.07995033     -0.56517076     15.38015461
S        26.36890221     -0.76109660     12.94381046
S        27.01581192     -0.33355132     17.83474350
S        24.04708099     -0.70502329     15.42071819
P        27.34342194     -1.23423576     16.08810616
S         3.45958924     24.39580536     23.92854881
P        -0.03093309     24.87746048     23.49356842
S         0.59115869     26.88446236     23.67967224
S         1.11445069     21.87433624     24.59587097
S         1.14911127     24.68157387     26.60988045
S        -1.75218630     24.25547028     24.01688194
S         0.52678418     24.32180405     21.51883698
P         1.55499303     23.93293381     24.69747543
S         0.96516532      5.14516401      7.30869007
P        -0.23093961      8.22958374      6.31831121
S         0.24709654     10.29993534      6.30539989
S         1.07254195      7.78014898      9.64253902
S        -2.05285645      7.54895496      6.95806503
P         1.35679615      7.23549604      7.65257692
S         3.29295325      7.55315971      7.05376148
S         0.23496886      7.48119307      4.44246054
S         0.94664496      4.87368631     16.38037300
P         0.18968284      7.99655914     15.15260696
S         0.18760929      9.98926449     15.46098518
S         1.50996137      7.80128336     18.29881668
S        -1.83704400      7.34927273     15.59198856
P         1.61130226      6.92159176     16.53701591
S         3.37023258      7.30389929     15.62512779
S         0.77896833      7.42582321     13.25756741
S         1.04391193      4.71311522     -0.79795343
S         0.46086305      9.89566135     -1.71081591
P         0.01234626      7.84340763     -1.87609744
S        -1.72322690      7.23000336     -1.20276320
S         1.07286167      7.30677271      1.25703430
P         1.58078015      6.83405256     -0.57981652
S         3.42424536      7.39186049     -1.00257897
S         0.15288098      6.90099382     -3.73578382
S         1.21377933     13.52590942      7.75690126
P         0.20231614     16.70601273      6.49443102
S         0.59074754     18.69714355      6.79914951
S         1.32416093     16.40924644      9.79346561
S        -1.55010724     15.95190239      7.16679287
P         1.75712955     15.56899166      7.88148069
S         3.53936458     16.08275986      7.12349272
S         0.60972267     16.03819847      4.61232805
S         0.97746539     13.58906555     15.99247932
P         0.06384785     16.65260696     14.93245411
S         0.24658319     18.68570328     15.06446838
S         1.01506615     16.51306152     17.82555008
S        -1.68946218     15.91975975     15.62987900
P         1.47837830     15.60468102     16.10355377
S         3.51333618     15.92617226     15.52307796
S         0.48117664     16.10972595     13.00466251
S         1.08685279     13.00039959     -0.95793355
P        -0.13022847     16.15636826     -2.23264980
S         0.49251458     18.06932449     -2.17177725
S        -1.93526924     15.62625313     -1.54034936
S         1.36942387     15.66140366      1.11346138
P         1.40834880     15.02752876     -0.84869945
S         3.26624727     15.78160286     -1.58634496
S         0.61300695     15.59697151     -3.96751499
S         4.73090982      5.64160442      2.60499549
S         5.00857973      4.27264309      5.58569431
P         5.56349230      2.18220448      2.87736559
S         7.55617809      2.50670815      2.78513312
P         4.31072950      3.95419788      3.71537805
S         4.89035416      2.13741446      0.92669660
S         4.62642336      0.62093914      3.96416950
S         2.31056285      3.54390669      3.65726209
S         5.28277540      5.99998760     10.38137627
S         5.25921917      4.47206211     13.58351517
P         5.80113745      2.72475195     10.78019524
S         7.74705982      2.91844654     10.96848392
P         4.72906256      4.44720793     11.58168316
S         5.02738190      2.44594169      8.88033485
S         5.27479458      1.01351070     11.83096886
S         2.74338531      3.90722322     11.65730667
S         5.00266409      5.94474983     19.50306129
S         5.17137337      4.11999035     22.44530296
P         5.65050077      2.38211179     19.65169716
S         7.64981031      2.77682137     19.76459694
P         4.58770704      4.13664770     20.54920769
S         5.05224657      1.92792785     17.73793602
S         4.82281733      1.07855618     20.82728386
S         2.59830880      3.63992858     20.58859634
S         5.00298262     14.00642776      1.89404440
S         4.96214390     12.62325191      4.97149181
P         5.47992659     10.58814812      2.09034967
S         7.48699856     10.93534756      2.06237388
P         4.35709906     12.36167049      2.92264342
S         4.78783131     10.55412960      0.31345445
S         4.84795475      8.95014668      3.33203316
S         2.38469934     11.82937431      2.84837937
S         2.48920345     12.44668579     12.21293354
S         4.72812605     14.14634418     10.59117031
S         5.50681543     13.27660275     13.65476894
P         5.73414326     11.25805378     11.01604652
S         7.67006207     11.15472031     11.51547050
P         4.53551054     12.82131290     11.96630764
S         5.31697416     11.15877819      9.06849670
S         4.90160036      9.40920353     11.86752129
S         2.70442009     12.13984394     19.94952774
S         5.14034414     14.41246510     19.00486565
S         5.20404911     12.91120052     21.96311569
P         5.63554192     10.91691589     19.13260078
S         7.58419657     11.29650021     19.19626236
P         4.62771177     12.77087688     19.92919731
S         5.03496265     10.67670441     17.09345436
S         5.01973152      9.33723164     20.35348511
S         2.57976127     20.53655624      2.73979211
S         5.38070250     22.54120255      1.64859748
S         5.43138075     21.12001038      4.68165445
P         5.77665854     19.35600281      1.84681571
S         7.77801943     19.66464996      2.02242661
P         4.58301258     21.01111031      2.84984756
S         5.16676331     18.95254326     -0.12435240
S         5.17689133     17.84075928      3.02244997
S         3.26548743     20.49365425     12.19589806
S         5.61685848     22.59823799     10.71702671
S         5.95252514     21.26191139     13.88316154
P         6.27979088     19.21786880     11.14881039
S         8.33515358     19.40464783     11.41722965
P         5.14241982     21.09921455     12.10788536
S         5.83820438     19.14937782      9.13274956
S         5.66165161     17.53221130     12.14990997
S         2.55171227     20.74110413     19.97504044
S         5.31391764     22.48540688     19.07882309
S         5.04531145     21.52372742     22.18199921
P         5.53709364     19.48878288     19.26362419
S         7.59973431     19.74086380     19.35914803
P         4.42291975     21.15984535     20.21075821
S         4.74401140     19.17321396     17.39365005
S         5.29884815     17.75169182     20.21791840
S        13.29048443      0.12928885      4.04113102
S        11.00786495      3.13816714      3.76595020
S        13.34296131      5.23339462      2.56910682
S        13.81611156      3.79250169      5.56315422
P        14.15801334      1.65883315      2.87924457
S        16.06040764      2.23766446      3.15165138
P        13.02923679      3.55512714      3.75927353
S        13.49171162      1.74322295      0.81717318
S        13.89957333      0.75020510     12.05518246
S        11.18745041      3.87000990     11.45296860
S        13.88699341      5.73763084     10.70704651
S        13.51732445      4.19566441     13.70140076
P        14.27679634      2.31397748     10.80729103
S        16.36219025      2.79057050     10.69484997
P        13.19336033      4.06163359     11.71526432
S        13.37574387      2.04499578      9.03072071
S        13.54092503      0.97521091     20.57163811
S        11.22869301      3.69846964     20.24435997
S        13.60319805      5.58414555     19.00658798
S        13.84472752      4.45049572     22.26991463
P        14.27989388      2.44623160     19.28628349
S        16.36887741      2.68152404     19.47185707
P        13.18099213      4.06576920     20.33941078
S        13.71152020      2.45104337     17.36130524
S        13.23677731      8.89847374      3.45110536
S        10.64415359     11.82422543      3.09177589
S        13.45230293     13.71870995      2.02856994
S        13.43422794     12.27406406      5.06613445
P        13.74064732     10.59150505      2.25396752
S        15.83701611     11.03060722      2.47939110
P        12.64233589     12.18430233      3.11866450
S        13.05647373     10.26083279      0.48865554
S        13.12353802      9.12223530     12.23565674
S        10.76351643     12.06180573     12.12215710
S        13.45827389     14.09895325     10.88012314
S        13.47185898     12.95841408     14.08500957
P        13.94248867     10.81088829     11.26391792
S        15.99379158     11.32184124     11.29603004
P        12.83494949     12.51796532     12.04211998
S        13.23777962     10.74222183      9.28360653
S        13.24386692     10.37915707     17.62923622
S        13.67892170      9.32615471     20.79235077
S        11.22544956     12.23784924     19.94649315
S        13.65464878     14.34631443     19.47813225
S        13.63202858     12.54059792     22.34609222
P        14.18267250     10.72330856     19.45453262
S        16.24035454     11.34644508     19.46083641
P        13.22812271     12.59153652     20.34138489
S        13.12638378     18.74687958      0.51060826
S        14.11483574     17.36529922      3.44508219
S        10.93732738     20.86547661      2.82288051
S        13.82713318     22.26373100      2.12386537
S        13.20043755     20.82777596      5.17188692
P        13.99072742     19.10563087      2.28164458
S        16.01539040     19.53070259      2.08841586
P        12.96641636     20.87103081      3.11158037
S        13.50652885     19.14935684      9.22063923
S        13.79927349     17.78076363     12.06216621
S        11.22644901     20.78178406     11.66758442
S        13.62409592     22.86443329     10.64894295
S        13.79686165     21.15639687     13.84876251
P        14.38767242     19.47955322     11.09018612
S        16.37448692     19.58541679     11.05004120
P        13.17884064     21.27483559     11.91555119
S        13.28336239     19.65463829     17.34799957
S        13.87011909     18.00570488     20.53506279
S        11.14350700     21.25914383     19.70346832
S        14.07250023     22.95132256     18.95893097
S        13.76890087     21.53571129     21.91638374
P        14.36880207     19.62741852     19.15088654
S        16.09507179     20.50532913     19.22940826
P        13.11978436     21.30501366     20.10218239
P        21.55753517      4.01745129      3.72420454
S        22.11139107      2.07476401      0.90978760
S        22.13279152      0.57165676      4.09751654
S        19.61477280      3.65622234      3.59034348
S        22.08112717      5.66216135      2.50567865
S        22.24134254      3.98587227      5.63503170
P        22.68203926      2.17820215      2.88517475
S        24.64325714      2.57905650      2.82793498
S        24.65356827      2.77454472     11.14251232
P        21.66842461      4.09492016     11.86772823
S        22.01155853      2.19591379      8.89977264
S        22.15209961      0.79368007     12.07699203
S        19.61755943      3.76992607     11.82347393
S        22.15975761      5.57555056     10.63386154
S        22.20791245      4.30700636     13.76201916
P        22.71657753      2.33371544     10.84635639
S        24.66647148      2.78548002     19.43864250
P        21.66729736      4.02179480     20.05818367
S        22.20295906      2.00370669     17.26703835
S        22.22510719      0.45930657     20.33779335
S        19.72254753      3.80497813     20.06319809
S        22.15541267      5.60478830     18.84456444
S        22.46234131      4.01849270     21.99447823
P        22.73196411      2.18326998     19.23486328
S        24.27878189     11.15743923      2.41680932
P        21.13010597     12.42098999      3.37651634
S        21.36624527     10.69641304      0.57438308
S        21.80508804      9.12776852      3.66923165
S        19.15102386     12.09149551      3.03160286
S        21.86509323     13.91290283      2.31286192
S        21.73131180     12.82000351      5.46067858
P        22.29788971     10.67364788      2.57730031
S        24.73328590     11.45155048     11.50911427
P        21.57808495     12.57489300     12.33909607
S        22.10805511     10.55733204      9.46818352
S        22.01377296      9.43289280     12.56795883
S        19.62761307     12.06783772     12.17891121
S        22.39300156     14.02692795     11.18329906
S        22.42566490     12.71870613     14.26143360
P        22.64179039     10.90129852     11.29130650
P        22.54042053     10.58474159     19.67884827
S        24.61096764     11.10843849     19.58076477
P        21.39743042     12.40045834     20.56617546
S        21.68434334     10.08602619     17.76928520
S        21.65507889      9.13804054     20.94129562
S        19.39426422     11.86795807     20.29251099
S        21.91996765     14.02120209     19.63275909
S        21.98897552     12.32157135     22.57740402
P        22.62338257     19.09577560      2.34389043
S        24.69864464     19.41675758      2.49273753
P        21.49351120     20.85355186      3.12651682
S        22.13610268     19.00256920      0.41431928
S        22.00468254     17.67027092      3.41614223
S        19.41271400     20.53910637      3.30824709
S        21.96899605     22.52306557      2.04154515
S        22.26645088     21.02874184      5.05137205
P        22.82722473     19.21984673     11.03859901
S        24.88516235     19.54715347     11.08474445
P        21.77150154     20.90740395     11.96570015
S        22.15104103     18.81575394      9.30508232
S        22.12798882     17.84432793     12.31657505
S        19.81496239     20.26261520     11.73014736
S        22.38761139     22.66395378     10.98359680
S        22.46453857     20.93231010     13.87812328
S        22.28993988     21.25534821     21.75819778
P        22.61549759     19.52869225     19.05715752
S        24.50096512     19.92391205     19.10250854
P        21.41480827     21.22917366     19.66328430
S        21.75063896     19.48106194     17.21462822
S        22.01722908     17.91085625     20.24437523
S        19.53862572     20.72989273     19.56287956
S        22.10662651     22.92585564     18.69139862
