648

Na       58.52401733     47.23208618    -69.45199585
Na       -7.34617472    124.10600281    -77.00423431
Na      116.93003845     72.53843689     -9.44562149
Na       44.69155121    177.98136902    -80.85158539
Na      -22.83003807    166.44114685    -32.42290497
Na      -42.33572388   -111.85537720    -30.15601349
Na       98.40479279      2.03381944     66.74985504
Na       53.66566467    -58.73476028    -64.60406494
Na      -78.04946899     27.35833168    104.78783417
Na       25.51154900    -23.61015892     82.81166077
Na      -71.26442719    -27.99325371     45.25114059
Na      115.34020996    -96.53915405    129.28625488
Na       -5.70277071     84.68929291     70.90098572
Na      110.72824097    -83.56644440   -154.24949646
Na      184.70425415    133.03359985      3.88650203
Na     -157.86517334    -53.54013824    -40.46135712
Na       43.83871841     74.79187012     15.33905983
Na      218.06242371     51.71194458    -47.57795334
Na      107.03919220    -40.58420181    -48.43456650
Na      -70.52445984    -50.63207245    115.06434631
Na       78.10472870    -45.97828674    172.19119263
Na     -193.96029663     95.28038788    -63.84638977
Na      231.13137817    150.00085449    188.97862244
Na      153.44902039    -91.64228821    244.08607483
Na     -197.29158020      1.24897540     20.09886551
Na       35.48649979   -136.71836853   -112.61772156
Na       55.72389221     82.83821869     83.18620300
Na     -254.62661743      2.41782403   -115.61058807
Na      -84.06444550    -45.01642990     41.15658569
Na      258.94619751    -57.26396179    -50.62635422
Na     -144.55952454     -5.00276756     45.40033722
Na     -109.74882507    -99.64612579    -86.67414856
Na      -33.67769241      1.62507367    157.99804688
Na      -37.78798294    188.68051147      7.88784599
Na      171.91107178     17.20395470    -13.39639759
Na      290.11618042    -96.59140778     19.44158363
Na      150.01296997     86.58192444     28.23603439
Na     -230.69158936   -105.28194427     75.05036163
Na     -108.89685059    -14.68144417     41.66382217
Na      -12.12688541    -68.10934448     56.53000259
Na       25.52700233    -65.64988708    147.22763062
Na      -75.84173584     73.51989746      7.56352854
Na     -155.01167297     13.83313179    -98.20017242
Na       30.94633102     42.68640518      4.27976942
Na      -45.09350586    -33.49266815    -81.17477417
Na      -37.43701553   -116.03743744    119.14176941
Na       -3.91052842      2.20984554     76.42240143
Na      101.96186066     90.23926544    -26.64735794
Na      -66.69703674    129.17068481     16.10584068
Na      213.50610352    133.38587952     92.31590271
Na        9.56364059    131.16674805      7.95117044
Na      -50.03418350    146.50460815    -17.86961555
Na     -260.24899292   -136.53491211    168.23504639
Na      234.77944946     90.96897125    164.29365540
Na       91.32575989    -95.82167053   -190.51025391
Na     -206.55177307     10.87484741    -43.16932678
Na        5.87461805   -121.47978210    -90.08502960
Na      146.23854065     59.02666855    -12.87825298
Na       95.89487457      8.72868156     54.38423920
Na       32.23303986    -45.88345718    172.72119141
Na       72.12359619     -1.12164402     48.91069412
Na       62.18271255    102.46839142    121.98093414
Na     -219.50205994    -13.39622974    -41.97363663
Na     -269.15502930     70.37242126     16.66933060
Na      224.23957825     41.17224503     23.78980637
Na       -9.22409248    -44.67077637     54.97994995
Na     -255.49421692    -54.10720444     41.21860886
Na     -215.43220520     32.95513535     48.93898010
Na      -79.62140656    121.31209564    -43.46770859
Na        1.20748389     -1.36536860   -103.70421600
Na      -50.73668671     70.82803345    -31.14332581
Na      146.69912720     81.69293213     27.35830498
Na       13.34943390     30.73001671    -40.65779877
Na     -158.65885925    174.68008423     -6.53782463
Na      131.25738525    -18.09168434    -10.00203705
Na     -205.94734192    -41.68046570     45.99688339
Na      178.96194458     -6.12161922   -111.85768890
Na       18.34792709    -36.41515732    -43.16930389
Na      -90.48207855    301.83615112     86.81306458
Na       61.76961517     19.03813744    -93.45469666
Na        8.81328487    172.23310852   -124.64067078
Na      147.90211487    -85.02172089   -124.28075409
Na      -43.51446152     22.35106468   -137.06515503
Na      -91.90026855    -59.03554535     30.92456436
Na       88.49304199     41.05466080     32.59629440
Na      -96.16918182    129.00581360    -65.97329712
Na      203.35411072     45.08117294     78.86750031
Na      213.48240662    -36.46096802    -58.46276855
Na       60.42163086    -40.63381958     49.34256744
Na      235.04418945      5.81669521     -1.72525275
Na       54.32046127    -67.81371307    -56.21170807
Na     -112.62930298     72.37198639     34.16467667
Na      105.51060486    324.57467651     16.99035645
Na     -122.63463593     35.96160889    -59.01719666
Na      149.10151672    261.11843872    -94.52276611
Na     -171.83551025    -20.78027344   -111.10798645
Na      146.46360779    -58.78405762    -30.56589127
Na       72.34591675    -83.04656982    152.74803162
Na      -29.77962112    -94.28797913   -103.14286804
Na       41.70788956    196.52418518    123.83814240
Na      170.98532104     44.80375671    -93.80230713
Na       52.37771225    187.82437134    -17.79843712
Na      197.72976685    132.13946533    -32.11591721
Na      -84.66586304    -32.02760696    -10.49973679
Na       57.27103043    -14.69441891     -2.93631172
Na       93.50829315    -40.41068649     46.74623871
Na      124.80556488    -23.82206345    172.60208130
Na       64.98249054    -15.05775642     28.09573936
Na       43.20268250     11.28297138    -52.02191544
Na      -86.65973663    216.81732178     -9.65124321
Na      -40.50112534    -77.35958099    -44.84912872
Na      124.98645020    -78.25020599     38.55858612
Na       29.03954887     77.93675232     -7.84736443
Na      144.81187439   -205.09786987    108.37205505
Na      -25.17952728     26.78155327    -53.15400314
Na       61.12314606     30.68171692      1.19063580
Na     -161.45559692      5.82233429    148.72604370
Na       52.48777390    -35.65977097    -35.46203232
Na      -91.29174042    -42.12827301   -174.93846130
Na       91.17790222     64.35519409     49.97913361
Na      212.17755127     27.68674278   -103.31843567
Na      330.97589111    183.65240479    134.56455994
Na     -130.53048706     82.94664764    -10.24651527
Na      222.03103638    -12.72535992     37.10510254
Na      161.45362854    -36.40559387     -1.45412469
Na       19.29220390    166.18989563    -58.15919495
Na      182.49790955    -26.96012115    -94.71035004
Na     -178.27700806     27.53204918    -36.20836258
Na       -7.95686197   -184.84535217      2.29687524
Na     -177.53312683    -36.21931076     33.12027740
Na     -180.26464844     48.09923553     79.74714661
Na       47.77491760     65.13368988    112.93158722
Na      -21.04157257     66.35529327     -1.76282287
Na      -15.00334549    -88.16353607    129.24235535
Na     -101.40805054     -6.84763241   -154.90699768
Na      -53.79760742    -39.40617752     -1.56388545
Na      171.36259460   -113.71578217   -124.33650208
Na       14.47022343     48.39456177    122.73171234
Na     -105.68518066   -150.40180969     34.00339127
Na      174.46168518     10.65979195     67.94586182
Na       91.43211365     52.38478470   -158.19888306
Na       53.34951019     34.13549423    -89.26168823
Na       85.35723877     78.50309753    155.72337341
Na       91.43709564     99.10119629     55.34230423
Na       88.56112671     50.65391159    -13.94170189
Na      -36.74417114    -23.17759895    -51.71384430
Na       67.25448608     69.57207489     30.86034203
Na      133.40264893    -66.40603638    -90.21523285
Na      -53.72613907     81.70067596     11.35030079
Na       10.57333183    -26.17630005    116.70202637
Na      152.06709290    -81.70481110    -39.31963348
Na      -32.02366638     50.79529572    240.86692810
Na      -56.74716187     -0.16244778     29.16040611
Na      -61.63568497    -61.35906219   -140.90644836
Na      -45.90106583     75.16468048     49.23522568
Na      -22.34979630     81.47431183    -65.85465240
Na      221.42395020    -99.78325653    -26.60466194
Na      -19.31183624    -53.50687027     28.73961258
Na     -317.97296143    -35.32331848     23.19766808
Na      -94.86429596      9.78461838    -19.82357025
Na      -36.85591888   -169.10475159    -30.35885811
Na       90.83549500   -138.12425232    -45.80888748
Na       26.16392899     56.22315598    -59.99540329
Na     -146.85575867   -231.73974609    -39.43606567
Na        2.20024204     -8.61512947     79.72731018
Na       65.68075562    145.43916321    -64.91326141
Na      277.71096802   -138.48501587    193.33164978
Na      -27.24283218      5.68359232    -55.39944458
Na      -36.16810989    136.60134888    -88.27749634
Na      352.29077148     95.59494781    169.22782898
Na      150.89276123    -53.45556259     97.29604340
Na     -100.12402344    -37.52348709     37.11158752
Na      -78.91590118    -44.73740768     79.69853973
Na      -34.43603516     73.35836029    -12.96710300
Na     -175.68598938    169.66769409    -55.60281754
Na     -201.41920471     76.30464935     28.90185928
Na      153.91993713     23.62174988     -9.30739689
Na        3.99140644    129.05038452    101.98825836
Na      -16.36460686   -124.35670471     62.52483368
Na      -36.56119156     90.42571259     -6.12998486
Na       -2.82537937     41.19613647    -56.12583923
Na       -6.47919655     81.45832062      9.83568001
Na       41.83289719      2.75026441     11.01915932
Na     -117.15962219    -37.03105545     37.11005402
Na      107.46674347     65.98426819    -35.25876999
Na       53.15810776     47.60802841      1.48511231
Na       93.81710052    -15.45269489     32.20648575
Na      191.42578125     78.37058258     32.73928452
Na       85.14473724    137.55990601    116.23223114
Na       56.80447006    -57.65613937    112.84281158
Na      108.33667755     78.07438660    -19.24416351
Na       77.95635223     38.83757019     27.79879570
Na      -53.18483734     85.66470337    -13.85463047
Na     -163.55995178     56.33889771   -133.62960815
Na       60.88515091    210.69364929      6.67503500
Na     -199.54214478    -65.57959747     25.18915749
Na      -22.95783615     56.39893341   -176.58113098
Na       64.91654205    146.68373108     44.10157776
Na      -14.27451515   -144.11654663    114.01219177
Na      110.39768982    -91.33206940     95.98773956
Na      214.32453918    -54.30089188    -31.55456734
Na      -14.02339077    -28.50219345    -48.85824203
Na      -70.92268372     12.02258205   -119.64930725
Na       64.56782532    -33.39173508     79.55921936
Na       57.28599548    -36.45934677     29.46136665
Na      -47.12576294     15.96776485   -119.96556091
Na      -12.16276836     52.96688461    117.95360565
Na      -99.46707153    -68.15061951      3.64476299
Na      -80.41152954    -34.98794556    159.51962280
Na       88.75274658   -128.27366638    125.56472015
Na        8.65075588    -78.71680450    -51.97733307
Na      -48.78974533    -42.93014145     48.62110519
Na     -213.89602661     30.42113304    -18.30503464
Na      -77.58775330    -71.27480316     74.88136292
Na       72.76173401     23.83038902    108.49571991
Na      -13.29016495     94.91688538    178.40841675
S         8.34527493     25.05995178     12.10820389
P         8.79108524     24.17469406     10.30742836
S         7.50289726     24.70356369      6.97538280
S         5.28218889     24.63713455      9.48548698
S         8.33843136     22.26379395      9.85345554
P         7.25575781     25.18640900      8.93487072
S         7.74908638     27.13714027      8.98372459
S        10.69867706     24.74621010      9.55637646
S         8.31254864     25.33039474     20.45785522
P         8.34537125     24.82621193     18.52030182
S         7.61645699     25.19485855     15.23763657
S         5.33965969     25.01642990     17.73522949
P         6.96317339     25.88960648     17.04275513
S         7.68226099     22.66917801     18.57331657
S         7.00148678     27.86704063     17.39549637
S        10.27263165     25.10164452     17.63564110
S        10.33364010     24.97064781     26.52491188
P         8.49562263     24.67479134     27.42243576
S         5.18284225     25.16992760     26.68646622
S         7.44954586     25.06657600     23.95950127
S         7.28709126     27.82204437     26.04002571
S         8.26643848     22.56398392     27.21822166
P         6.89623690     25.76195145     25.94328880
S         8.06730843     25.22693634     29.34743118
S         4.95346642      7.79497242      9.51782799
S        10.26709843      7.63562107      9.35097980
S         7.37867928      7.53676271      6.74520683
S         8.01874542      5.20521927      9.84087753
S         7.91066313      7.87478542     11.95565605
P         6.83683729      8.36472797      8.72774601
P         8.45593739      7.25910854     10.08954334
S         7.11045218     10.46777248      8.81441593
S         5.30926704      7.71508694     17.78254509
S        10.62181950      7.63108253     18.05592537
S         7.34857035      7.36938381     15.22338486
S         8.28840542      5.29470825     18.11286163
S         8.34579849      7.82806396     20.39019394
P         7.22182369      8.27843189     17.08439827
P         8.73875618      7.25756216     18.47737885
S         7.47185707     10.33311844     17.28638649
S         9.89712715      8.02190304     26.02456665
S         7.00748205      8.09213829     23.27515411
S         7.68123150      5.69406080     26.29632187
P         6.55008030      8.80901718     25.05658150
S         7.67882538      8.39056110     28.28320885
P         8.00305462      7.71164131     26.33106613
S         6.74441528     10.93266010     25.22831345
S         4.89375687      8.17194557     26.03368950
P         8.30012989     15.86061478      9.85527992
S         7.16089582     18.97635841      8.67392349
S         5.12488747     16.37703896      9.45690918
S        10.20982647     16.45247841      9.55872250
S         6.95532608     16.53834534      6.47415829
S         7.88892269     13.88435173      9.90702820
S         7.88546610     16.61922836     11.78936958
P         6.73249578     16.97067833      8.38760948
P         8.44999790     16.88227463     18.21457863
S         6.93416452     19.79746056     17.24716377
S         5.22704268     16.92077446     17.19931793
S        10.27341557     16.85792732     17.30635262
S         7.61795568     17.21058083     14.73827362
S         7.63567972     15.01029873     18.05161285
S         8.46261787     17.64805794     20.13955116
P         6.96454811     17.91734314     16.70190620
P         6.92459297     17.20407104     25.27668381
S         7.37805700     19.14908218     25.63812065
S         5.31790161     16.27316475     26.12434196
S        10.14366531     16.45060349     25.96237564
S         7.33564806     16.38053131     23.31225014
S         7.92811155     14.10008144     26.41602516
S         7.97403812     16.90988922     28.49585342
P         8.36055183     16.10142136     26.72048759
P        15.37691879      0.42039365      8.38425827
S        16.25660896      2.26492596      8.22410965
S        16.97041702     -2.64417434      9.34697628
S        18.70355225     -0.01047372      8.88330269
S        16.16639709     -0.06270874     11.43245983
P        16.87324715     -0.64502335      9.57371140
S        15.50021267     -0.21789947      6.41719294
S        13.58757401     -0.08751288      9.00706959
P        15.55186081     -0.03231131     17.13852119
S        15.90950012      1.99282026     17.38801765
S        16.59729576     -3.12115812     18.44287300
S        18.86292648     -0.39281809     17.84457970
S        16.57059097     -0.54219484     20.43814468
P        17.03907204     -1.06492269     18.61270905
S        15.78588867     -0.75860304     15.31294727
S        13.75445652     -0.47378039     17.86356926
S        13.67327976     -0.42173567     26.11220932
P        15.67306423     -0.12842347     25.65937424
S        16.77287102     -0.35647568     28.79245567
S        18.92753220     -0.64296532     26.47656441
S        16.46184921     -3.14424133     26.71859550
P        17.06607628     -1.34053791     27.03619957
S        15.92218685     -0.50977516     23.66868782
S        16.27899361      1.87956595     26.19708443
S        16.43875122      8.18439102     11.69171524
P        15.06506538      8.33491230      8.51791668
P        16.71948051      7.31617975      9.83686066
S        15.31590557     10.39695930      9.01674652
S        13.19936752      7.73372984      8.82213306
S        18.49090385      7.85577726      9.04564095
S        15.52721596      7.96147299      6.59433222
S        15.87834930      5.39635420     10.08073807
S        16.67975426      8.13716602     20.23460770
P        15.69734478      8.56623840     16.96516418
P        17.14789581      7.65963125     18.42506218
S        15.98753262     10.62429714     17.43263435
S        13.79006672      8.02491188     17.58333969
S        18.96736145      7.85287094     17.45121765
S        16.04288101      7.86067820     15.02455616
S        16.88256645      5.55322027     18.41847610
S        16.56578445      8.80120850      3.22914791
P        17.05266762      7.85941458      1.40929234
S        15.55120087     11.10248280      0.26486099
P        15.60482597      9.09815979      0.13387749
S        13.86059284      8.14481544      1.01046050
S        18.93635368      7.97867870      0.88475591
S        16.03584099      8.51219368     -1.78035700
S        16.53704453      5.90257120      1.38250792
S        16.72669411     13.76023865      9.93443108
S        16.76687622     16.25864601     11.92397213
P        15.55064487     16.74593163      8.57923031
P        17.13867188     15.75254345      9.96332741
S        15.86233234     18.79392242      8.69549847
S        13.69418049     16.43635368      9.41137409
S        19.02083015     16.31271172      9.43770027
S        15.99365902     16.23056984      6.74735928
S        16.55117798     13.73002148     18.16015244
S        16.57100105     16.33698845     20.37653351
P        15.36646366     16.78247261     16.95922089
P        16.81077194     15.85293007     18.34810638
S        16.04443169     18.68643379     17.07452393
S        13.44511890     16.40151405     17.67401314
S        18.63199043     16.62421799     17.70812988
S        15.64842415     16.21174431     15.07747364
S        16.07003212     13.57555294      1.82431996
S        16.34802055     16.54730225      3.85002494
P        16.64661980     15.72255898      1.93130088
P        15.16399765     16.75735474      0.41976196
S        15.19284153     18.79211044      0.67059475
S        13.28922558     16.06978989      1.05440199
S        18.52138519     15.96986580      1.08811784
S        15.50846386     16.39261818     -1.62962663
P        23.63873863      0.04585993      8.63791275
S        24.16865921      1.95007968      9.00971985
S        24.89415932     -3.09310055     10.04132843
S        27.06020927     -0.51763219      9.23694420
S        24.14323425     -0.63176274      6.60364580
S        24.94173050     -0.37618986     12.08817196
S        21.85354042     -0.53346026      9.27991867
P        25.16684914     -1.04377711     10.13106728
P        23.92623329     -0.00927438     17.43186378
S        24.36293030      1.98471022     17.36403656
S        25.17013741     -3.01586103     18.56520844
S        27.47931099     -0.53018659     18.38666344
S        24.22701263     -0.51718861     15.41986084
S        24.95775795     -0.46145979     20.82597160
S        22.21139908     -0.44089803     18.43454933
P        25.72363663     -0.99796391     18.91055107
S         1.78031993     24.89830017     26.31161880
P        -1.58237004     25.53266144     25.76803970
S        -1.04715371     27.56925201     25.66858101
S        -0.31046903     22.44155693     26.80467033
S        -0.51625699     24.78066063     29.25970840
S        -3.33045864     24.82832336     26.32904816
S        -1.33013391     24.60208702     23.95096779
P         0.00569942     24.38656044     27.23610687
S        -0.16991150      5.32453871     10.25070572
P        -1.53663492      8.36299229      8.87977695
S        -0.93353516     10.35161400      9.20819187
S        -0.31632489      8.25255680     12.12030315
S        -3.42889810      7.92446613      9.54688072
P         0.01341913      7.37319183     10.33922958
S         1.75750613      7.88501978      9.55322552
S        -1.12053251      8.05362797      6.95128250
S        -0.45204732      5.52098227     18.50280380
P        -1.38430572      8.42183113     17.34903336
S        -1.05614066     10.30503368     17.51317024
S        -0.27468669      8.07285213     20.51640129
S        -3.41996002      7.98604298     17.96874237
P         0.02518932      7.46901274     18.59828758
S         1.69837642      8.05919075     17.89369202
S        -0.95913035      7.84354019     15.43047333
S        -0.71100509      5.70084333      1.27492142
S        -1.48750329     10.81307793      0.49732891
P        -1.76833463      8.75860405      0.28963813
S        -3.62878633      8.24588585      1.09087777
S        -0.71487135      8.44957638      3.46839833
P        -0.36403906      7.62819386      1.74880242
S         1.69989216      8.24097633      1.17918169
S        -1.57762241      7.90835190     -1.72815263
S        -0.41651055     14.43044853     10.31899071
P        -1.61840713     17.28495216      8.77506161
S        -1.26136899     19.40004158      9.26439190
S        -0.30383819     16.97197342     12.19507217
S        -3.67724419     16.99497604      9.32185841
P        -0.03797397     16.39990616     10.24413967
S         1.58764243     16.80906296      9.25140476
S        -1.01846480     16.79013252      6.75739098
S        -0.20104671     14.24148083     17.91362381
P        -1.35835481     17.28102493     16.89417076
S        -1.04898989     19.25869751     17.12854576
S        -0.43889171     17.32116127     20.08952332
S        -3.13044810     16.85612297     17.65952301
P        -0.17962597     16.23885918     18.18440628
S         1.76553226     16.79371262     17.69745445
S        -1.25245905     16.84200478     15.01005650
S        -0.50715548     13.59177113      1.26011646
P        -1.63546157     16.70485878      0.13420737
S        -1.21020222     18.78170776      0.21893315
S        -3.50984573     16.14321709      0.85744631
S        -0.81677902     16.44527817      3.11800408
P        -0.10243711     15.61603928      1.49810493
S         1.66003489     16.21634865      0.64569628
S        -1.33415294     16.17449760     -1.71518016
S         0.85419488      4.43126297      4.80574369
S         3.59015131      6.06315136      4.38107300
P         3.88441443      2.85839748      4.34994221
S         3.69035077      1.18035793      5.66390514
P         2.75942206      4.49465704      5.34653139
S         5.96516418      3.44246197      4.60125494
S         2.99223542      2.65380383      2.60333157
S         3.10238171      4.50566387      7.44596672
S         3.29920340      4.74487591     16.07140350
S         0.72047430      4.47893095     13.79899597
P         3.70466495      2.98304343     13.34145641
S         3.10190201      2.76123571     11.45340347
P         2.71988964      4.77777910     14.16886806
S         3.43924117      1.33413041     14.44404507
S         5.71965265      3.33449173     12.97511673
S         3.29542804      6.32472515     13.25789165
S         3.39682031      6.14607906     21.39472198
S         3.88673043      5.08106375     24.68000031
P         4.22812080      2.80076456     21.90027428
S         6.31201553      3.18169069     21.85625076
P         2.85970140      4.68708229     22.68921852
S         3.60725117      2.89045000     19.94527054
S         3.53681040      1.10903668     22.64275360
S         0.97511744      4.42527676     22.56680679
S         3.77278614     14.68703747      4.49857187
S         3.03369117     13.25679207      7.68294430
P         3.67617631     11.36883831      4.78626299
S         5.67726231     11.92235565      4.48795843
P         2.66654038     13.19484329      5.61344719
S         2.91326451     10.98738480      2.88793969
S         3.72544813      9.51182175      5.81490374
S         0.74484527     12.88509083      5.26269102
S         1.24433315     12.69424820     14.38634109
S         3.65914226     14.68205070     13.13190556
S         3.95880103     13.19447803     16.36921501
P         4.37701893     11.27005196     13.42721653
S         6.36611938     11.68872452     13.63821411
P         3.28031850     12.97014427     14.30676365
S         3.76873779     11.03219223     11.54082870
S         3.61009693      9.67529202     14.55101109
S         3.23466945     13.00264359     23.80916595
S         0.75312775     12.97844124     21.67342186
S         3.56179547     14.91637039     20.73084068
P         3.84192777     11.62478733     20.92986107
S         3.46003747     10.05779457     22.20071983
P         2.75953221     13.40971470     21.78831100
S         5.69030285     12.00359154     20.37071419
S         2.68346834     11.21379566     19.37349129
S         0.53686953     21.24209404      5.03928423
S         3.40515351     23.17952919      4.57024860
S         3.13046002     21.71062088      7.45873499
P         3.80025196     19.87402153      4.49787807
S         5.78575134     20.40492439      4.42121744
P         2.61031580     21.62313652      5.52784681
S         2.78251529     19.55903435      2.84833694
S         3.20790386     18.43169212      5.86950541
S         1.03535724     21.67893028     13.92389107
S         3.80218506     23.78619576     12.91888046
S         3.65371609     22.16516876     15.97369671
P         4.19866419     20.47220612     13.22524071
S         6.17128134     20.75569534     13.17257500
P         3.10273409     22.18696404     13.99472904
S         3.44684696     20.26972580     11.36450768
S         3.69793272     18.98176193     14.41016197
S         1.07546532     21.10103416     22.56830215
S         3.44256306     23.36483765     21.85217667
S         3.78297114     21.86771393     24.73170090
P         4.22047424     19.69947433     21.76578140
S         6.15632248     20.21748924     22.06226349
P         3.09968448     21.58653450     22.77937317
S         3.37387562     19.55595398     19.93020439
S         3.39482355     18.30464935     23.11146927
S        11.54901505      1.44259286      5.34125614
S         8.86966324      4.16252613      5.15082407
S        11.79505539      6.18663931      4.06746244
S        11.82295036      5.32005930      7.03108644
P        12.15466309      2.99862909      4.24098730
S        14.21795654      3.29427433      4.32500410
P        11.04577923      4.70957279      5.26288128
S        11.66050243      3.03823566      2.25064301
S        12.18758297      1.39449668     14.10721970
S         9.67587757      4.25076246     13.56665802
S        12.15506649      6.15219784     12.59678650
S        12.35198498      4.67178249     15.85756397
P        12.69212532      2.97108459     12.95722485
S        14.74967480      3.24538803     12.98586655
P        11.59986973      4.64524937     13.84813213
S        12.01921654      2.68230081     10.97167301
S        12.56696320      1.52792609     22.63953972
S        10.12797737      4.33134270     22.46948051
S        12.76759243      6.25958920     21.08522224
S        12.78461170      4.93074703     24.37356949
P        13.10105133      3.13059282     21.57534027
S        15.05922985      3.47282529     21.57103157
P        12.06744862      4.78099012     22.40428352
S        12.73463631      2.91155839     19.44311523
S        11.10162067      9.97174740      6.07467365
S         8.86169338     12.63572884      5.51560068
S        11.27936554     14.86998272      4.65668440
S        11.55334377     13.19689274      7.52222300
P        11.86842918     11.43157768      4.80609274
S        13.85139847     11.84990406      4.85159492
P        10.78629780     13.16300583      5.57843542
S        11.25301647     11.17646217      2.86982799
S        11.94865227     10.06370354     14.66077518
S         9.22074318     13.27321053     14.42396832
S        11.96525478     14.78565407     13.18002224
S        12.10908318     13.40621376     16.37880707
P        12.46496964     11.64136410     13.60157871
S        14.43173027     12.15230465     13.59252548
P        11.19935989     13.32498550     14.44078636
S        11.96618462     11.37523651     11.48222828
S        11.30592155     11.39239025     19.02636909
S        11.58962059      9.85110664     22.18020630
S         8.82598305     12.52113342     21.61558914
S        11.68095303     14.73828030     20.56405258
S        11.30762768     13.24136925     23.80973816
P        12.19705200     11.19375706     20.91750336
S        14.13215351     11.44764519     20.61099243
P        10.90960407     13.07744789     21.66472626
S        11.37693119     19.48520851      2.87218475
S        12.34338474     18.23777771      6.06818867
S         9.41065502     21.43398094      4.67582464
S        12.12549591     23.14342499      4.82477045
S        11.56417179     21.58587646      7.46042013
P        12.41385269     19.76376724      4.66836071
S        14.24485874     20.22394180      4.04901695
P        11.27527714     21.52658081      5.44822407
S        12.37467957     19.56926346     11.29383469
S        12.11651039     18.31369591     14.18626881
S         9.61296654     21.29864502     14.39548206
S        12.13040638     23.12051582     12.86444473
S        12.34404945     21.85107422     16.21167183
P        12.75468636     19.83136559     13.31834030
S        14.83011723     20.16091919     13.44299984
P        11.67345428     21.55199623     14.27835369
S        11.46236801     19.43100357     20.04709816
S        11.87996674     18.25799370     23.16023445
S         9.32779408     21.10572433     22.43665695
S        12.00320435     23.13867188     21.56874275
S        11.56796265     21.34263992     24.76719666
P        12.45214081     19.65499496     21.78499413
S        14.26132870     20.22124481     21.64653587
P        11.36664581     21.51613617     22.72156525
P        19.74652100      4.74074316      5.95874691
S        20.41877937      2.92129731      2.92156839
S        20.26902199      1.67825520      6.24907970
S        17.82161522      4.40350771      5.97149372
S        20.26665306      6.30229616      4.68543243
S        20.71436119      4.82334232      7.69542646
P        20.87446404      3.07457662      4.93778372
S        22.82324982      3.42364740      5.38553286
S        22.60540009      2.94032907     13.06759167
P        19.70493317      4.25298309     13.67398930
S        20.05410576      2.30457282     10.99698448
S        20.28387833      0.57928908     13.92311001
S        17.76502037      3.96625471     13.53821087
S        20.09611511      5.89095640     12.50127125
S        20.37417984      4.33316708     15.52659512
P        20.55242538      2.43715286     12.83520889
S        23.05369186      2.96966171     22.23376846
P        19.92568398      4.53421926     22.92662621
S        20.65145874      2.87100935     19.90359306
S        20.35540009      1.22632241     23.11753464
S        17.99499512      3.98119545     22.85437965
S        20.32056808      6.04866457     21.72697830
S        20.90913963      4.93351984     24.59824562
P        21.00517845      2.76406264     21.95116425
S        23.11203194     11.55074883      5.01640797
P        19.98464203     12.75289536      5.96080685
S        20.35574722     11.17853832      3.16321874
S        20.53108978      9.42331314      6.30621147
S        18.05049706     12.56301880      5.77980995
S        20.57911491     14.50237656      4.72889090
S        20.51009941     13.15364170      7.88855410
P        21.07460594     11.11437225      5.09881401
S        23.08094406     11.46328449     13.70390224
P        20.04111099     12.85801029     14.27676010
S        20.61213875     11.04565048     11.54687309
S        20.45415115      9.67523384     14.63957787
S        18.03371620     12.48004436     14.44833374
S        20.49765015     14.69477081     13.30664062
S        20.80262947     13.17280293     16.13937759
P        21.18971062     11.20647049     13.47387314
P        20.91016579     11.39071465     21.22583580
S        22.75604439     11.86507988     21.03093910
P        19.63937950     13.08209896     22.12340736
S        20.16873360     10.78611755     19.27524567
S        20.33487511      9.68974972     22.37034035
S        17.64645386     13.06526566     22.07792854
S        20.38529968     14.66088200     21.06770134
S        20.05761528     13.08255672     24.06942940
P        20.92708588     19.59735489      4.67961550
S        22.86430359     20.24363518      4.81764889
P        19.69473839     21.36544418      5.57923937
S        20.18582726     19.33843422      2.61098289
S        20.14784431     18.00059700      5.54314137
S        17.66689682     21.20863152      5.57319355
S        20.26895905     22.77124023      4.24386597
S        20.43452644     21.57986450      7.49705362
P        21.37291336     19.72923660     13.38625908
S        23.29348946     20.31897354     13.58373833
P        20.29760742     21.66290092     14.35024452
S        20.76901436     19.69218254     11.39120674
S        20.45640182     18.09174156     14.29644299
S        18.23584747     21.28385162     14.13320446
S        20.42938805     23.35597992     13.10015011
S        21.11827660     22.04525948     16.07622528
S        20.85713577     21.82384300     24.24178314
P        21.25107956     19.81917572     21.39700508
S        23.24655342     20.40671539     21.55434990
P        20.10341072     21.55308151     22.36595154
S        20.68856621     19.84539986     19.34956932
S        20.75576782     18.29170990     22.79073524
S        18.12095451     21.30804634     22.33469200
S        20.91758156     23.31550217     21.11958504
