648

Na        6.81729174      6.31145096      2.02614760
Na        6.81729174      6.31145096     10.50154686
Na        6.81729174      6.31145096     18.97694588
Na        6.81729174     14.78685093      2.02614760
Na        6.81729174     14.78685093     10.50154686
Na        6.81729174     14.78685093     18.97694588
Na        6.81729174     23.26224899      2.02614760
Na        6.81729174     23.26224899     10.50154686
Na        6.81729174     23.26224899     18.97694588
Na       15.29269028      6.31145096      2.02614760
Na       15.29269028      6.31145096     10.50154686
Na       15.29269028      6.31145096     18.97694588
Na       15.29269028     14.78685093      2.02614760
Na       15.29269028     14.78685093     10.50154686
Na       15.29269028     14.78685093     18.97694588
Na       15.29269028     23.26224899      2.02614760
Na       15.29269028     23.26224899     10.50154686
Na       15.29269028     23.26224899     18.97694588
Na       23.76809120      6.31145096      2.02614760
Na       23.76809120      6.31145096     10.50154686
Na       23.76809120      6.31145096     18.97694588
Na       23.76809120     14.78685093      2.02614760
Na       23.76809120     14.78685093     10.50154686
Na       23.76809120     14.78685093     18.97694588
Na       23.76809120     23.26224899      2.02614760
Na       23.76809120     23.26224899     10.50154686
Na       23.76809120     23.26224899     18.97694588
Na        3.14094687      0.77254051      2.36521888
Na        3.14094687      0.77254051     10.84061909
Na        3.14094687      0.77254051     19.31601906
Na        3.14094687      9.24794006      2.36521888
Na        3.14094687      9.24794006     10.84061909
Na        3.14094687      9.24794006     19.31601906
Na        3.14094687     17.72333908      2.36521888
Na        3.14094687     17.72333908     10.84061909
Na        3.14094687     17.72333908     19.31601906
Na       11.61634636      0.77254051      2.36521888
Na       11.61634636      0.77254051     10.84061909
Na       11.61634636      0.77254051     19.31601906
Na       11.61634636      9.24794006      2.36521888
Na       11.61634636      9.24794006     10.84061909
Na       11.61634636      9.24794006     19.31601906
Na       11.61634636     17.72333908      2.36521888
Na       11.61634636     17.72333908     10.84061909
Na       11.61634636     17.72333908     19.31601906
Na       20.09174538      0.77254051      2.36521888
Na       20.09174538      0.77254051     10.84061909
Na       20.09174538      0.77254051     19.31601906
Na       20.09174538      9.24794006      2.36521888
Na       20.09174538      9.24794006     10.84061909
Na       20.09174538      9.24794006     19.31601906
Na       20.09174538     17.72333908      2.36521888
Na       20.09174538     17.72333908     10.84061909
Na       20.09174538     17.72333908     19.31601906
Na        2.45290852      5.48172140      1.64808738
Na        2.45290852      5.48172140     10.12348652
Na        2.45290852      5.48172140     18.59888649
Na        2.45290852     13.95712090      1.64808738
Na        2.45290852     13.95712090     10.12348652
Na        2.45290852     13.95712090     18.59888649
Na        2.45290852     22.43252182      1.64808738
Na        2.45290852     22.43252182     10.12348652
Na        2.45290852     22.43252182     18.59888649
Na       10.92830849      5.48172140      1.64808738
Na       10.92830849      5.48172140     10.12348652
Na       10.92830849      5.48172140     18.59888649
Na       10.92830849     13.95712090      1.64808738
Na       10.92830849     13.95712090     10.12348652
Na       10.92830849     13.95712090     18.59888649
Na       10.92830849     22.43252182      1.64808738
Na       10.92830849     22.43252182     10.12348652
Na       10.92830849     22.43252182     18.59888649
Na       19.40370941      5.48172140      1.64808738
Na       19.40370941      5.48172140     10.12348652
Na       19.40370941      5.48172140     18.59888649
Na       19.40370941     13.95712090      1.64808738
Na       19.40370941     13.95712090     10.12348652
Na       19.40370941     13.95712090     18.59888649
Na       19.40370941     22.43252182      1.64808738
Na       19.40370941     22.43252182     10.12348652
Na       19.40370941     22.43252182     18.59888649
Na        5.34369469      7.97815228      5.58644915
Na        5.34369469      7.97815228     14.06184864
Na        5.34369469      7.97815228     22.53724861
Na        5.34369469     16.45355034      5.58644915
Na        5.34369469     16.45355034     14.06184864
Na        5.34369469     16.45355034     22.53724861
Na        5.34369469     24.92895317      5.58644915
Na        5.34369469     24.92895317     14.06184864
Na        5.34369469     24.92895317     22.53724861
Na       13.81909466      7.97815228      5.58644915
Na       13.81909466      7.97815228     14.06184864
Na       13.81909466      7.97815228     22.53724861
Na       13.81909466     16.45355034      5.58644915
Na       13.81909466     16.45355034     14.06184864
Na       13.81909466     16.45355034     22.53724861
Na       13.81909466     24.92895317      5.58644915
Na       13.81909466     24.92895317     14.06184864
Na       13.81909466     24.92895317     22.53724861
Na       22.29449463      7.97815228      5.58644915
Na       22.29449463      7.97815228     14.06184864
Na       22.29449463      7.97815228     22.53724861
Na       22.29449463     16.45355034      5.58644915
Na       22.29449463     16.45355034     14.06184864
Na       22.29449463     16.45355034     22.53724861
Na       22.29449463     24.92895317      5.58644915
Na       22.29449463     24.92895317     14.06184864
Na       22.29449463     24.92895317     22.53724861
Na        7.34507179      5.27216816      6.16284752
Na        7.34507179      5.27216816     14.63824749
Na        7.34507179      5.27216816     23.11364555
Na        7.34507179     13.74756908      6.16284752
Na        7.34507179     13.74756908     14.63824749
Na        7.34507179     13.74756908     23.11364555
Na        7.34507179     22.22296906      6.16284752
Na        7.34507179     22.22296906     14.63824749
Na        7.34507179     22.22296906     23.11364555
Na       15.82047176      5.27216816      6.16284752
Na       15.82047176      5.27216816     14.63824749
Na       15.82047176      5.27216816     23.11364555
Na       15.82047176     13.74756908      6.16284752
Na       15.82047176     13.74756908     14.63824749
Na       15.82047176     13.74756908     23.11364555
Na       15.82047176     22.22296906      6.16284752
Na       15.82047176     22.22296906     14.63824749
Na       15.82047176     22.22296906     23.11364555
Na       24.29587173      5.27216816      6.16284752
Na       24.29587173      5.27216816     14.63824749
Na       24.29587173      5.27216816     23.11364555
Na       24.29587173     13.74756908      6.16284752
Na       24.29587173     13.74756908     14.63824749
Na       24.29587173     13.74756908     23.11364555
Na       24.29587173     22.22296906      6.16284752
Na       24.29587173     22.22296906     14.63824749
Na       24.29587173     22.22296906     23.11364555
Na        1.94003856      6.67615366      6.32802773
Na        1.94003856      6.67615366     14.80342770
Na        1.94003856      6.67615366     23.27882576
Na        1.94003856     15.15155411      6.32802773
Na        1.94003856     15.15155411     14.80342770
Na        1.94003856     15.15155411     23.27882576
Na        1.94003856     23.62695312      6.32802773
Na        1.94003856     23.62695312     14.80342770
Na        1.94003856     23.62695312     23.27882576
Na       10.41543865      6.67615366      6.32802773
Na       10.41543865      6.67615366     14.80342770
Na       10.41543865      6.67615366     23.27882576
Na       10.41543865     15.15155411      6.32802773
Na       10.41543865     15.15155411     14.80342770
Na       10.41543865     15.15155411     23.27882576
Na       10.41543865     23.62695312      6.32802773
Na       10.41543865     23.62695312     14.80342770
Na       10.41543865     23.62695312     23.27882576
Na       18.89083862      6.67615366      6.32802773
Na       18.89083862      6.67615366     14.80342770
Na       18.89083862      6.67615366     23.27882576
Na       18.89083862     15.15155411      6.32802773
Na       18.89083862     15.15155411     14.80342770
Na       18.89083862     15.15155411     23.27882576
Na       18.89083862     23.62695312      6.32802773
Na       18.89083862     23.62695312     14.80342770
Na       18.89083862     23.62695312     23.27882576
Na        5.13076448      2.62203574      7.50747347
Na        5.13076448      2.62203574     15.98287201
Na        5.13076448      2.62203574     24.45827103
Na        5.13076448     11.09743595      7.50747347
Na        5.13076448     11.09743595     15.98287201
Na        5.13076448     11.09743595     24.45827103
Na        5.13076448     19.57283592      7.50747347
Na        5.13076448     19.57283592     15.98287201
Na        5.13076448     19.57283592     24.45827103
Na       13.60616493      2.62203574      7.50747347
Na       13.60616493      2.62203574     15.98287201
Na       13.60616493      2.62203574     24.45827103
Na       13.60616493     11.09743595      7.50747347
Na       13.60616493     11.09743595     15.98287201
Na       13.60616493     11.09743595     24.45827103
Na       13.60616493     19.57283592      7.50747347
Na       13.60616493     19.57283592     15.98287201
Na       13.60616493     19.57283592     24.45827103
Na       22.08156204      2.62203574      7.50747347
Na       22.08156204      2.62203574     15.98287201
Na       22.08156204      2.62203574     24.45827103
Na       22.08156204     11.09743595      7.50747347
Na       22.08156204     11.09743595     15.98287201
Na       22.08156204     11.09743595     24.45827103
Na       22.08156204     19.57283592      7.50747347
Na       22.08156204     19.57283592     15.98287201
Na       22.08156204     19.57283592     24.45827103
Na        0.52239519      2.19066715      4.81861448
Na        0.52239519      2.19066715     13.29401398
Na        0.52239519      2.19066715     21.76941490
Na        0.52239519     10.66606617      4.81861448
Na        0.52239519     10.66606617     13.29401398
Na        0.52239519     10.66606617     21.76941490
Na        0.52239519     19.14146614      4.81861448
Na        0.52239519     19.14146614     13.29401398
Na        0.52239519     19.14146614     21.76941490
Na        8.99779510      2.19066715      4.81861448
Na        8.99779510      2.19066715     13.29401398
Na        8.99779510      2.19066715     21.76941490
Na        8.99779510     10.66606617      4.81861448
Na        8.99779510     10.66606617     13.29401398
Na        8.99779510     10.66606617     21.76941490
Na        8.99779510     19.14146614      4.81861448
Na        8.99779510     19.14146614     13.29401398
Na        8.99779510     19.14146614     21.76941490
Na       17.47319412      2.19066715      4.81861448
Na       17.47319412      2.19066715     13.29401398
Na       17.47319412      2.19066715     21.76941490
Na       17.47319412     10.66606617      4.81861448
Na       17.47319412     10.66606617     13.29401398
Na       17.47319412     10.66606617     21.76941490
Na       17.47319412     19.14146614      4.81861448
Na       17.47319412     19.14146614     13.29401398
Na       17.47319412     19.14146614     21.76941490
S         8.84733009     25.35968399     10.83870792
P         9.20138359     24.92457390      8.89905071
S         8.09020901     25.10030174      5.67799377
S         5.89370441     25.41163254      8.26865101
S         8.78744221     22.91117668      8.54266262
P         7.70453310     25.95690918      7.53427696
S         8.05258656     27.94945145      7.52153826
S        11.06363583     25.41575241      8.26248169
S         8.84733009     25.35968399     19.31410980
P         9.20138359     24.92457390     17.37444878
S         8.09020901     25.10030174     14.15339375
S         5.89370441     25.41163254     16.74405289
P         7.70453310     25.95690918     16.00967789
S         8.78744221     22.91117668     17.01806259
S         8.05258656     27.94945145     15.99693871
S        11.06363583     25.41575241     16.73787880
S        11.06363583     25.41575241     25.21328163
P         9.20138359     24.92457390     25.84985161
S         5.89370441     25.41163254     25.21945000
S         8.09020901     25.10030174     22.62879181
S         8.05258656     27.94945145     24.47233772
S         8.78744221     22.91117668     25.49346161
P         7.70453310     25.95690918     24.48507500
S         8.84733009     25.35968399     27.78950691
S         5.89370441      8.46083260      8.26865101
S        11.06363583      8.46495152      8.26248169
S         8.09020901      8.14950085      5.67799377
S         8.78744221      5.96037912      8.54266262
S         8.84733009      8.40888214     10.83870792
P         7.70453310      9.00610733      7.53427696
P         9.20138359      7.97377396      8.89905071
S         8.05258656     10.99865246      7.52153826
S         5.89370441      8.46083260     16.74405289
S        11.06363583      8.46495152     16.73787880
S         8.09020901      8.14950085     14.15339375
S         8.78744221      5.96037912     17.01806259
S         8.84733009      8.40888214     19.31410980
P         7.70453310      9.00610733     16.00967789
P         9.20138359      7.97377396     17.37444878
S         8.05258656     10.99865246     15.99693871
S        11.06363583      8.46495152     25.21328163
S         8.09020901      8.14950085     22.62879181
S         8.78744221      5.96037912     25.49346161
P         7.70453310      9.00610733     24.48507500
S         8.84733009      8.40888214     27.78950691
P         9.20138359      7.97377396     25.84985161
S         8.05258656     10.99865246     24.47233772
S         5.89370441      8.46083260     25.21945000
P         9.20138359     16.44917488      8.89905071
S         8.05258656     19.47405052      7.52153826
S         5.89370441     16.93623352      8.26865101
S        11.06363583     16.94035149      8.26248169
S         8.09020901     16.62489891      5.67799377
S         8.78744221     14.43577957      8.54266262
S         8.84733009     16.88428307     10.83870792
P         7.70453310     17.48150826      7.53427696
P         9.20138359     16.44917488     17.37444878
S         8.05258656     19.47405052     15.99693871
S         5.89370441     16.93623352     16.74405289
S        11.06363583     16.94035149     16.73787880
S         8.09020901     16.62489891     14.15339375
S         8.78744221     14.43577957     17.01806259
S         8.84733009     16.88428307     19.31410980
P         7.70453310     17.48150826     16.00967789
P         7.70453310     17.48150826     24.48507500
S         8.05258656     19.47405052     24.47233772
S         5.89370441     16.93623352     25.21945000
S        11.06363583     16.94035149     25.21328163
S         8.09020901     16.62489891     22.62879181
S         8.78744221     14.43577957     25.49346161
S         8.84733009     16.88428307     27.78950691
P         9.20138359     16.44917488     25.84985161
P        16.17993355      0.53070819      7.53427696
S        16.52798653      2.52325249      7.52153826
S        17.26284218     -2.51502109      8.54266262
S        19.53903580     -0.01044759      8.26248169
S        17.32273102     -0.06651601     10.83870792
P        17.67678452     -0.50162607      8.89905071
S        16.56560898     -0.32589823      5.67799377
S        14.36910343     -0.01456746      8.26865101
P        16.17993355      0.53070819     16.00967789
S        16.52798653      2.52325249     15.99693871
S        17.26284218     -2.51502109     17.01806259
S        19.53903580     -0.01044759     16.73787880
S        17.32273102     -0.06651601     19.31410980
P        17.67678452     -0.50162607     17.37444878
S        16.56560898     -0.32589823     14.15339375
S        14.36910343     -0.01456746     16.74405289
S        16.52798653      2.52325249     24.47233772
P        16.17993355      0.53070819     24.48507500
S        17.26284218     -2.51502109     25.49346161
S        17.32273102     -0.06651601     27.78950691
S        19.53903580     -0.01044759     25.21328163
P        17.67678452     -0.50162607     25.84985161
S        14.36910343     -0.01456746     25.21945000
S        16.56560898     -0.32589823     22.62879181
S        17.32273102      8.40888214     10.83870792
P        16.17993355      9.00610733      7.53427696
P        17.67678452      7.97377396      8.89905071
S        16.52798653     10.99865246      7.52153826
S        14.36910343      8.46083260      8.26865101
S        19.53903580      8.46495152      8.26248169
S        16.56560898      8.14950085      5.67799377
S        17.26284218      5.96037912      8.54266262
S        17.32273102      8.40888214     19.31410980
P        16.17993355      9.00610733     16.00967789
P        17.67678452      7.97377396     17.37444878
S        16.52798653     10.99865246     15.99693871
S        14.36910343      8.46083260     16.74405289
S        19.53903580      8.46495152     16.73787880
S        16.56560898      8.14950085     14.15339375
S        17.26284218      5.96037912     17.01806259
S        17.32273102      8.40888214      2.36330938
P        17.67678452      7.97377396      0.42365089
S        16.52798653     10.99865246     -0.95386219
P        16.17993355      9.00610733     -0.94112307
S        14.36910343      8.46083260     -0.20674810
S        19.53903580      8.46495152     -0.21291836
S        16.56560898      8.14950085     -2.79740620
S        17.26284218      5.96037912      0.06726237
S        17.26284218     14.43577957      8.54266262
S        17.32273102     16.88428307     10.83870792
P        16.17993355     17.48150826      7.53427696
P        17.67678452     16.44917488      8.89905071
S        16.52798653     19.47405052      7.52153826
S        14.36910343     16.93623352      8.26865101
S        19.53903580     16.94035149      8.26248169
S        16.56560898     16.62489891      5.67799377
S        17.26284218     14.43577957     17.01806259
S        17.32273102     16.88428307     19.31410980
P        16.17993355     17.48150826     16.00967789
P        17.67678452     16.44917488     17.37444878
S        16.52798653     19.47405052     15.99693871
S        14.36910343     16.93623352     16.74405289
S        19.53903580     16.94035149     16.73787880
S        16.56560898     16.62489891     14.15339375
S        17.26284218     14.43577957      0.06726237
S        17.32273102     16.88428307      2.36330938
P        17.67678452     16.44917488      0.42365089
P        16.17993355     17.48150826     -0.94112307
S        16.52798653     19.47405052     -0.95386219
S        14.36910343     16.93623352     -0.20674810
S        19.53903580     16.94035149     -0.21291836
S        16.56560898     16.62489891     -2.79740620
P        24.65533257      0.53070819      7.53427696
S        25.00338554      2.52325249      7.52153826
S        25.73824120     -2.51502109      8.54266262
S        28.01443672     -0.01044759      8.26248169
S        25.04100990     -0.32589823      5.67799377
S        25.79812813     -0.06651601     10.83870792
S        22.84450340     -0.01456746      8.26865101
P        26.15218353     -0.50162607      8.89905071
P        24.65533257      0.53070819     16.00967789
S        25.00338554      2.52325249     15.99693871
S        25.73824120     -2.51502109     17.01806259
S        28.01443672     -0.01044759     16.73787880
S        25.04100990     -0.32589823     14.15339375
S        25.79812813     -0.06651601     19.31410980
S        22.84450340     -0.01456746     16.74405289
P        26.15218353     -0.50162607     17.37444878
S         2.58823633     25.41575241     25.21328163
P        -0.77086735     25.95690918     24.48507500
S        -0.42281252     27.94945145     24.47233772
S         0.31204274     22.91117668     25.49346161
S         0.37193090     25.35968399     27.78950691
S        -2.58169460     25.41163254     25.21945000
S        -0.38519007     25.10030174     22.62879181
P         0.72598386     24.92457390     25.84985161
S         0.31204274      5.96037912      8.54266262
P        -0.77086735      9.00610733      7.53427696
S        -0.42281252     10.99865246      7.52153826
S         0.37193090      8.40888214     10.83870792
S        -2.58169460      8.46083260      8.26865101
P         0.72598386      7.97377396      8.89905071
S         2.58823633      8.46495152      8.26248169
S        -0.38519007      8.14950085      5.67799377
S         0.31204274      5.96037912     17.01806259
P        -0.77086735      9.00610733     16.00967789
S        -0.42281252     10.99865246     15.99693871
S         0.37193090      8.40888214     19.31410980
S        -2.58169460      8.46083260     16.74405289
P         0.72598386      7.97377396     17.37444878
S         2.58823633      8.46495152     16.73787880
S        -0.38519007      8.14950085     14.15339375
S         0.31204274      5.96037912      0.06726237
S        -0.42281252     10.99865246     -0.95386219
P        -0.77086735      9.00610733     -0.94112307
S        -2.58169460      8.46083260     -0.20674810
S         0.37193090      8.40888214      2.36330938
P         0.72598386      7.97377396      0.42365089
S         2.58823633      8.46495152     -0.21291836
S        -0.38519007      8.14950085     -2.79740620
S         0.31204274     14.43577957      8.54266262
P        -0.77086735     17.48150826      7.53427696
S        -0.42281252     19.47405052      7.52153826
S         0.37193090     16.88428307     10.83870792
S        -2.58169460     16.93623352      8.26865101
P         0.72598386     16.44917488      8.89905071
S         2.58823633     16.94035149      8.26248169
S        -0.38519007     16.62489891      5.67799377
S         0.31204274     14.43577957     17.01806259
P        -0.77086735     17.48150826     16.00967789
S        -0.42281252     19.47405052     15.99693871
S         0.37193090     16.88428307     19.31410980
S        -2.58169460     16.93623352     16.74405289
P         0.72598386     16.44917488     17.37444878
S         2.58823633     16.94035149     16.73787880
S        -0.38519007     16.62489891     14.15339375
S         0.31204274     14.43577957      0.06726237
P        -0.77086735     17.48150826     -0.94112307
S        -0.42281252     19.47405052     -0.95386219
S        -2.58169460     16.93623352     -0.20674810
S         0.37193090     16.88428307      2.36330938
P         0.72598386     16.44917488      0.42365089
S         2.58823633     16.94035149     -0.21291836
S        -0.38519007     16.62489891     -2.79740620
S         4.34570980      6.74648380      3.33225846
S         4.48441505      5.35045958      6.41132498
P         4.93625259      3.38130617      3.57265472
S         6.90091324      3.87533736      3.67948604
P         3.83550787      5.12242985      4.48324537
S         4.20585394      3.27720547      1.68169951
S         4.24302483      1.87340367      4.75444221
S         1.83150578      4.76883507      4.33800030
S         4.34570980      6.74648380     11.80765820
S         4.48441505      5.35045958     14.88672447
P         4.93625259      3.38130617     12.04805470
S         6.90091324      3.87533736     12.15488529
P         3.83550787      5.12242985     12.95864487
S         4.20585394      3.27720547     10.15709972
S         4.24302483      1.87340367     13.22984123
S         1.83150578      4.76883507     12.81340027
S         4.34570980      6.74648380     20.28305817
S         4.48441505      5.35045958     23.36212349
P         4.93625259      3.38130617     20.52345467
S         6.90091324      3.87533736     20.63028526
P         3.83550787      5.12242985     21.43404579
S         4.20585394      3.27720547     18.63249969
S         4.24302483      1.87340367     21.70524216
S         1.83150578      4.76883507     21.28879929
S         4.34570980     15.22188377      3.33225846
S         4.48441505     13.82585907      6.41132498
P         4.93625259     11.85670662      3.57265472
S         6.90091324     12.35073757      3.67948604
P         3.83550787     13.59782982      4.48324537
S         4.20585394     11.75260544      1.68169951
S         4.24302483     10.34880257      4.75444221
S         1.83150578     13.24423409      4.33800030
S         1.83150578     13.24423409     12.81340027
S         4.34570980     15.22188377     11.80765820
S         4.48441505     13.82585907     14.88672447
P         4.93625259     11.85670662     12.04805470
S         6.90091324     12.35073757     12.15488529
P         3.83550787     13.59782982     12.95864487
S         4.20585394     11.75260544     10.15709972
S         4.24302483     10.34880257     13.22984123
S         1.83150578     13.24423409     21.28879929
S         4.34570980     15.22188377     20.28305817
S         4.48441505     13.82585907     23.36212349
P         4.93625259     11.85670662     20.52345467
S         6.90091324     12.35073757     20.63028526
P         3.83550787     13.59782982     21.43404579
S         4.20585394     11.75260544     18.63249969
S         4.24302483     10.34880257     21.70524216
S         1.83150578     21.71963501      4.33800030
S         4.34570980     23.69728470      3.33225846
S         4.48441505     22.30125809      6.41132498
P         4.93625259     20.33210564      3.57265472
S         6.90091324     20.82613754      3.67948604
P         3.83550787     22.07322884      4.48324537
S         4.20585394     20.22800255      1.68169951
S         4.24302483     18.82420349      4.75444221
S         1.83150578     21.71963501     12.81340027
S         4.34570980     23.69728470     11.80765820
S         4.48441505     22.30125809     14.88672447
P         4.93625259     20.33210564     12.04805470
S         6.90091324     20.82613754     12.15488529
P         3.83550787     22.07322884     12.95864487
S         4.20585394     20.22800255     10.15709972
S         4.24302483     18.82420349     13.22984123
S         1.83150578     21.71963501     21.28879929
S         4.34570980     23.69728470     20.28305817
S         4.48441505     22.30125809     23.36212349
P         4.93625259     20.33210564     20.52345467
S         6.90091324     20.82613754     20.63028526
P         3.83550787     22.07322884     21.43404579
S         4.20585394     20.22800255     18.63249969
S         4.24302483     18.82420349     21.70524216
S        12.71842480      1.87340367      4.75444221
S        10.30690575      4.76883507      4.33800030
S        12.82110882      6.74648380      3.33225846
S        12.95981503      5.35045958      6.41132498
P        13.41165257      3.38130617      3.57265472
S        15.37631226      3.87533736      3.67948604
P        12.31090641      5.12242985      4.48324537
S        12.68125343      3.27720547      1.68169951
S        12.71842480      1.87340367     13.22984123
S        10.30690575      4.76883507     12.81340027
S        12.82110882      6.74648380     11.80765820
S        12.95981503      5.35045958     14.88672447
P        13.41165257      3.38130617     12.04805470
S        15.37631226      3.87533736     12.15488529
P        12.31090641      5.12242985     12.95864487
S        12.68125343      3.27720547     10.15709972
S        12.71842480      1.87340367     21.70524216
S        10.30690575      4.76883507     21.28879929
S        12.82110882      6.74648380     20.28305817
S        12.95981503      5.35045958     23.36212349
P        13.41165257      3.38130617     20.52345467
S        15.37631226      3.87533736     20.63028526
P        12.31090641      5.12242985     21.43404579
S        12.68125343      3.27720547     18.63249969
S        12.71842480     10.34880257      4.75444221
S        10.30690575     13.24423409      4.33800030
S        12.82110882     15.22188377      3.33225846
S        12.95981503     13.82585907      6.41132498
P        13.41165257     11.85670662      3.57265472
S        15.37631226     12.35073757      3.67948604
P        12.31090641     13.59782982      4.48324537
S        12.68125343     11.75260544      1.68169951
S        12.71842480     10.34880257     13.22984123
S        10.30690575     13.24423409     12.81340027
S        12.82110882     15.22188377     11.80765820
S        12.95981503     13.82585907     14.88672447
P        13.41165257     11.85670662     12.04805470
S        15.37631226     12.35073757     12.15488529
P        12.31090641     13.59782982     12.95864487
S        12.68125343     11.75260544     10.15709972
S        12.68125343     11.75260544     18.63249969
S        12.71842480     10.34880257     21.70524216
S        10.30690575     13.24423409     21.28879929
S        12.82110882     15.22188377     20.28305817
S        12.95981503     13.82585907     23.36212349
P        13.41165257     11.85670662     20.52345467
S        15.37631226     12.35073757     20.63028526
P        12.31090641     13.59782982     21.43404579
S        12.68125343     20.22800255      1.68169951
S        12.71842480     18.82420349      4.75444221
S        10.30690575     21.71963501      4.33800030
S        12.82110882     23.69728470      3.33225846
S        12.95981503     22.30125809      6.41132498
P        13.41165257     20.33210564      3.57265472
S        15.37631226     20.82613754      3.67948604
P        12.31090641     22.07322884      4.48324537
S        12.68125343     20.22800255     10.15709972
S        12.71842480     18.82420349     13.22984123
S        10.30690575     21.71963501     12.81340027
S        12.82110882     23.69728470     11.80765820
S        12.95981503     22.30125809     14.88672447
P        13.41165257     20.33210564     12.04805470
S        15.37631226     20.82613754     12.15488529
P        12.31090641     22.07322884     12.95864487
S        12.68125343     20.22800255     18.63249969
S        12.71842480     18.82420349     21.70524216
S        10.30690575     21.71963501     21.28879929
S        12.82110882     23.69728470     20.28305817
S        12.95981503     22.30125809     23.36212349
P        13.41165257     20.33210564     20.52345467
S        15.37631226     20.82613754     20.63028526
P        12.31090641     22.07322884     21.43404579
P        20.78630829      5.12242985      4.48324537
S        21.15665245      3.27720547      1.68169951
S        21.19382477      1.87340367      4.75444221
S        18.78230667      4.76883507      4.33800030
S        21.29650879      6.74648380      3.33225846
S        21.43521500      5.35045958      6.41132498
P        21.88705063      3.38130617      3.57265472
S        23.85171127      3.87533736      3.67948604
S        23.85171127      3.87533736     12.15488529
P        20.78630829      5.12242985     12.95864487
S        21.15665245      3.27720547     10.15709972
S        21.19382477      1.87340367     13.22984123
S        18.78230667      4.76883507     12.81340027
S        21.29650879      6.74648380     11.80765820
S        21.43521500      5.35045958     14.88672447
P        21.88705063      3.38130617     12.04805470
S        23.85171127      3.87533736     20.63028526
P        20.78630829      5.12242985     21.43404579
S        21.15665245      3.27720547     18.63249969
S        21.19382477      1.87340367     21.70524216
S        18.78230667      4.76883507     21.28879929
S        21.29650879      6.74648380     20.28305817
S        21.43521500      5.35045958     23.36212349
P        21.88705063      3.38130617     20.52345467
S        23.85171127     12.35073757      3.67948604
P        20.78630829     13.59782982      4.48324537
S        21.15665245     11.75260544      1.68169951
S        21.19382477     10.34880257      4.75444221
S        18.78230667     13.24423409      4.33800030
S        21.29650879     15.22188377      3.33225846
S        21.43521500     13.82585907      6.41132498
P        21.88705063     11.85670662      3.57265472
S        23.85171127     12.35073757     12.15488529
P        20.78630829     13.59782982     12.95864487
S        21.15665245     11.75260544     10.15709972
S        21.19382477     10.34880257     13.22984123
S        18.78230667     13.24423409     12.81340027
S        21.29650879     15.22188377     11.80765820
S        21.43521500     13.82585907     14.88672447
P        21.88705063     11.85670662     12.04805470
P        21.88705063     11.85670662     20.52345467
S        23.85171127     12.35073757     20.63028526
P        20.78630829     13.59782982     21.43404579
S        21.15665245     11.75260544     18.63249969
S        21.19382477     10.34880257     21.70524216
S        18.78230667     13.24423409     21.28879929
S        21.29650879     15.22188377     20.28305817
S        21.43521500     13.82585907     23.36212349
P        21.88705063     20.33210564      3.57265472
S        23.85171127     20.82613754      3.67948604
P        20.78630829     22.07322884      4.48324537
S        21.15665245     20.22800255      1.68169951
S        21.19382477     18.82420349      4.75444221
S        18.78230667     21.71963501      4.33800030
S        21.29650879     23.69728470      3.33225846
S        21.43521500     22.30125809      6.41132498
P        21.88705063     20.33210564     12.04805470
S        23.85171127     20.82613754     12.15488529
P        20.78630829     22.07322884     12.95864487
S        21.15665245     20.22800255     10.15709972
S        21.19382477     18.82420349     13.22984123
S        18.78230667     21.71963501     12.81340027
S        21.29650879     23.69728470     11.80765820
S        21.43521500     22.30125809     14.88672447
S        21.43521500     22.30125809     23.36212349
P        21.88705063     20.33210564     20.52345467
S        23.85171127     20.82613754     20.63028526
P        20.78630829     22.07322884     21.43404579
S        21.15665245     20.22800255     18.63249969
S        21.19382477     18.82420349     21.70524216
S        18.78230667     21.71963501     21.28879929
S        21.29650879     23.69728470     20.28305817
