648

Na     -390.05398560   -140.89468384    -29.18891907
Na      131.87527466     -9.70708466   -134.26220703
Na     -202.45883179   -143.91419983    121.39523315
Na      159.55502319     17.05655861    -64.52079010
Na     -108.81774139     45.29188156   -119.28969574
Na     -130.16596985    286.53829956    173.75669861
Na     -143.85501099    -23.47823143   -292.10867310
Na      -45.83921051    -80.69445801    118.16483307
Na      112.12796021   -314.95626831    296.34579468
Na       67.54876709    -73.10116577    -12.52707005
Na      172.00621033    -36.67741013    -55.97082138
Na       22.23705482    -86.40363312     88.61552429
Na        8.74243736    342.61758423   -173.21211243
Na        5.51181030   -158.60456848     59.60520172
Na     -176.07792664     91.18412781     24.23163033
Na       97.36195374     19.89389420    -56.68293381
Na       27.81140327    -14.60990524    -59.65788651
Na      -32.39811707     31.85123825   -144.23718262
Na     -175.55216980    -18.51111221     67.54536438
Na      133.19017029   -234.36775208     -4.02685642
Na      251.50096130    110.81503296    120.79534149
Na      437.79263306     87.84024811   -156.71176147
Na      -37.62241364    104.31668091     53.60663986
Na     -297.98577881   -112.61949921     41.11102295
Na      237.97485352    177.71223450    -81.74357605
Na     -130.28613281    -85.58894348    181.81518555
Na     -192.81677246   -282.97122192    106.11164856
Na       69.60452271     -7.06318474    170.08235168
Na      -33.63712311    118.51526642     38.04451752
Na      -11.04892826   -132.48956299    140.52342224
Na      170.50354004    162.38191223   -127.59395599
Na      268.82180786    101.98868561    -13.90713215
Na      159.24090576     31.58516312    -52.20554733
Na      -53.88561630     31.46475029     42.13967896
Na       77.33915710    147.83808899    318.67819214
Na     -117.27513123    -41.16973114     26.21900749
Na      -28.07475853   -129.41737366     -0.77350622
Na     -115.87042236     19.51371574   -119.21244049
Na      -98.44208527    -69.27104950     86.25501251
Na     -186.29055786    135.70066833     63.25495148
Na        1.47780716    107.88388824    126.62697601
Na       86.98699188    302.94116211     11.61415863
Na       42.28557968    -60.97978592    -69.25075531
Na      174.71211243     89.51161194      7.65868139
Na      -87.89836884     30.33815765    -34.83965302
Na      202.97801208   -188.54145813    168.41381836
Na       81.90978241   -137.82531738    131.88926697
Na      192.43545532      9.82463264     45.61427689
Na     -112.89637756    291.46209717     29.54659081
Na     -163.22187805   -282.11138916    -67.93323517
Na      352.66592407    111.95668030    113.13214111
Na      187.84892273     57.02444839    101.10496521
Na     -114.24475861     62.91427994     -0.01167096
Na      130.99597168    -10.48104095     11.98821831
Na       52.13597107    164.70623779     89.03668976
Na     -205.36117554    103.41082764   -212.61807251
Na      368.19769287    104.67318726   -115.31135559
Na      183.94522095     28.57750702    -47.05215836
Na       72.61950684    181.07051086     53.78007126
Na      -69.52381897   -108.66555023     76.32540131
Na      -15.85361004     99.73081970    -17.88277817
Na      -20.08370018    125.94859314    249.90203857
Na       14.52752304    -31.65649796     42.40031052
Na      -31.65599632     66.43715668    -16.36158943
Na     -153.53068542     99.63183594    -44.31994629
Na       39.64795685    -36.32316971     92.65492249
Na      -28.70058823    -48.29017258    -81.29075623
Na       56.42446136    240.41658020    -26.18139648
Na      -32.48933792    -44.35258102   -161.44940186
Na      -23.08715057    133.40992737   -122.83050537
Na     -181.74253845    139.57302856     25.53042030
Na      187.15925598    -59.32456207     53.29538727
Na      167.25518799     94.43151093    136.71969604
Na       47.78250504    291.42901611   -232.38090515
Na        4.76934004    -21.88192749     16.39203453
Na      158.05332947   -231.68383789     25.33758926
Na     -100.33161163     41.05403900    172.75244141
Na       55.47409821    -81.56320953    104.56523895
Na      100.04888916    175.54158020    -10.76161480
Na     -169.80313110     -7.59206629    236.92738342
Na       84.07008362   -177.00697327     58.88616562
Na       72.86737061   -114.44345856     93.28671265
Na     -142.30790710     -9.70681190     61.42953873
Na       78.26128387     70.56747437   -195.92202759
Na      -85.60640717    255.29519653     -9.05867195
Na       14.59048367      5.33417511    158.33732605
Na       79.74115753    -36.85007477    110.68801880
Na     -251.22746277   -230.86735535    -92.64093018
Na      119.44179535   -140.67414856     64.17864227
Na     -267.88272095    107.51175690     -4.46531057
Na      -23.60105133   -204.71174622   -203.13244629
Na      112.04713440    -14.36985207     41.64899445
Na     -442.03497314   -193.57226562    135.53459167
Na      -15.03538895     65.63136292   -204.15440369
Na      -27.51539040    172.96772766    156.62498474
Na      -83.55717468    -52.52135468    -64.11592102
Na      103.30304718     -9.15737820    -22.40721321
Na      285.56686401    185.04011536   -114.75306702
Na      230.24526978     48.72821045     91.83239746
Na        5.29943895   -175.51419067    113.27063751
Na     -228.12809753     20.79628754    -30.01052666
Na      335.97607422     74.74393463     88.96327209
Na      145.21316528    -76.17665100   -225.81005859
Na     -129.34228516   -108.18504333    135.83912659
Na      324.22042847   -158.51771545    253.36355591
Na      174.95927429    126.99787903    -57.52138519
Na     -176.69555664    144.55815125   -320.01025391
Na      -24.82966423     84.71798706    -63.97771454
Na      394.34124756    -13.07847977    109.39848328
Na      102.97599030   -278.58663940     68.25949860
Na     -148.23448181     62.03584671   -175.32135010
Na      280.70046997    235.23527527     57.98995209
Na       47.65457916     32.33923340    -96.85596466
Na      -37.14676285    108.92858887     12.38730907
Na       65.41759491    -89.40512085    -88.39565277
Na        9.15933418    -18.05111504     14.90977097
Na       73.69641113      7.15071344    -16.41506767
Na       73.66230774     55.49416733    -11.79880810
Na     -229.93966675    -24.56432915    262.57376099
Na       14.18077469    -17.01556396     78.79450989
Na      141.43299866    -78.81735229     -0.89380312
Na     -111.50000000     92.83432007    122.20518494
Na      -26.77717209    -74.62221527    -50.96770477
Na      112.31665802     52.81323624   -185.58770752
Na     -468.64263916     78.57608032    -17.08315659
Na      133.46412659     33.32027435   -149.14326477
Na      -46.02541351     82.84347534   -182.53614807
Na       77.42472076    101.65558624    -65.44258881
Na     -286.27239990    -10.21826363    152.55213928
Na       12.74306870    166.97099304     20.54470062
Na      320.98107910    198.10830688    -79.73805237
Na       40.15157700     82.59553528    151.60331726
Na     -301.13742065    -21.26604462    101.82075500
Na      -66.51498413    167.26850891    -94.49621582
Na      -79.49162292    156.78273010    185.86956787
Na       59.81158829    262.56164551    -55.92517471
Na      302.15081787   -107.55877686   -162.32446289
Na       17.70010376     41.50019836     79.82348633
Na        0.21796915   -115.20345306    182.98709106
Na     -225.21725464   -124.28788757     83.86304474
Na      145.84742737    192.70489502     41.78010941
Na      -74.60591888     24.26019669     46.35881042
Na      365.75808716    123.23590088     72.96724701
Na     -108.08963776    204.92292786     59.43009186
Na       32.48323441   -171.58030701   -145.50341797
Na      476.34930420     24.21678352    177.64978027
Na        0.75169539    -64.21887207   -180.99005127
Na      -83.33076477    156.76954651    -72.07792664
Na     -126.43774414    -98.47796631    224.53164673
Na     -213.46061707     35.37942886    118.38930511
Na      311.93307495    116.58364105    201.85879517
Na      158.38484192    -30.12099075     38.14770508
Na     -133.69555664     99.86022949     41.91394806
Na       85.99176788    180.92118835     30.02887535
Na      214.13435364     19.79539490    -51.23217010
Na     -126.17270660   -276.02050781    -63.05936813
Na     -273.42019653     47.17036057     82.39633942
Na      124.61565399      0.49670690    -90.35357666
Na      166.56910706    -77.72684479    -46.37923813
Na       27.28723335     -6.25908470    177.61659241
Na      159.23953247   -218.98434448     93.81087494
Na      205.95628357    230.94544983    155.10873413
Na     -108.17466736    107.74385834   -140.42114258
Na     -130.70362854     11.81479549    156.77801514
Na      168.00582886     23.53172493     66.69679260
Na       48.01440430    -85.91145325    122.44318390
Na       -1.45573688     60.84819031   -153.05352783
Na     -240.87881470   -124.46529388    121.60228729
Na       44.97142410    175.96697998     96.86029053
Na      -82.60379791    -66.29022217    -58.56477356
Na      -38.56451797    370.71649170   -148.66799927
Na      107.00115967      3.05704165     96.72371674
Na      187.80596924     38.17092133    292.55941772
Na     -113.28662872    -78.03652191    122.33815002
Na       15.04051876     43.88829422      0.20502175
Na      -10.47869587    -56.51977921    -96.96409607
Na      -82.69278717    -48.08293533     16.19867516
Na      -75.83861542    218.77041626     83.01589966
Na     -121.74782562     36.44795990    113.87696838
Na      119.51853180   -107.17519379    217.08128357
Na       97.11128998    -82.29579163     87.34558868
Na      122.07725525    -27.31306839    -16.05322838
Na     -141.39785767   -121.27282715    182.03297424
Na     -268.81655884    -31.02561188    -34.98701859
Na      171.17675781    123.14303589      3.72550058
Na      212.19236755   -180.35334778   -137.36975098
Na      -33.55764389   -140.94355774   -223.32554626
Na      -64.94261932    108.90908051    118.93722534
Na     -354.20443726    -83.34252930     16.50812912
Na       23.48224068    304.70214844     54.39649200
Na       41.12906647    167.39654541     75.06233215
Na     -210.18113708   -145.62866211     71.73817444
Na     -129.24772644     40.66757584     75.36820984
Na     -228.34541321    263.92959595    110.25961304
Na      -28.26365662    -94.95631409     25.13859558
Na       37.65127563     23.69160461    -83.84262085
Na     -296.77560425   -174.72575378     47.54518127
Na      -58.45222473     84.62870026     79.43566895
Na     -279.63867188    -43.98151016    141.79843140
Na     -269.91601562   -204.27070618    126.87513733
Na     -145.74328613      1.68249774   -203.13127136
Na      -67.16052246   -191.41944885    225.47158813
Na      -78.37783051    -57.98652649    101.51182556
Na     -116.94065857   -142.56800842      9.77899265
Na     -136.95193481     77.98514557    -76.72742462
Na      108.56388855    103.24483490   -212.03182983
Na     -101.71259308    -73.11977386     30.50617790
Na       34.75415802   -135.12715149   -309.88305664
Na      159.72355652   -261.57067871    169.34538269
Na     -209.02677917    -47.19478989    -76.95461273
Na      -62.61260605     41.36695480    114.05744171
Na      154.52037048   -194.07832336      1.52193975
Na     -109.99492645     53.53922272     21.09342575
Na      -70.01563263     34.47101974     85.53997803
Na       62.10074997     57.50488663      9.08148384
Na     -124.01926422     22.34282875     29.59756088
S        14.93107033     25.30035210      7.00330544
P        12.93712330     25.36919594      7.42514467
S        11.99492455     28.45863914      6.19045305
S        12.19237709     25.79819489      3.98994541
S        12.44658184     26.30611420      9.13593960
P        11.62031746     26.43884850      5.83771706
S         9.56770325     25.85013008      5.92946243
S        12.43247509     23.41492462      7.07116270
S        12.56915474     23.40150452     15.30107975
P        13.07018852     25.44707298     15.28170013
S         9.76064873     25.63306999     14.19534111
S        11.32624435     28.46951103     14.29251862
P        11.50548744     26.48186493     13.94339752
S        14.94087029     25.40557671     14.36618233
S        11.96030998     26.05645370     11.96937943
S        13.36184311     26.27479553     16.94697762
S        14.62584972     25.76597977     22.51524353
P        12.73529720     25.70004082     23.16871643
S         9.75579262     25.88131523     22.55530167
S        11.74230957     26.00722504     19.88971519
S        11.19222450     28.75224495     21.58211327
S        12.08912563     23.71982193     22.78540611
P        11.31947994     26.77933502     21.75011063
S        12.45694256     26.11020279     25.14408684
S         9.34148121      9.63292694      5.48624563
S        14.48156929      9.30853844      5.57803774
S        11.63922977      9.41306305      3.24827814
S        12.64109230      6.69776154      6.60909748
S        12.38834095      9.70399761      8.28479004
P        11.17527676      9.87847996      5.14073277
P        12.72354698      8.76541328      6.47724581
S        11.53870487     11.94707680      5.56952095
S        12.23312855      9.22889328     11.77594852
S        12.42392254      6.89819527     14.70242310
S        12.25674820     12.08765316     14.06711292
S        12.69854164      9.71896648     16.83221436
S        14.91939068      9.11688709     14.18970680
P        11.76337624     10.10785770     13.58857155
P        13.05814362      8.93630219     15.06287766
S         9.78636646      9.87600803     13.64333153
S        14.78738785      8.67440701     22.99878311
S        11.76985836      8.68757534     20.38840485
S        12.39143181      6.55670738     23.35249901
P        11.37325954      9.46353054     22.28818130
S        12.37947178      9.01364136     25.58705521
P        12.77985477      8.38967323     23.70420456
S        11.59015465     11.57717419     22.36784363
S         9.66625404      8.71601391     23.16286850
P        12.79559422     16.87210846      6.49160433
S         9.58297443     17.27995491      5.87090158
S        11.66296196     17.22102928      3.16015625
S        12.71740341     14.83292389      6.39425516
S        11.87367249     19.92649269      5.62010336
S        12.36595726     17.37427139      8.44899082
S        14.72558022     17.42975998      5.89817142
P        11.40035820     17.83058357      5.16291618
P        12.85651588     16.95056534     15.18154144
S        11.60569572     19.95353508     13.48181629
S         9.56054878     17.43931580     14.42999840
S        14.73543072     17.44628716     14.57490444
S        11.62505245     17.37057495     11.69864464
S        12.35700607     15.06662273     14.74172497
S        12.63292503     17.35223579     17.15712166
P        11.31320858     17.98604202     13.65419960
P        11.61045074     17.70189095     22.35829544
S        10.03077221     17.32948494     23.48333168
S        12.26752758     16.97487831     20.48932838
S        12.85186958     14.71345615     23.79494667
S        11.87424850     19.64869690     21.71805954
S        12.59787655     17.16407394     25.65472984
S        14.98243999     17.65384865     23.27772141
P        13.15016651     16.94166565     23.85443497
P        20.29767799      0.88087088      5.34806919
S        20.76978111      2.91623282      5.38837910
S        21.29118538     -2.25405955      6.56329107
S        23.77017403      0.34383428      5.99024391
S        21.51388550      0.44281355      8.50603580
P        21.90010071     -0.24466279      6.57347775
S        20.64260864      0.24696141      3.34906745
S        18.51456833      0.08941375      5.86889315
P        19.68332672      1.14102793     13.20172024
S        20.19745255      3.19199824     13.48132706
S        21.01762390     -2.09746027     14.45916748
S        22.96559525      0.63850367     13.93294144
S        20.67220879      0.73213881     16.50606918
P        21.22627258     -0.11720713     14.68195629
S        19.85603714      0.34365740     11.32019711
S        17.90405273      0.61752295     13.90958786
S        17.76205444      0.46113238     22.43276215
P        19.71138382      1.15337253     21.80901909
S        20.73983192      0.96101427     25.15461731
S        23.15719223      0.57341695     22.76018524
S        20.63953400     -1.78088343     23.24592400
P        21.34997940      0.16914757     23.25165176
S        20.10556602      0.84570158     19.72817421
S        20.00672150      3.28210902     22.07604790
S        21.46458435      9.25117302      9.04787540
P        19.90500450      9.70074844      5.92256594
P        21.38659859      8.78067493      7.20132732
S        20.08553886     11.78551292      6.03151941
S        17.94373703      9.06894493      6.26271248
S        23.34307671      9.12523746      6.61920071
S        20.39579201      9.11210346      4.01583719
S        20.73923683      6.69866514      7.18058395
S        20.58478928      6.28227520     14.56739998
P        19.78968620      9.32638931     14.11335659
P        21.27382851      8.10474205     15.20291615
S        19.69686127      8.78001499     12.11261845
S        20.29175758     11.21320438     14.18693829
S        20.83420944      8.53258038     17.06079674
S        17.95219612      8.90047359     15.19592762
S        23.23669434      8.61058044     14.84058762
S        20.75148773      9.43419552     -0.25744388
P        20.84913635      8.59963894     -2.11734867
S        19.83382607     11.91042900     -3.12516594
P        19.51515007      9.89858627     -3.46887040
S        17.71786499      9.16840553     -2.91118503
S        22.70497704      9.12371349     -2.99769735
S        20.10926247      8.99860859     -5.24074078
S        20.70440102      6.66024399     -2.16988993
S        20.55862427     18.15258026      8.42596149
S        23.07457924     17.67943001      6.14540720
P        19.71564293     18.44343948      5.34793997
P        21.13562965     17.44246674      6.70760775
S        17.81970024     18.19859314      5.61041355
S        20.02211952     17.65197754      3.39862609
S        20.48640823     15.32257366      6.27802992
S        20.46525192     20.29321861      5.38800716
S        23.57136917     17.13073540     14.74352169
S        21.35842133     14.62470818     15.14880657
P        20.09843254     17.84651756     13.98299885
P        21.70812225     16.73282814     15.19582081
S        20.19243050     16.99426270     12.12658310
S        20.35944939     19.91446304     13.93975163
S        21.27745056     17.29089737     17.13120079
S        18.26225662     17.25395203     14.94745255
S        20.68708611     14.77958202     -2.42289042
S        20.66687393     17.25075150     -0.15219435
P        21.04857635     16.73304939     -2.11136794
P        19.66204643     17.71336174     -3.47055364
S        20.00448608     19.71624374     -3.43729210
S        17.94128609     17.12676048     -2.51794934
S        22.84322357     17.17599678     -2.67843103
S        20.01602554     17.00676155     -5.36436367
P        28.23144341      0.75472605      5.21073627
S        26.62392807      0.37936142      6.26118755
S        28.86249161      0.40581211      8.52921963
S        29.28888130     -2.22065687      6.51545572
S        28.55191231      2.73260355      5.07887506
S        31.42459297      0.59914899      6.26051521
S        28.45793343     -0.31577080      3.51592636
P        29.69097710     -0.16552337      6.79786921
P        28.33641815      1.00494421     14.27035809
S        28.70502281      2.99347115     14.19856453
S        29.57019997     -2.11783195     15.08431244
S        31.69780922      0.25698477     14.61010075
S        29.01800346      0.42338014     12.45158768
S        29.76969910      0.82996470     17.24998093
S        26.44008064      0.42867166     14.44979286
P        29.88120461     -0.04392419     15.44573879
S         6.30676746     26.58134842     22.86102676
P         3.10455060     27.17049217     22.22552490
S         3.44425082     29.31944084     22.71790886
S         4.11954927     24.06809998     23.52810287
S         4.27181292     26.87870979     25.51860428
S         1.25275779     26.52768326     22.73927116
S         3.39768600     26.36260796     20.29437256
P         4.52785444     26.20944786     23.55499458
S         3.60084248      9.54396725      8.57492065
P         2.96301460      9.85832882      5.39595318
S         1.04960966      9.30687714      5.75369978
S         6.23973513      9.16755104      6.27587461
S         3.43117785      8.94614029      3.53515196
P         4.34435940      8.76601505      6.77542734
S         4.06878185      6.83751297      6.65405655
S         3.34156156     11.83946037      5.45213461
S         6.46395063      9.25772762     14.31225491
P         3.07012892      9.55826092     13.81809616
S         3.19846869      9.29831696     11.78642654
S         3.82598734      6.71541977     14.24457264
S         3.75812483     11.39235115     14.20671654
P         4.69853735      8.45029259     14.91735649
S         4.25620365      8.88108635     16.92422295
S         1.32620668      9.13216400     14.68722820
S         6.45801020      9.16727829     -2.70644927
S         3.33199954      9.44622993     -5.07846022
P         3.11373758      9.85550785     -3.12602448
S         3.38081169     11.97570133     -2.58573079
S         4.20272398      6.75080109     -1.75830591
P         4.61898327      8.80023479     -1.69802952
S         4.38423061      9.60723591      0.14835350
S         1.37460148      9.05535889     -2.48105168
S         4.18354225     17.16675758      8.83643055
P         3.17787766     18.16459846      5.28537989
S         1.11748743     17.95967674      5.69645262
S         6.36793756     17.29856682      6.08390808
S         3.84539294     17.39702225      3.57180190
P         4.56649446     16.78063202      6.82085562
S         3.84716344     14.99979210      6.42811728
S         3.82003736     20.08636856      5.83461189
S         6.49303818     17.76100731     14.26711750
P         3.15315270     17.99397469     13.73779964
S         4.00025940     17.54526901     11.95966434
S         4.48176861     15.12715721     15.03823471
S         3.39128900     20.00883102     14.11783028
P         4.73126745     17.12941551     15.12958050
S         4.43098783     18.13877296     16.95051575
S         1.39127398     17.45700645     13.96627140
S         4.40388775     17.50300980     -0.04441817
P         2.94341612     18.16446304     -3.54437423
S         1.10317504     17.65920448     -3.10451818
S         3.50263643     17.69645882     -5.55543041
S         6.27674055     17.57862473     -2.58565021
P         4.45625019     16.98552895     -1.99571383
S         4.20549202     14.95246315     -2.36376023
S         3.37578273     20.45889473     -3.35439229
S         7.91651821      7.38891888      1.09075463
S         8.51485157      5.96275616      4.12354660
P         8.71239185      4.01936674      1.54248774
S        10.78312016      4.37826109      1.74591506
P         7.71224165      5.80562449      2.22252584
S         8.06855011      4.01957417     -0.39339614
S         8.16909695      2.33470321      2.44139647
S         5.58862782      5.52387238      2.19152117
S         5.89163971      5.42066622     10.36994457
S         8.18665886      7.39078665      9.57860088
P         8.92019939      3.72449160      9.54800892
S         8.00362968      2.20536542     10.53453636
P         8.05641460      5.65112495     10.52335835
S        10.82377815      4.18657970      9.66945648
S         8.11323547      3.92834711      7.53138971
S         8.80245113      5.35461903     12.33283138
S         8.04960442      7.48763561     17.72198486
S         7.93231106      5.71903706     20.60644722
P         8.33812046      3.95572591     17.73843384
S        10.31485081      4.42430115     17.83048630
P         7.24726534      5.84217644     18.67037201
S         7.86639547      3.57552123     15.89183521
S         7.94984674      2.47248125     19.12272072
S         5.30327129      5.36425829     18.66098785
S         8.17349815     14.94221115      3.83417416
S         5.42275000     13.72539616      1.84853959
P         8.43695927     12.41144657      1.02115023
S         8.17373180     12.82078457     -1.06427562
P         7.48880339     14.48948956      1.80414593
S         7.61117125     10.80071926      1.65566957
S        10.37997532     12.51064396      1.53169262
S         7.91767693     15.97931671      0.37574422
S         5.11529827     13.39944363     10.60155678
S         8.18825245     15.82456589      9.58814526
S         7.85793304     14.56302738     12.62513256
P         8.30072308     12.48726177      9.76121140
S        10.29983139     12.77292824      9.98933315
P         7.14483309     14.07964230     10.73269844
S         7.43556023     12.31836414      8.04658699
S         7.79138184     10.85354710     10.87936497
S         5.44292068     13.47781086     19.12176895
S         7.99903536     15.52224541     18.32387352
S         8.10983467     14.30914402     21.32673454
P         8.73022652     12.17106342     18.48723793
S        10.85041714     12.38636303     18.41857910
P         7.37979650     13.91775036     19.33685303
S         7.78968287     12.24361992     16.37969208
S         7.97998524     10.71013451     19.77992439
S         7.22690392     24.45521355      0.94652432
S         8.28907394     23.68074226      4.09403896
S         5.25451231     22.59179878      2.76609349
P         8.18739700     21.28208733      1.50336337
S         8.09277534     21.53448868     -0.53433275
P         7.16430712     23.30011749      2.37631178
S         7.30060911     19.69824219      2.46051335
S        10.16723633     21.42180634      1.89834249
S         8.08072662     22.82685852     12.57772636
S         5.46493292     22.19959641     10.31828690
S         8.01840496     24.46828270      9.64101982
P         8.55668354     20.74743080      9.68357182
S         8.33036423     19.19967079     10.85705185
P         7.49696207     22.78010941     10.56081772
S        10.46622753     21.57053757      9.60429287
S         8.03466415     20.61065483      7.73472404
S         5.58774042     21.92799187     19.32916641
S         8.09447575     23.90152168     17.74260139
S         7.87067461     23.24157906     21.07818222
P         8.63295746     21.01112366     18.07201004
S        10.67008781     21.09930038     18.21668625
P         7.37410879     22.69480324     19.12309456
S         7.95981789     20.92116928     16.20990944
S         7.69178581     19.45705223     19.00403404
S        16.57821465      2.68016601      2.35171866
S        14.16454315      5.44008780      2.39143825
S        16.72575569      7.39314032      0.94045889
S        16.77773094      6.13700581      4.22185564
P        17.11092377      4.17405796      1.12255323
S        19.10702896      4.58008051      1.66035569
P        16.08079338      5.88353920      2.19910812
S        16.61124992      3.89966798     -0.75969398
S        16.29445457      2.16165781     10.33381748
S        13.87813950      4.97168112     10.55527782
S        16.33110428      7.11948299      9.07331944
S        16.29507256      6.22563362     12.31505394
P        16.80445862      3.94697285      9.45336056
S        18.81034660      3.94226933      9.76505280
P        15.66883373      5.67085838     10.42555809
S        16.18579102      3.94027567      7.59630537
S        15.84962273      2.32437348     18.82271385
S        13.42451286      5.35344744     19.01928329
S        15.77377033      7.24932957     17.56517220
S        16.35116196      5.99715805     20.75033760
P        16.48927307      4.05283689     18.12623787
S        18.53388405      4.28208065     18.31512833
P        15.56325912      5.73309469     18.90192032
S        16.15294647      3.79451942     16.02356339
S        16.13260460     10.64429188      2.66534734
S        13.69001865     13.74933815      1.90683055
S        16.20201302     15.79832172      1.50272965
S        16.11401749     14.00369835      4.33837414
P        16.86185455     12.23677063      1.40331697
S        18.89098167     12.74015045      1.20263541
P        15.61936188     14.11659145      2.40148902
S        15.88112640     11.63911915     -0.25329092
S        16.04306984     10.90254688     11.23776436
S        13.56447792     13.95413685     10.60834026
S        16.10017776     15.70558739      9.65115547
S        16.32036591     14.37151432     12.84726906
P        16.69329834     12.40589428     10.04698563
S        18.52764320     13.05340481     10.01500320
P        15.50092602     14.18301773     10.87310696
S        15.96531296     12.49838161      8.02314568
S        19.12013054     12.61557484     18.04777145
S        16.02256584     12.61054993     16.37300682
S        16.64614296     14.09040546     21.17349434
S        13.92388248     13.07729626     18.88740730
S        16.38472366     15.59580803     18.50503159
P        17.04535866     12.49719715     18.22279167
S        16.80430412     10.65073109     19.06936073
P        15.83578300     13.88865948     19.35856438
S        16.60106277     20.83046532     -0.80795366
S        16.44065666     19.60758972      2.23912740
S        14.02442169     22.79637527      1.96989548
S        16.52905846     24.63033867      0.94713253
S        16.56793404     23.20194244      4.06397295
P        16.87573814     21.27653122      1.16414535
S        18.80415344     21.83799934      1.09039462
P        15.92794132     22.99193382      2.12183309
S        16.00325012     20.12318420      8.55077839
S        16.52447891     18.84022903     11.45527267
S        13.76592159     22.23149109     11.07283974
S        16.46910858     23.88509178     10.06809521
S        16.27445602     22.18375397     13.11023808
P        16.89983368     20.37952423     10.27784824
S        18.72343063     21.20853615     10.48021603
P        15.71895313     22.32062721     11.27807808
S        16.46737099     20.25804520     16.39182091
S        16.89178658     19.21144104     19.50787354
S        14.32009506     22.16121674     18.58861923
S        17.11825562     24.20782089     18.25761604
S        16.90586472     22.50726128     21.04174232
P        17.22716522     20.81683350     18.19846535
S        19.29759216     21.52461815     18.10249519
P        16.32397842     22.57555199     19.08883095
P        24.30446243      5.91193104      2.30182528
S        24.66370964      4.08813906     -0.39822477
S        24.79153633      2.38150692      2.65757394
S        22.27601814      5.51075792      2.46053171
S        24.79706192      7.25415897      1.00432098
S        25.05398941      5.78625822      4.23169994
P        25.24485016      4.00313330      1.54204416
S        27.16911888      4.70170259      1.95682156
S        25.48645401      2.32943416     10.78933620
P        25.09253502      5.38622284     10.55476093
S        28.09801865      4.14075899     10.13450050
S        25.40012360      3.99017143      7.70029783
S        25.52007103      5.76266241     12.44460011
S        23.05410767      5.20831060     10.53209114
S        25.70441246      7.00087404      9.49940395
P        26.20862007      3.78089547      9.64215279
S        24.78528786      2.20410633     18.98455048
P        24.24411201      5.57848024     19.07192612
S        27.20427132      4.06128311     17.92161560
S        24.51831245      4.27444363     16.11554527
S        24.78683662      5.77561569     20.97949028
S        22.15254784      5.16106462     19.04592896
S        24.41671181      7.29506826     17.91130066
P        25.33203697      3.74246621     17.87276649
S        24.19890976     12.62030029     -0.41516927
P        24.14657784     14.35621548      2.33208084
S        24.58177948     10.60508728      2.20211053
S        26.96918106     12.97701359      1.39321661
S        24.73643684     15.83207512      1.12941134
S        24.69879532     14.58416939      4.43249464
S        22.15736961     14.11839390      2.42598820
P        25.02659798     12.49879837      1.51040077
S        24.55559921     12.34098434      7.83984232
P        24.33372688     14.14708519     10.66033649
S        24.75665092     10.99043941     11.12372684
S        27.26621056     12.55095005     10.03263664
S        24.75094795     15.67754078      9.37891960
S        24.94524193     14.46124268     12.51502514
S        22.27277184     13.64953518     10.39392090
P        25.23383331     12.39293575      9.71365929
P        25.34862137     11.85563660     18.58657265
S        27.31137848     12.42069054     18.83611488
P        24.27323723     13.79610062     19.51661491
S        24.61085892     11.87304211     16.79086876
S        24.85459137     10.48558998     19.99062157
S        22.30781555     13.51806355     19.58656311
S        24.75603294     15.53323746     18.51145554
S        24.70642471     13.90713501     21.52528381
P        25.49046707     20.96119118      1.18679154
S        27.48330116     21.42401314      1.27910590
P        24.62292099     22.92740440      2.00806165
S        25.00974655     20.54235077     -0.86687779
S        24.83315277     19.31289673      2.19700027
S        22.68804359     22.31797028      2.00088930
S        24.83859062     24.62281990      0.88458896
S        25.13615227     22.78408813      3.82840896
P        25.27934647     20.61689568      9.77550411
S        25.01993942     20.70610237      7.69162130
P        24.08902359     22.29698181     10.81352139
S        24.69945145     18.91249847     10.59103298
S        27.28357887     20.88569450     10.20686436
S        24.61582756     23.86057854      9.51178455
S        25.37783051     22.76852608     12.33689976
S        22.22530174     21.86242676     11.09073162
S        24.93947411     22.96744919     20.57279587
P        25.25534248     21.02231598     17.75377846
S        27.14159012     21.65268898     17.99862480
P        24.27698326     22.76740456     18.70032692
S        24.80156326     20.56621361     15.79279613
S        24.38182640     19.48439026     18.69520378
S        22.27360725     22.33425522     18.81079102
S        24.70595741     24.24705315     17.52815819
