648

Na       28.04403305    -78.89868927    120.18353271
Na      -32.74889374     87.07349396     47.66873550
Na      138.14259338    -19.99879837    -57.68498993
Na      113.23212433     90.55200195    -66.93310547
Na      -61.31176758    -58.86472321    -29.86333275
Na       36.37607193     56.45723724      1.67892444
Na     -106.33107758    -19.29971123    110.71479034
Na      146.30780029     15.38403416     65.30667114
Na       47.43131256     41.70269775     82.10048676
Na       52.20127869    -74.46891022     90.41106415
Na       54.91709900      5.95093870     17.42915344
Na      -24.00719833     23.19194984      6.21091366
Na     -129.77914429     67.72212982    -62.98301315
Na      122.53398895     58.67749786     -2.65784526
Na      100.19613647     10.41979599     27.44861984
Na      140.54473877    109.69214630    -19.41041374
Na      -31.08198357     85.60124969    -22.76471519
Na       22.45519638     50.35317230    140.85600281
Na      158.06575012     -0.47387469    -45.35332489
Na      114.98806000     69.97884369    -69.05162811
Na       27.35033035     52.98866653     -7.35177708
Na      -78.91105652     34.83106232     11.06558418
Na       11.36460495     34.73877716    -65.22621155
Na      -26.90806389     23.24236679     70.15160370
Na      185.60935974     48.25792313     78.96781158
Na       86.70423889    103.58007050    -91.86352539
Na      145.88140869     75.36805725     55.23056412
Na       -4.74367046     23.02346992     17.57422638
Na      -85.52539062     13.44348526    -35.81019592
Na       40.38783264     18.70079231     35.66807938
Na      -76.30271912    -45.34956741    -65.40890503
Na       45.64377213    119.44438934    -40.35664749
Na        6.89718676    -40.24014664    -15.50415039
Na       44.59637833     16.05789375    -28.37651634
Na      133.80033875     48.08232498     18.61049461
Na     -105.92991638     87.23780823     -1.05116355
Na      -22.31319046    127.54920197    -74.17531586
Na      184.83406067    146.62486267    -41.03716278
Na      -66.59811401    -48.53039169   -104.55714417
Na        2.21215081     27.40258598     23.47156334
Na      201.80661011     91.11167145     -5.95829678
Na     -142.33119202     -9.34142590     12.55033302
Na       62.29576492     60.20886230     19.48175049
Na       -6.11063576     61.99937820    -36.03064728
Na       39.13487244    -39.81235504    -26.41327095
Na      112.78900146     18.19176102     19.57026291
Na       15.30314827    -10.87478924     52.87196350
Na       66.37804413    -10.70116615    -14.68747807
Na       57.70419312     39.51108551    -66.28923798
Na       49.04776764      2.34974480      9.70654297
Na       52.96315765     36.57335663   -103.32658386
Na       10.70780468     53.14646530    -87.31199646
Na      162.91038513     57.61869812     90.93382263
Na      -66.21839905    133.36807251     -2.08604932
Na      -49.78849030     44.65962982     39.43303299
Na      -87.74082184     16.42426872    -19.98846626
Na      180.76927185     64.94322968    -32.92619705
Na       41.08868408    -28.05978394    -10.46721554
Na      121.80128479     64.69803619     85.23735046
Na      176.64942932     23.64111710    130.54438782
Na      208.83007812     41.71076965     47.68720627
Na       27.49521065    -11.60435200    -48.89455414
Na      -59.95895386    -29.43133926     -1.99707675
Na       38.49312210     -9.35268688    -10.73840523
Na       23.71811104     65.66974640     77.77403259
Na      138.82101440    -36.61425781     77.16633606
Na      159.61367798    -74.46347046     44.25791168
Na      104.70229340     59.90341949   -124.75985718
Na      -11.32999420      2.66102600    -59.62480545
Na      -36.99988174    -14.46687603     66.73377228
Na       24.75076675    -19.99942780    -19.47681618
Na      126.39388275     13.61443424     31.36618805
Na      -35.24515533     61.36289597    -40.80756760
Na       11.51982594    -26.26299286    -36.78903580
Na        3.24573803     -3.05492330     25.82433891
Na      119.34262085    -31.95039749     63.83111954
Na      159.36257935     -6.39842844    -74.75665283
Na       66.72351074    -90.89521790     18.56334114
Na       44.59009171    -15.31672764     36.27409363
Na       78.02391815     91.42822266     48.85120010
Na     -121.15141296     28.25665665    -27.59982109
Na       11.68527126      5.76038837     34.22570801
Na       74.38610077    -35.92815399     61.28536606
Na       47.85705185     50.49267578     56.55614471
Na       73.76995087     18.33503914     69.79623413
Na       40.16971588     14.79583836    -32.15777969
Na      -43.50995255    -37.40499496    -35.57668686
Na      185.01850891     78.27622223    -49.32275772
Na       10.56389523     44.34566879     28.06315994
Na      -48.20284271     18.59476089     78.74373627
Na       -3.40128446     19.72441101    -10.12295532
Na      123.71089172     59.14112091    -61.96310043
Na     -122.22933197    -17.49578476     30.92861748
Na      -44.39874268    -30.92260170     57.07340622
Na       29.34354401    158.25126648    -50.06226349
Na       70.65884399      0.44522831    -14.43793678
Na       35.93305206     69.91561127     35.58181000
Na       70.28166962     53.85240936     74.58117676
Na        7.67324829      5.63042688    -19.31311798
Na      142.48394775     -2.28531337     19.23927879
Na      -34.61317825     13.99756813     73.97986603
Na      154.78125000    120.45845795    -91.34796906
Na      100.93979645    -28.47453499     48.59777832
Na      -50.96046829     22.63012695     36.64728928
Na      -30.77858925    -33.11462784    -23.45128250
Na       84.11099243    140.99453735    -78.56956482
Na       -1.15962100    -70.70000458    -10.48805046
Na      138.13612366     41.33776855     73.51548767
Na      -20.35078239     25.24419975    -36.77129745
Na      -69.12034607    -44.74546432     44.53431702
Na      -74.49462128    -44.06368637     74.18511963
Na      -25.70293617     45.55949020    -74.56596375
Na       23.99671364     31.76546097     45.07633972
Na       20.71980095      8.93459606     19.04083633
Na      102.33278656    105.21536255    -23.22000122
Na      183.27976990     79.56967926     41.22978592
Na      121.17578125     90.20123291    -24.03302574
Na       62.46765137     85.37815857     53.10814667
Na       89.75683594    -25.88949203    132.60643005
Na       15.57666206    -23.47548866     35.57166290
Na      -14.64656925    -56.21443939     -2.08047605
Na      -94.18995667   -130.34523010     90.94956207
Na      100.35976410      4.78397179     74.17321777
Na      -81.31844330     47.84956741    -67.31539917
Na       22.12686729     36.37816238    -43.32950592
Na        6.07065201    -26.75915527     -3.29253507
Na       24.13290405     63.89525604     48.51490402
Na      -26.88315392    -40.16588974     18.65010262
Na       17.93273735    -57.57066727     71.84718323
Na      162.40951538     49.05014038    -27.61164093
Na      -69.40904236    -23.45537376     86.67449951
Na       45.67864227     14.09419918     94.16448975
Na       86.92256165     64.60107422     -6.93417168
Na       16.01636314      5.74728823     73.69841766
Na      -20.00823212     67.12966156    -11.53851032
Na        9.75647640     36.30757523     81.05271149
Na       23.64624977    -74.51055145     95.14796448
Na       31.50413704     45.44494247     74.19694519
Na       18.38391876     20.55168343    -32.50805283
Na       27.47742271    112.23703766    -31.25642204
Na     -132.83805847    -50.27445602     96.11455536
Na      -64.39102173     76.77299500      2.35800672
Na       41.89096832    -53.83564377     82.26554871
Na       74.00755310     52.30850601    -23.67205620
Na      175.80209351    107.83247375    -49.16191483
Na       86.52289581     23.65072632    -19.20825958
Na       52.45560837     70.25029755     18.94162178
Na       97.09263611    -28.40397835     51.70320892
Na      -87.55454254     36.85546875    -69.18762207
Na      -39.48123169     22.65365791     85.92563629
Na      143.45251465      6.03495216    -22.65634918
Na     -130.91801453    135.09382629    -70.74636841
Na     -113.74945831    -73.73108673    160.14695740
Na      106.67034912     87.49994659    -94.60428619
Na      -21.49075890     22.87046814    -66.90824890
Na       94.74752808    120.91921997     31.41922569
Na       27.14986610     17.99165154     56.69000244
Na       56.17060852     41.85373306      5.41404963
Na      124.28210449     45.22045135    -18.58689880
Na       -6.93457937     10.06814766    -19.67201805
Na       54.26328659    -16.11476135    -14.57095623
Na      113.07390594    124.06447601      1.07339466
Na      -51.94681168    -79.48333740     14.97313118
Na        9.11900997     36.45746613     64.02877808
Na       34.81052017    -65.15991974     22.01000977
Na      -86.47619629     -1.78007698    -48.61811066
Na     -115.69418335     51.83502197     19.20742035
Na        7.90044117     65.17136383    107.52949524
Na      -18.81316185     23.73296738     10.12244320
Na      -48.38108826      1.10055566    -14.59078598
Na      -43.60221100    -82.89936066     69.64468384
Na      121.46239471      5.64010859    -24.45171165
Na       61.26917648    146.46034241     90.47322845
Na      126.59337616     38.96118164     39.98749924
Na        0.55954528    -39.34395981     10.05043030
Na      121.21874237     -1.10509455     90.51866913
Na       57.87715530     57.36912155    -22.93128967
Na      -10.06451321      6.24214506     10.44064999
Na       -7.83386803     28.88924217     -6.85321760
Na       79.26365662     14.38536358     34.28086090
Na       40.56676102     86.01057434    -48.75045013
Na      -10.07455635     82.75222778     -5.96980572
Na      -35.23448181     78.61594391    -23.82976532
Na        3.73479986     31.39324951    -42.19002151
Na      134.11929321     57.65236664     12.34061337
Na      -30.12905502     28.16231918     15.79777145
Na      141.17324829   -158.26756287     41.69660187
Na      -99.61250305     27.64834213      6.48885393
Na      117.22718811     23.26809120     61.60476685
Na       -3.43165660    -56.44649887     74.77937317
Na      -48.77159882    108.55591583    -10.65414810
Na      -91.99366760      1.92147660    -45.89321899
Na       20.66791153    -26.17019081     -2.47813058
Na     -110.30081940    -62.22352600      6.13336706
Na      170.23767090     78.02750397    -12.33228302
Na       66.02584839     -6.94374466      2.02714467
Na       52.07175064    -91.81674194    183.07261658
Na      -23.99158859     69.85330963     47.86213684
Na      -73.88311005     -9.79872799     39.74387741
Na      -22.30392075    -65.19788361     66.11627197
Na      122.73619843    158.78297424     17.65300369
Na      -57.05773926    -23.79414368     78.85820770
Na        6.38828230    -11.52336216   -125.80282593
Na       11.53560352     73.71060944    -32.64545822
Na      -23.15630913     49.89149094    -79.59165192
Na      159.34573364    -40.14902115     77.76554108
Na       58.06302261    -10.87158394     70.34984589
Na      -37.80676651     -0.53099447    -53.37517166
Na      -11.94567490    -22.75401688     -1.26541352
Na      -11.89732170    -42.85599518     90.28984833
Na       82.09585571     58.72396851     -2.92307401
Na       -9.40102005     81.77474976    -70.29470062
Na       -5.36412144     27.71906090    -17.75605011
Na       55.87267303     19.24052811     15.63378239
Na      118.73020935      5.72896528     14.56761646
Na      -44.29126358    -66.04386139     94.66127777
S         8.74777794     25.56278419     10.79262638
P         9.20831203     24.89937973      8.84437180
S         7.89717245     25.13733292      5.64590979
S         5.89154959     25.33121490      8.09628201
S         8.95761776     22.88660812      8.69490814
P         7.74590635     25.99500465      7.44693613
S         8.09372425     27.97279930      7.81682444
S        11.10040951     25.24479485      8.20267200
S         8.80568409     25.46392250     19.27897263
P         9.12958241     24.81414604     17.34834480
S         8.23221779     25.21557808     14.11168194
S         5.86517620     25.54001617     16.72154808
P         7.75609684     25.96040344     15.88269329
S         9.00609112     22.69119835     17.28643036
S         7.96728611     28.01440239     16.19515038
S        10.87800217     25.32617569     16.51852989
S        11.16932011     25.31937981     25.04671097
P         9.24991035     24.97457504     25.85864639
S         5.87841320     25.24251556     25.26742172
S         8.19243050     25.24919128     22.54398155
S         8.11853790     27.96372986     24.64314079
S         8.69547462     22.96141624     25.66538429
P         7.59795380     25.85111809     24.42090034
S         8.73681164     25.46565437     27.70368958
S         5.84853935      8.56491280      8.36516094
S        11.08528423      8.45378399      8.34585094
S         7.98145294      8.39069939      5.36582947
S         8.90512657      5.97854805      8.73827457
S         8.83287907      8.38417816     10.89895630
P         7.66541529      8.86377430      7.36749744
P         9.25291061      7.92560196      8.93912792
S         8.06963825     10.85509777      7.52035475
S         5.96203613      8.31451416     16.77873421
S        11.19202042      8.21526718     16.89885139
S         8.09468079      8.45702362     14.02316284
S         8.78195953      5.83125830     17.27403450
S         8.88059616      8.76184464     19.09974289
P         7.62228870      8.98857021     15.88660336
P         9.19455147      7.83060026     17.16587257
S         7.90965891     11.01853275     16.21027374
S        10.88446712      8.45773315     24.90387726
S         8.35732746      8.27587700     22.56491089
S         8.84853363      5.90769911     25.79495621
P         7.66093302      8.92924309     24.39811897
S         8.82723427      8.47700882     27.68778801
P         9.11046410      7.92750168     25.83975792
S         8.08422279     10.93275833     24.74024773
S         5.86306477      8.51106930     25.21880341
P         9.19820499     16.29646111      8.86999130
S         8.37458515     19.17106819      7.68289280
S         5.84550858     17.08213234      8.34049511
S        10.97343731     17.15357971      8.26320648
S         7.85006332     16.86564255      5.55568409
S         9.05474186     14.18407249      8.61225986
S         8.60954666     17.15326500     10.75604725
P         7.73568821     17.30899048      7.46131516
P         9.23929310     16.46923637     17.23163414
S         7.93886805     19.57365608     16.13034058
S         5.89930248     16.90832329     16.66494370
S        11.03069496     17.01124001     16.59288216
S         8.26539898     16.43077087     14.23642063
S         8.56903362     14.48961544     17.10388756
S         8.89103794     16.79997635     19.32237434
P         7.81214952     17.54634857     16.06303406
P         7.75669193     17.32560539     24.51009750
S         8.20342636     19.33324432     24.73773193
S         6.02710104     16.79408073     25.19355011
S        11.00470924     16.86578369     25.14044189
S         7.96314096     16.88641548     22.62138367
S         8.85317135     14.41078568     25.59695816
S         8.64828873     17.26620674     27.50053787
P         9.18553066     16.33496857     25.85198021
P        16.20652008      0.52666289      7.52559280
S        16.53786087      2.57352734      7.72155905
S        17.34727669     -2.69139791      8.76074886
S        19.49643898     -0.12035676      8.07592869
S        17.23402977      0.15695079     10.80083275
P        17.69735909     -0.57919955      8.80182934
S        16.65748787     -0.16243395      5.62470388
S        14.26865673     -0.08664649      8.23056507
P        16.12431717      0.46128240     16.08742523
S        16.63661766      2.48746586     16.05920219
S        17.36992073     -2.56728530     16.92424202
S        19.61694145      0.08955965     16.60326004
S        17.12296486     -0.01035032     19.20113945
P        17.62109375     -0.54889506     17.33437157
S        16.71154404     -0.42234367     14.25379276
S        14.23683453      0.12647910     16.88640976
S        16.66661644      2.49534106     24.34527779
P        16.26767731      0.48565915     24.37355804
S        17.31324768     -2.74876952     25.77713966
S        17.15987396     -0.04204874     27.70304298
S        19.60907745      0.19935900     25.32960892
P        17.68413162     -0.73719072     25.77639198
S        14.43906403     -0.06612314     25.37593651
S        16.30757332      0.02410694     22.46451187
S        17.06794167      8.48814583     10.76835537
P        16.16847610      8.79661083      7.51930237
P        17.75777626      7.82370996      8.90584183
S        16.78099632     10.82538700      7.42937374
S        14.33726406      8.80929089      8.41251945
S        19.49423218      8.68716240      8.52315998
S        16.18313980      8.21126842      5.60100842
S        17.65656471      5.76926756      8.38552475
S        17.31960297      8.45300198     19.32656860
P        16.12631226      8.92003059     15.98996830
P        17.58003998      7.97701311     17.45055389
S        16.74569130     10.85204411     15.91444778
S        14.33500957      8.52146721     16.76246834
S        19.46361732      8.57059669     16.80206108
S        16.40223312      8.37212944     14.03474903
S        17.46639824      5.75398016     17.06966400
S        17.44489861      8.37818813      2.47165680
P        17.74762344      7.95663500      0.48788834
S        16.56476021     11.00514698     -1.11096311
P        16.05282021      8.95878887     -1.07577777
S        14.34217834      8.40256977     -0.21311797
S        19.63963509      8.47638416     -0.02443219
S        16.37465096      8.45908070     -3.05764341
S        17.27554131      5.78409243      0.26215765
S        17.39010429     14.44278908      8.70215702
S        17.17890358     17.17520714     10.85221004
P        16.07484245     17.47225761      7.51015234
P        17.63824654     16.39532089      8.85504246
S        16.42503357     19.42539787      7.80028534
S        14.37539196     16.89599609      8.23490906
S        19.68153572     16.63641548      8.04789829
S        16.67507553     16.78074837      5.54039049
S        17.50511932     14.35376930     17.05418968
S        17.08459854     16.98979378     19.15225220
P        16.15070915     17.38853073     16.02971458
P        17.71409416     16.43096542     17.32381630
S        16.76508141     19.40490913     16.15383339
S        14.23816586     17.03390884     16.82604790
S        19.70006561     17.02007103     16.86838150
S        16.28646278     16.60054970     13.93928432
S        17.14366913     14.42461777      0.15012071
S        17.50029373     17.31969261      2.23512554
P        17.57786179     16.45634270      0.34613281
P        16.28660965     17.46357536     -0.97560173
S        16.43773079     19.35327148     -0.54111099
S        14.44224739     16.72693825     -0.41144887
S        19.40241623     16.71637154     -0.27883568
S        16.65345955     16.76510239     -2.78602839
P        24.70779991      0.53197038      7.48152208
S        25.18833542      2.44580173      7.73269367
S        25.93872452     -2.57600403      8.67460823
S        27.87385750      0.06478569      8.16685009
S        24.97647667     -0.28960323      5.53258562
S        25.53198814      0.09502745     10.69410133
S        22.91524887      0.01826121      8.41153908
P        26.11532211     -0.67625523      8.84792900
P        24.68224144      0.48169899     16.05498886
S        25.15740967      2.46642041     16.16103363
S        25.63669014     -2.53338194     17.32628441
S        27.68285942     -0.04765628     16.46793747
S        25.17486954     -0.01201381     14.01620674
S        25.99499130      0.10676850     19.36889076
S        22.79364586     -0.30311307     16.52225876
P        26.12448692     -0.54187638     17.43454742
S         2.60171008     25.32638359     25.07991600
P        -0.75329942     25.89806557     24.47552681
S        -0.42060381     27.87925911     24.84512520
S         0.15173633     22.86326981     25.74900246
S         0.42048240     25.75334930     27.57646179
S        -2.69430852     25.19115639     25.04006958
S        -0.32916608     25.35166740     22.53260231
P         0.86645651     24.75868034     25.85283279
S         0.79604739      5.84883261      8.44969845
P        -0.87528414      8.97349644      7.60345173
S        -0.01219339     10.88455963      7.39752007
S         0.12388163      8.38473129     10.65832806
S        -2.75901055      8.68474579      8.33835983
P         0.74663740      7.82910776      8.86190796
S         2.58406782      8.67559338      8.49311161
S        -0.76936752      8.13597965      5.74407530
S         0.40670562      5.93016100     17.08359337
P        -0.78068012      8.95916653     15.92047501
S        -0.37337482     10.99459457     15.91846752
S         0.31753373      8.36695957     19.17982483
S        -2.51184797      8.49434948     16.89557076
P         0.66201878      7.91706419     17.37154388
S         2.66719675      8.51155376     16.94158936
S        -0.55243349      8.24570465     14.03436470
S         0.29967880      5.80514669      0.27056703
S        -0.48153952     10.96083450     -0.67094857
P        -0.79192269      8.97052670     -1.01650262
S        -2.75538397      8.51547050     -0.32947001
S         0.47342774      8.58797932      2.23673964
P         0.74382293      7.89576387      0.30067194
S         2.60726166      8.45797253     -0.28147775
S        -0.25782511      8.22552109     -2.77416539
S         0.38389486     14.34790897      8.59715176
P        -0.69774038     17.42369270      7.54326057
S        -0.22149993     19.55512619      7.57599640
S         0.14170374     16.95684624     10.70798397
S        -2.46745658     16.84086609      8.39612007
P         0.68216443     16.42644882      8.80244923
S         2.49348593     17.01869392      8.22371387
S        -0.47592518     16.65395737      5.69570684
S         0.19906251     14.38704491     17.13193703
P        -0.75332552     17.51014137     16.00081444
S        -0.62764865     19.48936462     16.21534348
S         0.51644796     17.11408043     19.33407402
S        -2.63411641     16.86012268     16.47957611
P         0.79629880     16.36955643     17.40201569
S         2.58623362     16.76424217     16.55414391
S        -0.24233304     16.72998810     14.23129654
S         0.38438126     14.44723701      0.10849915
P        -0.78984058     17.46837234     -0.97511846
S        -0.42037463     19.58300209     -1.01499844
S        -2.74793625     16.96825981     -0.33519953
S         0.45265841     16.77039719      2.35233998
P         0.82279295     16.46222878      0.43868846
S         2.68666387     16.92369270     -0.08325673
S        -0.54806697     16.60308838     -2.74943495
S         4.23416233      6.74166584      3.16066957
S         4.77474880      5.41281748      6.25641155
P         4.94766951      3.52998948      3.78318501
S         6.96606588      3.70931959      3.95716739
P         3.76276374      5.27405500      4.46362829
S         4.22594929      3.34027672      1.84071553
S         4.19147396      1.77732372      4.35696030
S         1.67826140      4.62023354      4.44087124
S         4.21467686      6.87433958     11.84973335
S         4.71180105      5.49974108     14.77590752
P         5.01143074      3.38181233     12.12344265
S         6.94296408      3.74525547     12.29575253
P         3.75684333      5.21906090     12.90808678
S         4.30364990      3.23549604     10.17814732
S         4.02825403      1.88845730     13.00409317
S         1.81344450      4.55460405     12.92199135
S         4.02617025      6.71411467     20.01934814
S         4.78462648      5.32680845     23.34629440
P         4.76925611      3.48987722     20.60909653
S         6.82497454      3.69451857     20.98963547
P         3.81532335      5.30201483     21.47333527
S         4.38159609      3.35854602     18.47082329
S         4.21610689      1.80607641     21.52722359
S         1.95875871      4.71331120     21.42800331
S         4.07018471     15.44250488      3.14650965
S         4.76574278     13.89306927      6.31760979
P         4.86104918     12.04213524      3.59069467
S         6.87447929     12.12270927      3.95748687
P         3.82704663     13.65546608      4.52638578
S         4.39102459     11.83573055      1.50454056
S         3.99267745     10.24382019      4.72352266
S         1.99813056     12.97149372      4.48844433
S         1.74041486     13.25063705     13.05570602
S         4.41486025     15.17074871     11.57387829
S         4.47399426     13.96012497     14.83320522
P         4.84697390     11.86085796     12.13755798
S         6.86147594     12.17141628     12.27351475
P         3.68226504     13.65474129     12.94823742
S         4.31919241     12.00337601     10.14542961
S         4.43575287     10.12883472     13.09146976
S         1.66741598     13.20190907     21.43546486
S         4.47006130     15.06096363     20.04106331
S         4.56545973     13.87083721     23.39950752
P         4.96647882     11.88989353     20.61529922
S         6.88872480     12.32987690     20.70466995
P         3.67533422     13.71770382     21.48610497
S         4.26341820     11.90289021     18.62600327
S         4.28186655     10.22979355     21.55628967
S         1.76194465     21.63749695      4.39728689
S         4.43211126     23.70606613      3.35618424
S         4.55787516     22.22359467      6.35827303
P         4.78435230     20.58414650      3.57014704
S         6.95153189     20.66071320      3.66523981
P         3.62212014     22.18491173      4.50482798
S         4.33734035     20.10299492      1.68073678
S         4.32347631     18.91431046      4.72106552
S         1.83532250     21.74595642     12.79452038
S         4.25589609     23.70682335     11.72502899
S         4.58932924     22.16759682     14.90444469
P         4.92266750     20.44594193     12.19943810
S         6.89898109     20.85897636     12.17070293
P         3.84701467     22.20163727     13.04262543
S         4.25818634     20.06954384     10.10153294
S         4.17571402     18.81361961     13.12602520
S         1.72535872     21.77829933     21.35940361
S         4.38598490     23.58446693     20.11364746
S         4.49511671     22.23574829     23.33010483
P         4.93727493     20.33074951     20.56495285
S         6.84943771     20.80024910     20.64963531
P         3.79395580     22.00586319     21.43606377
S         4.26662111     20.45569611     18.63377571
S         4.32805347     18.80844307     21.77340508
S        12.59725761      1.92496359      4.75667620
S        10.35628605      4.66263056      4.19252920
S        12.52551937      6.98192644      3.41598296
S        13.44691277      5.14579678      6.23076010
P        13.31697464      3.41595316      3.65894532
S        15.39568329      3.84787917      4.00524521
P        12.24993229      5.28712177      4.39997101
S        12.69251728      3.13597298      1.59310591
S        12.69999695      1.83334672     13.01762295
S        10.24270344      4.60085821     13.09235287
S        13.05792522      6.63716221     11.64546871
S        13.01849365      5.43264246     14.81456280
P        13.34210682      3.49614644     12.12576866
S        15.33208370      3.92286611     12.34242725
P        12.17559052      5.16538382     12.92398453
S        12.71050549      3.31242609     10.09558296
S        12.86639595      2.00460887     21.76707077
S        10.26431370      4.73295116     21.22776413
S        12.84331226      6.74349737     20.33328819
S        12.80245876      5.32971191     23.31788635
P        13.49310112      3.35603237     20.50290298
S        15.51441860      3.65989804     20.54762077
P        12.25109577      5.18309164     21.45602417
S        12.55202007      3.38687396     18.70699501
S        12.68919373     10.30249310      4.88954353
S        10.25043869     13.29750252      4.35798025
S        12.66034603     15.17226028      3.28284740
S        12.88774490     13.88224030      6.49212456
P        13.44614315     11.82922363      3.58068705
S        15.49986458     12.12711620      3.44887900
P        12.26567364     13.63167000      4.52782822
S        12.88660812     11.95636749      1.67501163
S        12.67135715     10.39606953     13.17455292
S        10.25510502     13.32745838     12.85253143
S        12.75096703     15.18779945     11.70618439
S        13.11900234     13.64929295     14.91667080
P        13.28890991     11.91153908     12.02702713
S        15.34606647     12.44928074     12.22087765
P        12.29490757     13.70383453     13.05708885
S        12.85534000     11.57885647     10.10401058
S        12.67923737     11.87224770     18.69587517
S        12.76558685     10.27118778     21.66650391
S        10.29846573     13.35722828     21.25204468
S        12.71451283     15.16246605     20.25723648
S        12.90925312     13.89328766     23.33896828
P        13.39871979     11.80796814     20.59533310
S        15.47868347     12.29040432     20.57952309
P        12.34255505     13.54025078     21.47796440
S        12.76534081     20.08639717      1.59483469
S        12.82789135     18.75774956      4.75673962
S        10.33894825     21.79037094      4.25762272
S        12.77750111     23.81925201      3.47048163
S        13.03356743     22.40894127      6.43016052
P        13.32713509     20.34508705      3.53693247
S        15.26394749     20.75485420      3.67032003
P        12.24699688     22.03846169      4.53662109
S        12.76574039     20.35625076     10.10237122
S        12.70031738     18.89805603     13.27906799
S        10.23194504     21.75384712     12.93586636
S        12.79587173     23.54795456     11.74049282
S        12.88856220     22.32201385     14.95082855
P        13.52364635     20.41963005     12.04840755
S        15.47582912     20.66967010     12.06366634
P        12.20466042     22.03614807     12.93480873
S        12.66454697     20.32884598     18.76693535
S        12.67056656     18.61223221     21.58887100
S        10.38441372     21.70570183     21.20261765
S        12.54599762     23.82601929     20.30647850
S        13.10741806     22.43266869     23.20090103
P        13.35077572     20.25262451     20.54818916
S        15.49555016     20.71330643     20.78452682
P        12.36694431     22.12967110     21.46281052
P        20.77361679      5.15220690      4.54184103
S        21.17773247      3.40512228      1.62038255
S        21.15194321      2.05918455      4.82970333
S        18.80120468      4.73853350      4.39406204
S        21.19320107      6.61821413      3.08873010
S        21.46927261      5.12600994      6.44876480
P        21.93318558      3.53548551      3.57248855
S        23.89055824      3.76696515      3.75912881
S        23.81902695      3.73842311     12.43646717
P        20.79265213      5.21096849     12.90567112
S        21.26605988      3.30140257     10.10659122
S        21.27792168      1.77750015     13.12214756
S        18.85437202      4.79779768     13.06147671
S        21.15036774      6.87576771     11.58834648
S        21.47939491      5.27938223     14.82051468
P        21.74517059      3.41849780     12.01206398
S        23.67912102      3.98309922     20.37940598
P        20.69848442      5.10402393     21.44257164
S        21.10272026      2.89967251     18.60964203
S        21.55447197      2.04173565     21.88932800
S        18.68840981      4.98810863     21.11445045
S        21.58491707      6.94975471     20.56404305
S        21.24798965      5.10502958     23.36799622
P        21.82848167      3.32137012     20.49126053
S        23.82420349     12.25554276      3.71896243
P        20.63958549     13.70945072      4.51140928
S        21.19262123     11.71760368      1.64844525
S        21.16389847     10.35265255      4.74894047
S        18.84689903     13.07127953      4.43910408
S        21.38380051     15.35964012      3.28611159
S        21.45824814     13.74410820      6.25774288
P        21.87491798     11.99695396      3.64584613
S        23.92700195     12.26897907     12.02404976
P        20.69576836     13.68388367     13.13453960
S        21.43396759     11.63590813     10.16547585
S        21.05547523     10.37463284     13.08438301
S        18.66465187     13.21397591     12.90943527
S        21.25702095     15.16870117     11.76543427
S        21.50403023     13.90666389     14.93564415
P        21.84723091     11.95208931     12.04316521
P        21.80374527     11.88018036     20.50649834
S        23.69460869     12.32414246     20.60269737
P        20.72224998     13.69756889     21.58352852
S        21.41107750     11.50750351     18.56869698
S        21.24243546     10.20687675     21.58864975
S        18.74821281     13.35942459     21.35169411
S        21.24830818     15.36655426     20.27698326
S        21.51392365     13.86060047     23.38527107
P        21.95022964     20.34031487      3.57245445
S        23.86185837     20.72984695      3.76546359
P        20.75913239     22.19545364      4.35089159
S        21.34466743     20.04936600      1.67753530
S        21.05005836     18.80444908      4.69925213
S        18.75618553     21.71660423      4.50244808
S        21.09968185     23.95328522      3.40457344
S        21.56899071     22.21697426      6.27598333
P        21.88852882     20.40503883     12.00690937
S        23.86340332     20.68434715     12.54672527
P        20.86267471     22.16865349     12.75891781
S        21.30442429     20.12109375     10.10680676
S        20.93031311     18.86997414     13.06917667
S        18.97263336     21.59784317     13.11249161
S        20.92116547     23.93453217     11.75626659
S        21.64908028     22.22610283     14.69081593
S        21.57748985     22.25821304     23.34881973
P        21.84427071     20.33644295     20.51052856
S        23.74853706     20.70043755     20.81003761
P        20.78661346     22.13349152     21.39299011
S        21.28769493     20.20968819     18.59067345
S        21.21336555     18.87692070     21.61352158
S        18.78172684     21.70183945     21.40096855
S        21.14843750     23.78701973     20.19012833
