648

Na       95.03402710     74.25753784    -35.99030685
Na      117.61965942    -87.48098755    133.29629517
Na      -17.35931778     30.90479851    -78.74628448
Na      -17.76910591     89.89474487     48.26620483
Na      -42.77636719     30.65687752     90.69066620
Na     -221.29751587     22.22197151     -2.37842226
Na      117.01384735     57.61777496     61.82324219
Na      138.17630005     60.84995651     96.17430878
Na       53.54777527     -7.48510408     44.90796661
Na      128.61387634     91.40145111    -36.17642975
Na       56.09757996     -9.16265202      5.48314285
Na       42.89140701     10.89567184    -37.58773041
Na     -172.76289368    -64.89980316    -94.13878632
Na      -14.47383308     98.57181549     35.24088669
Na      -28.43649101    129.91145325    -43.38834763
Na      -44.23402786    -10.69423103     36.02048492
Na      -22.27844810     76.76902008    -23.23999977
Na      150.77154541     78.32657623    -91.29325867
Na       38.93606949    -22.74200821    -34.73117065
Na       46.45637131     11.10000992    -52.19158554
Na      -57.05924225   -164.29757690    -23.52376366
Na     -123.80796051    -41.92010880    -22.82915688
Na      198.66044617     83.86098480    -11.12531757
Na      -29.24160194    -31.62068939     83.29661560
Na      -26.79599190    -31.73759651    -40.41157150
Na      -27.36187172     65.72033691    -15.06277084
Na      -89.58692169     14.69669342    127.45664215
Na      123.86264801     75.77070618     -2.79837632
Na      -30.96776772    -53.79309464     26.06262779
Na       40.78315735     98.03652954    -44.24477005
Na       79.68754578     39.98888779   -101.23086548
Na      -18.23708916     36.00991821     27.05459404
Na      163.60255432     39.44329834    120.49150085
Na       49.20316315     65.77332306     44.06866837
Na       22.53277397     19.64517975     -0.97955126
Na      -72.67007446   -109.52438354     53.32820129
Na      -65.37245941    -79.12113190     19.08450699
Na        3.31270885    -53.60324097     68.40346527
Na      -13.99994183     93.94827271     -5.50705099
Na      126.28712463    -71.40721130    -69.92607117
Na      217.51196289     33.22923279     65.14176178
Na      -24.07684326    -90.80737305     18.74985695
Na       79.38606262     90.84323120    -33.14937210
Na      115.29366302     -0.70270419    107.40184021
Na       87.61444092     30.92012215     77.25437164
Na       77.84041595     27.92844963    -36.94442368
Na       98.28052521     41.81610870     22.85679245
Na      -43.01406860     44.58272552   -100.32340240
Na     -370.74978638    -94.74932861     56.80043030
Na      -14.74036503     34.03920746    -88.05190277
Na       87.92632294    -33.12973404    -40.08150101
Na      172.44721985    -41.73568726     44.41820908
Na       46.22832870     36.55685043    -43.70185852
Na        4.73974419   -150.19552612    151.29414368
Na      -45.98639297   -166.82969666    -60.57410431
Na      -85.90447998     -3.21475101    -27.77472496
Na      -52.67044449    -83.04512787    -23.75377464
Na      138.99136353     48.43660355    -75.24538422
Na      -24.18332863     69.61401367    -37.19919205
Na     -128.03402710     13.92659283     73.68878937
Na        5.24783087     24.56127357    -53.65250778
Na       37.88391876     67.46643829     65.39727783
Na     -107.22169495     93.86639404     19.29680824
Na       -6.91997004    -86.92267609     -1.95143461
Na      -91.63526154    -74.28145599     98.45994568
Na       86.83235168    -27.09086037    -10.53748322
Na      -46.82420349    -26.07737350     82.15921783
Na      171.56510925     49.04413223     23.21497154
Na      -19.45361328    -70.51071930      1.27147353
Na      146.26599121    134.60232544     22.33699989
Na      186.01742554     90.17675781     65.36048889
Na       39.86862183     -0.95913917    -87.67014313
Na      249.13575745      0.66467172     36.19235229
Na      -83.52037811     53.59144592   -113.04473114
Na      125.62145996     18.85059547     -6.70153904
Na       15.50172329     36.30183029     35.40818787
Na      154.74792480      8.37665176     21.09877396
Na       66.25872040     44.66200638     35.49687195
Na       32.58176804    -10.66315269    -31.57165337
Na        3.35128140      5.77859259     34.94854736
Na       78.52451324     61.40254593     24.07966614
Na     -108.95581055      6.10839748    -19.09282684
Na      -45.45960236     95.87063599    -27.01656532
Na     -205.59063721     86.35230255     95.14929962
Na      135.99153137     79.53298187    -90.92345428
Na      -52.32622147     56.64167404     36.01753235
Na      -63.54732513    -23.44684219    151.39447021
Na       27.76937103     13.70576668    -40.79349136
Na      -49.98197174     53.03385544    -29.61687660
Na      -54.25493622     -0.57974404     65.02404785
Na      -19.41600800    102.61485291     28.54836655
Na       -7.18078995      2.78874874      2.01566339
Na      201.37704468    137.29620361    -23.49539566
Na        7.24857378    -31.89233208     69.89086914
Na       95.64936066   -102.88906097     56.33303070
Na      -92.49446106    171.98670959   -113.67861938
Na      -45.55466080     58.89492798     48.04755402
Na      125.38484955      1.69086790     -7.16914320
Na     -127.83781433    149.26828003    -19.10365486
Na      204.66574097     11.49678326    -23.48112869
Na      208.84666443    -47.97800064     -8.92488003
Na       86.25342560    -27.66387367    -18.89657402
Na      151.27612305    141.18020630      5.46251726
Na       83.15824890    108.22250366    -57.13298798
Na       12.77407265    -59.50111389    -18.94073868
Na       38.03661728    160.43624878   -129.33970642
Na      -81.88911438     26.95275688     -6.88181257
Na       94.94783020     27.96750641    -28.00283813
Na      -22.71499634      0.98923737    112.23612213
Na        7.76378679    -11.06813431    104.24896240
Na      -15.63807583     11.14031792     87.02769470
Na      -35.26053238     30.48537445    -10.42013264
Na     -102.65488434    -53.97662354    142.00973511
Na      122.22228241    124.90460968    -16.44601059
Na       93.58642578    121.14914703    -20.76906013
Na       69.16609192     44.97537231     86.22191620
Na      128.64863586    -61.71121979    -69.62246704
Na      121.20938873     94.96833038    -23.63388634
Na      129.19108582     19.48708534    -44.49699020
Na       -1.66080439     23.14542770    137.65248108
Na      -51.24761581   -146.22944641     28.74694443
Na       73.15276337    -14.41924191     66.21963501
Na     -191.76499939     17.69509506    -22.76450920
Na       84.06494904      5.49237823     30.96160698
Na       31.02487373    -22.12066269     58.14318466
Na       15.18241215    -61.12791061     27.35626221
Na      -10.76824665    -24.87136078     45.27164841
Na      245.28544617      6.20376062     96.45207214
Na      -18.57785034   -196.66030884     86.45578766
Na      137.69644165    121.52774811     57.10468292
Na       21.50528717     33.30635834    -19.62693024
Na      -49.54006577    -72.62705994     27.34124184
Na      268.54623413    117.91399384     47.84912491
Na       30.73542213      7.46734524    -10.84266186
Na       19.96108627     14.08182144     60.54143906
Na     -240.03956604     83.98719788      5.47106409
Na       95.25392151     30.38874817    -66.16384125
Na     -115.74073792    -44.77751541     -7.16745949
Na        1.73169994    146.19404602    -78.89974976
Na        2.93312311     77.20861053    -32.05824280
Na       72.51319885    153.09735107    -23.41438484
Na       52.50772095     10.39298058     81.67143250
Na      115.07331848     50.01152802     48.01704407
Na       28.90213776    124.51116943    -24.71323586
Na      160.90078735    140.94610596     31.63661766
Na       32.28556824     72.84828949    -18.10284233
Na       98.41356659    143.58885193     14.13809776
Na      -83.47594452     -6.42897844    -37.33045578
Na      134.10700989    112.42589569     69.00366211
Na       -3.74090171    -31.00316811    -35.04644775
Na       28.75300217     34.94208145    -14.72398186
Na       87.91921997    -16.08511353     78.33469391
Na      115.65921021    121.67549896     40.67468262
Na       59.72989655     86.80973053   -130.80061340
Na      -55.99466324    -16.23052788     87.26271057
Na      126.36935425    183.27937317     14.42280579
Na       55.81475830     -9.12769318    -78.99416351
Na     -238.93272400     95.03727722      1.35170674
Na       85.50182343    -48.54019928    106.91181183
Na       30.51597404    -82.33363342     41.45698929
Na       -2.95092249      3.03594613     -0.81691647
Na       15.23405361     36.02973175     77.56249237
Na      -33.06523895     46.24973679    -82.94908905
Na      112.78739929    -36.80430603    -15.42005157
Na      -11.06776524     62.47672653    125.11318207
Na        4.86998940     84.29390717     82.01898956
Na       11.38907719      0.34100166    -22.74928093
Na       68.67146301    -40.35849380    106.09123230
Na       52.49590683     35.43105316    -61.56639862
Na      167.37570190    111.64476776     18.93538475
Na      -77.41567230     48.57897949    -22.85470963
Na      111.40191650    -72.67070007    -57.71760178
Na       91.37770844     52.77267456     86.51353455
Na      -35.85507965     -7.67924690     44.90963364
Na       56.87892151     25.34971619     37.76193237
Na       28.89340019     48.16736984     85.28412628
Na     -315.14462280    -27.53881264    112.22643280
Na      -57.85100174     44.18750763     -2.80569792
Na      -61.60852814     98.80364990     -7.30739164
Na      -16.47270966    -91.37190247     80.85901642
Na      108.65447235    146.48513794    -15.26841259
Na      209.68334961    126.85451508    -56.42916870
Na     -145.54211426    -27.53640556    129.10685730
Na      -23.34019852   -102.93218994     13.55238819
Na       56.26932907     -9.28672409     90.66439056
Na       -9.77157879    -96.82099915    -27.60028458
Na       88.21074677    -24.65370369    -14.61841965
Na      -85.90725708     14.37377739    -87.41263580
Na      -43.50991821    -28.22184181    -61.11947632
Na       49.34926605     10.55596066    -66.40815735
Na       61.52959442     95.79941559    -27.43015862
Na      171.34896851     91.44548035     14.74519157
Na       49.03498459    124.96694946     -6.46345568
Na      117.03134155     91.00022125     61.25917435
Na       14.74165726     65.25081635    170.52682495
Na       12.24905300    -14.09339809   -111.22812653
Na        1.26987815     52.90859985      6.07477427
Na      173.59329224    118.30773926    -95.74441528
Na     -141.83026123      2.36999083     14.74559784
Na     -132.89280701    -62.73487091    -84.31743622
Na       41.30832672     49.36480331     28.55413818
Na       90.40737915     79.40586853    107.79373169
Na       64.14239502    -14.65842247     58.22665024
Na       99.35677338    141.73008728     27.33592796
Na      170.19627380     87.30000305     46.99634171
Na      -74.49846649      5.77909184   -128.94244385
Na       45.42585754    133.13563538    144.56968689
Na       49.03308487     57.43066406     73.88449860
Na       69.03125763     27.60162354    -20.10112953
Na      203.24432373    -79.13551331    -53.07022476
Na      -60.91870880      6.13471842    -23.66975212
Na      -81.67356873    -96.05510712    -25.06068611
Na       37.36315536     82.01201630      9.38585472
Na     -175.07550049     82.18070221     18.08645630
Na      -21.70439720    -58.67750931    -40.61521149
Na       49.20976639     31.41365242    -31.80154037
S         8.94452763     25.53452301     10.72304058
P         9.20874977     24.97973824      8.80997658
S         8.08724022     25.15340233      5.52319193
S         5.83705378     25.23675537      8.03797436
S         8.75169659     22.95977211      8.88058567
P         7.66105318     25.96297836      7.43019152
S         8.08941269     27.94175911      7.98067427
S        11.05986118     25.26263237      8.15315533
S         8.70275879     25.17622948     19.38232613
P         9.15869236     24.90236282     17.35472488
S         8.01394081     24.88795471     14.22295856
S         5.79527521     25.72626114     16.65937042
P         7.72779799     25.88229752     16.00754738
S         9.03617954     22.93389130     17.04899597
S         8.20635223     27.88639259     16.10140610
S        10.99916744     25.63079453     16.57049179
S        11.16841125     25.47883987     25.31857491
P         9.15673637     24.96039200     25.83106804
S         5.84569120     25.45805359     25.19527626
S         7.83716869     25.09820366     22.54244614
S         8.20162678     27.84850311     24.46791458
S         8.92950630     22.95852470     25.49917984
P         7.72604895     25.91670609     24.49699211
S         8.77484798     25.31010818     27.80007362
S         5.75163078      8.54943752      7.94347858
S        11.13015842      8.16420174      8.28075409
S         7.78660440      8.23106384      5.75414419
S         9.25310802      5.87235022      8.70865917
S         8.83144665      8.40279865     10.85262012
P         7.62947416      9.15503693      7.49490213
P         9.27656555      7.87481880      9.00593472
S         7.98184204     11.17507553      7.50716782
S         5.89364862      8.55819321     16.79311371
S        10.96218395      8.54472256     16.85293770
S         8.02094555      8.11207104     14.17692852
S         8.92845535      5.94401217     17.07649231
S         8.86922741      8.28103352     19.34166336
P         7.66233206      9.07402229     15.88070488
P         9.15806961      7.97649574     17.24950027
S         8.14305115     10.93493462     15.96857834
S        11.15545845      8.36156082     25.25370026
S         8.07402611      8.27314568     22.52433395
S         8.65091515      5.99984312     25.43545341
P         7.71068001      8.97990131     24.45719528
S         8.86733818      8.50268555     27.87381935
P         9.21300888      7.95956087     25.93901634
S         7.98576117     11.06205177     24.38488388
S         5.98424053      8.28295708     25.28544044
P         9.17460632     16.38250351      8.76147461
S         8.35980988     19.29592514      7.60089827
S         5.99287033     16.78602600      8.55972767
S        11.10576153     16.98834229      8.48660564
S         7.79532242     16.87068558      5.47321224
S         8.91753006     14.40616798      8.62453938
S         8.59244633     17.08822823     10.69560337
P         7.70146227     17.40347672      7.33172894
P         9.21082497     16.32725716     17.35151672
S         8.04226303     19.46817017     15.86225414
S         5.92416668     16.98941803     16.74860191
S        11.04205132     17.01495552     16.87490845
S         7.97207212     16.73187828     14.04995155
S         8.83635998     14.40044785     17.12671089
S         8.90891361     16.79813194     19.35047913
P         7.70449305     17.49223709     15.98243046
P         7.61964083     17.36569023     24.43408203
S         8.17755032     19.50124741     24.42554283
S         5.80693579     17.04432487     25.22286034
S        11.16173840     17.01767731     25.17535210
S         7.95488977     16.63157463     22.59327507
S         8.92583942     14.41692924     25.46113777
S         8.71930027     16.83326340     27.86911964
P         9.27452946     16.41030884     25.97283745
P        16.28827667      0.53313911      7.53990602
S        16.40015793      2.51885295      7.43103313
S        17.28200722     -2.52654457      8.59568310
S        19.56333923      0.01499833      8.33965874
S        17.35947609     -0.12101688     10.83657169
P        17.68264771     -0.61133945      8.90253162
S        16.52312088     -0.27492687      5.61431789
S        14.34888268      0.08307046      8.28597164
P        16.22592354      0.38618490     16.08595848
S        16.41429901      2.42725253     16.37116432
S        17.18037987     -2.62710094     17.05684471
S        19.57077408     -0.21957856     16.55551529
S        17.30162239      0.46645057     19.09872627
P        17.62874985     -0.58720267     17.36414528
S        16.74959755     -0.11043786     14.16599846
S        14.37260723     -0.12351489     16.65245247
S        16.69663048      2.58920407     24.62449455
P        16.11303902      0.47445187     24.57842636
S        17.31794167     -2.55996728     25.64586258
S        17.28858376      0.20171827     27.53541756
S        19.64169693     -0.11446019     25.22968483
P        17.59193230     -0.58871156     25.78325462
S        14.34155464     -0.26332343     25.10479546
S        16.44748306     -0.12390589     22.65073586
S        17.30078316      8.54033279     10.77091599
P        16.07339478      8.95281124      7.49345589
P        17.70274734      8.00478935      8.77738285
S        16.46523094     10.92785358      7.60368061
S        14.40937328      8.30038643      8.27945137
S        19.59995270      8.28867149      8.14797497
S        16.72703171      8.46119213      5.68064785
S        17.16276741      5.94628525      8.78632355
S        17.27588272      8.70060158     19.19297028
P        16.09386444      8.96168137     15.95437527
P        17.67079163      7.93425083     17.26262665
S        16.88631058     10.83633041     16.33464432
S        14.23551083      8.27378273     16.58289146
S        19.47401810      8.51393509     16.63078308
S        16.46699333      8.30325127     14.20311546
S        17.33751678      5.89639044     17.18146515
S        17.17420387      8.38588524      2.21054125
P        17.72031021      8.02123260      0.37563342
S        16.68704414     10.91886520     -0.93898052
P        16.20629311      8.94225979     -1.00198245
S        14.44559288      8.42824078     -0.12704071
S        19.63931465      8.57953930     -0.05009383
S        16.30190277      8.19698143     -2.83741570
S        17.27173996      5.94951868      0.10779803
S        17.46888542     14.31087017      8.72244358
S        17.04254341     16.99389458     10.53350544
P        16.22796822     17.33911133      7.51280069
P        17.77540970     16.38637924      8.77051926
S        16.59150696     19.40648270      7.63150549
S        14.36944675     17.05478287      8.39454842
S        19.65250587     16.93781853      8.41883087
S        16.32074738     16.78995514      5.55610609
S        17.16989326     14.54708481     17.10370827
S        17.45129204     16.88080215     19.33742714
P        16.12487411     17.36756325     15.85059643
P        17.64483833     16.49723053     17.39487839
S        16.58029747     19.45258141     16.06113052
S        14.37820053     16.83500671     16.78585243
S        19.48648834     16.92011833     16.77787781
S        16.60518074     16.72365189     14.03236961
S        17.21335030     14.31733704      0.16269934
S        17.37707710     16.94025803      2.40231967
P        17.64701843     16.26079369      0.45613593
P        16.18684196     17.51233864     -0.95923555
S        16.57779121     19.51362228     -0.83496743
S        14.35085201     16.96234512     -0.30026197
S        19.35496521     17.11661148     -0.45215487
S        16.73534966     16.59761238     -2.73188114
P        24.66725922      0.42688203      7.54353428
S        24.95037270      2.47231555      7.93580770
S        25.72695541     -2.47098875      8.72074699
S        27.99651146     -0.11998194      7.95972633
S        25.25856590     -0.30613524      5.89138699
S        25.73836136      0.15631460     10.64766598
S        22.73896408      0.00336256      8.08154964
P        26.17128944     -0.54696107      8.76054764
P        24.53388214      0.55220050     15.93441677
S        25.12372017      2.49649692     16.13643265
S        25.77976036     -2.48807883     17.09825897
S        28.04550743     -0.19064453     16.64444542
S        25.07724762     -0.16687933     14.01712322
S        25.74681091      0.14916150     19.38403130
S        22.77356148     -0.23350149     16.76818085
P        26.16296577     -0.49801621     17.36271095
S         2.68045402     25.43626213     25.17515755
P        -0.82775253     25.90812492     24.49862099
S        -0.41938320     27.85191917     24.45609283
S         0.57810605     22.75078583     25.79411316
S         0.38451669     25.33578873     27.74549294
S        -2.71890974     25.60036469     24.99360275
S        -0.55696100     25.36996841     22.61556244
P         0.71525776     24.76932335     25.87441444
S         0.40860602      5.89941740      8.48572445
P        -0.82407063      8.91796875      7.57626581
S        -0.12908067     10.87350082      7.48462009
S         0.23584130      8.40340614     10.83094597
S        -2.62670541      8.48989201      8.36388111
P         0.68716192      8.00865269      8.88522053
S         2.51777148      8.65060329      8.22371960
S        -0.43502659      8.17782688      5.69594526
S         0.37004966      5.75554514     17.21995354
P        -0.69124001      9.02912426     15.96081066
S        -0.57034391     10.96047592     16.31777573
S         0.16075261      8.64520168     19.19225883
S        -2.57073617      8.56213760     16.58535194
P         0.90208054      7.85916948     17.23958778
S         2.84196877      8.40909386     16.71122169
S        -0.59619957      8.19921589     14.11534691
S         0.35671458      5.87986183      0.34312832
S        -0.40186375     10.78531265     -0.65316498
P        -0.76494527      8.82631493     -0.95172954
S        -2.55159950      8.31757164     -0.25989181
S         0.31276539      8.85044670      2.09660053
P         0.72691727      7.88112354      0.41644937
S         2.51478028      8.25276375     -0.32361692
S        -0.35490653      8.62041283     -2.92621613
S         0.13435996     14.44183445      8.93955517
P        -0.76177466     17.44742203      7.42475080
S        -0.45963115     19.36873817      7.89568853
S         0.60911119     17.07983971     10.81991768
S        -2.59547520     16.67493057      8.05108547
P         0.63727176     16.54800987      8.93302155
S         2.45877266     16.76347160      7.99798918
S        -0.18771516     16.90423584      5.48078299
S         0.43651667     14.25986385     17.23359871
P        -0.81916517     17.43003464     15.82195663
S        -0.29974192     19.40238762     16.19806290
S         0.38003996     17.01502228     19.46472359
S        -2.54660130     17.01564980     16.67082214
P         0.68475801     16.26184845     17.43018913
S         2.33307791     17.05975533     16.50062370
S        -0.33430150     16.77359581     14.02409458
S         0.57024419     14.33573914     -0.08054442
P        -0.72049224     17.28010368     -1.09370863
S        -0.13883299     19.35204124     -0.83163691
S        -2.72969270     17.02548981     -0.01708516
S         0.21106039     17.07417107      2.37598777
P         0.67689002     16.48455429      0.50647271
S         2.55984163     17.00814056     -0.11785336
S        -0.59134579     16.66039276     -3.00184155
S         4.64257240      6.66288710      3.46474767
S         4.45784235      5.39438057      6.41205311
P         4.91505384      3.48611212      3.65188766
S         6.73065805      3.96661663      3.51971316
P         3.75825620      5.18472099      4.49862051
S         4.25607920      3.13352871      1.65295696
S         4.27821636      1.90912199      4.72139597
S         1.74115360      4.66377974      4.33495760
S         4.35974407      6.94374657     12.02544308
S         4.55116844      5.06822586     14.85173798
P         4.87417555      3.34039569     12.04211426
S         6.77327824      4.06947851     12.08145809
P         3.83289862      5.13785553     12.89575863
S         4.23571825      2.94877338     10.06229019
S         4.29261780      1.96299100     13.42778492
S         1.86137950      4.92312813     12.66737938
S         4.12903118      6.80977297     20.15152740
S         4.60418415      5.21673346     23.33872414
P         5.03222322      3.35074186     20.56690216
S         6.97980309      3.83618140     20.76538277
P         3.90416169      5.20027685     21.44810486
S         4.19871807      3.28276277     18.64969826
S         4.13674498      1.91726065     21.63774872
S         1.80391932      4.78334045     21.30338097
S         4.41772699     15.05862045      3.17852139
S         4.45148420     13.74947262      6.41153717
P         4.71304560     11.93899059      3.62362814
S         6.72287512     12.46939087      3.82851577
P         3.89892936     13.67904758      4.54261875
S         4.25914574     11.70020390      1.52878785
S         4.31930256     10.36326122      4.65756893
S         1.99523592     13.24523449      4.48569012
S         1.78779984     13.28560925     12.99985409
S         4.35959911     15.00630760     11.61892319
S         4.43988609     13.88855839     15.02451992
P         5.00227594     11.84157562     12.04750443
S         6.87812042     12.33333683     12.16070938
P         3.78516102     13.60092640     13.04598713
S         4.31531906     11.83647823     10.00497341
S         4.21555328     10.40545845     13.15679073
S         1.72172570     13.20225906     21.13590431
S         4.30916071     15.53611851     20.41250610
S         4.52990723     13.60751915     23.33105469
P         4.92793989     11.75899029     20.50363922
S         7.06657028     12.16664410     20.48055077
P         3.67211843     13.68611240     21.34285355
S         4.22035837     11.80611038     18.53666115
S         4.32955837     10.43458462     22.11256027
S         1.73748541     21.72517014      4.50430393
S         4.35378170     23.75548744      3.27343965
S         4.57842302     22.38377571      6.38848114
P         5.00261641     20.22745323      3.57127309
S         6.97101974     20.93370438      3.80751324
P         3.79600883     22.00555420      4.47353220
S         4.24223185     20.14508629      1.67366290
S         4.10252953     18.81975746      4.56052923
S         1.76723063     21.59068489     13.35211086
S         4.13527346     23.66414642     11.65777874
S         4.68306923     22.46254539     14.63734341
P         4.85813284     20.37925529     11.95835686
S         6.84861755     20.61567497     12.48780537
P         3.81708217     22.09524536     12.87079525
S         4.63481808     20.36207199     10.08608627
S         4.03567314     18.83458519     12.99998856
S         1.68133271     22.13276863     21.48600960
S         4.24096966     23.52691269     20.05761719
S         4.44228840     22.19297028     23.49227333
P         4.94678307     20.37882423     20.49788857
S         6.99549437     20.70666885     20.75066376
P         3.65624952     22.11564255     21.43027496
S         4.28233910     20.21134567     18.55352020
S         4.53198338     18.73975754     21.59026146
S        12.42440319      1.81257796      4.66509295
S        10.42293453      4.69252634      4.63721037
S        12.66012859      6.87548590      3.29351521
S        12.97585487      5.38297081      6.30408335
P        13.49016476      3.30987453      3.53532362
S        15.33530521      3.91046953      3.78817892
P        12.40793133      5.21581650      4.42336988
S        12.87562752      3.19648623      1.60302949
S        13.09482098      1.67778707     13.33886719
S        10.34090900      5.06744623     12.49401855
S        12.88500404      6.70473289     11.93248367
S        12.84442139      5.24494123     14.87064743
P        13.41414356      3.35672212     12.15828609
S        15.35591698      3.94743443     12.08502293
P        12.27889729      5.09359789     12.90573025
S        12.37125874      3.30098081     10.27320480
S        12.92128944      1.70994425     21.69142723
S        10.40240860      4.75030661     21.14297104
S        12.98100758      6.79759359     20.22903061
S        12.80067444      5.38695288     23.62034416
P        13.39277172      3.47676754     20.48089790
S        15.34897232      3.83874488     20.55568504
P        12.26422501      5.24250555     21.45132637
S        12.47279835      3.19998002     18.68696594
S        13.06321812     10.30522251      4.84378815
S        10.21349335     13.24576473      4.20821333
S        12.96639061     15.37485218      3.37966394
S        12.95184994     13.69448280      6.26788425
P        13.42095470     11.90985107      3.60638952
S        15.33031368     12.24947357      3.84414577
P        12.23822308     13.69876862      4.49405527
S        12.39977837     11.72548771      1.61048830
S        12.91497040     10.12724400     13.26144314
S        10.32113552     13.16296291     12.60254192
S        12.96687794     15.39302635     11.96119308
S        12.97871208     13.92550278     14.92656517
P        13.26840019     11.72285843     12.13245678
S        15.24575806     12.38991356     12.08944321
P        12.29507828     13.81606293     12.98990917
S        12.59003353     11.66396141     10.09669304
S        12.54014015     11.74888802     18.68672180
S        12.83516216     10.21771145     21.60857773
S        10.25402451     13.11935806     21.15179634
S        13.09990788     15.18033123     20.34827805
S        13.03710938     13.95983791     23.29975319
P        13.34577847     11.88463306     20.60336876
S        15.24020290     12.46813011     20.66197205
P        12.22902584     13.62152672     21.50414085
S        15.39497280     21.04391479      3.55841446
S        12.63228893     20.03525162      1.71829665
S        12.59759235     22.14195824      6.54066896
S        10.47358036     21.72350883      4.02166986
S        12.96053028     23.84043503      3.58910918
P        13.43621445     20.34045792      3.54430485
S        12.73064518     18.85517120      4.76114035
P        12.36316872     22.01961517      4.51978731
S        12.73588657     20.13573456     10.11712360
S        12.93990040     18.73474884     13.06221104
S        10.25510597     21.80116272     12.92309952
S        12.88936901     23.67038345     11.72023487
S        12.93636513     22.29544449     14.86730480
P        13.27804184     20.37976265     12.09024715
S        15.19417000     20.81182289     12.27557755
P        12.35447407     22.17797852     13.00347233
S        12.94970608     19.96432877     18.62152863
S        12.75405121     18.83019447     21.63134766
S        10.17593002     21.78268242     21.40915680
S        12.98777103     23.68161964     20.14525223
S        13.13222980     22.02055740     23.34106064
P        13.18334675     20.48803711     20.54418755
S        15.18556690     21.02609253     20.66572571
P        12.20645237     22.21859550     21.50434494
P        20.81180573      5.26069689      4.37895393
S        21.21744156      3.21670103      1.59646046
S        21.21980667      1.76399899      4.62196445
S        18.69272804      4.69504929      4.45373917
S        21.10959244      6.95629740      3.35532546
S        21.60744858      5.42736101      6.31195831
P        21.85520935      3.43485737      3.61433554
S        23.87533188      3.64702725      3.91824412
S        23.86375046      3.71177673     12.20383549
P        20.75949287      5.16451883     12.93659782
S        21.27976227      3.46023631     10.10875034
S        21.33151436      1.83117974     13.33807087
S        18.73842430      4.97466421     12.81493855
S        21.06116104      6.61381626     11.63409424
S        21.52007866      5.16044378     14.90022278
P        21.83262825      3.48374438     12.12155151
S        23.84448814      3.73747873     20.46448135
P        20.68119621      5.13964987     21.34659767
S        21.39718437      3.58220267     18.51462364
S        21.23448753      1.93537116     22.02029419
S        18.64681816      4.73007965     21.43555641
S        21.34238243      6.76200724     20.21801376
S        21.39073181      5.22696304     23.27071571
P        21.84736252      3.27880621     20.58846283
S        21.45440483     10.11256027      4.49888754
P        20.69898415     13.71990871      4.69186020
S        23.95340919     12.15110493      3.54878426
S        21.14629745     12.18749523      1.50047767
S        21.50419807     13.75393677      6.60151100
S        18.74759293     13.10879230      4.33856297
S        21.06046295     15.29121113      3.54224920
P        21.81894112     11.87854767      3.53665328
S        23.83433342     12.33078480     12.10714817
P        20.77716446     13.60374928     12.98141766
S        21.37164307     11.67879677     10.12228584
S        21.11995125     10.34662914     13.22838593
S        18.62325478     13.38013935     12.82632256
S        21.13725853     15.20978928     11.83845043
S        21.58108521     13.82457352     14.93814659
P        21.94660187     11.82325935     12.01376057
P        21.94771194     11.89162731     20.59755707
S        23.80229187     12.31209755     20.71416855
P        20.62985992     13.69353008     21.42893410
S        21.17839432     11.46612549     18.41171646
S        21.39687538     10.28413677     21.70954704
S        18.69384766     13.54057407     21.28050804
S        21.19604683     15.35920429     20.33491707
S        21.54128838     13.65580940     23.38450623
P        21.87200928     20.28502274      3.62682104
S        23.87392044     20.65779495      3.72600698
P        20.82190704     22.10403633      4.60186577
S        21.39525414     20.39888382      1.66500080
S        21.05721092     18.71898651      4.55544567
S        18.87893486     21.72433472      4.52186584
S        21.02014732     23.64197731      3.07186079
S        21.47089386     22.47026825      6.49012566
P        21.80656815     20.33061600     12.13735676
S        23.68369484     20.81948280     12.12819386
P        20.81804466     22.08345985     12.92911720
S        21.23886681     20.34988213     10.20775127
S        21.23616219     18.56712532     13.15673828
S        18.80006599     21.64172935     12.88501835
S        21.39558601     23.75034523     11.71263695
S        21.40892982     22.45951653     14.90152836
S        21.55525589     22.26945114     23.38930511
P        21.87933731     20.45893669     20.59244537
S        23.99282455     20.53695297     20.65652084
P        20.77537155     22.19574165     21.36891556
S        21.35771751     20.22731209     18.74253654
S        21.12288857     18.81349373     21.54809380
S        18.72523117     21.73527908     21.37968063
S        20.98031425     23.77317047     20.18214226
