648

Na      162.48085022     44.46726990    -19.80220795
Na      107.29141998     28.54143715    -27.18294144
Na      -64.37507629     34.40402222    -40.25913620
Na      -36.51971817     36.89403915      6.58572149
Na       58.87215424    157.76246643   -121.10220337
Na     -163.34486389     45.81037521    125.12084198
Na      219.05360413     27.73245239   -142.67781067
Na      -37.34956360    -39.49934006     41.28555298
Na      196.78163147     -7.31337404     65.23717499
Na       45.90624619     73.45195007    119.42739868
Na       82.89900208    -27.15706253     27.35933876
Na      134.84753418     13.89836979    116.29850006
Na     -177.48648071     54.50002670     27.60783386
Na      -45.55824280     19.62145805    -34.70654297
Na       71.12705231      6.10868073      1.02222490
Na      217.24432373    143.30767822    158.21778870
Na      -22.00042534   -121.34592438    -25.03097343
Na      116.38691711     53.46126938     56.94901276
Na       89.82104492     33.17050934   -147.28668213
Na       22.20973396    101.22298431      5.60603094
Na     -120.80335236     34.59172440     37.71253967
Na       81.28843689    137.92086792    -18.36121178
Na       39.50220490     16.50859833    -28.67063332
Na      -89.82862091     56.35609055    -24.65899467
Na     -101.79405212     71.25698853    -57.87975311
Na      -10.45216274    183.51872253     -6.39464569
Na       15.32722569     95.34967804    -23.79413605
Na       91.68741608    -65.64781952      1.83489621
Na      132.14453125    -48.23737717     58.24457169
Na       -2.72783232     -5.24121714     16.23236656
Na     -114.81361389     90.61432648     76.94753265
Na     -141.76293945     -8.98645210    -37.38718796
Na      -82.03725433      9.59316063     78.82468414
Na       28.15690613    -34.94557190     13.93433571
Na       40.94900513    -10.57398415     54.51008606
Na        2.06888676     83.06157684     -2.18972468
Na     -157.27809143     65.25148010    -84.08793640
Na       30.53416634   -115.78988647     -1.48507488
Na       61.07376480     10.28981018    -36.48821640
Na      -72.68827057     26.17550278   -124.90372467
Na      -59.57016754    -53.07484436    -81.38144684
Na      110.43171692   -146.14834595     62.44552612
Na      117.53195953     13.20364285    -78.25051880
Na     -210.63877869      2.46316051     18.74162102
Na       34.73145676     71.32751465     69.42509460
Na     -106.21174622    -76.82830048     23.03717422
Na      155.15255737    -56.92025375     49.12558365
Na      166.38078308     27.63156891    -60.21203613
Na       74.12923431    -61.35374832      9.89025307
Na       -0.74354863   -105.39835358     23.30804825
Na      142.21044922     10.23857689     -6.50967360
Na      -32.57010651    -23.09035301    -11.54060078
Na       72.94300842    -56.54143524     75.17105103
Na       49.43125534    -18.84979439    103.84522247
Na      -27.84265327      0.76705807     78.73477936
Na      102.86478424    -99.62941742    166.47271729
Na      109.41999054     73.29115295     91.30023956
Na       24.00988007     35.72811890     10.36811733
Na       37.94824600    -79.00481415    -16.54034042
Na      -92.23870087      5.74523926    116.37156677
Na      -28.48519707    -99.18606567    -26.75799942
Na       32.99327469     10.65398121    103.25370026
Na      -94.75567627    -95.31427002     19.21140099
Na       68.57944489     65.56123352   -115.67955017
Na       -1.00370407     48.71417999   -124.69033813
Na       19.09602737    -86.73220062     82.97798157
Na      137.59985352     34.53928375    107.21730042
Na      227.97200012     30.74927902    -10.92981339
Na      -89.28369904     39.74438095     34.55632019
Na      225.49563599     50.33638000    -11.42858982
Na        4.74317932    -26.02022171     90.52221680
Na     -260.18780518     87.43903351   -103.23865509
Na      -18.25522232     39.54396057     48.61703873
Na      -18.90210915    -40.92453766    -32.03635406
Na      -70.79794312    -73.32462311     16.04689217
Na      -48.17443466     93.40891266    -98.94162750
Na      155.11938477     30.90290260      9.87558460
Na      -26.52730942    -53.00204086     70.86548615
Na      154.19519043     86.33963013     98.89916992
Na      -91.23984528     27.47198105     52.49080658
Na      -28.10824776    136.25596619    -56.93692398
Na      -52.55102921     27.56053352     35.86790085
Na      -36.65333939     49.62286758     39.60435104
Na     -157.63623047    -78.61142731    127.69483185
Na      -16.17202568    -39.10313797    -14.96900272
Na      -47.66641617     14.09122562    111.25132751
Na     -223.55772400   -135.98498535    -45.21817780
Na       74.44934082      1.46357465     95.22167206
Na       56.95539474      6.35804510      9.47350693
Na       35.57215118      6.60245800   -205.70443726
Na       56.65058899    135.35771179    -21.12077904
Na     -153.71154785   -197.09472656    197.16334534
Na      -30.95151138    -24.90040588     11.04839706
Na      145.80786133    -49.12527847     -3.16379356
Na      158.07417297     -0.11606789     56.30459595
Na      103.57266235    -32.04397583    -19.44431305
Na      -48.11544418    -53.90410995    -49.65268707
Na      -52.09860229     30.82432365      6.19917631
Na      174.78642273    163.92559814     32.55250931
Na     -118.96081543    -28.30739021    -19.25350189
Na      -61.34490585     14.77382469    -83.11459351
Na       19.01905632    -74.35227203     79.03573608
Na       45.39058685     56.62386322      9.42105389
Na     -115.66975403     85.60985565     78.63751221
Na      -51.93658829     90.50710297     78.58175659
Na      106.82520294    -42.93027496    -53.86518860
Na       82.96289825     94.85871887    -23.74197960
Na       78.88511658     77.60354614    -14.65598774
Na      104.90528870     22.87386703     17.16475487
Na      -24.23091125     19.29829216    -37.15475845
Na       57.88159561    -61.90733337    145.60713196
Na     -192.22497559   -155.23251343     52.38338852
Na      -62.84209824      6.05868387     34.83718491
Na     -116.77639008    -48.58150864    -92.18049622
Na       70.91672516    115.98547363     51.43146133
Na     -141.04209900    -16.30808258     44.90431595
Na       61.26634216   -102.51073456    139.65621948
Na      -39.75337219    101.16526031    -20.10669327
Na      -23.80936050    108.23390198     31.83729362
Na      136.90472412     23.57414627     -2.15274405
Na        5.51974821    -30.88567162     49.80730438
Na     -104.92740631    -22.66265678     -9.81427002
Na      -83.29930115     74.06988525   -137.41905212
Na      108.87832642     89.79791260   -120.79048157
Na      -11.33305645    -68.25237274     89.82661438
Na      225.75645447     67.13816071     31.08033943
Na      179.22631836     73.87669373     31.90919685
Na      -56.03052139     82.25144196     42.65734863
Na      -36.74634552    -56.47254944     66.06851959
Na      153.81887817      2.21333647     47.75838852
Na      -65.67667389     40.83971405    124.92871094
Na       78.24760437     10.47533035    -47.66411591
Na     -149.49737549     39.34170532    -24.35381699
Na      143.49401855     81.84558868     99.06140137
Na      -62.84717560     33.23868942     73.48274231
Na      -46.20794296     61.70211029    -60.55617905
Na      -39.29465103   -112.65235901     -8.38093662
Na      100.76217651     44.48096848    -48.99077988
Na      -31.87726593     16.12497902     72.07721710
Na      -35.07531357      5.01770353     66.00391388
Na        6.87661600     48.40382385     44.56264877
Na       -6.90908670     10.46473694    -87.92738342
Na     -125.86676025     10.66160393     13.15170860
Na      145.55297852    163.47622681   -146.66081238
Na      -56.22908783    -41.89255142     61.74833679
Na       36.24219894    -39.63821030    100.00225067
Na     -184.31979370    -31.65493584    -82.00315094
Na       78.18333435     49.36096573     48.43468094
Na      -76.81047058     22.37940216    -87.31734467
Na       65.46636963    -24.42104721     52.90092087
Na       20.31715775    -33.12334061     78.59017944
Na      -36.90010834    101.03511047     73.43889618
Na      -15.22660828     19.57974434    -39.92027283
Na       57.70604324    -78.08190918     10.91545200
Na       53.85142517     17.88710594    -31.52521896
Na      103.88400269    -18.08344460     64.81263733
Na      -66.18945312     27.56104088    -11.18548489
Na       91.71501923     74.11032867    -49.07034683
Na       49.61044693    -11.11292267     39.45673752
Na      132.37069702    117.98950195     47.57315826
Na     -125.28276062    188.32592773     18.42184639
Na       35.94962692    -23.61236382     19.72822952
Na     -128.27662659     55.74560165    -78.68976593
Na       88.39660645    -53.01929855     68.57624054
Na      -35.71882629   -109.13571930     37.27364731
Na        1.79220080     52.50545502     56.61344147
Na      -80.23091888    -73.94989014      7.33238316
Na      -69.62702942    -57.58055496     86.52796936
Na       49.98686981    -10.88951588     -6.23024988
Na       92.37252045     39.66656113     39.74430084
Na       -3.19058728     84.23281097     56.76815414
Na       41.26295471   -104.66606903     56.94245148
Na      -65.83257294   -150.85864258     -1.48012722
Na      218.89457703     31.97145081      2.10304332
Na      -27.79247093    119.01896667     63.01166153
Na     -116.72508240    -10.05729294     82.67603302
Na       10.92464924     44.93738556    -35.72866440
Na       91.74220276    -90.55988312     35.33163834
Na       70.00934601    -16.78336906     72.02033234
Na      -15.89654446      2.23451209    107.14029694
Na       70.29798889     18.86317635     87.04335022
Na      -56.71833420    124.22604370   -117.25197601
Na       29.04477119    -75.31814575     44.25916290
Na       -9.66285801    -82.61538696    196.67265320
Na      171.88040161    100.03527832    -69.69155121
Na       21.60131454     44.87409210     83.21644592
Na        6.82126141     14.90516090     52.86053848
Na      -59.46800613   -121.79183960     56.48626709
Na      175.06394958     62.02552414    -59.77947617
Na       -8.57543373     31.03503418    -65.03069305
Na     -181.24246216    -42.92047501    141.26574707
Na      -27.47100067      9.94149113    -74.59799957
Na       44.55531311    -81.69801331    -27.26055336
Na      214.37767029    145.63740540    -74.32293701
Na      105.09130859   -130.00549316     35.01937485
Na      -62.80038452     19.20530128      7.36958551
Na      -69.19230652     27.20125389     -7.08937931
Na      -14.84045696     -5.40595198    125.57788086
Na      -52.17902756    -29.66250610     85.86869049
Na       -0.38174352    -62.14524841   -146.65693665
Na       48.95959854      5.96382427    -15.31178570
Na     -136.78810120     99.17679596    -40.27085876
Na       32.32039642    -45.30860901      1.62380302
Na      104.56253815    -33.10132217    137.78312683
Na     -128.85932922    116.12736511     -1.51534891
Na       73.60599518     17.27287865     45.37663269
Na      189.15519714      5.55657911    -32.42468643
Na      120.12557983    -64.71517181     43.94839478
Na       -7.56305599   -107.76834869     55.78150558
Na      -19.37966537   -153.75553894     98.60633087
Na      -49.03596497    -35.72608185    -78.48701477
Na       32.57555008     40.10852432     36.67015457
Na      112.90882111    246.50761414   -107.72505951
Na     -123.86961365     39.68873978     68.21950531
Na      -97.81597137    -44.58095551    144.30000305
Na      116.60062408     28.35122108    125.14258575
S         8.73651409     25.56194687     10.73938847
P         9.16084194     24.87954903      8.91234684
S         8.18782043     25.18957901      5.55393076
S         5.97181845     25.42778397      8.26871300
S         8.80660534     22.86664963      8.71676445
P         7.70405293     25.84302330      7.45949793
S         8.06482029     27.87557793      7.84591198
S        11.00695610     25.37996292      8.04671860
S         8.92747402     25.20107460     19.29756737
P         9.20578480     24.90225220     17.28330231
S         8.04003048     25.20341301     14.12972450
S         5.94151640     25.46086311     16.74715042
P         7.69453669     25.82975960     15.92626190
S         8.65867519     22.84370995     17.20465088
S         8.13273048     27.90538597     15.94719505
S        11.03988647     25.67793465     16.80677032
S        11.05135632     25.05051231     25.15880966
P         9.22016144     24.81133080     25.83915710
S         6.05187702     25.15708542     25.37862206
S         8.21662521     25.60787010     22.42263222
S         7.91350508     28.02721214     24.48141861
S         8.81645107     22.82141495     25.83881950
P         7.59215450     25.94975853     24.34255409
S         8.77550983     25.60019875     27.68453026
S         6.01296234      8.46960258      8.05748272
S        11.01694965      8.36735821      8.24202061
S         8.07508564      8.26648808      5.61801338
S         8.77278996      5.77525854      8.79264832
S         8.91073799      8.64791393     10.72109604
P         7.79935980      9.12247372      7.59116411
P         9.25034904      7.73616982      8.79176998
S         7.80748463     11.03368950      7.72945356
S         5.79926062      8.31862640     16.60266876
S        11.05854893      8.24552059     16.52319717
S         8.35747623      8.44711304     14.00767231
S         8.66116810      5.97572517     17.36036110
S         8.99762154      8.71413898     19.19125175
P         7.67509842      8.90358543     15.97283649
P         9.17937565      7.89555073     17.33235550
S         7.91052437     10.91666985     16.35553360
S        11.04635143      8.41410065     25.21835327
S         7.91454172      8.26401615     22.55810547
S         9.02000999      6.01769304     25.55119514
P         7.66671467      8.88800621     24.46240425
S         8.70461273      8.32649231     27.87160301
P         9.22988987      8.00527382     25.86751366
S         8.13891506     10.93429756     24.39569283
S         5.91947126      8.57025337     25.22671700
P         9.10214806     16.38213921      8.82705688
S         8.21678543     19.33976746      7.62220001
S         5.71536779     17.21144867      8.32937813
S        10.99610901     17.03972244      8.40407753
S         7.95896864     16.57592201      5.42954969
S         9.14772701     14.32014084      8.57716465
S         8.86179638     16.90066910     10.92928791
P         7.63622093     17.45322609      7.42032003
P         9.12050343     16.41545677     17.32546043
S         8.25978756     19.43909073     15.93348026
S         5.83201122     16.91048622     16.90269470
S        11.12341499     16.84417152     16.68805695
S         8.02208805     16.73460960     14.22061062
S         9.07983017     14.46810722     16.97698784
S         8.52119541     16.98705673     19.13793182
P         7.67834997     17.42420387     16.16702652
P         7.65956402     17.43849754     24.40294838
S         8.24986076     19.25407791     24.83665276
S         5.83521557     16.82829094     25.06490517
S        11.04345989     16.88870430     25.04417229
S         8.01352406     16.77758598     22.52104950
S         8.86627579     14.44027328     25.68447876
S         8.78666019     17.13658524     27.78572083
P         9.18414974     16.46120834     25.80760002
P        16.19724274      0.48609835      7.52273273
S        16.88755989      2.34536719      7.43422318
S        17.45943832     -2.53773355      8.36934566
S        19.43880844      0.36508286      8.34201527
S        17.36977386     -0.24263877     10.99403095
P        17.66063118     -0.50385630      9.03434753
S        16.20981979     -0.48104092      5.77558231
S        14.22078991      0.18701102      8.07729816
P        16.12954330      0.45569652     16.00893593
S        16.80274963      2.46336913     16.45449829
S        17.41262054     -2.69067335     17.52808571
S        19.30534935      0.03214820     16.55692673
S        17.33308792      0.21210252     19.01860237
P        17.55765152     -0.65123206     17.19010925
S        16.64217758     -0.08433473     13.95470142
S        14.25507355     -0.12483645     16.63040161
S        16.73935890      2.40368271     24.49886703
P        16.22943878      0.49461269     24.48392487
S        17.25045776     -2.44735551     25.54444885
S        17.20839119     -0.06579408     27.77295303
S        19.47941589      0.10014085     25.19242287
P        17.79883957     -0.50567889     25.77130318
S        14.23370457     -0.09142891     25.28697205
S        16.51025391     -0.26966125     22.59815788
S        17.14680099      8.40981865     10.72891617
P        16.28312492      8.79469204      7.39799023
P        17.76016808      7.89853716      8.87421989
S        16.76501846     10.76206398      7.71825123
S        14.33903503      8.71524525      8.32415771
S        19.36973190      8.76255512      8.27116299
S        16.36198425      8.18094063      5.56245327
S        17.42450905      5.88947201      8.66273117
S        17.20360565      8.47767925     19.21111107
P        16.05079269      9.03575420     16.07058716
P        17.61513138      7.81266880     17.28193855
S        16.73767853     10.95162010     16.19728851
S        14.10513401      8.58592796     16.58265495
S        19.41895294      8.46956730     16.42837906
S        16.66913795      8.23692417     14.27118492
S        17.63709450      5.84846258     17.30434227
S        17.12831688      8.44251347      2.37657547
P        17.64902687      7.95615530      0.38309211
S        16.72591209     10.88834095     -0.82413584
P        16.21821213      8.97052193     -1.03906906
S        14.40793228      8.45059776     -0.11189325
S        19.46971512      8.55523491     -0.31564727
S        16.45993614      8.25909138     -2.98784733
S        17.38532829      5.89881420      0.25637630
S        17.26237106     14.43211365      8.67869186
S        17.41327858     17.06304741     10.72489262
P        16.08938789     17.43298721      7.47976351
P        17.67378235     16.38452148      8.72759056
S        16.53343391     19.28062057      7.62539530
S        14.32269287     16.90145111      8.27270317
S        19.72616196     16.88824272      8.54348373
S        16.41973305     16.83944511      5.48515320
S        17.19805336     14.31967545     17.30759239
S        17.39407539     17.10489082     19.36642265
P        16.11667442     17.30743408     15.92357063
P        17.64350891     16.29949570     17.33594131
S        16.73394203     19.34739113     16.24974632
S        14.35774231     16.84759903     16.67159081
S        19.38257408     17.09432602     16.57969093
S        16.61416817     16.89445114     13.90976429
S        17.18248367     14.26593208      0.60580885
S        17.48023605     17.09122849      2.34080577
P        17.80358315     16.23759270      0.40244684
P        16.10839462     17.28581238     -1.11951065
S        16.63564873     19.28296852     -0.62660670
S        14.09276772     16.90974808     -0.37583753
S        19.46247482     17.06922150     -0.42399976
S        16.68031502     17.06991577     -3.06773448
P        24.61730957      0.50250232      7.52768898
S        24.99120140      2.52386093      7.69544172
S        25.75496292     -2.61311889      8.73919010
S        28.17064667      0.10144523      8.19105911
S        25.05997276     -0.35723975      5.69539070
S        25.74057961     -0.07418070     10.71679592
S        22.67622757      0.12510267      8.18531036
P        26.23795128     -0.59254187      8.79057121
P        24.70668411      0.43501902     15.87492752
S        24.94119263      2.40861154     16.27925301
S        25.63555717     -2.48058915     17.15428352
S        28.01373863      0.05708397     16.60375977
S        24.97663879     -0.29858723     14.02896881
S        25.87782097      0.03550023     19.42889023
S        22.93470764      0.03934276     16.53300285
P        26.16299629     -0.58250618     17.44323158
S         2.58040810     25.23562241     25.26745033
P        -0.85977238     25.85925293     24.44339943
S        -0.33183625     27.89115334     24.54356575
S         0.52631468     22.82300568     25.37213707
S         0.31713900     25.70366478     27.82131958
S        -2.72236061     25.39391327     25.26361656
S        -0.42248300     25.27460098     22.58304024
P         0.74794126     24.84214211     25.85602379
S         0.27320814      5.98989773      8.65633106
P        -0.73259991      8.98563099      7.58696079
S        -0.52035606     11.00719643      7.39532137
S         0.31148428      8.43948364     10.83633804
S        -2.54351950      8.32377815      8.28822517
P         0.76944983      7.97222853      8.89729595
S         2.69799447      8.30075645      8.25094604
S        -0.41525063      8.40335941      5.63567781
S         0.57524252      5.94407463     17.07505798
P        -0.68854606      9.01366997     16.14778519
S        -0.24999893     10.91925907     16.27263069
S         0.03707781      8.59292507     19.21452141
S        -2.61887264      8.54167652     16.62090492
P         0.79309988      7.85659122     17.34699059
S         2.47513676      8.46966743     16.45832634
S        -0.48042470      8.08148479     14.21610832
S         0.36510894      5.87891769      0.20054729
S        -0.21939336     10.91566086     -0.65598744
P        -0.83349937      8.96243382     -0.97011900
S        -2.69235396      8.54543781     -0.35855493
S         0.31096530      8.44568348      2.35794830
P         0.69396937      7.97662544      0.31752434
S         2.67233348      8.66189384     -0.33965638
S        -0.46272230      8.03503609     -2.81413603
S         0.34527844     14.46440506      8.51478004
P        -0.72407323     17.40826035      7.60320520
S        -0.32911682     19.40022850      7.54082966
S         0.17203273     16.88785362     10.81803894
S        -2.50039172     16.99751854      8.39088821
P         0.67927378     16.42996025      8.78690052
S         2.60110402     17.04826736      8.21847343
S        -0.40647501     16.58663940      5.67077637
S         0.56399757     14.25736713     16.89036560
P        -0.84838784     17.47146797     15.92456532
S        -0.30346036     19.53715134     15.86252117
S         0.37253362     16.79021645     19.38528633
S        -2.65586996     17.20616531     16.86592102
P         0.69820732     16.32170105     17.42578888
S         2.44126964     17.13667297     16.85842705
S        -0.43424422     16.50085449     14.13453579
S         0.36744094     14.40189171      0.08486298
P        -0.80520725     17.39925766     -1.03536940
S        -0.23024175     19.36039543     -0.94632304
S        -2.52341962     16.82164955     -0.17799760
S         0.29657447     16.99276352      2.40752745
P         0.63746351     16.46968269      0.44059435
S         2.70520926     16.96805763     -0.14381021
S        -0.61437148     16.81048203     -2.88995075
S         4.35694218      6.68723154      3.14047647
S         4.42987156      5.09251833      6.43274832
P         4.96292639      3.37525511      3.52082753
S         7.05209064      3.77382755      3.63300657
P         3.79490662      5.25779152      4.51582003
S         4.21691561      3.43584466      1.75341415
S         4.26613140      2.05988598      4.88463306
S         1.70292413      4.71750832      4.37153101
S         4.15134668      7.02374840     11.91901779
S         4.47655916      5.31656742     14.89215946
P         5.06155396      3.32601070     12.00766850
S         7.11425686      3.62107992     12.02508545
P         3.72623467      5.29773140     12.89412785
S         4.41858482      3.11138606     10.07509518
S         4.18217802      1.86343908     13.28982639
S         1.65301430      4.83958149     12.94975948
S         4.31148243      6.66812706     20.15912056
S         4.55387020      5.63544321     23.36663437
P         4.89583063      3.38430452     20.48429489
S         6.90493679      3.64280033     20.79048347
P         3.71834993      5.23890734     21.51223183
S         4.35492897      3.42330503     18.49736786
S         4.32482433      1.69198132     21.54010391
S         1.71359694      4.71465826     21.51059914
S         4.42073870     15.03649902      3.29108286
S         4.57545662     13.94400501      6.42755890
P         4.81017494     12.07766151      3.58229113
S         6.78795862     12.33238029      3.73530197
P         3.69706821     13.68404007      4.61754465
S         4.40324688     11.56195164      1.65056694
S         4.19112539     10.41044140      4.45507383
S         1.88841128     13.16213417      4.49859095
S         1.85148954     13.27263546     12.76610470
S         4.12364483     15.37559891     11.81578064
S         4.62846851     13.76662064     14.95155811
P         4.87135792     11.90979767     11.93001366
S         6.87020636     12.15648937     12.22492313
P         3.81021333     13.65817070     12.94393730
S         4.34045553     11.70761108     10.08007622
S         4.28427744     10.35559559     13.33939743
S         1.78714323     13.23857307     21.48674583
S         4.32363129     15.12582207     20.22445488
S         4.53240538     13.88673401     23.34315491
P         4.92089558     11.88826466     20.46577454
S         6.89415836     12.22496128     20.76222420
P         3.72606325     13.61818600     21.31266975
S         4.30687475     11.86125088     18.61757851
S         4.28776312     10.35663509     21.64081192
S         1.94385207     21.57948112      4.35287762
S         4.04611540     23.85082245      3.33631897
S         4.62083435     22.30310059      6.38831043
P         4.93826818     20.37785912      3.55533218
S         7.01079798     20.69022942      3.79130554
P         3.94182944     22.13778877      4.53964901
S         4.28155422     20.11057281      1.62639117
S         4.00361729     18.95575333      4.66425705
S         1.79299891     21.86756325     12.84909821
S         4.31553602     23.89232445     11.78483486
S         4.63281107     22.25172997     14.69648743
P         4.78447247     20.24887848     12.08425331
S         6.76484060     20.94205284     12.42871094
P         3.87159729     22.16008759     12.94768333
S         4.20323133     20.11932755     10.13099480
S         4.41375780     18.52001190     13.13510513
S         1.99149597     21.37433052     21.41486359
S         4.33625507     23.71318626     20.26655960
S         4.54535484     22.43008232     23.26615334
P         4.92875814     20.41194916     20.49540710
S         6.85490036     20.67432404     20.78060532
P         3.81568336     22.12718773     21.44212914
S         4.22497988     20.32218933     18.53759575
S         4.08482504     18.95315933     21.65551567
S        12.49470901      1.72364879      4.59699821
S        10.27621365      4.76851273      4.71728182
S        12.69067097      6.47107697      3.07665586
S        13.14467430      5.46477222      6.37351036
P        13.28110886      3.54366755      3.61027384
S        15.33983326      3.82061577      3.74547386
P        12.17447090      5.21949863      4.60114002
S        13.17561054      3.39249682      1.53707087
S        12.68296623      1.78435469     13.06669617
S        10.55853844      4.54467869     12.88964558
S        12.50082111      6.59179115     11.71320343
S        13.07820606      5.74347830     14.83117104
P        13.34633732      3.38551784     12.03158092
S        15.31096935      3.50093198     12.41588116
P        12.34681416      5.21446705     13.06462097
S        12.76072407      3.63351679     10.04655552
S        12.77874374      1.77662635     21.62322426
S        10.28289413      4.76320791     21.31092834
S        12.85008717      6.71768713     20.22913361
S        12.97626019      5.47961664     23.45105743
P        13.33040428      3.30315733     20.55720139
S        15.46531487      3.85737085     20.66296577
P        12.23953247      5.13968706     21.40637779
S        12.65794754      3.35603595     18.61882782
S        12.67427254     10.30908298      4.61304188
S        10.33705425     13.18160343      4.55246210
S        12.66286087     15.40507889      3.26005769
S        13.18378925     13.81809711      6.36008167
P        13.37584972     11.91692924      3.53219271
S        15.26288414     12.24735737      4.01254845
P        12.28047466     13.70390892      4.37719631
S        12.80693817     11.62226009      1.54054475
S        12.56342602     10.54403877     13.24281216
S        10.44272804     13.00696564     12.93510723
S        12.68112087     15.18895245     11.92652988
S        13.13206673     13.93101788     14.77203846
P        13.25182533     12.01550102     11.94818211
S        15.33034039     12.15651798     12.28225613
P        12.27021980     13.62117290     12.94393063
S        12.90782642     11.74069118     10.00155163
S        12.94381714     11.82096195     18.58331680
S        12.62715244     10.27491474     21.70320702
S        10.37353706     13.27074528     21.49057579
S        12.42618561     15.39823151     20.28152084
S        13.05292988     13.90147305     23.21533775
P        13.41613102     11.88421249     20.43014717
S        15.49858761     11.99123096     20.75441551
P        12.24598026     13.65993977     21.39653587
S        12.74031830     20.30425453      1.54744649
S        12.89339828     18.77126884      4.75240993
S        10.24919987     21.79666710      4.42753124
S        12.76973724     23.63574600      3.11894298
S        12.94156933     22.19439316      6.42335558
P        13.30538654     20.35748672      3.61070776
S        15.33778667     20.72943115      3.78690386
P        12.34657955     22.21841049      4.59076881
S        12.78968716     20.37432289     10.08776760
S        12.68737793     18.82152557     13.19491291
S        10.25022697     21.64296341     13.01599789
S        12.68358421     23.71140671     11.54734993
S        12.99799538     22.27924347     15.00107670
P        13.36523247     20.31243896     11.98244476
S        15.50426102     20.64539146     12.29849243
P        12.30627441     22.21884918     12.92488575
S        12.77278423     19.85773277     18.41928101
S        12.85802555     18.80975342     21.73495865
S        10.27126122     21.78108215     21.36917114
S        13.07894421     23.76820946     20.26963425
S        12.83609676     22.11486816     23.54412460
P        13.30352497     20.40174675     20.56119347
S        15.22702122     20.96496964     20.48118401
P        12.23236752     22.31406021     21.48290634
P        20.75624084      5.31099653      4.52557421
S        21.22080040      2.96571493      1.63808453
S        21.16638947      1.97306490      4.65821505
S        18.81188202      4.54367685      4.28219128
S        21.38353729      6.94797182      3.45446301
S        21.50654411      5.40124273      6.54153061
P        21.76782799      3.43470383      3.51392841
S        23.77127647      3.82632303      3.63856697
S        23.69425583      4.03721952     12.11921120
P        20.69435310      5.13793039     12.95014668
S        21.32674789      3.19242573     10.18056011
S        21.08977509      1.88709593     13.20736694
S        18.82781792      4.66084242     12.90710640
S        21.45990753      6.81717587     11.73049164
S        21.51885414      5.26874256     14.88974094
P        21.77077866      3.39502239     12.07221794
S        24.09239197      3.64334083     20.66440392
P        20.70496750      5.21835756     21.42079926
S        21.02565002      3.21826863     18.59284973
S        21.35223579      1.80967021     21.60335922
S        18.66589165      4.87146521     21.39162827
S        21.27126884      6.76086473     20.12877274
S        21.28134537      5.33916283     23.54643059
P        21.99679184      3.54310226     20.51037025
S        20.97238541     10.38991451      4.81715727
P        20.74012566     13.69387817      4.48054647
S        23.70826721     12.10587883      3.87876606
S        21.35987473     11.60999680      1.57269943
S        21.66644478     13.90073490      6.22879887
S        18.73882294     13.49562359      4.50224686
S        21.39330673     15.14998722      3.20504332
P        21.80602264     11.85588646      3.56758976
S        23.66904449     12.54800987     12.27569199
P        20.78894234     13.82964230     12.96171188
S        21.40611458     11.31981850      9.96289444
S        21.14471626     10.25823498     13.16302490
S        18.83243942     13.29452515     12.95531082
S        21.28744507     15.41464329     11.78376770
S        21.59748077     13.66905785     14.97866440
P        21.65560913     11.87317562     11.97278404
P        21.82784271     11.94144058     20.63687325
S        23.83431053     12.47951984     20.52586937
P        20.71368027     13.65761852     21.42010307
S        21.06223297     11.78036594     18.65544319
S        21.31486511     10.38512802     21.76396561
S        18.68560410     13.19013977     21.30258751
S        21.63081932     15.11791420     20.18542862
S        21.31573868     13.65145111     23.37262154
P        21.84353447     20.27231979      3.49940443
S        23.77476692     20.81919479      3.92123604
P        20.70364380     22.16024208      4.48659706
S        21.42918968     20.10076523      1.54205716
S        21.13576889     18.74018097      4.53315687
S        18.68071365     21.77039146      4.69514513
S        21.22820473     23.75938606      3.21205688
S        21.58946228     22.38030052      6.36108017
P        21.88742828     20.31652832     12.05594540
S        23.87990952     20.50828362     12.21383667
P        20.66948318     22.14938354     12.92570210
S        21.28131294     20.53820038     10.01871204
S        21.23402214     18.94060326     13.32724857
S        18.78278351     21.59690094     12.92947006
S        21.16332626     23.62138367     11.67254925
S        21.48734665     22.33263016     14.91199017
S        21.34640121     22.37256813     23.28142929
P        21.86197853     20.39997482     20.50639343
S        23.81111145     20.45594025     20.70168495
P        20.72724533     22.13689041     21.32938766
S        21.46294594     20.37529945     18.56157684
S        21.22638702     18.91719437     21.61102486
S        18.78044701     21.65760803     21.70756340
S        21.17020035     23.69085884     20.15630722
