648

Na     -180.48110962    -58.86537552     88.36949158
Na       81.84532928   -124.17598724     33.12338638
Na      112.56506348     39.33635712    -23.74044800
Na      -64.84909058    -45.13438034    -58.39098358
Na       79.79393005     14.31651688    -50.25431061
Na        5.56924057     75.77085114    -45.17425156
Na        6.70550442    -57.26429749     35.46076202
Na      -82.56636810     56.90797806   -159.49855042
Na     -213.25140381     10.37201023    103.26103973
Na      -86.24987793    -18.99332237     61.87614059
Na     -113.33590698     32.92062378    115.85404205
Na      -35.03464508    -95.74942017     44.62471771
Na      172.61027527      9.40550232    -14.63660908
Na     -242.95471191    161.79524231    -31.32517052
Na      119.45581818     36.46068192     64.38403320
Na      -45.08087158     -0.75151902    -37.14579773
Na     -163.02371216     43.59996414    -39.53471756
Na     -255.22883606     47.73723221     48.76270676
Na       79.99509430     57.17654419     26.29259109
Na       52.94255066    -40.51300430    -48.90528488
Na      -26.90694427    -11.08400249    -61.15217590
Na      -74.34714508    -31.19558907    -44.85702515
Na     -120.73090363   -109.04713440     69.79853058
Na      115.52169037     16.25002861    107.43873596
Na      116.90168762     52.90497589    -32.23733902
Na     -232.17930603    168.72239685    -44.62253952
Na       46.41360474     58.70169067      5.99996710
Na       75.91297150    -20.79599953     39.77103043
Na      -30.26548576    -76.10973358    -23.38252068
Na      125.61239624     40.44266891    -23.14199448
Na       64.82315063     33.65968323    -19.73489189
Na      -35.11449051     48.37154770     19.30631828
Na      102.12580872    -22.71379471    183.11737061
Na      -88.47068787     24.63857079     90.79110718
Na       -7.71114492    -98.90202332    128.27223206
Na      -94.93231201     22.34495544    125.44166565
Na     -137.32043457    -52.90167618     27.49636269
Na       10.36843872    -27.16314697    -95.15454102
Na      -36.13538742     26.28274155     79.72655487
Na       24.41589546    -71.03784180   -154.60289001
Na     -221.63720703    -44.71642685    -48.05480576
Na     -180.90838623    -81.53065491     15.98050213
Na      -52.44584274    -65.82695007   -159.35116577
Na      -83.66580963     28.30756569     35.97075653
Na      170.88508606     44.71223068     14.51237583
Na      239.31623840     41.27947617     98.98344421
Na       37.27119064     85.38361359    112.53688812
Na       16.32216072    -11.70461941    -10.77838421
Na      -19.81626511    -14.11902809     49.03842926
Na     -167.49256897      5.10717821    162.96189880
Na      193.49472046    -20.74724579     49.09158325
Na       66.06354523     14.81132793    -49.09636688
Na       94.34842682    -40.06492615     73.31684113
Na      -63.25001907    -39.87481308    -26.39891815
Na       77.90488434    -99.94187164    115.94982910
Na      -64.95564270    -24.65164375     61.86331177
Na      134.29864502    107.99993134    -31.50390053
Na       30.37492943    135.21656799     90.68096924
Na      -93.84028625    -53.25164795    -56.41540146
Na      163.47296143    -53.67493820    -15.61393070
Na     -213.33905029    -18.63990211     78.65670776
Na     -124.11310577     81.31396484    -84.61850739
Na       23.69075394      7.07164907     86.99675751
Na     -138.95776367     44.88314056     15.85513020
Na     -134.65649414    -48.43693161    -96.22008514
Na       -1.81000113     -5.64763594     60.46662903
Na       85.12135315    189.06494141     -3.08844042
Na      -98.73477936     -7.56225491      2.55575895
Na      -68.52133179     -3.61158848    107.83983612
Na      -75.03459930    111.85311127   -172.49748230
Na     -234.55368042     68.57028198     28.35909653
Na       70.30424500    -11.50240707    179.57933044
Na      -36.35828018     77.16527557    -39.92681885
Na       22.74403381   -151.46792603     19.01205254
Na       95.25205231    159.44224548     40.13808441
Na     -171.58302307    -36.51104355    -15.30074501
Na      130.51295471    -41.59993744    -91.18051147
Na      -55.86645126     73.62711334     68.66053772
Na       91.57466888     35.96767426    -66.36614990
Na      283.71304321     77.10995483    -49.57257080
Na       65.58510590   -112.91930389     85.54370117
Na      -14.89925385    -19.08053398    -19.02806473
Na       -1.78012550     14.68085861    -40.10639191
Na      -47.82363129     51.73379135     11.27352142
Na      -32.58341599    -31.24486351    -65.68685150
Na     -188.91598511   -104.46627808     60.98513412
Na      -28.68230247    -22.70268440     58.19634247
Na      128.42384338    130.97895813    187.97387695
Na      -76.07512665    -22.06705284     43.98883438
Na      -28.69170380     25.00264549     98.82808685
Na       47.99831009    155.23081970    -52.47122955
Na      -82.23422241     64.73950958    -83.36580658
Na      112.01559448    -14.62623119   -138.53070068
Na       55.86020279     70.30142975    117.80991364
Na       86.47295380   -103.66101074     -1.93065548
Na      -92.45870209     -6.19100046     47.57067490
Na      -24.17047119    -98.50051117    103.72178650
Na      -35.08376312     13.65031433    -27.35903931
Na      -69.35714722    -14.89921379     10.31603622
Na       81.49410248    -59.84660339    -53.84346008
Na       28.59623528    144.90975952    -14.47194862
Na     -107.96550751     10.36754513     94.76799011
Na     -198.27049255    -48.35371399     15.99523640
Na      197.11157227    169.04774475    -88.32546234
Na      103.78110504     23.56688881    116.47814178
Na       12.90063858    -73.75336456    143.12287903
Na       45.60091400    132.53498840    -41.22307587
Na      226.48927307    132.42530823     -7.32193851
Na        5.09465075     33.74702835    -70.35003662
Na       -1.41112077     23.09438705     69.92045593
Na      111.42903900    -82.73998260     81.25511932
Na       33.82496262    -73.99028778     38.60643005
Na       99.68726349     65.96204376    -82.99311066
Na      -45.16321945     50.28275299     22.17666054
Na       66.62841034     14.87797070    -82.16884613
Na     -342.08850098    -17.30915070    -53.78079224
Na      -11.77226543    -85.37384796     22.89708710
Na       18.92054558     40.60572433   -129.43801880
Na       92.24973297     73.48537445    -45.11566544
Na       -6.85839319    -82.20701599     19.67863655
Na     -103.28482056     36.25706863    103.86814880
Na     -255.56179810    -95.89290619    -19.63999176
Na     -148.10150146     16.67660332    -70.11075592
Na       36.75425720   -112.94777679    136.72497559
Na        2.19610357     27.05974579    201.00364685
Na      -69.70777893     22.81058311    -99.75194550
Na     -101.28661346   -116.32322693     89.39363098
Na       -8.73554707    -88.03269958     31.62355614
Na       78.32700348    133.62263489     31.96797180
Na       36.29146576     41.41848373     13.59646034
Na       54.17778015    -11.20719242     17.82366753
Na      -56.84905243     22.62586212    -40.81769562
Na     -155.79637146     58.62556076    -10.93462467
Na       25.80387878    -31.24207115     38.74507904
Na      -33.22532654     10.35633945    -45.88781738
Na      -69.37693787    131.86161804    -26.78618431
Na     -105.04087830   -161.31913757    149.56320190
Na      154.65887451    -37.33205032    -40.19092560
Na       67.76193237     23.00824738     -2.22091174
Na     -149.30500793    149.66336060      0.67456776
Na      -65.87406158    117.40063477    -44.66022873
Na       77.19239807   -107.49238586     95.36243439
Na      -47.51882553    175.38459778    -66.99489594
Na     -158.85028076     95.34583282    -69.44498444
Na      140.28831482     78.96375275     50.20157242
Na        9.55705643   -124.86159515    -20.03072929
Na      314.89932251     82.52945709    -52.70463943
Na      113.36048889    -16.06422424    -74.07081604
Na       47.01699448     87.56683350    185.34757996
Na     -107.73480988    -22.33824158    116.74396515
Na       87.94426727     17.79745483     27.90854263
Na      -85.93893433    -45.95088577      6.33375597
Na      -82.12826538     21.37701035     -0.24896450
Na       53.99311447     37.13700867     32.46519089
Na       80.24732208   -100.67274475    -31.99361420
Na       78.21369934    -95.60862732     48.60759354
Na      106.97498322    109.98474121   -130.25865173
Na      149.81941223    -24.36446953    163.51742554
Na      134.63308716    -79.81932068     40.15206909
Na     -171.47863770   -108.09095764      1.42585099
Na      -43.62738800    -63.06415558    -19.59348488
Na     -108.52463531   -150.39837646    148.63970947
Na      102.80023956     -5.96260691    -54.13786316
Na      -37.28787994   -125.20415497      7.38127470
Na      -68.27715302    -19.76960564     65.35766602
Na      -64.43851471   -155.25486755     26.53159714
Na     -284.80487061    -61.88228226    187.39718628
Na       -1.83217275     56.91436386      1.43566239
Na      -57.44488525    -70.15222168   -128.88468933
Na        2.29036117     24.34606552    107.35910034
Na     -117.00161743     44.49553680     38.59981537
Na        2.99750686     85.31823730     -5.91846800
Na        2.11746144     41.16939163     -2.86256576
Na      352.37344360   -141.49363708     -9.65300655
Na      -19.76694679     16.74937439     13.11878586
Na      -18.31559181    -10.30574417    129.44876099
Na      -39.80886078     11.24093246    -70.09814453
Na       62.50148773     48.29880905     68.94445038
Na      177.20321655    217.08105469   -121.17207336
Na       27.29256439     41.12332535    192.40744019
Na      -79.64638519   -260.28326416    151.56842041
Na      -34.65026093    -83.13389587     97.30043793
Na       99.95599365     26.77129555    154.08027649
Na      154.83737183     35.98350906    124.59490204
Na       83.31993866     99.97236633    111.81674957
Na       74.90914154   -156.20179749      6.15679646
Na       -1.19367206    -36.88184738    -78.43935394
Na      115.47409821    -26.20422554     98.85108185
Na       47.40278625   -152.87145996    310.70504761
Na      -89.47235870      0.54956228    120.14408875
Na      -17.41388893    -61.95157623     64.91864014
Na     -115.00096130   -135.04556274     -6.47692871
Na       71.55319214    -41.87692642      2.10807848
Na     -167.36825562     12.92313576    -83.83676147
Na      137.32653809    -48.72761536    124.22066498
Na     -170.85177612     31.74847984     11.40124989
Na     -298.44241333      9.84903717      1.70065856
Na      -16.83308601      2.50433517    -57.33235931
Na     -137.14660645     18.87938118   -100.16766357
Na       63.68936539    -82.10921478    -43.27722168
Na      201.89402771    -53.09181595     27.86681938
Na      116.12770844     11.98270226    -34.02368927
Na     -124.55218506    -78.77755737    -32.29386139
Na       66.87065887     98.77089691     14.04511833
Na      111.80664062      2.56986737    128.63761902
Na       15.68111610    -20.39745712    142.12413025
Na       58.34609985     30.60176277    107.91820526
Na       22.15978813    -65.09114838    150.98043823
Na      -82.73171997     75.80510712   -114.48007202
Na       69.57588959    -26.44519806    182.72526550
Na      -96.91286469    -13.70699692     -9.52636051
Na       21.95147514    100.95751190   -112.62210846
Na       13.53670597   -158.37565613     24.20198822
Na       57.84584808     15.16583061     -5.54990578
Na     -102.68652344    -27.66592979     61.99638748
Na       74.87631226     44.86445618    -49.32621384
S         8.91601658     25.24403763     10.82982635
P         9.26875687     24.96007156      8.86828232
S         8.11516476     24.98108673      5.56505156
S         5.75115585     25.56365585      8.38862324
S         8.77128220     22.86740494      8.50566864
P         7.66192293     25.92486572      7.46251631
S         7.99856853     27.99141121      7.48473930
S        11.15880108     25.49706078      8.43716717
S         8.87885475     25.33037567     19.39668846
P         9.24991894     24.91148376     17.47211647
S         8.26743412     25.06912994     14.11143017
S         5.79148912     25.40362358     16.61216354
P         7.77874660     25.96138954     16.13635063
S         8.69847965     22.98238564     17.10186577
S         7.99037647     27.95684624     16.07159042
S        10.98970318     25.41395378     16.45399094
S        10.77863216     25.53040504     25.03345108
P         9.15350628     24.82780266     25.91977692
S         5.88689709     25.32316589     25.16528702
S         8.16498184     25.21674538     22.51252174
S         8.29589272     27.91827011     24.56311035
S         8.85371876     22.81475639     25.68118858
P         7.58109665     25.99647903     24.39420891
S         8.92026901     25.39990807     27.88150024
S         5.90566397      8.36317825      8.35491657
S        10.86833382      8.45885181      8.25187969
S         8.04088974      8.34839725      5.54726887
S         8.92593575      5.87646484      8.64280891
S         8.79633236      8.60413074     10.83737278
P         7.73132992      8.93035793      7.44652176
P         9.11260223      7.90909815      8.83654308
S         8.25762844     10.92782307      7.62293911
S         6.00221348      8.19912815     16.85141945
S        11.27882004      8.00156307     16.97728348
S         7.84809113      8.27543640     13.99998665
S         8.91615009      5.96566391     17.02439499
S         8.61945438      8.82000542     18.95604706
P         7.71574211      9.06026268     15.96084976
P         9.27919292      8.04148674     17.32602692
S         7.98419094     11.06368160     16.24924660
S        10.92918110      8.40159035     25.02009964
S         8.47636414      8.52016068     22.51752090
S         8.60678387      5.85609579     25.77698135
P         7.72113132      8.81960678     24.48270416
S         9.10855198      8.72590637     27.66794777
P         9.14196301      7.93056059     25.78273010
S         7.91927814     10.70168400     24.78466225
S         5.73611450      8.45965767     25.11674309
P         9.16968822     16.57425880      8.87408543
S         8.45662117     19.31595421      7.46716547
S         5.87681580     16.89688873      8.34922981
S        11.13405037     17.11285973      8.56064415
S         7.69882727     16.57372093      5.53490973
S         8.91717148     14.57459641      8.43836594
S         8.79875946     16.77033043     10.88795757
P         7.58369923     17.40947533      7.42855930
P         9.23307133     16.57455635     17.34106255
S         7.73451853     19.34561729     16.53133392
S         5.86629391     16.66409683     16.39583588
S        11.00494385     16.49667168     16.40591812
S         8.44990349     17.01620865     14.05055428
S         8.49706364     14.52863693     17.50739098
S         9.14205170     17.22654152     19.18539619
P         7.71439171     17.37457848     15.92712593
P         7.58533621     17.55188370     24.44291306
S         8.08656597     19.53613853     24.75963783
S         5.78462267     16.79262543     25.19061852
S        11.07267761     16.87952232     25.26299095
S         8.17576981     16.65504265     22.16924095
S         8.74620438     14.37093925     25.77119827
S         9.05751514     17.04595184     27.77369881
P         9.12549496     16.39472008     25.77756691
P        16.13539505      0.40353543      7.57909822
S        16.51641846      2.47316837      7.77404547
S        17.09511757     -2.61165166      8.87744141
S        19.60168076     -0.11214542      7.98922539
S        17.30949020      0.25489098     10.66819477
P        17.73232269     -0.61902070      8.83587265
S        16.75557518      0.05834371      5.69049406
S        14.29839611     -0.23555972      8.13036633
P        16.31526184      0.44072369     15.80138302
S        16.45104218      2.34694982     16.18979454
S        17.42875290     -2.42029762     17.27511024
S        19.47057724     -0.19202745     16.75334167
S        17.29271698     -0.00277513     19.34534645
P        17.58737564     -0.47527137     17.39970589
S        16.37470436     -0.10093656     13.84455299
S        14.52515507      0.02135338     16.73309708
S        16.19682503      2.53442001     24.58346367
P        16.18172073      0.50250083     24.37577057
S        17.09280396     -2.71499801     25.84544945
S        17.20895004      0.24114509     27.72387123
S        19.72501183     -0.32756242     25.13672256
P        17.84644127     -0.57810038     25.74952698
S        14.58852577     -0.20589724     25.22015953
S        16.60957909      0.16481338     22.50966263
S        17.28692245      8.53411198     10.61430454
P        16.03870964      9.01863384      7.73949146
P        17.77293396      7.90401983      8.83245277
S        16.38163948     11.03548717      7.47498322
S        14.04640198      8.71249676      8.26133633
S        19.61971855      8.28143883      8.28811455
S        16.76833916      8.16097832      5.87311840
S        17.52782631      5.77396488      8.46627998
S        17.16479683      8.55683994     19.25037384
P        16.11702728      8.90030289     16.00068283
P        17.66733932      8.09566402     17.37444687
S        16.69315147     10.86061192     16.13047218
S        14.36519146      8.54964638     16.81390381
S        19.53585052      8.45371246     16.77510262
S        16.51413155      7.97105503     14.31672192
S        17.38407326      6.03579712     16.68655014
S        17.17560959      8.57091904      2.28085661
P        17.68388367      8.01760483      0.35464013
S        16.47859573     10.82718277     -0.91699970
P        16.09552956      8.82374668     -0.98140979
S        14.40115356      8.48061085      0.01720493
S        19.78022766      8.29170418     -0.05826369
S        16.51417351      8.38525295     -3.05814958
S        17.31221962      6.02134466      0.10056637
S        17.55233002     14.29185867      8.90447330
S        17.21265221     17.04056931     10.67519093
P        16.13108063     17.44089508      7.39313745
P        17.64986229     16.33269119      8.87339973
S        16.67345238     19.32712555      7.97823715
S        14.22266674     17.10979271      8.12251282
S        19.47451782     16.98003387      8.04541779
S        16.52488136     16.69796753      5.54731846
S        17.10585976     14.54869843     17.10117912
S        17.51861382     16.91022491     19.49497032
P        16.15090370     17.43800545     15.99622059
P        17.75087547     16.54963684     17.44737816
S        16.38962555     19.51592064     16.06165695
S        14.31353664     16.79845047     16.51961136
S        19.64241028     16.75722504     16.68376541
S        16.57372856     16.71005630     14.04580402
S        17.33460808     14.51959801     -0.14587548
S        17.37273598     16.76047707      2.35338426
P        17.64453697     16.45050812      0.46465662
P        16.26312637     17.49133110     -1.02165484
S        16.33221054     19.51763153     -1.06616962
S        14.41690922     17.14890289     -0.10790504
S        19.59168053     16.91013908      0.02467834
S        16.48994827     16.42807388     -2.76029468
P        24.68746376      0.41683251      7.48727703
S        25.11632347      2.44699121      7.75619411
S        25.90131950     -2.71852875      8.91713047
S        27.94526100     -0.01342618      8.29832649
S        24.84876060      0.03332260      5.49046850
S        25.62585640      0.21723887     10.48783112
S        22.91465759     -0.04644423      8.27284813
P        26.21066284     -0.72767007      8.83138561
P        24.64877510      0.32313657     16.00155830
S        25.19322205      2.40545678     16.19243813
S        25.70191383     -2.60039544     16.92691612
S        27.97167778      0.24060893     16.65805626
S        25.07513809     -0.35480285     14.16848087
S        25.76189613      0.13271344     19.29553986
S        22.78856087      0.08129565     16.75121117
P        26.10417938     -0.61919427     17.35336685
S         2.56511521     25.04340935     25.04354477
P        -0.78917879     25.97498703     24.33260727
S        -0.51446879     27.90535927     24.87383652
S         0.46241537     22.79946136     25.93445778
S         0.40612188     25.79730606     27.62396240
S        -2.72449565     25.23105431     25.10195351
S        -0.27427438     25.51835251     22.44631958
P         0.70505905     24.75437546     25.78777695
S         0.34560686      5.81397629      8.68228245
P        -0.74607217      8.93311977      7.61014366
S        -0.45330480     10.87033749      7.55119944
S         0.64336532      8.43439388     10.96045399
S        -2.81729746      8.62980556      7.96555328
P         0.73258871      7.84526539      9.04702568
S         2.34446168      8.57897091      8.02054310
S        -0.21065043      8.31035328      5.71577978
S         0.27780807      5.93790007     16.97936249
P        -0.72064513      9.04634094     15.97837353
S        -0.66942918     11.09163570     16.05812263
S         0.15887845      8.53430176     19.18525505
S        -2.36017275      8.39185333     16.80761909
P         0.76261675      8.06389141     17.36477470
S         2.83980918      8.19309711     16.75169182
S        -0.44828045      8.16849613     14.22196865
S         0.61145806      5.75572300      0.17126636
S        -0.40618578     10.85709286     -0.86955273
P        -0.91453266      8.92822170     -0.92363608
S        -2.75751567      8.84677410     -0.36891940
S         0.42706528      8.42742157      2.34065247
P         0.65179706      7.82955837      0.40638733
S         2.59403062      8.58059406     -0.25979894
S        -0.37590167      8.19013405     -2.75422692
S         0.37755123     14.55102062      8.34254646
P        -0.81127179     17.40522003      7.46192598
S        -0.08994870     19.39248085      7.42846298
S         0.07419598     16.78697586     10.91576385
S        -2.42777276     16.93910789      8.53975677
P         0.72876382     16.49410248      8.82976246
S         2.54105496     17.15788078      8.32920265
S        -0.55622399     16.49842262      5.69312286
S         0.33173469     14.56735706     17.13146591
P        -0.73144990     17.38097000     16.10797310
S        -0.42015436     19.35820961     16.15178299
S         0.37613809     17.00989342     19.32355118
S        -2.78430414     16.86950302     16.57954216
P         0.75790709     16.47518921     17.46543503
S         2.68214869     16.79107857     16.55898666
S        -0.37196320     16.77154160     14.03626823
S         0.45143977     14.38022232      0.16873369
P        -0.71935737     17.51308250     -0.88856310
S        -0.17996463     19.46983910     -1.03816688
S        -2.53172207     16.96416473     -0.22371027
S         0.23552303     16.72245598      2.35003638
P         0.72843111     16.40051842      0.50538570
S         2.42982078     17.15747643     -0.28226516
S        -0.57470500     16.61793900     -2.84471512
S         1.70605254      5.16154909      4.47861338
S         4.58445978      6.79195070      3.42689848
P         4.80164289      3.38264489      3.67037082
S         4.23231983      1.79426563      4.79412270
P         3.82430887      5.14160490      4.42402124
S         6.92993116      3.54427266      3.49643064
S         4.17366409      3.35447097      1.58221781
S         4.52584076      5.22539997      6.38174772
S         4.30224943      6.76154137     11.82571888
S         4.29080963      5.01462936     14.96097755
P         4.97087860      3.44072819     12.17741394
S         6.95119810      3.87293053     11.81497288
P         3.87700820      5.29714203     13.03491879
S         4.14089632      3.21225739     10.24021816
S         4.38972712      1.83171558     13.46656132
S         1.86300611      4.97248507     12.54252625
S         1.79082417      4.23957825     21.28073883
S         4.13809204      6.61072063     20.28754807
P         4.87513351      3.40166783     20.56727219
S         4.54403257      1.66916311     21.48286438
P         3.64686418      5.07201862     21.44337463
S         6.79602814      4.10332251     20.96186256
S         4.64224100      3.56043673     18.53469849
S         4.34146643      5.73753119     23.30295753
S         4.22993994     15.38669109      3.49644232
S         4.66452694     13.92510986      6.28509855
P         4.98786306     11.87629700      3.62208486
S         6.86436844     12.20295715      3.68120933
P         3.84289432     13.64106369      4.44122648
S         4.41449165     11.65631676      1.59666240
S         4.02550602     10.48070335      4.70483398
S         1.75559986     13.03165722      4.42580652
S         1.69427800     13.23303223     13.13568020
S         4.32050610     15.23737621     11.73753357
S         4.66620493     14.03007889     14.69460297
P         4.98855829     11.77435017     12.12145329
S         6.89864922     12.40716171     12.37957382
P         3.76588321     13.52785110     12.88800430
S         4.37275648     11.77650070     10.18619537
S         4.07575655     10.20712280     12.91335869
S         1.95564079     13.10550308     21.45687103
S         4.38567495     15.16982460     20.25768852
S         4.45686531     14.06184769     23.30703354
P         4.85405064     11.96746635     20.34864235
S         6.93358803     12.26342392     21.00965500
P         3.85058665     13.66469002     21.52699661
S         4.03067112     11.65803337     18.48666763
S         4.31382084     10.31391430     21.46316719
S         1.86698234     21.82420540      4.33712196
S         4.30628014     23.84646225      3.40580416
S         4.31486559     22.57511902      6.54171038
P         4.93142271     20.30000496      3.53467369
S         6.98109150     20.72922134      3.59554434
P         3.88011861     22.00901985      4.62854147
S         4.18311453     20.03522873      1.61487520
S         4.32066107     18.67931366      4.59849310
S         1.93821931     21.68025589     12.91720104
S         4.05974436     23.50291824     11.70422745
S         4.52520752     22.40323257     14.90076828
P         4.99358988     20.41380692     11.93190289
S         6.94114971     20.60820580     12.31315041
P         3.92506146     21.96572495     13.03097343
S         4.28350973     20.38891602     10.09761620
S         4.12169981     19.03791428     13.15897846
S         1.89127517     21.82220078     21.55435944
S         4.49939966     23.73481560     20.21617699
S         4.20612431     22.39321899     23.37694550
P         4.92075682     20.29958153     20.52638245
S         6.89170980     20.97282219     20.81818390
P         3.98711467     22.17558861     21.37358856
S         4.01083899     19.98834801     18.60405731
S         4.38059568     18.61765289     21.38785172
S        12.55794811      2.01966381      4.73227787
S        10.20588970      4.63156700      4.34654903
S        12.80922222      6.70019770      3.34092474
S        13.06134415      5.31812382      6.28825665
P        13.47830296      3.41052413      3.71887469
S        15.45462513      3.83539581      3.61675119
P        12.28698063      5.05001688      4.39185953
S        12.73351955      3.42850184      1.81948447
S        12.58815479      1.91541016     13.24128151
S        10.17531681      4.84948587     12.93217468
S        12.73542213      6.55891705     11.59776974
S        13.12582588      5.16735792     14.78934479
P        13.44976234      3.49427700     12.07607841
S        15.43281651      3.93503904     12.26090336
P        12.26344872      5.08579397     13.01301384
S        12.81531239      3.39177823     10.14854527
S        12.62126541      1.67916155     21.47426605
S        10.28320599      4.65589380     21.57625580
S        12.96609306      6.75006151     20.15336609
S        12.88321114      5.57012701     23.42111588
P        13.30265427      3.37010932     20.60735321
S        15.29237270      3.95910287     20.62743187
P        12.37889671      5.22098446     21.50668526
S        12.85728550      3.19299340     18.49836349
S        12.75576019     10.16100407      4.63974094
S        10.39463902     13.39329720      4.27831554
S        12.83669758     15.28125191      3.36096215
S        12.95135880     13.93994713      6.60613108
P        13.34545898     11.80706310      3.55203938
S        15.32409763     12.47536469      3.60418153
P        12.25505257     13.60474873      4.54224443
S        12.71916103     11.53452873      1.67080367
S        12.87170696     10.31878948     13.23947430
S        10.17147350     13.49768639     12.72663879
S        12.97665119     14.99870300     11.83559132
S        12.79933643     13.78352833     15.16835880
P        13.42845058     11.87858295     12.08959103
S        15.30018997     12.51923847     11.89093113
P        12.32841301     13.72803402     13.15905571
S        12.71132565     11.47927189      9.95490074
S        12.61038494     11.72175312     18.66720581
S        12.86365032     10.40181065     21.83530045
S        10.33747959     13.36991978     21.19174385
S        12.85215473     15.21231174     20.29640961
S        12.71715641     13.66007805     23.43914604
P        13.50355530     11.92105007     20.58930588
S        15.50741005     12.22379875     20.35512161
P        12.19372559     13.69337845     21.48940086
S        12.63143063     20.26475716      1.61148536
S        12.80598640     18.63984489      4.58620119
S        10.17112064     21.80514526      4.45501375
S        12.88347054     23.56049538      3.20997167
S        12.89997005     22.47806358      6.48159742
P        13.41679096     20.28523254      3.56146049
S        15.42454433     20.86269951      3.78073001
P        12.35473251     22.10511017      4.56919670
S        12.49262714     20.28337669     10.31220436
S        13.06195927     18.81065369     13.34611797
S        10.25905514     21.75518036     12.52669907
S        12.78544044     23.82388306     11.84141636
S        12.90122509     22.16735077     14.97901630
P        13.29169369     20.33567238     12.03163052
S        15.49734020     20.59879875     12.09807777
P        12.29232121     22.23248100     12.91924381
S        12.44871902     20.24589157     18.62356758
S        13.05521393     18.62418938     21.63742256
S        10.29674625     21.90272713     21.22566223
S        12.85830116     23.65502167     20.10214615
S        13.06797695     22.22371483     23.42797852
P        13.34784698     20.34024429     20.40691757
S        15.24530506     20.89112663     21.00522041
P        12.26244926     22.12083626     21.42636299
P        20.70191765      5.20910645      4.56672573
S        21.07594109      1.90848124      4.78778076
S        23.85976410      3.61145854      3.39376044
S        21.57384682      6.78876686      3.31931782
S        21.54431725      4.94096565      6.42415190
S        18.61214066      5.10925961      4.41215372
P        21.73209763      3.40458369      3.61241102
S        21.28141022      3.42658019      1.74100494
S        23.97137833      3.48189092     12.19118977
P        20.92450905      5.24778509     12.84720325
S        21.11213493      3.19411206     10.18673992
S        21.22192574      1.87846756     13.15475845
S        18.84794426      4.73296022     12.83677101
S        20.97492599      7.05121136     11.85033226
S        21.32414818      5.43529510     15.01611042
P        22.02190399      3.37788844     11.96663952
S        23.58630371      3.92428231     20.64603424
P        20.78389359      5.26986361     21.39326477
S        21.07489967      3.03034806     18.60033226
S        21.43272781      1.92105150     21.85046005
S        18.79292297      4.73116970     20.93011284
S        21.37430191      6.91005898     20.58949280
S        21.63466644      5.18371487     23.29074860
P        21.70353508      3.43170428     20.55888176
S        23.60985374     12.53357887      3.87364125
P        20.64459610     13.71993637      4.52938080
S        21.07372665     11.65359116      1.83942449
S        21.78654671      9.94303894      4.50141001
S        18.51156616     13.70943832      4.17879248
S        21.45847893     15.05677986      3.33324981
S        21.59849739     13.79971123      6.32757092
P        21.69494820     11.78427219      3.67468476
S        23.92731857     12.21729565     11.92279911
P        20.72769737     13.50872612     12.90501881
S        21.19278717     11.85962486     10.14535809
S        21.39933395     10.25036621     13.46564388
S        18.60287666     13.55648804     12.71186924
S        21.20998764     15.25027275     11.88643932
S        21.33154106     13.72749615     14.87482452
P        21.99988365     11.82425213     12.14585972
P        21.74982643     11.88153553     20.63493538
S        23.90851593     12.01700592     20.74341583
P        20.76856041     13.64100266     21.42544937
S        21.21393967     11.79528904     18.67448044
S        21.21684456     10.24259949     21.42943382
S        18.86977959     13.05862904     21.29223442
S        21.10059166     15.40583611     20.32803154
S        21.55624580     14.15907574     23.33503342
P        21.74459648     20.30350876      3.53590488
S        23.81257820     20.91840172      3.76407385
P        20.76150703     22.11994934      4.44991732
S        21.16692924     20.12967873      1.59295034
S        21.30494118     18.95561981      4.77927113
S        18.73835945     21.73910522      4.41845655
S        21.42225456     23.68006325      3.32936335
S        21.43272018     22.15614510      6.38078976
P        21.89541435     20.43503380     12.13064289
S        23.89411354     20.75105858     12.17278099
P        20.74043655     22.15933228     12.99016190
S        21.04956245     20.30669022     10.33954811
S        21.27250099     18.79854202     13.28160954
S        18.77772713     21.71831703     12.61310005
S        21.22761536     23.77437401     11.68619156
S        21.53093338     22.06494141     14.84615612
S        21.57737160     22.31097412     23.31453514
P        21.76808357     20.37128639     20.46609116
S        23.84758949     20.83551216     20.83010864
P        20.71620941     22.10396767     21.51517677
S        21.22612953     20.10306549     18.57171440
S        21.18161392     18.86232185     21.55275917
S        18.81090355     21.70932388     21.37948418
S        21.25524139     23.70778084     20.23044968
