648

Na     -124.31787872     39.60005569    102.38523102
Na      -15.36479378   -107.67652130   -117.40923309
Na     -141.71212769    -19.89120674      1.55568242
Na      -34.79660416     98.81715393    -28.03706741
Na      -22.69581795    -75.81258392    -56.46678925
Na      -23.86370468     69.77424622    -38.39456940
Na      -60.43856430     14.75504780     36.38057709
Na      -13.38145161     -7.94979525      2.52868032
Na       66.03859711     82.87799072     27.44527626
Na       69.94588470     -1.75550032    124.68755341
Na      116.67906952     18.37767601    -40.86326599
Na       11.94775581    -36.54060745      9.30860138
Na      -66.75428772    -89.98410797     52.91325378
Na      -60.15863419     81.56786346    -44.73049927
Na       43.22824478     11.76027393    -65.52114868
Na      128.85786438    138.00987244   -121.34956360
Na      177.22599792     72.42783356    -95.51946259
Na      100.09823608     35.54339218     61.11469650
Na      -11.49037361    -76.62821960    -37.05166626
Na      134.51280212     48.95655441    155.42642212
Na      171.30297852      7.73588943    198.82696533
Na      240.16867065     94.50698090     95.75413513
Na      147.15203857     26.13608170     61.64338303
Na       24.54056358     98.75756073     48.56663895
Na      -53.95891953     -0.96279567     14.45467186
Na      -12.26903248    211.44793701     -2.55766392
Na      -32.34684753    -32.04606247     64.43023682
Na      101.04821014     57.12194824    -13.79625034
Na     -139.50669861    -47.84709549     75.24192810
Na      -64.89303589    -24.39273453    162.83500671
Na      -61.15053558    -24.56242180     54.58736038
Na     -144.55784607     11.14910221     95.16308594
Na      104.66546631    -47.72997665     91.98739624
Na       -1.19002128     32.01331711    -22.89181709
Na       70.75473785      8.62000084    -14.28503799
Na       89.82793427     95.81278229    -51.65338898
Na      -86.39650726    -36.51065063    -44.15388489
Na       56.21483994    -98.70934296     83.11251831
Na      134.40809631   -120.89321136    104.29592896
Na       25.37978172      5.53155184     45.66740799
Na       -7.24861002     53.83614349    -74.68500519
Na      175.87692261     77.66020966    -23.25969696
Na       22.43739700    163.48323059     32.39965057
Na      -53.84914398     79.17984772    -43.95688629
Na      -14.66104984    -59.49117661     56.72535324
Na       83.87431335     22.63313293    -62.05941010
Na      113.44172668     30.82008362     93.56915283
Na      -96.50124359   -102.47936249     90.56602478
Na       79.64562225     -2.79827070     42.62097168
Na      -35.64101791     61.53493118    -74.72261047
Na     -119.19017792    -27.80101585     99.36857605
Na      -43.55387878     19.05337524     -7.14327621
Na       94.98090363     53.30366135    -87.40033722
Na       96.23157501     56.30019760    -16.13667488
Na       21.16526222    -27.71935654    -75.72097778
Na      -69.40976715    -10.52124405    -31.78686333
Na      208.90348816     20.61440277      8.24717426
Na      -48.15513611    -57.81095123   -133.36241150
Na       26.93149185      1.81619012     47.86951447
Na       -8.37653351    -82.48251343      4.60924435
Na      -51.41973495     65.12380219     87.29894257
Na     -239.33076477     14.15101433     69.17811584
Na      -74.83229828    -82.58649445     73.38898468
Na       89.44776154     71.00000763    -43.20838165
Na      180.53422546     81.14835358     35.76847839
Na      142.05761719     31.02433586     -6.82064009
Na     -105.14459991    -34.41289139   -163.86848450
Na     -141.19818115    -39.77400208     74.50580597
Na      263.99444580     45.21096802     52.20466232
Na      222.45100403    142.45327759    -44.57414246
Na      264.20715332     52.53359222      4.27841091
Na     -102.14371490     11.23418808    180.03164673
Na       24.30282593      2.31803703      9.89811611
Na     -311.95648193    -56.89190292     99.47501373
Na      -38.82820129     14.06553650    153.14749146
Na       39.25297165    -48.54223633     32.55147552
Na      160.69552612    -96.50367737     90.94545746
Na       28.12944794     33.33219910    -36.62759399
Na      164.41195679      9.03790283    -39.84606171
Na      112.01940918    184.91223145   -103.85895538
Na      172.61952209    116.11123657     43.37984085
Na       -9.03968334     23.15543556    -64.62990570
Na        5.29653645     84.11125183     47.62462234
Na     -171.57369995     35.18309021    -74.19308472
Na     -137.04228210   -162.12014771    -48.22829437
Na      106.02282715   -158.89318848     66.77259827
Na       55.85798645    151.76435852     56.81935501
Na     -164.08825684     95.91522217     15.49389553
Na      -51.07569885    -19.62302208    -44.59152985
Na       21.86917305     96.07933044     -9.87144852
Na      224.77371216    -17.45122147     14.16994667
Na     -159.32667542      2.32994032    -19.55124092
Na       77.85898590     77.74423218    133.02342224
Na     -224.81169128     36.19941711    -35.18017197
Na       29.20223618    204.12658691    -40.39373016
Na     -231.31768799    -34.34643173     98.14504242
Na       53.96433258    -66.71241760    129.14378357
Na      117.82031250     31.39728928     10.97867107
Na      -32.02310944    188.23283386     99.34468079
Na       24.24843407    -77.99237823      3.08699632
Na       24.03829193    167.57522583    -23.63832855
Na        7.63564396     87.21308899    -15.18375301
Na       69.15648651   -104.18859863    -48.10307693
Na       60.39318466     78.13260651     13.03720856
Na      -89.79242706   -124.58109283     66.60111237
Na       23.49928474    119.93044281    -15.12108326
Na       60.78057098     36.02371979     65.09358215
Na      198.21257019     73.72238922     -7.93342400
Na      133.61265564    -99.54628754     -6.74978495
Na      -40.65329742      2.03724527    -79.29352570
Na     -153.51919556   -113.46565247     73.80038452
Na      196.77493286     66.77388763     98.15985870
Na       33.34479141   -121.62751770     57.09647369
Na      -17.91286469     39.80428314    -22.76729393
Na       85.19332886     70.10046387    -46.32628250
Na      -35.19913101     73.39779663    -95.74906158
Na      -31.61352348   -132.96429443    -42.78116608
Na      168.62866211    -32.03234482     19.07548523
Na      -94.80143738     49.03209305     94.88907623
Na       77.01599121    -13.76437473    -32.28913116
Na      115.37882996     92.49506378     98.69555664
Na      188.71371460    -61.86374664     19.02657509
Na     -113.77040863    -43.04273987     90.49183655
Na      -80.49593353   -141.63865662     -9.98499775
Na        1.71005106    -22.91701508     27.95621681
Na       14.95335197   -100.32628632    146.42120361
Na        9.85581017    125.15395355    133.33467102
Na     -125.85643005    -30.62877274      2.11860561
Na       -6.82386112     33.19051361      4.65804815
Na       83.01109314    176.24725342   -167.73292542
Na      -18.66479111    -11.23640633    108.19502258
Na      -77.88513184      2.14482474     43.85125732
Na      -27.06821060    -27.70462227     -6.35679913
Na      -19.16011047    -58.06713867     10.75257874
Na       51.82795715    -95.52779388    -78.43607330
Na      -77.51351929   -107.94397736     18.55113792
Na     -245.68771362    -47.38085175    -15.34350300
Na       -2.41822791     85.01528168     70.28786469
Na      132.72138977     -9.15197659     47.81150436
Na       -9.61375046     27.41392136    137.42298889
Na      -81.42407990    -44.86323929    -25.01155281
Na       12.85397625     33.26622391    -44.29866791
Na      -33.72488403     98.51139832     65.54634094
Na      126.54447174    132.24348450    -61.77879715
Na       -5.78512573     -6.97442627     18.98926544
Na      336.71807861     -7.44424963     28.17865372
Na     -153.61817932     13.49038029    -10.68166828
Na      121.61192322     13.97933197    203.43644714
Na      172.53471375     -2.67886448     85.65571594
Na      132.33024597      7.91658401     81.89538574
Na      -74.53092957     61.37855911   -104.42284393
Na      117.61759186     90.43240356     99.57796478
Na      219.91505432    -63.46316910    -36.05616760
Na      137.46374512    -34.86971283    -38.22982025
Na      -22.26995277     85.34526062    -91.05878448
Na      158.03950500    -14.17605686    134.73222351
Na       20.46591187     56.96649933   -134.61846924
Na      149.01606750    -40.28633499    227.93818665
Na       73.48930359     84.51619720     81.19504547
Na      -36.84349442    -34.34181213     13.85301590
Na      184.86566162   -112.35571289     61.69352722
Na      -13.49321365     31.12895203      8.91031647
Na     -105.15843201      2.50922465     92.08361816
Na     -231.65553284     28.31993675   -255.35307312
Na        4.19064665    186.91563416     -6.45591402
Na       78.54234314    -82.88866425     82.75148773
Na     -104.65106201   -127.57730103    123.84962463
Na      -48.79879379     40.58972168     23.51575089
Na     -225.13320923     48.31739426     51.63088608
Na      155.07388306    150.02270508    -40.70740509
Na       87.17343903     22.35344315     69.21803284
Na       18.79463768    -48.66652298    150.14144897
Na      -20.30138969     70.46591187    -77.75621796
Na       95.40716553    162.85421753    -74.69083405
Na      105.32044983    107.77358246     17.39498901
Na     -214.71629333     87.52633667    160.16853333
Na     -154.27841187   -137.62596130    146.03721619
Na       16.61209488    -45.29063416    -78.71125031
Na      -64.25022125    -27.99547195      9.29558277
Na      117.93308258     56.20664597     14.66472721
Na      103.65047455     91.74232483     14.78627205
Na      -20.86354065    -25.87839508     48.44405365
Na      -54.09182358    -26.01567650    107.64148712
Na        7.04955006    -37.64500809     -1.17305768
Na       63.07721329     51.66782761     77.82666016
Na       62.74841309     23.02751541     26.18247795
Na      -10.27060127     86.80513000   -134.02270508
Na     -154.32463074    -52.91355133    163.27828979
Na      -13.67340279      8.96758270    129.57298279
Na      155.58946228    -11.21635056    111.43791962
Na       38.92926788     36.69317627    117.05871582
Na      -98.83157349     -9.08319569    -71.26514435
Na      159.51214600     57.09595490    -14.22024059
Na       21.90794182    171.69389343     24.23193550
Na      -37.73725128    -26.01312065     73.69189453
Na       61.58315277     37.71792221    109.30776978
Na      -58.26125336    -72.70098877    146.27061462
Na     -133.84268188    -90.84231567   -146.25942993
Na     -116.76336670     24.03287506    -11.19422436
Na       60.29953003     -6.09144354   -104.88261414
Na       45.43255615     90.67327118     60.52568436
Na       36.75739288    -92.33316803     19.30723953
Na      -81.20391083     68.66930389     27.56516838
Na      -94.36572266    -20.58950806    -27.83613968
Na      152.00442505   -130.12370300    141.36657715
Na       32.62078857    133.29426575   -133.47612000
Na       86.90125275    -82.66792297     65.40910339
Na     -119.81795502    -12.11027908     40.12049484
Na       24.94054222    -11.31426620     57.12921143
Na       14.29080677     73.55347443    -58.31693649
Na      124.12867737     16.36803055    -45.59912109
Na      -72.04552460    -61.49457169     -8.16681576
Na      108.31438446      2.22422862    255.50267029
Na       -5.47525692    280.30987549    -31.66047287
Na      -83.08589935     11.01491165     70.08851624
Na        3.16344428    -20.20847130     25.85206985
S         8.93933582     25.55483818     10.95054150
P         9.02584362     25.01008606      8.96480751
S         8.14638615     25.26124763      5.58319473
S         5.95191860     25.26256943      8.17444515
S         8.90737629     22.90059662      8.58180237
P         7.69406414     25.92027473      7.53404236
S         8.06139469     27.97338295      7.61976051
S        10.90817547     25.14814758      8.13899899
S         8.71590137     25.35568619     19.39927483
P         9.23997211     24.88827896     17.42855072
S         7.83210278     25.17565346     14.11971855
S         5.73435974     25.57130051     16.88261032
P         7.70512962     25.90545273     16.01312065
S         9.07691097     22.82918549     16.80771828
S         8.20902348     27.82836151     15.74763584
S        11.12876034     25.47257233     16.95189285
S        10.89941311     25.34113693     24.97384262
P         9.21897030     24.81208229     25.86383820
S         5.90959835     25.17662621     25.16423607
S         8.01977539     25.57305336     22.51846313
S         8.31117439     27.83253670     24.56906128
S         8.93051529     22.84498405     25.87388229
P         7.69656181     25.87715530     24.54771996
S         8.65514374     25.56536293     27.64332390
S         5.99110651      8.48062229      8.34534264
S        10.88222218      8.54276752      8.16666412
S         8.09562588      8.30487061      5.61563635
S         8.86894512      5.89023304      8.83707428
S         8.73850346      8.22659874     10.81652260
P         7.80528927      9.04080677      7.55774355
P         9.19467449      7.88776541      8.81659698
S         8.06765747     11.04767036      7.38777637
S         5.89300919      8.55817223     16.76417923
S        11.18077850      8.25358295     16.72091675
S         8.15744877      8.32151985     14.05191135
S         8.99043465      5.78592920     17.25284386
S         8.77505112      8.63693142     19.16312599
P         7.54337931      8.94697094     15.89418221
P         9.16676617      7.84432840     17.27420807
S         7.92729473     11.06922817     16.21985245
S        11.12684822      8.41903114     25.32293892
S         7.89089727      8.09494400     22.56785202
S         8.83140755      5.99449110     25.50410461
P         7.70215178      8.99492741     24.42502403
S         8.88207626      8.71453571     27.53675842
P         9.16990376      7.94140100     25.85402679
S         8.26149654     10.98616600     24.85128784
S         5.77488899      8.27610302     25.08786392
P         9.10461140     16.33943176      8.79231262
S         7.98582602     16.63436127      5.53549480
S         8.10795116     19.33700371      7.67953873
S         8.75433731     17.06760406     10.77550793
S         5.95245028     17.09233856      8.41440582
S        10.97913361     17.09430504      8.27479362
S         9.16227531     14.24285412      8.74628353
P         7.58694506     17.41229439      7.31596518
P         9.29680538     16.44503403     17.35940170
S         8.23102283     19.42355537     15.90235615
S         5.90145397     16.90022087     17.02549171
S        11.04795742     17.00922394     16.94410706
S         7.91918278     16.63263130     14.07583427
S         8.83473396     14.53112221     16.87712860
S         8.65802097     16.88510895     19.23667526
P         7.75666857     17.39634514     15.92414379
P         7.66389990     17.40987968     24.44329453
S         8.19437313     19.40479851     24.73218346
S         5.76039267     16.73967361     25.22197914
S        10.91854954     16.83662987     25.07608414
S         8.21660328     17.02200890     22.45808601
S         8.84983253     14.26633263     25.86210442
S         8.85770893     17.21113014     27.53449059
P         9.17725754     16.32930946     25.82113266
P        16.11273575      0.42281386      7.46222353
S        16.49306107      2.38256764      7.72858429
S        17.18678474     -2.53257322      8.67168999
S        19.65351868     -0.08728615      8.18130589
S        17.33669853      0.18600957     10.91694927
P        17.74767685     -0.58034992      8.88568878
S        16.55782127     -0.10685883      5.53613567
S        14.35585594     -0.07078995      8.15988064
P        16.14146614      0.46207011     15.89238644
S        16.60850334      2.44176865     16.14961243
S        17.34937668     -2.65940976     17.38694763
S        19.34014893      0.10631904     16.62433052
S        17.49287987     -0.07556314     19.31993866
P        17.60832214     -0.60685021     17.38732910
S        16.61572838     -0.12207743     13.96883488
S        14.28395939      0.06770994     16.61563110
S        16.59376526      2.31287146     24.82866096
P        16.18469048      0.40188658     24.45885849
S        17.17916489     -2.58741140     25.73177147
S        17.18414879      0.26490638     27.59670639
S        19.58232307     -0.04066210     24.95355034
P        17.65255737     -0.55579048     25.82004929
S        14.35205173     -0.12504387     25.23995018
S        16.71465683     -0.05710000     22.52030563
S        17.00483322      8.64587784     10.74576759
P        16.09791946      8.86678123      7.41914558
P        17.68900871      8.01632977      8.93155193
S        16.67918205     10.94520664      7.75695229
S        14.47405815      8.50606251      8.47474957
S        19.65086174      8.43852139      8.26480770
S        16.45331955      8.09588242      5.53800058
S        17.39246750      5.90512562      8.41157722
S        17.10740471      8.76689911     19.05045509
P        16.10553360      8.97310829     15.82876873
P        17.75505638      7.90671206     17.19349098
S        16.80036926     10.82822514     16.34309578
S        14.42844105      8.21989632     16.89888954
S        19.64782715      8.47360611     16.88737106
S        16.35722542      8.33333588     13.95523357
S        17.24230003      5.91789103     17.17894173
S        17.10206604      8.57200050      2.15006661
P        17.69215965      7.89278364      0.31142023
S        16.75465393     10.87696838     -0.68132401
P        16.11029816      8.98456001     -0.99377084
S        14.30412674      8.47595119     -0.20992538
S        19.62863922      8.48993301     -0.20307656
S        16.35029030      8.27158451     -2.96346283
S        17.49994278      5.85580778      0.32662633
S        17.13183403     14.29274750      8.71985722
S        17.33463097     17.09297752     10.60767937
P        16.25977707     17.51470757      7.44623184
P        17.76562881     16.35305977      8.87022018
S        16.35294533     19.61902809      7.58278227
S        14.35785675     16.72242355      8.28531933
S        19.72047806     16.76848030      8.36716080
S        16.52661324     16.86071205      5.66213512
S        17.26371574     14.34421825     17.59463501
S        17.43189812     16.86077690     19.29637146
P        16.23503876     17.36669731     15.89491558
P        17.64266396     16.31498146     17.32717514
S        16.58837318     19.35378075     16.12693977
S        14.34941769     16.90000153     16.62033272
S        19.36865997     17.03746414     16.58017349
S        16.56497192     17.03988266     13.90250397
S        17.23856735     14.30073643      0.56605017
S        17.42919159     17.29640198      2.19824839
P        17.65607071     16.35317993      0.35513532
P        16.13334084     17.33897972     -0.96614289
S        16.57957268     19.27340508     -0.44858956
S        14.25998783     16.78476906     -0.53118873
S        19.39397812     16.80743790     -0.57707703
S        16.75102425     17.06325340     -2.85745382
P        24.68909264      0.43889099      7.49372053
S        25.05773544      2.45773005      7.46450996
S        25.73031235     -2.43266654      8.43832016
S        27.88249969      0.12933359      8.25694561
S        25.08128929     -0.36811605      5.69401598
S        25.81694412     -0.12385730     10.88376045
S        22.87666512      0.08257132      8.35008907
P        26.11248207     -0.56943440      8.96486187
P        24.68580055      0.45310718     15.90166950
S        25.06243515      2.48149681     16.16317368
S        25.77049637     -2.57373166     17.06753159
S        27.87306595      0.11754465     16.68974876
S        25.01641846     -0.34522384     13.94896030
S        25.76094437      0.02947366     19.38317108
S        22.89484406      0.08570769     16.78198433
P        26.18538094     -0.63569415     17.40985298
S         2.51109385     25.50461388     25.14943504
P        -0.79195142     25.93904877     24.39878082
S        -0.36136407     27.97172546     24.80954742
S         0.46830577     22.75213623     25.84363937
S         0.36460447     25.44893456     27.64770508
S        -2.61065793     25.53263092     25.04422951
S        -0.49508429     25.12189293     22.45666504
P         0.75288081     24.75201607     25.79701996
S         0.32411006      6.02232838      8.85928154
P        -0.84050196      8.94648266      7.50371552
S        -0.49128014     11.04167271      7.72470665
S         0.53081793      8.42762375     10.88059235
S        -2.64263511      8.49337292      8.02997208
P         0.78526431      7.83211565      8.88648701
S         2.46657729      8.41122150      8.11067486
S        -0.29507563      8.24141312      5.54846573
S         0.53023666      5.76982307     17.16269112
P        -0.84090132      8.96710873     15.91177750
S        -0.22130929     10.93639565     15.92631817
S         0.32318515      8.48213959     19.35938835
S        -2.64321899      8.45885277     16.73966789
P         0.72612983      7.84416533     17.46700478
S         2.53970146      8.52773190     16.75529861
S        -0.57857275      8.43112564     14.02623272
S         0.36361212      5.87390804      0.59083837
S        -0.43958908     11.09217644     -0.63692337
P        -0.83648831      8.95940685     -1.09617233
S        -2.64516115      8.35256863     -0.42915294
S         0.38828865      8.53255939      2.24904251
P         0.77878731      7.84451151      0.39194724
S         2.57510209      8.33382416     -0.45821831
S        -0.34735888      8.42813778     -2.87555218
S         0.44533142     14.39461994      8.63312531
P        -0.82643628     17.45157433      7.52148151
S        -0.31455365     19.42891502      7.72075748
S         0.52231544     16.97304535     10.80315781
S        -2.72295570     16.97468376      8.06545734
P         0.67775756     16.46430588      8.80158520
S         2.47379351     16.92510033      8.28633976
S        -0.42115557     16.61352730      5.70970726
S         0.47464550     14.34193230     16.94189835
P        -0.98535222     17.59658623     15.90157223
S        -0.33214831     19.43511581     15.99475288
S         0.39605451     16.95029449     19.32719803
S        -2.70813060     17.00682259     16.72120285
P         0.78707612     16.35856247     17.33266640
S         2.65946603     16.94474030     16.87811089
S        -0.45920193     16.59306145     14.24605942
S         0.30519193     14.31968021      0.19524428
P        -0.82950014     17.57187653     -1.00211692
S        -0.37524471     19.49863052     -0.85458392
S        -2.68256688     16.88733292     -0.39615831
S         0.45651409     16.92941284      2.40336442
P         0.69765717     16.34639931      0.53303838
S         2.58158922     17.00073051     -0.42788899
S        -0.31897086     16.67179489     -2.70708752
S         4.44308186      6.72178650      3.33721042
S         4.59487677      5.39216566      6.38157463
P         4.87162209      3.41884327      3.61917090
S         6.76653862      3.92592072      3.61695623
P         3.68707323      5.18022823      4.48678780
S         4.46130800      3.18906975      1.69744289
S         4.22443676      1.77612376      4.65489960
S         1.72699463      4.79456806      4.46077251
S         3.98352170      6.79439974     11.77440453
S         4.68419552      5.64775562     14.70570850
P         4.98791790      3.37632108     12.00585747
S         6.97329712      3.58109331     12.37962246
P         3.76827168      5.17028618     13.06273079
S         4.57054853      3.28871012      9.97726917
S         4.01608086      1.80440652     12.97959423
S         1.79882061      4.73394823     13.17322826
S         4.62687397      6.50414896     20.15820885
S         4.44187546      5.55318880     23.38554192
P         4.85364056      3.50430560     20.61461258
S         6.83509541      3.90573072     20.61446762
P         3.79507971      5.18939781     21.49988365
S         4.13041401      3.44463944     18.80664444
S         4.28817415      1.74491346     21.48322296
S         1.80784309      4.55560112     21.30226898
S         4.35678196     15.14711094      3.05998135
S         4.23833847     13.93104362      6.39114761
P         4.94465351     11.94274712      3.60681939
S         6.95866203     12.04623890      3.73251271
P         3.82713032     13.79683971      4.52544737
S         4.20528078     11.99060822      1.77630448
S         4.35453272     10.23900795      4.56439972
S         1.89780414     13.11476231      4.59909916
S         1.67492235     13.55376530     12.72544765
S         4.29729939     15.38115311     11.91284561
S         4.60735655     13.72731781     14.77877235
P         4.86201572     11.87519932     12.25949383
S         6.94562197     12.40084839     12.10872555
P         3.68807769     13.75813293     12.89144039
S         4.26292562     11.52718163     10.27804756
S         4.43741989      9.98114586     13.10644341
S         1.76985109     13.11180878     21.62046242
S         4.47961044     15.04771709     20.00707817
S         4.48269463     13.83376408     23.30230904
P         4.92376995     12.02108097     20.51313782
S         6.87889051     12.26315308     20.88241005
P         3.74488831     13.66731358     21.39667130
S         4.22438574     11.91260815     18.58457756
S         4.27558327     10.34917259     21.55124092
S         1.75909173     21.93081093      4.36535358
S         4.50034952     23.65124702      3.31655693
S         4.26471043     22.12265587      6.52436590
P         4.88941050     20.47313118      3.51773381
S         6.87790346     20.79362679      3.57641315
P         3.77817917     22.11768913      4.51534224
S         4.17379999     20.03063965      1.63912344
S         4.53619242     18.88836479      4.79744625
S         1.92762911     21.75310707     12.55325985
S         4.17309809     23.81418610     11.87480545
S         4.46459246     22.27531052     14.89804173
P         4.87327766     20.30124664     12.22897625
S         7.01781893     20.66419983     12.00689888
P         3.84883165     22.17071152     12.90616608
S         4.11943436     20.34940338     10.27936935
S         4.35681105     18.67595673     13.31316376
S         1.68962169     21.68901825     21.51976776
S         4.13573027     23.61962509     20.20802498
S         4.85676765     22.43083382     23.23897171
P         4.84719753     20.52798271     20.53613091
S         6.81849098     20.64680290     20.82553673
P         3.68276381     22.23789024     21.57127190
S         4.63539505     20.15577507     18.46932220
S         4.10898685     18.70619774     21.49558449
S        12.51202679      3.32445240      1.68633616
S        13.16825581      5.29568624      6.54306221
S        10.21384430      4.51686096      4.22524834
S        12.73071289      6.91522551      3.67860079
P        13.39600277      3.43468738      3.51239920
S        12.92613411      1.84616196      4.63568020
P        12.25938511      5.17111254      4.57288694
S        15.37772942      3.89474845      3.39989901
S        12.54636288      1.94724095     13.14578915
S        10.33995724      4.61847544     13.14964294
S        12.72763824      6.68166542     11.64949799
S        13.12254715      5.41889477     14.88953018
P        13.31642437      3.43223047     12.02691364
S        15.36926270      3.71873236     12.26449299
P        12.13101387      5.16185188     12.84134102
S        13.02380753      3.41944385     10.08438969
S        12.59604454      1.64456773     21.40926170
S        10.27507019      4.80397177     21.66173553
S        12.41014576      6.92278433     20.17312050
S        13.13203049      5.66934013     23.16672516
P        13.36761570      3.17705202     20.60111618
S        15.46284008      3.56204462     20.83380699
P        12.27224159      5.11984444     21.36031151
S        13.06757545      3.48881650     18.65356445
S        12.86295414     10.24131680      4.80991602
S        10.27899170     13.31087971      4.31502771
S        12.99522591     15.33318520      3.45787930
S        12.89091587     13.70323658      6.30666971
P        13.35587692     11.93346691      3.65809941
S        15.30574608     12.46212769      3.65454006
P        12.30873108     13.62170506      4.35840940
S        12.58596325     11.59616566      1.69122994
S        12.45107651     10.25465393     12.97050476
S        10.39511395     13.06002045     13.10303593
S        12.72523785     15.29515266     11.81195164
S        13.04572773     14.10316563     14.81880951
P        13.44507217     11.86893654     12.01747799
S        15.39408779     12.27248096     12.29461670
P        12.26400566     13.69935036     12.98328686
S        12.86559772     11.64876747     10.05642223
S        12.63415718     11.97206306     18.48179054
S        12.88675690     10.15759850     21.85290337
S        10.27215576     13.15341759     21.26968956
S        12.96790791     15.27394581     20.18073082
S        12.98869419     13.85278416     23.43753433
P        13.38186455     11.72744846     20.61703873
S        15.25460911     12.32046127     20.64806175
P        12.19528389     13.74143028     21.37285805
S        12.52801037     20.32205200      1.74681926
S        12.95138931     18.64668655      4.86060047
S        10.36972237     21.60747528      4.14248657
S        13.02248573     23.78395462      3.51291156
S        12.79586697     22.45428848      6.34905577
P        13.37088776     20.29681015      3.61961150
S        15.18867397     20.76174927      3.53636575
P        12.35961246     22.12955475      4.48698616
S        12.71832180     20.17261505     10.13341427
S        12.72044945     18.71962738     13.07091999
S        10.35980797     21.59363937     12.82344055
S        12.59920979     23.96644592     11.78214073
S        13.09528923     22.33743477     14.84883499
P        13.39813328     20.41756058     12.23425579
S        15.46556282     20.51532555     12.24592018
P        12.22626400     22.28947830     12.92248821
S        12.71136379     20.09831047     18.47855949
S        12.62136269     18.88429832     21.63290787
S        10.49580097     21.79518890     21.46702766
S        12.58920383     23.72607231     20.20085716
S        12.98204327     22.18076134     23.30503273
P        13.41159344     20.38489342     20.50047684
S        15.35509968     20.83602905     20.87033081
P        12.42374802     22.09897423     21.40246010
P        20.83898163      5.10121155      4.63402224
S        21.09858704      3.45949388      1.70820534
S        21.34008026      1.71952510      4.67913294
S        18.91111946      4.68483543      4.20961189
S        21.10377502      6.81084108      3.31864858
S        21.50024223      5.62473917      6.35716343
P        21.75782204      3.40998077      3.48936296
S        23.83636475      3.58508801      3.85926104
S        23.77362823      4.01801300     12.15486908
P        20.69976807      5.17977571     13.05478573
S        21.00642204      3.25377822     10.14173508
S        21.49179077      1.59148216     13.12358475
S        18.73928642      5.05523014     12.77330971
S        21.46398544      6.55109692     11.75895882
S        21.29819107      5.44296265     14.98908043
P        21.91449547      3.30238819     12.06379223
S        21.09545135      1.84742868     21.50397301
P        20.91238785      5.21396494     21.52051735
S        23.83529854      3.54452443     20.69127464
S        21.12179184      3.52562857     18.40542030
S        21.68443108      5.15934467     23.34423256
S        18.82999039      4.81065321     21.36925125
S        21.14579773      6.83753538     20.54404068
P        21.76455307      3.46225071     20.48234177
S        23.74301910     12.23891163      4.04137850
P        20.83434296     13.68566799      4.47903728
S        21.33771324     11.74633789      1.54800260
S        21.03107834     10.25595284      4.35177326
S        18.84659958     13.08173561      4.73556566
S        21.16794205     15.12837982      3.12944078
S        21.57770920     14.10203457      6.40502310
P        21.85160255     11.96635914      3.56239939
S        23.80992508     12.21750641     12.24280071
P        20.66753578     13.84069443     12.97363663
S        21.04887390     11.55806828     10.28293514
S        21.64197159     10.07419682     13.08015060
S        18.54365730     13.52454758     12.74039173
S        21.31546402     15.50045204     11.74842453
S        21.43463707     13.67333984     14.87489414
P        21.92475510     11.81675911     12.11589336
P        21.90021706     11.95221424     20.48857117
S        23.83872414     12.40127087     20.71397400
P        20.62109566     13.62427616     21.50862885
S        21.11093903     11.59568596     18.55006218
S        21.24000359     10.32495022     21.63671112
S        18.73946381     13.27529907     21.26141357
S        21.39177322     15.16164684     20.35609055
S        21.54219055     13.86746502     23.34540939
P        21.87348175     20.40807724      3.49203610
S        21.37743950     18.73545265      4.54359150
P        20.68208122     22.18644142      4.51346731
S        23.83901978     20.64358330      3.69040179
S        20.99613380     20.42569160      1.57993746
S        21.53402710     22.09919357      6.35347319
S        18.77218246     21.53801727      4.73741388
S        21.31120300     23.97183418      3.34107614
P        21.84138870     20.39440536     12.08639240
S        23.95004463     20.58169746     12.00599289
P        20.74193001     22.20678139     12.96006107
S        21.22489548     20.24107170     10.20389557
S        21.14820290     18.99181366     13.35561943
S        18.77733803     21.51164246     12.66319084
S        21.19976997     23.86966133     11.88627434
S        21.50294495     22.21144676     14.89623642
S        21.75149727     22.66633224     23.18812752
P        21.81890678     20.33913040     20.45515442
S        23.85912704     20.58577156     20.89588356
P        20.65232277     21.98327446     21.49124908
S        21.48993492     20.40457916     18.43871880
S        21.01672363     18.83323479     21.54500961
S        18.77200508     21.62542534     21.54001999
S        21.02218056     23.56128502     20.30496788
