648

Na       59.73760986   -260.29177856    -37.77400208
Na      -26.32063866   -188.74000549    113.12921906
Na      -23.44265366   -124.88883209    167.21522522
Na      -82.12458038     41.30259323   -206.11056519
Na       15.67759800     86.87392426    -49.09624481
Na       12.43200493     61.66017532     50.27680588
Na      202.53590393     47.40002441    141.55380249
Na       36.64664841    124.40164948     69.59026337
Na      -23.97547150    -82.36105347    -58.35163498
Na       54.07994080     81.91319275   -126.45039368
Na      -40.18530655    164.74087524     91.69143677
Na      -43.83959579    175.69238281     70.69882965
Na       12.56958961   -133.70506287    -51.87627029
Na      229.34552002    190.64073181      1.89056015
Na      255.94648743    163.30480957    -83.50401306
Na      134.95365906    -45.17873001   -103.91730499
Na     -200.39530945     48.49242783     43.67157745
Na       44.59888077     84.75968933    -98.29817200
Na      201.86682129    -20.22814560    -86.76982880
Na      260.92822266    -70.20594025    -14.92850876
Na       -2.44360614    -27.61887741    -66.96379852
Na       77.57292175     27.60315895      5.84813404
Na      -69.77634430    -74.97039032    -82.42406464
Na      207.20904541     40.13176346     17.35856438
Na      121.09636688     -5.92325783      7.19723415
Na      -65.24862671    -22.59859467     -1.27668059
Na     -231.49035645      2.06264520    -52.79064178
Na      -64.57890320    -61.68142319    -84.01091003
Na      -81.96343994     17.78449631     11.11217308
Na       30.94692802      2.68979192    -35.05881119
Na      209.66516113    153.60282898    -90.96160126
Na        6.99223280   -121.08687592    218.01017761
Na      147.33694458    192.12638855      9.74212933
Na       70.42305756     96.06382751     49.08351898
Na      198.69639587    209.52671814   -109.78735352
Na      164.85223389    -14.02578259     32.63267899
Na       44.58551025    107.35815430    -69.76705170
Na       -2.84805655   -191.74217224     41.72275162
Na      182.91096497     45.14172363    -34.97496414
Na      160.34771729    -28.48154068    -28.02255440
Na      125.86232758     74.39613342    -56.22610855
Na       41.88331223     64.49487305     90.51166534
Na      274.57858276    135.93161011    163.47169495
Na      -11.62027550    -84.15950012     69.51737213
Na     -123.55147552    -36.19979858     26.02088547
Na     -269.83850098    -36.19908142     31.68241310
Na      -13.56288528     34.76045227    -56.92270279
Na      191.91018677    -98.96724701    143.58221436
Na     -121.62030792    129.49450684      7.34033918
Na      -11.42584801    -43.24682617     56.52613449
Na      -40.41249084    187.43118286    -19.63048935
Na      -98.62319946      8.94065666     10.58328819
Na      163.40968323     85.91821289    137.96662903
Na     -217.52940369    -75.05570984   -175.08209229
Na       32.93489456    115.47370148   -137.76054382
Na       60.52912903     70.10670471    -57.91146469
Na     -155.55154419   -203.83656311     90.16464996
Na     -117.54515076   -226.11514282    162.55638123
Na      -24.98857689    -40.26509094     63.98785782
Na     -127.80028534    -20.00303078    -70.43326569
Na      -13.57951450     17.98731422     78.59789276
Na      -53.86975098     67.31807709    -20.11315155
Na      -40.16974258    -60.05908585     -2.68420625
Na      -27.83960915    167.05871582     76.62594604
Na       31.02722168     67.25566101   -206.66314697
Na      -99.13905334   -100.15293884     61.98333740
Na      193.82846069   -139.23643494    251.99804688
Na      -85.36136627    -37.26202393   -121.01973724
Na       79.16860199    124.18095398      0.60132188
Na      215.39503479     82.04487610     60.15160751
Na     -297.80541992    -61.43929672     11.36107826
Na      -99.64392853    -91.47611237     23.25210953
Na     -121.98516846    -65.98466492   -111.71177673
Na       10.71798134   -116.91051483     78.83599091
Na      267.46121216     -8.98168373   -121.15993500
Na       11.46237373     -2.76650739      9.25398159
Na       57.15637207     82.76565552    -23.37768364
Na       92.10263824     73.60231781   -179.88134766
Na       38.85394669     83.92594147    -78.21142578
Na      -20.63210869     58.90443802    124.12082672
Na     -197.68083191    -25.82368279    183.38578796
Na      214.07344055    157.67338562    120.60446930
Na     -170.01853943    -45.09060669    158.53773499
Na       19.99214554     34.39209366    248.03338623
Na       43.86647415    -40.21513367     90.01304626
Na     -149.64781189     77.39694977    146.13117981
Na      -87.35775757   -104.40261078    111.16492462
Na      -42.76940536     47.71524811     31.53872299
Na     -131.28971863    109.56860352    -86.82371521
Na     -125.87868500   -103.60309601     31.67409134
Na      -87.74266052     19.83566666    -18.52044678
Na       19.79584694     -2.90609312   -168.74159241
Na      147.67579651    -19.29403114     25.99945641
Na       45.61774826    102.60478973   -251.59429932
Na      -71.35433960    -85.21977997    -19.61840630
Na      173.37208557     22.99931335     68.51950836
Na      261.13583374    111.75907898     69.98110199
Na      -89.79925537     93.48004913     10.82992172
Na       69.83293915    -94.55064392     48.33660126
Na       51.95504379    -31.66970444    242.96243286
Na       -1.65594208     27.21597672   -125.66867065
Na     -318.35501099   -107.29260254    -85.86752319
Na       -2.76288295     20.00849152     67.59861755
Na       74.92449951   -158.97653198    123.75720215
Na       57.85301208   -113.84674072    -27.01579475
Na       41.04515839    120.56053162     77.88240814
Na      100.13653564    -31.77142334    -15.15889835
Na      150.46409607     35.21041489   -158.80908203
Na     -218.68334961     38.69913483     35.87753296
Na       55.99985504      7.85213995     31.03976059
Na       74.46791077     97.09506226     31.75806236
Na       16.51347733    -45.84791565     22.64941978
Na      141.17221069     -8.94576168     64.93695068
Na     -137.16174316     14.78966904     60.91957855
Na     -178.67265320     78.70893097     -6.56745386
Na      197.02720642   -103.26669312     -2.53913140
Na     -178.94114685    209.66241455    -47.98543167
Na      -23.48530960   -124.59078979     73.57359314
Na       32.20983505     87.08127594   -117.14102173
Na      157.91813660     44.53055954     32.04628372
Na       16.52086830    -61.90831375      2.67524648
Na     -128.32081604     31.64516830   -115.90984344
Na     -111.02274323     -2.71677232    104.36331940
Na      172.30653381     75.71268463    140.80845642
Na       68.60094452    104.77878571     -6.15708637
Na     -118.13569641     44.65516281     72.71295929
Na      -48.86762238    -86.49515533     31.38038254
Na      278.03994751   -150.39857483   -142.66288757
Na      168.93099976     44.29042435   -116.97438049
Na      137.16082764    -31.78134346     56.55935287
Na      -90.65332794     77.20130920   -107.53057098
Na      206.61154175    133.13645935    119.33765411
Na      286.44100952    -28.11630821     15.80654812
Na     -136.02192688    -32.00497055     -3.50623488
Na     -130.55171204    -68.53340149      5.54051161
Na       20.17779922   -186.25711060     95.26383972
Na      -65.73439789     53.83271408    -61.55043793
Na     -214.27377319     60.30683517     87.38546753
Na      -79.26190948     24.71175385    -45.35553741
Na       -8.41460323   -124.71441650    -19.75013924
Na      151.42402649    -11.95925140     31.84758759
Na      -98.95729065   -100.42404175     27.67427635
Na       79.40351868    -33.23915100    -91.00733948
Na      165.22167969    129.32603455    -68.51245880
Na      -32.23562241     27.52859497   -130.13534546
Na      -92.57254028     11.04899693    -79.28532410
Na       43.12106705     94.78223419     55.60229111
Na      133.19178772   -115.43045044    108.27773285
Na        6.86904001     -6.29100657    102.99527740
Na      104.63192749     43.26693344    104.31035614
Na      266.62319946    -10.99447346    102.04700470
Na      -10.91526794   -131.11775208    144.71795654
Na      192.88009644    103.41103363    -23.66251564
Na      100.24918365     22.77665329    -27.09341049
Na     -132.49475098   -100.75909424     10.03851604
Na     -165.78157043   -129.66398621     51.28325653
Na       79.52829742    136.28199768   -125.25077057
Na       14.48134613    178.82940674    273.76034546
Na      -48.80273438    -18.04283714    115.66941071
Na     -107.66899109    189.09686279    -43.92205811
Na       30.00751686    228.28648376     -2.46637297
Na       36.19238281   -103.42868805    -61.19060516
Na      -55.43332291    195.53015137    -74.20793152
Na      -64.73807526     26.21468544    112.70262909
Na       65.04665375   -102.60169220    -96.53141785
Na       24.16006088     23.28084946   -277.19845581
Na       83.23176575     48.49003601    -65.21376038
Na       78.89971924    -28.33780670      9.95100021
Na     -162.77502441   -154.47621155   -139.57707214
Na       84.60632324     73.58283997    -98.63926697
Na       57.85010147    129.71098328     26.70257187
Na       74.04852295   -141.79837036    -19.04555511
Na     -102.51533508    -95.82144165     23.07062340
Na      -37.72731400     58.82121277   -112.21530914
Na      -31.59115219     53.77717209    -86.31549835
Na     -179.66700745    -60.87128067     -6.02038479
Na       -2.05096745    -15.45509148    103.45337677
Na       25.44123077     -6.60830116     29.29042435
Na       -8.61683083     56.55929184     36.51626205
Na     -153.82780457     82.81106567     96.20109558
Na      -17.69139862    116.28018951     20.17791748
Na      -88.87168884     24.95868301     73.90562439
Na      308.12545776    115.62051392     35.55976486
Na       16.23811340    107.04746246     82.69683075
Na      120.65965271     87.74977112     -2.71308279
Na     -327.80914307     81.90191650     33.74168396
Na       42.63241196     36.54570770     86.48137665
Na      -99.76973724   -116.44291687    -19.49782753
Na       66.93733215    116.40865326     19.69395065
Na       -5.49998713    -79.12214661    102.12286377
Na       -3.33442163   -136.00827026     14.27491093
Na     -201.45933533   -103.28389740    -11.13606071
Na     -159.30683899     44.57947540   -239.61920166
Na      133.96791077    -40.64422607     27.22506332
Na      148.31265259     28.13138199     58.04561996
Na       16.13136292    -48.97356033     38.84648132
Na     -204.36457825    -11.56770611     90.77631378
Na       91.61297607    -70.13084412     -7.13889599
Na       44.06613541   -128.82363892    107.64810181
Na      287.47717285    146.86437988   -167.85180664
Na       35.55467606    210.94682312     64.06743622
Na      257.89620972    -34.59731674    166.71994019
Na       91.70500183     36.08469772   -108.27045441
Na      -35.50628662     31.66279030    -99.54288483
Na       78.66433716     44.87223434   -154.63160706
Na      248.95025635    -75.50288391     69.98003387
Na     -221.91729736    -44.62944031    -57.22216797
Na       74.53025818    189.39352417   -104.38452911
Na       36.60280609    310.48889160    -49.11821747
Na      171.92588806   -214.92697144    -49.49700165
Na      -82.14656830   -113.62809753    195.39460754
Na      -20.00571823     68.48383331     19.27815247
Na       52.84643936     -9.91672039    -54.00412369
Na       94.34651947    148.05125427   -108.50106049
Na      -19.62318230   -124.30908966     99.94552612
Na       83.67716980    167.31237793    -98.94525146
S         8.88875771     25.60996246     10.78978920
P         9.16866779     24.86827278      8.89808273
S         8.17649460     25.31781960      5.43201399
S         5.92070532     25.26920128      8.15423489
S         8.68287277     22.85973358      8.81770134
P         7.81854963     25.90341949      7.58606386
S         7.96536732     27.89645767      7.79390764
S        11.02217770     25.30087280      8.07529831
S         8.73618603     25.13258171     19.32093811
P         9.26214123     24.95042801     17.40425873
S         7.85998392     24.98888397     14.09578800
S         5.99299335     25.52649117     16.92057610
P         7.64195061     25.94324684     15.81742954
S         8.89935017     22.93612289     16.96467018
S         8.12356663     28.03758812     15.85273933
S        11.12459183     25.51455307     16.96663475
S        10.97235680     25.46890640     25.31143570
P         9.18274784     24.78088379     25.86238480
S         5.77075243     25.70432663     25.16232681
S         7.92984390     25.01948738     22.71117401
S         8.23387241     27.89647484     24.49812889
S         9.19375134     22.80465698     25.28152466
P         7.59870481     25.83218193     24.57853317
S         8.75456047     25.51342773     27.74985695
S         5.86882973      8.32329559      8.34166622
S        11.11345100      8.32001877      8.17181492
S         7.99074221      8.52777481      5.48424006
S         8.99528027      5.89952135      8.83042908
S         8.62740040      8.64974976     10.73340511
P         7.67487192      8.94554424      7.49736881
P         9.16179562      7.85992718      8.83513546
S         8.20609665     10.89131355      7.64787149
S         7.92009592     10.86957645     16.44608307
S         9.23458099      8.29904079     19.38693047
S         5.92081690      8.22239780     16.66671944
S        11.08245754      8.58551788     16.53281784
S         8.71648693      5.97437763     17.03466225
P         7.61639881      8.91800690     16.00931549
P         9.35472870      7.83248281     17.12600327
S         7.79747868      8.71387482     14.13756180
S        11.06077862      8.41163254     25.23426247
S         7.91462278      8.24199390     22.36906433
S         9.04269409      5.85935593     25.59948921
P         7.74255848      8.98389626     24.42609596
S         8.75474167      8.47666264     27.92180443
P         9.23222256      7.90394163     25.85426331
S         8.07748795     10.95998859     24.52495384
S         5.81806087      8.58247375     25.21996498
P         9.27854824     16.53010178      8.87397957
S         8.12915993     19.32458496      7.62768078
S         5.92471457     16.93464279      8.22811604
S        11.02989006     17.03036118      8.24601078
S         8.03039551     16.63744736      5.54298925
S         8.71882915     14.50747204      8.70565319
S         8.82637215     16.79416466     10.77599525
P         7.70557594     17.46986198      7.54443121
P         9.27956772     16.34586334     17.30465317
S         8.23790646     19.22748184     16.26402855
S         5.74498034     17.09927368     16.63616371
S        10.94904995     17.02303696     16.70641327
S         7.96550798     16.84370041     13.94398499
S         9.00753117     14.31582451     17.28418732
S         8.82298088     17.04496574     19.30699158
P         7.63354540     17.31702042     15.89589500
P         7.59441948     17.47551346     24.48160744
S         8.23521996     19.31382751     24.61483765
S         5.81383038     16.95130730     25.06458855
S        10.91671276     16.84620285     25.25913239
S         7.95872402     16.90394592     22.46248817
S         9.14419270     14.33854389     25.77009392
S         8.96366119     17.04505157     27.64751816
P         9.00358582     16.34825134     25.85142708
P        16.16989899      0.52628595      7.46211386
S        16.32356453      2.48211360      8.15006733
S        17.11383057     -2.58029509      9.14383888
S        19.62277412     -0.31710607      7.93183994
S        17.53328133      0.27321348     10.69193268
P        17.68277359     -0.49693000      8.92305183
S        16.65288353     -0.02526425      5.46541262
S        14.34488106     -0.24212430      7.77546787
P        16.21178055      0.48597595     16.14999771
S        16.53163528      2.53702116     16.11986732
S        17.23514748     -2.49783945     16.95213509
S        19.51052856     -0.08702798     16.49380875
S        17.31395531      0.15821843     19.23455620
P        17.62719536     -0.58883536     17.35597801
S        16.77431297     -0.29696479     14.43092251
S        14.23886299     -0.09515408     16.61544418
S        16.41113091      2.54656911     24.69498253
P        16.24697876      0.63883299     24.39134026
S        17.29039383     -2.49699736     25.73168945
S        17.26647377      0.11941184     27.72346687
S        19.41379929     -0.27078670     25.03921127
P        17.64019203     -0.55520612     25.89328766
S        14.54054928     -0.19082068     25.20654869
S        16.63554382     -0.16926280     22.46951675
S        17.33933449      8.41177368     10.85678196
P        15.98333549      8.94744778      7.55675507
P        17.74379349      7.84577227      8.97231865
S        16.50073814     10.81671715      7.53403330
S        14.13700676      8.97748852      8.22831821
S        19.47988319      8.57413101      8.25111103
S        16.66339493      8.08730507      5.68941164
S        17.59212494      5.75609255      8.45989418
S        16.97119713      8.32144737     19.19828987
P        16.19995117      8.93253517     15.93690681
P        17.64060020      7.81796312     17.33305359
S        16.73487663     10.97679043     15.92135906
S        14.48084641      8.64147377     16.94948769
S        19.29754448      8.54417324     16.65734482
S        16.43878746      8.31582642     14.12527180
S        17.67966652      5.86506367     17.22296524
S        16.95631790      8.37011242      2.12189770
P        17.75995827      7.84548092      0.18536027
S        16.81843567     10.84629345     -0.93989497
P        16.24387360      8.93445587     -0.96015894
S        14.42492867      8.70735073     -0.01231106
S        19.50853157      8.81016350     -0.00138543
S        16.23012733      8.09333229     -2.74577975
S        17.50685501      5.80908728      0.08567958
S        17.45106697     14.48837090      8.46375465
S        17.32121086     16.59555817     10.84245872
P        16.09589386     17.53541565      7.49849749
P        17.76232147     16.46765709      8.88048744
S        16.67136002     19.48322487      7.26951361
S        14.31860352     17.07048988      8.24500275
S        19.60997581     17.07355690      8.58567619
S        16.21364021     16.51447105      5.75812435
S        17.10155487     14.42636776     17.29403877
S        17.43014717     17.15469170     19.33731842
P        16.24160957     17.60769844     15.91520214
P        17.64486313     16.45132065     17.30332947
S        16.37140465     19.59803009     16.19575310
S        14.49953365     16.51121140     16.58713722
S        19.44353676     16.57692719     16.53608322
S        16.71238518     16.90439796     14.17406559
S        17.06752968     14.39977455      0.07349216
S        17.34605598     16.92444420      2.32302833
P        17.73932457     16.37894630      0.45267010
P        16.16763878     17.52077103     -1.08484733
S        16.56101227     19.39386177     -0.82108319
S        14.40195179     16.92542267     -0.08157382
S        19.44175148     17.12343979     -0.26357764
S        16.72047043     16.55856514     -2.85984731
P        24.69213867      0.41062775      7.50341320
S        25.08728790      2.42923689      7.69089365
S        25.81127167     -2.53199482      8.59944248
S        28.02294922      0.03523532      8.23853970
S        24.96784210     -0.23239683      5.54388142
S        25.75979614      0.12806520     10.83481216
S        22.73826408      0.02612218      8.23830605
P        26.16951752     -0.65429360      8.89488411
P        24.66069984      0.46220827     16.07938576
S        24.98039246      2.47225094     16.14452553
S        25.75570679     -2.69496441     17.14216423
S        27.72366905      0.06234557     16.61970329
S        25.28826332     -0.22539832     14.06009865
S        26.03239441      0.11212969     19.31002045
S        22.72467422      0.09061924     16.63108826
P        26.07911491     -0.66727543     17.36358070
S         2.64070153     25.42431641     25.23059082
P        -0.62521303     25.82762718     24.47122383
S        -0.21830787     27.90215874     24.68834496
S         0.42500460     22.73750687     25.44574928
S         0.20474233     25.66324234     27.76774979
S        -2.62935781     25.32815742     25.19288826
S        -0.64463425     25.16968918     22.56162834
P         0.68837041     24.97406578     25.79111481
S         0.31684113      5.99355555      8.60811138
P        -0.69811118      8.91340923      7.50303030
S        -0.12904640     10.91374111      7.77538109
S         0.26024830      8.51135921     10.92698956
S        -2.47819567      8.35769749      8.13782978
P         0.71851212      7.97938442      8.99659348
S         2.54291177      8.63509274      8.17185974
S        -0.69330913      8.11587715      5.42782450
S         2.46149540      8.37561798     16.75823021
P        -0.69839489      9.01584435     15.91537189
S        -0.47748226      8.21661663     14.08479500
S         0.45462900      5.68783522     17.07076836
S        -0.38805392     10.99184608     16.23534584
P         0.71514356      7.90045834     17.36999321
S         0.29150140      8.83279037     19.08761215
S        -2.51911163      8.39990807     16.82308388
S         0.27805603      5.89298153      0.26134285
S        -0.30940476     10.89213181     -0.51279271
P        -0.88711190      8.86640072     -0.87655079
S        -2.83514094      8.38136768     -0.52176040
S         0.58804429      8.75838566      2.30887008
P         0.73860300      7.94250154      0.41025263
S         2.36454821      8.39470196     -0.51824725
S        -0.10349113      8.28879070     -2.80720830
S         0.34426978     14.52975750      8.64157867
P        -0.96474111     17.37857437      7.51547527
S        -0.35131690     19.39663506      7.72587061
S         0.33802277     16.99184418     10.80525303
S        -2.69158030     16.93387413      8.17210102
P         0.82732379     16.46306229      8.82446384
S         2.70443106     16.85320091      8.21454620
S        -0.37192884     16.67630005      5.64289713
S         0.36766514     14.33751678     17.12196922
P        -0.83017367     17.47734642     15.94923115
S        -0.35756913     19.57759666     16.02906609
S         0.41443673     16.94538689     19.26621819
S        -2.52944326     16.87838173     16.76457405
P         0.62383187     16.34657669     17.45303917
S         2.45925379     16.94931221     16.66390228
S        -0.31586689     16.71052742     14.10118198
S         0.45700079     14.45082378     -0.04225482
P        -0.78019667     17.40672112     -0.90629393
S        -0.29201943     19.49029922     -1.10551393
S        -2.52922297     17.10919571     -0.20529523
S         0.26218393     16.69313240      2.35950780
P         0.70042616     16.44515038      0.45756239
S         2.55129409     17.11502266     -0.18348579
S        -0.53302383     16.51325035     -2.62972212
S         3.98174500      6.94347191      3.24680519
S         4.93844652      5.27686071      6.06936789
P         4.88261700      3.33055878      3.64156127
S         6.81248379      3.70561075      4.05596542
P         3.71164012      5.24957180      4.40186501
S         4.48252439      3.42396092      1.62350798
S         4.14451838      1.72554004      4.71899748
S         1.82316673      4.74248552      4.49461842
S         4.43278408      5.43118477     14.91781998
S         1.81336284      4.88577890     13.03751278
P         4.88968229      3.39341903     12.06895256
S         4.21325588      3.28080750     10.15220070
P         3.78994632      4.97560358     13.04231548
S         4.36265707      1.62024724     12.91881561
S         6.85431957      3.95006251     12.11021996
S         4.42403889      6.85377312     11.81202793
S         4.39576149      6.71293640     20.19742584
S         4.53716278      5.23195505     23.48200226
P         4.85177279      3.52452922     20.49871635
S         6.91523314      3.81452608     20.66174126
P         3.77794909      5.31201506     21.41754723
S         4.15860415      3.29862094     18.56227303
S         4.29412794      1.87032354     21.81365776
S         1.84773815      4.64188147     21.22474098
S         4.37741041     15.43811512      3.31694055
S         4.41197014     13.91120815      6.36441183
P         4.90736628     11.80652428      3.55496979
S         6.80565119     12.24688339      3.86237264
P         3.89908218     13.70204258      4.32094097
S         4.17026567     11.72642994      1.62981749
S         4.27780199     10.30145168      4.64919662
S         1.93481505     13.06784153      4.54833698
S         1.71598637     13.20412159     12.80205822
S         4.50684738     15.20085621     11.85324383
S         4.51644087     13.92927361     14.83643913
P         4.93304014     11.86589718     12.05103302
S         6.83955717     12.40232754     12.23733521
P         3.84138894     13.46449757     12.95642757
S         4.10688543     11.78396511     10.09560394
S         4.32312727     10.34349537     13.22419357
S         4.17048168     15.28216457     20.13512611
S         4.63696718     14.06693077     23.19763565
S         1.86171746     12.90929031     21.57164955
P         4.90008640     11.78793812     20.46555519
S         4.47230864     12.01605511     18.55099678
P         3.75684166     13.58156586     21.29281425
S         4.17541122     10.36071873     21.51597977
S         6.80545998     12.19110107     21.12297249
S         1.99141467     21.60101128      4.51053381
S         4.04413509     23.79431915      3.21273756
S         4.61404133     22.42061234      6.47184515
P         4.87139225     20.34864235      3.58182406
S         6.91256762     20.62394714      3.84148932
P         3.85614586     22.28182030      4.50047588
S         4.40631819     20.15361023      1.65481234
S         4.08566284     18.78555107      4.48029184
S         4.25754547     22.28170967     15.00971794
S         1.87617564     21.52908325     12.59227848
S         4.10947847     23.85331154     12.02263165
P         4.94459963     20.32726097     12.08017159
S         4.69939947     18.59830856     12.94798470
P         3.80007911     21.96540451     12.92796040
S         6.84138584     21.15546989     12.46326637
S         4.25359774     20.28746796     10.01234627
S         1.90117133     21.69297218     21.07131195
S         4.35283804     23.85485077     20.45707130
S         4.51244307     22.27174377     23.32052803
P         4.91613436     20.35070229     20.50773430
S         6.97742271     20.78261757     20.62274170
P         3.73692250     22.22593498     21.48058319
S         4.04082537     20.04852104     18.69908142
S         4.34138536     18.78034401     21.70150185
S        12.62421799      1.81103313      4.91092682
S        10.31668282      4.84613276      4.30788708
S        12.75662327      6.85804749      3.42165375
S        13.07257462      5.17902279      6.33812714
P        13.31269264      3.36845231      3.63832831
S        15.28495598      4.00333881      3.56111741
P        12.30647278      5.21608496      4.50741863
S        12.90863800      3.11609840      1.57071149
S        15.14481926      4.33905268     11.91696739
S        12.91373158      7.00804853     12.28421402
S        12.67074013      4.74718094     15.02889729
S        10.31283569      4.80457401     12.67333984
P        13.35296535      3.49246311     11.99579716
S        12.48469257      3.27304149     10.24299526
P        12.35108185      5.09353495     12.99948502
S        13.35488033      1.64036548     12.91422367
S        12.41869831      3.14527249     18.71438217
S        12.96111488      4.93366814     23.27956581
S        10.33921051      5.31040907     21.43433380
S        13.13961792      6.80518198     20.38985062
P        13.20929718      3.49157000     20.51298141
S        12.85844231      1.92217422     21.73707962
P        12.30393696      5.32020569     21.45072174
S        15.34893703      3.47746325     20.34079933
S        12.72211552     10.33563328      4.66754723
S        10.34194851     13.01587677      4.35104036
S        12.62366581     15.28796196      3.17467904
S        13.14157200     13.92800617      6.42718029
P        13.39025593     11.96760178      3.55591559
S        15.43698502     11.98252392      3.88458204
P        12.22332954     13.73289967      4.49951172
S        12.70279884     11.95652485      1.69264007
S        13.07745743     10.21404839     13.25720119
S        10.21607685     13.14899158     12.88233948
S        13.13251019     15.15263081     11.65533829
S        12.81608677     13.81406975     14.89451694
P        13.18794632     11.92653942     12.07352161
S        15.21493816     12.30723381     12.23841286
P        12.34541798     13.75110245     12.96629906
S        12.58950615     11.89163685     10.08980560
S        15.37584209     12.37156677     20.88191795
S        12.65141487     11.77995872     18.51575470
S        12.74125004     13.77492428     23.29624176
S        10.20955276     13.38682842     21.31850815
S        12.98511791     15.24240017     20.24631500
P        13.34918118     11.80264473     20.57042503
S        13.01479721     10.23844147     21.61553764
P        12.25520039     13.60013294     21.41578674
S        13.06146812     20.14661980      1.53993762
S        12.64887238     18.82507324      4.75654411
S        10.24510002     21.72479820      4.46160650
S        12.46197224     23.92293739      3.34448767
S        13.10455132     22.35312080      6.43072510
P        13.44812107     20.33451843      3.50525665
S        15.35107613     20.45258331      3.66570115
P        12.26489067     22.24824142      4.54879093
S        12.80944538     20.32938766     10.09085083
S        12.56994247     18.72723961     13.23198223
S        10.40662766     21.56828499     12.94235420
S        13.01267242     23.58216476     11.68067741
S        12.88001442     22.43965149     15.00381470
P        13.34639454     20.29888535     12.06405449
S        15.27773380     20.96939278     12.02514076
P        12.28028679     22.08615685     13.02006817
S        15.30986309     20.68129158     20.33906555
S        12.44898224     20.43112946     18.71378326
S        13.14314270     22.02605820     23.34397316
S        10.34044266     21.56515694     21.40432930
S        12.78857327     23.77846146     20.47066879
P        13.31442833     20.49296761     20.53535843
S        12.95346928     18.83258629     21.51301956
P        12.28322506     22.20413017     21.54343796
P        20.70917702      5.20264149      4.43246889
S        21.21380997      3.19503236      1.65610170
S        21.27280998      1.91294825      4.93437386
S        18.73058319      4.77115774      4.12155581
S        21.27090263      6.86409998      3.50098205
S        21.76154709      5.11085558      6.21607065
P        21.73621178      3.37979460      3.61814642
S        23.68677902      3.96160889      3.77323246
S        21.21356201      1.88300443     13.30480003
P        20.79689789      5.13653946     13.02132511
S        23.80664635      3.97020650     12.15384865
S        21.26040077      3.60766578     10.06841564
S        21.05344391      5.18399239     14.89227962
S        18.95120811      4.59802151     12.64588547
S        21.50827789      6.68085861     11.94707870
P        21.79641533      3.33404326     12.02398968
S        23.80692101      3.66448593     21.14178848
P        20.80243492      5.29062271     21.44159317
S        20.97343254      3.44772458     18.60748291
S        21.24690437      1.55603456     21.33793449
S        18.89787102      4.54661179     21.36007690
S        21.14031601      6.77776289     20.12146187
S        21.66496277      5.66623163     23.24518013
P        21.85623550      3.45419121     20.60709381
S        23.90385056     12.22246933      3.72770858
P        20.74868011     13.71931934      4.40841150
S        21.29435539     11.85486698      1.58294356
S        21.13375473     10.22851086      4.78787899
S        18.66611671     13.19998932      4.52218342
S        21.21535110     15.29835796      3.29320478
S        21.48527145     13.86297417      6.32437181
P        21.94281578     11.81488228      3.60496306
S        23.78369331     12.44519138     12.10060024
P        20.62518311     13.70158768     12.97137356
S        21.10588837     11.49122143     10.19832993
S        21.21593666     10.33553219     13.27329636
S        18.75845909     13.28250980     12.54736423
S        21.33083153     15.30636406     12.09742546
S        21.62877274     13.77211952     14.83879375
P        21.93702698     11.86804771     12.02890587
P        21.92231369     11.93453217     20.64137840
S        21.58387375     10.02311420     21.56918526
P        20.76594925     13.66470242     21.44017792
S        23.82896042     12.61540604     20.38497734
S        21.13969612     11.71074486     18.59157753
S        20.81728172     13.49161339     23.46450615
S        18.91536713     13.19689369     21.06288910
S        21.41664124     15.56657791     20.70903778
P        22.03263474     20.45912933      3.54983640
S        23.99697495     21.03765488      3.58269310
P        20.77864838     22.08883858      4.55246353
S        20.88228607     20.02249146      1.58607197
S        21.13664246     18.78463554      4.87951326
S        18.77112961     21.72122765      4.26394844
S        21.53494644     23.71062469      3.37564635
S        21.26100922     22.18210983      6.46451759
P        21.88279533     20.46680832     12.12545109
S        23.96042824     20.58098221     12.33073044
P        20.63463593     22.00247955     12.95173836
S        21.26506424     20.53558922     10.20998192
S        21.12179756     18.69427490     13.11304474
S        18.71952438     21.59882164     12.96836281
S        21.18352699     23.63459206     11.68939972
S        21.61649704     22.49048424     14.66999817
S        21.00727463     23.85776901     20.42243767
P        21.99043465     20.37382126     20.44937706
S        21.36969376     18.61046982     21.28463745
P        20.79641342     22.05196190     21.42210770
S        23.90747452     21.06176376     20.80494118
S        21.13906097     20.51666260     18.65460968
S        21.36931610     22.24435616     23.43578529
S        18.81377411     21.28574753     21.38268471
