768

Li        8.09418106      5.22177172      1.02751863
Li        3.97304773      4.97732830      8.36133671
Li       -0.14542410     11.88644028     16.46505928
Li        1.83273852     -0.85714471     20.41234970
Li        5.90368605     -0.93672311     -3.41810489
Li        0.05641410     10.55614185      3.68939900
Li        4.32755327      2.41566777     18.41749763
Li        6.16188049      0.93493378     22.70554924
Li       14.01031876     13.79121399      4.00118971
Li        6.06111383     16.52159500      7.53235435
Li        6.30758333     11.06236553     11.84933281
Li        6.05908346      9.11654663     23.07232094
Li        3.69144988     26.71377945    -13.96310711
Li        4.23573875     17.40626335     12.74193287
Li       12.48299885      9.95160103     11.12474442
Li       10.18142986      5.09932518     20.57849884
Li        3.90732169    -16.73989296      7.94393492
Li        2.22775650     -5.65400553      0.53422731
Li        5.92567730     -5.88686895     14.87905025
Li        8.08175659     -2.32537580     22.90291405
Li        8.04235554      1.87488949     -3.52389693
Li        7.90093231     -2.42707109      8.54973507
Li       12.69948483      5.04675198     15.43262577
Li        4.13518810     -4.58285952     26.98877335
Li        1.93856728      8.47146416      8.28796768
Li        7.98024702      2.86505747      4.57670069
Li        9.97294903     -1.04118168     19.80317688
Li       15.17088032      5.73951769     12.33916473
Li       12.21757221      9.91943264      4.48651791
Li       14.44151974      6.69575405      5.53192663
Li       10.00266647      8.87013721      8.29499245
Li       13.02814770      4.73461390     24.23464203
Li        3.87052059     -2.34560156      1.50400972
Li        5.96955538     -5.80000114     -0.10891080
Li       12.75555325     -9.95534039     22.56184387
Li        1.72760320    -15.42313576     27.95713615
Li        9.87409401     -7.92923117      4.65797710
Li       -2.30374360      1.61214328      0.20294903
Li        8.18812370     -4.69464016     11.72081089
Li       13.91761303    -20.18573570     37.18458557
Li       10.04826832      1.26357758      1.54606974
Li        8.14071941      5.42001629      7.23096132
Li       10.23939800     -0.84357709      5.25029135
Li        1.95633757      2.27671170     24.18309784
Li        8.20131111     11.96882343     -6.24626637
Li       12.05703735      2.76161909     -3.06846499
Li        8.88398933     10.05299854     12.38894463
Li        8.03532791      5.24694061     16.08349419
Li        7.97689009    -11.69690418      3.46610689
Li        2.81766725    -13.64476395      9.06651592
Li       10.57313251     -1.33387935     12.58508205
Li        5.82311201     -8.29545403     20.05648994
Li        7.96842098     -2.19099426      0.11475123
Li        3.83256745     -1.97133660      7.31081581
Li       14.29333305     -5.64574909      7.95400381
Li       10.52557755     -5.57556868     23.52775574
Li       12.36487579     -2.41100121     -0.01430104
Li        1.93548453     -8.30269241     12.57482529
Li       20.73862648     -4.73399115     18.93003845
Li       14.99051285     -2.15037632     18.62892914
Li       14.41542435     -1.16475642      4.51777363
Li       16.50793266      5.09412193      8.52135754
Li        6.06631899      6.29600620     19.80288887
Li       15.26881981      1.03698456     14.49678612
Li        7.86800146    -11.59697247     -2.44734311
Li       -7.91818380      2.80338573     11.93011951
Li       -0.26008713     -4.90773106     20.35477829
Li        6.03353310     -1.13733506     19.06604195
Li       12.20402718      2.36556792      3.99723721
Li        1.67776036      1.32953644      8.56334305
Li       -2.44964957      1.84572244     22.74116516
Li        6.10721064      1.65906513     31.48751259
Li       10.35059738     13.60079861     -3.76648331
Li        5.92348051      8.53597450     14.86088657
Li        6.02247429     -0.94225460     12.01953602
Li        6.26504087      9.18232155     29.58243561
Li       10.11120224      6.53200006      4.43362379
Li        7.88818407     16.92488480     10.99022007
Li       16.48693275      2.79946613     20.35044861
Li       10.54669094      1.42033017     15.37353325
Li        8.26916885     -4.54043055     -3.50281286
Li       -1.78978145    -13.23565483      7.68156147
Li        6.18993855     -5.96196938     23.14023972
Li        7.91415787     -5.27199936     18.52837372
Li       14.26830006     -7.83248043      3.63924098
Li        8.31449318      2.28551483     18.77570152
Li        1.63829315     -6.03500509     16.82680130
Li        8.00136185      5.15945625     23.92831993
Li       16.34927368     -1.86878288      8.33661938
Li       12.47040176     -2.30474830     15.49764061
Li        6.53418684      1.13323438     15.47590637
Li        4.10057116     -2.58392859     22.36545563
Li       10.00022793      6.22077417     -2.28068757
Li       12.24674320      5.73939991      8.50982285
Li        4.24898815     16.93334770     18.94896317
Li       14.66904068     -0.61902744     26.42330551
Li       -4.09055805     -4.66537237    -10.56538582
Li       12.35628128     -9.24759293      0.40782040
Li       10.40943718     -5.75917482     16.50650024
Li        3.74505186     -9.62862301     31.19722557
Li       12.30491447     -4.34560919      3.80403280
Li        8.49920940    -16.88976097     15.75886822
Li        8.12282848     -9.25176716     30.70356560
Li        4.10997391      5.29649162     14.98857307
Li       12.08860970    -12.44174957     -2.35971642
Li       14.59647846     -8.59188557     11.35507774
Li       10.38147831      1.41233146     23.72964096
Li        6.19291687     -8.20461464     27.23040962
Li       25.28616333      9.74558353      5.44402933
Li       19.09021568      1.61136091      0.70118535
Li       16.70421600     -4.46493816     27.56176949
Li       18.63940048      8.46962547     30.95478439
Li        3.48485446    -18.97166061     11.21833134
Li       10.51377583    -13.31132221     16.31147194
Li        8.37303066     -9.98119736     16.33972740
Li       10.52980709     -7.97210026     26.37730980
Li       12.10733700    -11.55970383      5.36432552
Li       10.44454193     -8.17078209     12.63098335
Li       10.25428963     -8.22762108     19.37862206
Li       12.93414974     -2.16955471     21.71427727
Li        7.87685394    -16.10434914      0.83393878
Li       18.55677605     -0.68627024      4.80798244
Li       12.43845177     -4.28374481     26.33777809
Li        8.92161465     -9.23386955     23.22654152
Li       18.84137535     -1.42480719     12.15480995
Li       20.77181435      2.44770861     11.96431065
Li       22.88650513      6.50000954     25.99004745
Li       18.92982292     -5.86170578     24.36246490
H         2.61064744      1.51671708      4.29623652
H         0.92248774      2.79562855      4.86379719
H         1.33466744      2.29656672      2.89143038
B         1.39540136      1.97404146      4.07255316
H         0.84099734      0.93763626      4.07324600
H         2.66733170      0.24741741     11.00927830
B         1.77754176      0.96060878     11.41151524
H         1.05826128      1.17546701     10.53108883
H         1.23036158      0.29170242     12.25557613
H         1.99287856      2.01469922     11.90233040
H         2.27672052      0.00869772     18.41633987
H         2.49519801      2.01296687     18.76300430
H         1.33107615      0.95637304     20.01067162
H         0.76835650      1.39091182     18.15370750
B         1.70732427      1.10959649     18.85792351
H         1.17738438      1.85187709     27.93217468
H         2.28782773      2.60103130     26.40058517
B         1.60435224      1.73629618     26.82043839
H         0.71985865      1.49386072     26.04250145
H         2.39240575      0.69782698     26.73139000
B         4.19061995      5.33969641      4.62470722
H         3.19641423      5.50334358      5.26178312
H         4.03151035      4.13349247      4.04210186
H         5.25544167      5.43482924      5.35111094
H         4.25740147      6.08507299      3.67956877
H         4.79447937      4.47280216     11.71253777
H         3.20265508      5.36134005     11.60077190
H         3.58474159      4.02831268     13.03680897
B         4.01059246      4.98936319     12.46000862
H         4.55620241      6.00640726     12.99787045
H         5.20861387      4.59097290     20.53976250
B         4.17911720      4.87102461     19.92663193
H         3.46279931      5.66395283     20.63936996
H         4.44607210      5.43459558     18.85480499
H         3.41130948      3.91515756     19.68750954
B         4.05104446      5.55339241     27.25291824
H         4.69891977      4.67080832     26.53244400
H         2.89070415      5.23450089     27.66136932
H         4.11364985      6.72678900     26.69258499
H         4.75099373      5.82108164     28.19842339
H         5.77105093      8.33498001      4.08516693
H         6.54141378      9.49668980      5.55186415
H         5.40497971      7.88998556      6.19112825
B         6.13719225      8.36164856      5.22495222
H         7.18225193      7.78318977      5.28305387
H         7.39802217      8.69981861     12.05515575
B         6.22705126      8.97828197     12.07650375
H         6.20195913      9.55097771     13.07229424
H         5.90928745      9.38054562     10.99238300
H         5.62014961      7.87477398     12.21997166
H         6.44079208      9.44897652     19.59427071
H         5.15897989      7.98378563     19.39419174
H         5.04730749      9.20248699     20.76512527
H         6.52047825      7.85571671     21.01002312
B         5.84956217      8.52324104     20.17033577
H         6.74052382      8.39616966     27.96669197
H         6.34329748     10.16790581     27.97398376
B         6.03406620      9.15228271     27.47013092
H         4.87557507      8.81848526     27.74620819
H         6.26058531      9.18996811     26.29081726
B         7.99857330     12.43404579      4.35857821
H         8.42204857     13.14084339      3.46306944
H         7.67222691     13.06588745      5.36104107
H         8.83619881     11.54677010      4.64788961
H         6.98510599     11.78877926      3.86380792
H         8.98692513     13.02044201     10.87529564
H         9.00521946     12.10916519     12.66820240
H         7.34368134     12.62393570     11.80373192
B         8.39759922     12.19960403     11.58191013
H         8.47051907     11.04497242     11.03588295
H         9.28890228     11.38178730     20.24855423
B         8.40212345     11.93613338     19.63050270
H         8.28127861     11.46863270     18.38430977
H         7.36565924     11.67218781     20.23733139
H         8.47894096     13.18663597     19.62735367
B         8.22317696     12.56850052     26.75650215
H         8.56887627     13.74528503     26.78587341
H         7.10192299     12.48771191     26.22063637
H         8.26841164     12.07390881     27.89588165
H         9.06672859     11.86206532     26.15662384
H         4.72224426     -2.28078508      4.03613377
H         2.70473051     -2.27441859      3.86776447
H         3.49445820     -2.87480617      5.55126715
B         3.64768958     -2.02064252      4.63629913
H         3.82167172     -0.92983395      5.04229784
H         3.23878908     -3.18971586     12.00159264
B         4.19908810     -2.38699079     12.19499302
H         4.02610350     -1.56996381     11.29008865
H         4.42587233     -1.81645513     13.29282665
H         5.32580137     -2.97337055     11.90744019
H         4.69713688     -2.44043994     18.66703796
H         4.45047712     -1.30177057     20.31809235
H         4.41455984     -3.20105290     20.53539085
H         2.89117575     -2.36664915     19.26357841
B         4.07620335     -2.36778879     19.66710472
H         4.95779467     -2.58164477     25.90743828
H         4.22742844     -2.40262270     27.70725632
B         4.02866077     -2.11298013     26.56094933
H         3.00722694     -2.54581690     25.98450279
H         4.05559540     -0.98752451     26.19322968
B         5.66515160      1.74731159      4.54838037
H         5.83291531      2.92360306      4.29105091
H         4.81653690      1.50785995      5.34072924
H         6.76060581      1.33215296      5.20433140
H         5.42277813      1.00594783      3.58071685
H         5.31547689      1.12295532     11.69689846
H         5.86055899      2.36361980     13.12592697
H         6.77159786      0.65749443     13.23257351
B         6.26924133      1.47022188     12.46075153
H         7.13855839      1.98422348     11.87151623
H         6.27128792      0.54496372     20.91638184
B         6.16956091      1.00425220     19.80241013
H         6.25603867      2.23381019     19.74428749
H         7.13715839      0.59457803     19.09410477
H         5.03343201      0.53830516     19.46969604
H         4.99533558      0.81605965     27.53244591
H         6.76130438      1.23448586     27.61392593
H         5.57881165      2.57675147     26.74337006
B         5.86120987      1.42179668     26.89074707
H         5.98898125      0.88715547     25.84879494
H         8.21196175      6.19200659      3.72277379
H         7.80616856      4.65637922      4.99680710
H         9.42228508      4.70187759      3.76555443
H         7.54735804      4.34657097      3.07725978
B         8.22435188      5.00799179      3.92142010
B         8.60398293      5.09922361     11.70369244
H         7.44761753      4.78166914     12.11074162
H         8.73835182      6.28964520     11.54777145
H         8.83880138      4.55965805     10.63655853
H         9.35197830      4.52950764     12.55726624
B         8.25258827      4.93081379     19.27200127
H         8.71166229      6.02130222     19.56707764
H         8.75305080      4.11826324     20.10100365
H         8.99408245      4.45118666     18.35068321
H         7.14985800      4.54557848     18.98851204
B         7.87452364      5.26580095     26.66707802
H         9.03520870      4.72113752     26.57219505
H         7.94241285      6.50252771     26.90155983
H         7.33113909      5.27928877     25.61021423
H         7.31042957      4.76229811     27.64835358
H         9.72873688     10.00861931      3.80561376
H        10.62849140      8.55912113      4.99957275
H         9.56329441      8.12391281      3.25470495
B        10.31120110      8.84755898      3.81238198
H        11.33247089      8.84840202      3.23434973
H         9.76917934      8.24446869     12.93072605
B        10.70411205      8.53439999     12.18801594
H        10.96738720      7.71883154     11.33484554
H        10.48572922      9.53037071     11.50438690
H        11.73240089      8.71386719     12.87327290
H        11.05237579      8.35747528     18.97221375
H         9.36398315      7.94115829     18.49564362
B         9.95719624      8.80363274     18.99222183
H         9.84720898      9.88616180     18.46505547
H         9.79008198      8.61481285     20.11827469
H         9.48025131      8.25262165     27.61274910
H        11.45445633      8.04780293     27.00279808
H         9.97920036      7.86135197     25.66055107
H        10.35926151      9.66788673     26.36944389
B        10.27168560      8.41959000     26.70010185
H         5.65035772     -5.60716200      4.13623524
H         6.27821970     -4.29022121      5.85158300
H         4.73313379     -5.67959547      5.84909582
B         5.89176273     -5.36633348      5.32049227
H         6.76882505     -6.24063921      5.69513750
H         5.98035908     -4.92464924     11.60684109
H         5.35769796     -6.20999289     13.09738636
B         6.26411152     -6.02696562     12.28706455
H         7.30409956     -5.71365213     12.93394279
H         6.43161869     -6.88112831     11.44580936
B         5.99009275     -6.18213606     19.24022675
H         4.96162176     -6.83362675     19.01874733
H         5.96491623     -4.91807985     19.06223106
H         6.75887680     -6.83215046     18.58803940
H         6.09956789     -6.31803656     20.50318909
H         6.25445557     -5.82401180     25.68948364
H         5.02525806     -6.55099392     26.85523415
H         6.91327095     -6.43293047     27.54550362
B         5.96477938     -5.81265259     26.85368538
H         5.84566212     -4.68068600     27.23598671
B         7.78584719     -1.89021409      4.23468685
H         8.88644600     -2.14539742      3.71456194
H         8.00590038     -2.11483884      5.43629265
H         7.06960869     -2.64871383      3.65155649
H         7.54943705     -0.70881009      3.93146133
H         7.31432152     -2.80959678     11.87043762
H         9.31394100     -2.60801601     11.43823719
H         8.14341164     -1.36420834     12.67860508
H         8.03817368     -1.37791371     10.40499306
B         8.24624825     -1.93234861     11.62738323
H         8.27887630     -3.04107094     20.15383148
B         8.12496948     -2.73140264     19.03987122
H         9.10398388     -2.42103052     18.46520424
H         7.21672201     -3.21704078     18.44240761
H         7.66524220     -1.61816835     18.92834091
B         7.81949997     -2.43960238     27.41077042
H         7.82940960     -3.31211090     28.17900848
H         9.11280155     -2.21344256     27.07585716
H         7.08382273     -1.50953162     27.67908096
H         7.44082165     -2.74513674     26.22744370
H         9.05351257      1.11524892      5.08379316
H        10.13615799      0.84013408      3.38685274
H        10.12729454      2.66157150      4.29282570
B        10.08380985      1.49169564      4.48022461
H        11.00868988      1.04898083      5.11928463
H        10.21359634      1.89118576     11.09260273
H         9.88180065      0.91368121     12.90318966
B        10.43398190      1.00219429     11.80581379
H        11.62198544      1.18822634     12.07581043
H        10.14928722     -0.00166817     11.08632946
B        10.53523540      0.97895831     18.75522995
H        10.14903545      2.10974073     18.73416710
H        11.47006035      0.92884964     17.94289017
H         9.64642334      0.18031117     18.49926949
H        10.99441051      0.82875824     19.81975174
H         9.06704617      0.83223408     27.56934166
H        10.40086269      2.41301680     26.80022621
H        10.94601536      0.26899597     26.91609573
B        10.08431816      1.18375576     26.78404617
H         9.53048515      1.00578427     25.68423462
B        12.60974026      5.95281219      3.86359358
H        13.22289753      6.03499413      2.77196527
H        13.18836975      5.12854862      4.71523333
H        11.39385509      5.76792192      3.84714985
H        12.90222549      7.03306437      4.33317614
H        13.51087475      4.59213781     12.12300014
H        11.48121738      4.05093050     12.03417587
H        12.23781204      5.48822021     10.81029415
H        12.25459671      5.89454174     12.69193172
B        12.35370255      4.95360518     11.93766403
H        11.80132961      5.63252687     19.94214821
B        12.13174057      4.48231459     19.68169594
H        11.45555115      3.66979027     20.20576096
H        12.28813648      4.33981609     18.47090149
H        13.27182388      4.28978348     20.18445587
B        12.53268433      5.01386786     26.55681610
H        12.92521763      5.85721445     25.79304504
H        12.55408287      5.26607037     27.72270775
H        13.26968861      4.09115028     26.43778229
H        11.37674618      4.58905888     26.24951935
H         7.08898258     -9.89462948      3.10959196
H         7.53560829     -8.18232155      3.99863935
H         8.07506371     -9.83163643      4.95203924
B         7.96098852     -9.26140499      3.83314395
H         9.09756470     -9.28829002      3.35928607
H         9.15028381    -10.82338047     11.71408844
H         8.65415287     -8.90571308     10.69870758
B         8.49946022     -9.75719452     11.50483894
H         8.57774162     -9.12077999     12.68584251
H         7.34646606    -10.10136414     11.27506256
B         7.87531948     -9.75333786     19.04393387
H         8.84792519    -10.41182137     18.91886520
H         7.16091394    -10.27053165     19.97467995
H         7.34843254     -9.63644981     17.96580887
H         8.29416084     -8.59437561     19.17037392
H         8.50582027     -8.49025249     27.30124092
H         8.91287899     -8.87311363     25.33596230
H         9.08851242    -10.41854668     26.63353920
B         8.40966702     -9.30777836     26.46144676
H         7.28741741     -9.74968624     26.14880371
B        10.22786999     -5.56615925      4.39024734
H         9.06942749     -5.91410303      4.23208237
H        10.41623116     -4.91215563      3.32927608
H        10.82909393     -6.62166214      4.40116739
H        10.50554276     -5.11737537      5.39069843
H         9.88904095     -5.17697573     11.12511349
H        11.11206627     -5.35544872     12.83076763
H        11.07217216     -6.76973772     11.49346733
H         9.37764549     -6.26779270     12.79770660
B        10.28157902     -5.87458277     12.04551697
H         9.88784313     -6.60489655     18.24228477
B        10.53459454     -5.94134092     18.90231133
H        11.38906288     -5.33312893     18.36159706
H         9.95855236     -4.97150040     19.63263130
H        11.06427670     -6.68181562     19.79622459
H         9.68632603     -6.46977997     26.04027748
H        10.84976578     -5.12820053     25.51445389
H        11.15455055     -6.00832033     27.34989357
B        10.40291214     -5.54927874     26.50741386
H         9.66635609     -4.73307085     27.13520241
H        12.94247913     -1.64566123      3.82541561
H        12.98610878     -2.98119164      5.20938349
H        11.19197750     -2.48674536      4.51183939
H        12.15540600     -1.27146709      5.61498594
B        12.28328228     -2.07249999      4.75463104
B        12.66823673     -2.28124762     12.14136600
H        12.49765682     -1.27326250     11.64440250
H        11.57563210     -3.01212311     12.51481056
H        13.18294048     -2.95530629     11.21480179
H        13.35832596     -2.35882950     13.09685040
H        12.55937958     -2.56312680     18.49093437
H        11.86441326     -1.25834346     19.97460365
H        12.30311775     -3.26482868     20.39825058
H        13.66063881     -1.83862507     20.04164314
B        12.57293320     -2.28866172     19.67182922
B        12.19007492     -1.98979390     27.36772346
H        11.35727882     -1.75548184     26.42617035
H        11.98545074     -1.06839573     28.21555710
H        12.01886940     -3.00193787     27.93756104
H        13.30111217     -1.97167194     26.98383522
H        15.17435169      1.50889683      3.46806908
H        15.34086418      1.24384344      5.40329361
H        14.49663639      2.87302685      4.72562599
B        14.66066742      1.66197109      4.50808334
H        13.75341702      0.95197684      4.31529570
H        13.76747417      1.92523015     11.39785767
B        14.68572712      1.29356146     11.91910648
H        15.14309406      0.71937114     10.95145607
H        15.55086040      1.84263492     12.57602787
H        14.23001194      0.47414744     12.77819061
H        15.53291702      0.48851562     20.79788017
H        15.29228020      2.04822826     19.40898514
H        13.83693504      0.55229813     19.65270996
B        14.75750923      1.24048126     20.28947830
H        14.14786720      1.83807409     21.05246735
H        14.28735065      2.55866790     26.46149635
H        15.28064346      1.13116324     27.57649422
H        13.46758556      1.69459760     28.12731361
H        13.64599991      0.69854856     26.58954430
B        14.25031376      1.60573566     27.12823105
B         1.59714019     -0.70528948      0.55497199
H         1.22692573     -0.04653522      1.45566964
H         2.41668224     -0.12806469     -0.19761673
H         2.29930854     -1.64657736      0.75995594
H         0.79653496     -1.29771411     -0.17891961
H         1.33222115      0.09358059      6.56388617
B         1.86443496     -0.73396254      7.30628538
H         1.99266183     -1.82944489      6.68575859
H         3.03933597     -0.16210417      7.57355452
H         1.15700424     -0.78745490      8.25475883
H         2.35773492     -2.02324939     14.66761208
B         1.99547338     -1.11339903     15.31809998
H         1.75871313     -1.14429557     16.49538994
H         1.04014826     -0.92912334     14.59645367
H         2.85445523     -0.21985413     15.03337383
H         1.02389634     -1.58435822     22.45092773
H         1.54024363     -0.54775763     24.10977936
B         1.98903537     -1.05291235     23.00363731
H         2.60711884     -2.00181174     23.46479607
H         2.58551264     -0.37567776     22.19887733
H         5.14865828      3.80769873      0.63981521
H         4.72725821      2.36896038     -0.46552482
B         4.30184555      2.93953085      0.50586516
H         3.30951238      3.64403200      0.37916741
H         4.31219721      2.12380099      1.46435499
H         3.01135206      3.77117348      9.44023609
H         2.77342200      2.75592303      7.98969555
H         4.68721056      3.19464707      8.31447220
B         3.56085539      2.89827514      8.85978127
H         3.74139547      1.83123600      9.45308495
H         5.08237219      3.52651501     15.78436947
H         4.97385979      1.85900319     16.65089226
H         3.64201641      2.13905716     15.26482010
H         3.59810972      3.36390114     16.98937225
B         4.27217674      2.68810463     16.08709145
H         5.23007488      2.80696273     22.87687302
H         3.15389609      2.39527392     22.60844040
H         4.09694290      1.83099616     24.37940598
H         3.99675775      3.70043349     24.10475349
B         4.07555008      2.69255233     23.45562363
B         6.21008348      6.64513493      0.99161398
H         6.10427284      5.56953001      1.56404054
H         5.08828974      7.02244091      0.66117668
H         6.71604729      7.47614431      1.76219440
H         6.75140333      6.52964640     -0.12154430
H         5.00338840      6.43399572      8.35038948
B         6.16311884      6.34252501      8.70182323
H         6.96922112      6.59482718      7.82669306
H         6.40306997      7.07695580      9.61758137
H         6.39253616      5.17739153      9.19348335
H         5.76327610      5.40498734     15.24795341
B         6.12357521      6.29155636     16.02173996
H         6.79380989      6.98255777     15.21379375
H         6.64584494      5.97902441     16.99747086
H         5.04586601      6.76330566     16.32108688
H         6.37418365      5.47985935     22.85498047
H         4.86781406      5.86003876     24.00453377
B         5.78927088      6.37900496     23.47315979
H         6.62833309      6.78056526     24.24503517
H         5.62960577      7.30119991     22.81075668
H         9.28602314     10.83340645     -0.53931808
H         8.14056110      9.04644775     -0.22248383
B         8.62250614     10.10570621      0.25945142
H         7.56227922     10.72624779      0.50090569
H         9.14498043      9.97976971      1.34636688
H         7.22356749      9.98270321      8.82906914
H         8.43925476      9.15096378      7.49650335
H         7.60853148     11.15584946      7.24420261
B         8.07376003     10.27838230      7.92698908
H         9.03526020     10.75571918      8.60033703
H         8.45899200      8.60102081     14.80594635
H         7.29443359     10.19003201     15.02696419
H         9.09725380     10.39983463     14.20123005
H         8.84649372     10.31867695     16.15660286
B         8.52105713      9.78428459     15.05912876
H         8.86685181      9.42617989     24.08655739
H         7.76271534      8.67429161     22.50582123
H         7.15687275     10.33031750     23.61908340
H         8.72999668     10.59019375     22.35091400
B         8.14904213      9.78265190     23.09985924
B         4.10989141     -4.42987776      0.49497503
H         5.08294630     -3.79703450      0.29264015
H         4.43833113     -5.39284039      1.16808367
H         3.24616075     -4.01631403      1.05814838
H         3.45050383     -4.75382137     -0.55900747
H         3.48366332     -3.37978816      9.39056969
B         3.64748716     -4.33592176      8.67580700
H         3.28979850     -5.29929972      9.35368156
H         3.01243711     -4.19227505      7.55066538
H         4.87953091     -4.43018055      8.43160152
H         3.75305128     -3.96665049     16.93864059
B         4.05012941     -4.83279181     16.09795952
H         4.70064974     -4.21137142     15.20139694
H         3.15984488     -5.47410202     15.51379871
H         4.68233919     -5.72854328     16.54733086
H         3.47312593     -5.35066938     22.27469063
H         4.10397720     -6.03666830     24.09305382
B         3.94989514     -4.99116516     23.39233398
H         5.14482117     -4.73751163     23.01544762
H         3.41124773     -4.07471132     24.02828217
H         5.89074183     -2.00009227      0.49339905
H         5.28904867     -1.02511179      2.19482374
B         5.79343843     -0.89370412      1.05241597
H         5.26658821     -0.03167604      0.26723433
H         6.97369671     -0.55608988      1.20683014
H         5.55754995     -0.03908743      9.09510994
H         5.68944645     -1.98356569      8.42243290
H         5.08709383     -0.47617954      7.23751116
B         5.91080761     -0.76330388      8.13292885
H         7.03427267     -0.55902636      7.74311638
H         5.71634102     -0.58261758     17.18090439
H         7.49745750     -0.74538869     16.43706703
H         6.15296316     -0.75953060     15.07526779
H         6.19540977     -2.24763918     16.47277641
B         6.31325960     -1.06836283     16.25311470
H         5.03395033     -0.81780201     22.90216446
H         6.76823902     -1.31828761     22.01727486
H         5.90324020     -2.62938452     23.14767265
H         6.66372824     -1.04504836     23.90580559
B         6.08443403     -1.46617579     22.92604446
H         8.64601994      2.73553920      2.10419917
H         8.90454960      3.36862302      0.21865776
H         7.03716230      3.10920262      1.01809049
B         8.15660954      2.65181947      0.99668503
H         8.03767204      1.44902074      0.83147246
H         8.01417351      2.02406335      6.58413887
H         8.98519421      3.69489646      6.97911453
H         8.88064194      2.13641858      8.48299408
H         7.28663540      3.31167579      8.03279400
B         8.32748222      2.80729103      7.46754456
H         8.08275700      3.07363892     15.56225204
H         8.05450344      1.12048650     15.58066559
H         9.41456699      1.84838259     16.61927605
B         8.33510590      2.18822026     16.19804382
H         7.39158869      2.21671891     17.08646393
B         8.02617264      2.62615657     23.75350761
H         7.38158655      3.30371594     22.92926788
H         9.01702595      3.22678399     24.25993156
H         7.15033007      2.44600844     24.54803276
H         8.24841022      1.53619564     23.35824203
H        10.24683571      6.04953575      1.42324281
H        11.25356007      5.25767374     -0.11262002
B        10.56818008      6.24203253      0.31726119
H         9.58458710      6.25307083     -0.40297630
H        11.41497612      7.06549788      0.01359025
H         9.03214645      7.05411100      6.95115709
H        10.11652184      5.56781578      7.81086397
B        10.04734707      6.67819548      7.50501156
H        11.11559105      6.94046021      6.81276846
H        10.14822960      7.08496714      8.68952751
H        10.98905849      6.06167364     16.63859558
H        10.73642349      6.02502489     14.68827724
B        10.20679760      5.88796329     15.82637310
H         9.83111668      4.77667713     15.99872780
H         9.39291859      6.84810257     16.03783035
B         9.98211765      6.05510521     22.85536766
H        10.39776802      7.08027744     22.29756355
H         9.68158245      6.19640589     24.10601425
H        10.80375481      5.10322475     22.97717476
H         8.90245438      5.81668663     22.33199120
B         5.93169880     -8.38268185      0.01513387
H         6.35331535     -7.81349039      0.97870779
H         5.39274120     -7.52888966     -0.75580120
H         6.88582802     -8.94658279     -0.52386880
H         5.15198946     -9.20869446      0.35613963
H         7.10649633     -8.28926945      7.13214111
B         6.02987480     -8.07209396      7.84261703
H         5.88933086     -8.97111034      8.61030197
H         6.36485434     -7.05100679      8.48200607
H         5.00309610     -7.91431999      7.10420561
H         6.79175043     -7.53237915     14.56536388
H         6.23776817     -9.31061554     14.29248524
B         6.24165916     -8.39335537     15.06972980
H         6.65920067     -8.81787300     16.07340622
H         5.04530239     -8.04801273     15.41680717
H         5.27313757     -7.65735245     22.61861038
H         6.26922131     -9.03486156     23.89310837
B         6.24879265     -8.33075619     22.80751038
H         6.27789736     -9.11241817     21.85938644
H         7.34069872     -7.74086761     22.79744911
H         8.17401695     -5.34379292     -0.00740660
H         8.62408829     -3.81746912      1.26581299
B         8.11070633     -4.96288681      1.16378605
H         8.58574963     -5.69508123      2.02911735
H         6.95330667     -4.83042526      1.56995249
H         9.17079258     -3.48448086      8.89681530
H         7.37565041     -4.00516748      8.23328495
H         9.03099918     -4.89655828      7.44014883
B         8.46828461     -4.44693041      8.44927979
H         8.46763420     -5.42015696      9.26351452
H         8.99831867     -4.59435511     16.75138092
H         8.76035690     -5.74962425     15.13543606
H         7.13778305     -5.14637518     16.46580696
B         8.26344681     -4.93594313     15.92822170
H         8.11352444     -3.92431116     15.15402126
H         7.90303564     -5.55082226     24.01043510
H         7.52210951     -4.33270502     22.47551346
H         8.31164837     -3.64687085     24.33068466
H         9.24717617     -4.49513054     22.91381645
B         8.22645092     -4.55790758     23.39208031
B        10.07681370     -1.17487454      0.62316513
H        11.00824642     -1.29480767      1.36552930
H         9.96924591     -0.00104431     -0.01492280
H        10.00160694     -2.13323045     -0.25732175
H         9.04945183     -1.30821705      1.32729805
H        10.94190311      0.01904846      7.38496876
B        10.09523869     -0.88680011      7.72767735
H        10.54462051     -1.55929005      8.62044144
H         9.05890274     -0.41317183      8.21084309
H         9.73483467     -1.66634107      6.86819077
H         9.59689999     -0.49872276     15.56265163
H         9.83243942     -2.22123194     14.75068569
B        10.37337208     -1.36513937     15.31147861
H        11.26000881     -0.97083861     14.47039223
H        11.04613972     -1.62752807     16.35538483
H         9.49657440     -1.01544309     23.64602852
H        10.27475452      0.27563095     22.30685806
B        10.27329445     -0.92442089     22.67020226
H        11.38333225     -1.40166628     22.72714043
H         9.74354458     -1.65654159     21.74897194
H        13.02175331      3.18306160      2.19239426
H        11.00322723      3.10784507      1.82804215
B        12.03941822      2.56873345      1.66913140
H        12.02951527      1.50659108      2.27207494
H        12.28458881      2.48689055      0.46243647
H        12.99335289      2.45808887      9.06626129
H        11.71917725      3.91506529      8.51862621
H        13.00415230      3.32346416      7.13435841
B        12.35782242      2.96232629      8.13900948
H        11.45609379      2.30258584      7.65947199
H        12.50930977      1.49060702     14.88119030
H        13.76621723      3.02941084     14.80663776
H        11.60534000      3.07656693     14.78327084
B        12.68140602      2.60395265     15.21662807
H        12.73756790      2.81494474     16.36560440
H        13.40082741      2.81273818     24.58425522
H        11.58860207      3.40373683     24.04439163
H        12.36195087      2.09771490     22.88211060
H        12.22021770      1.39403367     24.72189713
B        12.40879536      2.41662169     24.02042961
B         8.15834808    -11.73248386      0.55095822
H         7.94867706    -10.92668438     -0.33560967
H         8.08565140    -12.88878918      0.21915713
H         9.23388958    -11.50597954      1.06215596
H         7.25028038    -11.51833439      1.41926241
H         7.82239962    -12.94750309      8.98483944
B         7.88449097    -11.82337475      8.44880486
H         6.87602282    -11.17368603      8.52889919
H         8.89231396    -11.31431007      9.13790321
H         7.93643379    -12.02210522      7.22693777
H         9.17026615    -12.94431305     15.05591393
H         8.40682125    -11.05703259     14.56532574
B         8.56650352    -11.94748974     15.39344978
H         7.51874352    -12.03483486     16.07539749
H         9.40908337    -11.38019466     16.14689827
H         7.64184809    -11.97532082     23.61353111
H         9.22155571    -10.98407078     23.50771332
B         8.39923668    -11.54994488     22.83189392
H         8.78615761    -12.50183010     22.20504951
H         7.89029264    -10.75251198     22.01291466
H         9.77151203     -8.91833115     -0.37376097
H        11.02821541     -7.59501600      0.18337150
B        10.07030296     -8.32682133      0.55117410
H        10.37878609     -8.90903378      1.54938126
H         9.11325741     -7.56379843      0.74526060
H         9.95719814     -9.31976604      7.16607904
H        10.60953999     -8.50537300      8.78321075
H        11.12491417     -7.82245541      6.95573139
B        10.14308739     -8.26539230      7.73154974
H         9.20017338     -7.52361107      7.57756138
H        11.55746746     -8.36863899     16.42702484
H        10.75845718     -8.00380898     14.63044930
H        10.56559086     -9.82050419     15.18809319
B        10.55362320     -8.63693047     15.66713715
H         9.46237946     -8.46592903     16.19286346
H        10.70652580     -7.61494541     24.04887009
H        10.71352863     -8.91259766     22.49579239
H        11.04411221     -6.78826141     22.20247459
H         9.36287785     -7.63742590     22.61599350
B        10.53757286     -7.73905230     22.87177467
H        13.31743622     -4.35355568      0.27491885
H        12.78066635     -3.31285143      1.83815885
H        12.91308212     -5.53037882      1.89223623
B        12.56735611     -4.52413797      1.23442268
H        11.37453651     -4.48383331      0.82247722
H        13.40182018     -4.75413370      9.42647266
H        11.89914799     -3.46154618      9.05887413
H        11.49288654     -5.30589771      9.42238712
H        12.39733791     -4.95633650      7.65518665
B        12.38094234     -4.60898399      8.87459278
H        11.79115009     -3.91139984     16.57922745
B        12.57775116     -4.64358854     16.01430893
H        12.27467728     -5.90306950     16.09629631
H        12.50473118     -4.31548548     14.84712410
H        13.73996830     -4.49902630     16.43997955
B        12.33693600     -4.08318520     23.42148972
H        13.09248257     -4.23033667     22.41995239
H        11.19423676     -4.07321405     22.96485519
H        12.55022240     -5.11034203     24.14172173
H        12.79900169     -3.07377172     23.79489708
H        13.55873871      0.43761739      1.42230403
H        13.42057610     -1.07909667      0.19623500
B        14.10923100     -0.58844399      0.97546703
H        14.38233662     -1.37385547      1.83295429
H        15.15139580     -0.31884298      0.34469783
H        14.24066448     -1.37073803      6.84382248
H        14.17419052     -2.06124115      8.78236103
B        14.10742569     -1.12381232      8.09146976
H        15.20676994     -0.47009903      8.42199898
H        13.01549339     -0.42673978      8.30739975
H        15.55198956     -0.78089589     14.78212070
H        15.21585941     -0.93960410     16.72463989
B        14.69993591     -1.05957341     15.57939243
H        13.94809055     -0.17014912     15.50857162
H        14.24447918     -2.20035839     15.48105907
B        14.79160023     -0.88722479     23.21478271
H        14.68811989     -1.24007320     22.02948952
H        15.98950195     -0.61528885     23.44431305
H        14.38061523     -1.86829543     23.97334480
H        14.16791344      0.23895447     23.32698250
