768

Li        4.43780661      4.13545561      1.41204560
Li        1.97799599      8.45526505     13.85743332
Li       -9.25563049     -7.47891903     22.73590660
Li       -0.48333576     -5.49933529     19.39131355
Li       13.50620365     -8.77902222    -10.24902821
Li       -5.41659164      2.49231124     19.42682457
Li       10.24969196      0.52358955      8.31190300
Li       -1.43671739     16.79202080      3.72222400
Li        5.09921980     11.05846500     14.45520020
Li       12.26210213     16.45700836     11.95710182
Li       33.21788788      1.81910372     25.51580238
Li        1.67709291     15.37239552     15.70095253
Li       13.69932652     -3.45161033     -0.69238418
Li       10.18496990     20.13825035      4.00370932
Li       32.88701630      2.06736541     18.52166939
Li       22.35589981     10.98657131     21.68938637
Li       12.46126938     -5.85895824      3.62845111
Li       20.71353531      7.89174604      6.88464880
Li       -2.26330137      0.67213988     14.48775005
Li       -7.47573233     -1.26757717     34.35314560
Li       10.62076283     -6.94630384      0.03750701
Li       19.63257980      2.26653624      5.16154051
Li       -2.39618397      0.21713839     -0.68821979
Li        5.75271797      7.29201078     22.78715706
Li       14.79485130      8.40212536      0.94707936
Li       11.40953445      9.39228630     10.94794464
Li        9.18642426     -2.92375875     15.29368496
Li       15.40895653      0.19452870      7.00676298
Li        1.19670105     10.55759811      8.23770714
Li       -3.45206761     17.77315903     16.01705170
Li       23.01622963      7.55733967     30.60390091
Li       12.78116035      1.67880321     34.00713348
Li       -4.81305599      4.53374100     14.87757778
Li      -18.15491867    -11.70008087     10.67374039
Li       16.65686417    -12.99046326     18.73318863
Li       21.07747650      9.26231956     10.80892944
Li       12.54656792      1.96550143     -2.59895897
Li        9.38626766    -11.03302574     14.27399731
Li       -7.54953432     12.76458549     19.81787109
Li       14.43862438      5.91336203     27.05590630
Li        8.33114719      4.58216906      0.41131720
Li       20.00244331      9.77511692     18.06752777
Li       23.28998184     -1.60216630     25.69050217
Li        7.52813101     -3.98604393     20.04251862
Li        3.59505963      4.14747620      8.72751713
Li       16.89149094     18.52388382    -15.30236435
Li        9.30407715     -8.36569595     -3.72624421
Li       20.92955017     -2.63195968     22.22939301
Li        5.25302219     -7.03547621      8.77248573
Li        6.40415812      5.39856291      4.82806492
Li       11.34710312    -22.08498764     22.26127052
Li      -11.81774044    -11.02044487     37.89492798
Li       11.61297035    -12.89190865    -10.40927696
Li       18.79104996    -30.80815125     -2.54110050
Li       18.65531540     19.15762138     10.43509293
Li       -2.21693873      5.35250282     11.99382210
Li       21.82910538     -1.41814220     18.58986473
Li        7.05546045      0.41776568      0.00962699
Li       24.93264008      8.41039944     12.39966965
Li       26.39218140    -11.00462532     21.74867058
Li        4.61329222     23.80172729     -3.97894168
Li       11.93154240      7.89705324     14.58328247
Li       29.46920204      1.93736279     11.73986340
Li      -10.06838608      6.63359022     16.16928291
Li        2.48164868     -6.78472948     -0.11562225
Li       -0.25626335      9.43338108     26.85550499
Li        5.58030987     -1.33451784     33.40946579
Li       10.69121361      0.44947326     30.29898262
Li      -11.23917294    -10.66138935      0.93495756
Li        8.72658348     -3.24636698      1.19157720
Li        6.03103065     12.70359612     25.63980484
Li       -6.23793745      7.15589666     37.11190414
Li       -7.47375107      3.42502069      6.78377724
Li       15.83447742     -4.85361767      4.01754379
Li       12.77820301      9.07202816     18.12728500
Li        8.34866238     16.79179001     32.95696259
Li       -6.42481136     14.99671364     15.85069180
Li        3.02185726     -0.42291147      8.62271023
Li       10.45184135     22.27344131     21.35827065
Li       -7.36493492     27.70763779     27.29947090
Li        1.47271502     -1.52386713      4.65666342
Li      -16.22151184     16.50479317     26.37478638
Li        8.34946537    -17.61148262     30.45773506
Li       -0.02515909      4.16934013     29.37283516
Li      -14.64474964     12.85252762    -10.19008350
Li       10.22808456      5.60249090     18.11740875
Li        1.03807068     13.07318115     11.48089695
Li       15.94030857     -4.85106373     26.88544273
Li       -6.44274664      0.71535176     -6.60243750
Li       18.11634636     -8.35553074     -3.44066620
Li      -10.23582745     -0.44302702     14.48253441
Li       14.63176441      0.08729678     22.13521004
Li       21.84963989     18.22148514     -6.77588606
Li       13.15800190     -1.51172459     10.73753643
Li       19.68001938      2.25459576     27.01677895
Li       -3.10007119     13.08750057     10.77597237
Li        4.96805763      3.65747404     23.48225403
Li        6.01230240     -3.48606563      6.84776497
Li       25.71509171     -3.14142919     23.29740524
Li        9.10635376     -8.49307346     40.95560837
Li       16.19925499      1.89860880     11.05927849
Li       10.62909603    -13.92219543     23.40223312
Li        4.59903860    -20.41552544     25.95278358
Li       15.70331383     -7.21935368     38.03452682
Li        0.20770368     -3.57074046    -13.94113827
Li       -0.19898705      4.52801991      7.84179688
Li       33.80701447     -2.67304182      8.92299461
Li        8.41616631      4.15646172     22.74362755
Li       16.08437538      9.47366047      4.48342037
Li       14.11382008     15.25208759      7.06165171
Li       15.78115559    -13.94707012     21.69261742
Li        7.06717157     -4.47393465     41.48870850
Li       -3.11796045      5.88789463      4.13819361
Li       12.11005974    -17.65800476     14.92584324
Li       -5.42711496    -14.46448135      0.87418234
Li        9.48089886    -17.97092628     23.76446152
Li       10.52606773      5.53158808      3.56579471
Li        5.11085272      6.03033018     12.32234955
Li        5.37099075    -18.53058243      7.00901651
Li       18.18216324     -1.40973723     12.35824680
Li        2.72164083     -5.24014139      4.05045509
Li       14.74944973     -9.03839588     -2.88358450
Li       13.13119316     -1.19454288     33.51604080
Li       15.60687160      7.75699139     15.68047619
Li       21.20430946     -2.99563026     -0.07526673
Li       27.04514694     -8.61985874     17.74889755
Li       22.06464195     -8.59034443     19.23534012
Li        6.00853634     12.88649654     17.88553619
H         1.49677622     -0.28408214      3.11856699
H         1.80545032      1.24962068      4.37035894
H         2.83236432     -0.36896282      4.48732090
B         2.33231974      0.41984656      3.68884158
H         3.09358692      0.99401754      2.91301441
H         1.38814437     -0.09290206     10.44056702
B         2.23204708      0.46061128     11.07074356
H         2.25774693      1.59677911     10.69067764
H         2.14810538      0.33268115     12.27602863
H         3.31765676     -0.03212779     10.70129681
H         1.34415805     -0.40904066     17.70378113
H         2.30209136      0.33881193     19.31389809
H         3.18340969      0.17983484     17.28845406
H         3.01306605     -1.17462981     18.28494453
B         2.45344043     -0.14029200     18.19293022
H         3.33415699      0.32727328     24.86283493
H         2.76034427      0.03212679     26.86350250
B         2.46548748      0.15400377     25.64543152
H         1.82721245     -0.82227868     25.45006561
H         1.84338605      1.20443523     25.61898422
B         4.63041782      3.60621262      3.87828970
H         5.51165390      4.42734051      3.44180441
H         3.76772070      3.36647058      2.89129400
H         4.25400400      3.76086426      5.00777292
H         5.13688326      2.55093980      3.67670107
H         3.63521004      3.54633498     11.34043884
H         5.54220009      4.24846363     11.94890976
H         5.20322418      2.60511041     10.82471180
B         4.85194349      3.78633881     11.02307987
H         4.88828516      4.39086771     10.02118301
H         3.59407616      4.36321259     19.25884628
B         4.11732435      3.92707157     18.22037888
H         3.55649924      3.04085207     17.65690422
H         4.10458660      4.92672634     17.62200928
H         5.26414156      3.47813225     18.51179314
B         4.82726860      4.07799721     25.53806496
H         4.89676666      2.83734131     25.72138977
H         4.51896238      4.61480093     26.58732033
H         3.85553002      4.28928804     24.86279869
H         5.78154898      4.45261478     24.95181847
H         6.74674368      8.35712624      2.77706122
H         5.90330791      7.72690201      4.61443043
H         5.28258562      6.97923470      2.62891531
B         6.20647621      7.45112848      3.47254372
H         7.12563705      6.58705854      3.72634387
H         6.05823374      6.87994003      9.66778469
B         6.54563618      7.28451490     10.71582508
H         6.00533772      8.18384933     11.25057793
H         6.73990536      6.34552717     11.52971649
H         7.74804878      7.76028633     10.55512333
H         7.22250509      7.12720346     19.52637672
H         6.04604912      6.46457100     17.84914780
H         7.75218630      7.68736410     17.60938263
H         6.07175636      8.40271759     18.51381874
B         6.84372473      7.42643118     18.45438385
H         6.46454334      7.46136522     26.69531250
H         7.99703455      7.53829098     25.84023476
B         6.81525850      7.76979399     25.55623817
H         6.79967260      8.94770622     25.09252167
H         6.61385298      6.91976357     24.65593338
B         9.51981258     10.87608910      3.45932841
H        10.61163044     11.15387058      3.06957102
H         9.44703197     10.14336109      4.43104982
H         8.92137623     10.18805218      2.59468555
H         8.76361370     11.79407024      3.68001938
H         9.37544727     11.29236603     12.14802361
H         9.65087128     10.03844261     10.56059933
H         8.10206223     11.26745701     10.53947830
B         9.29293728     11.16676235     10.89350605
H         9.94608498     11.95745277     10.32355690
H         8.15251350     10.85029602     19.19024658
B         8.62417984     10.95183372     17.96431160
H         8.53408432      9.83788681     17.29866791
H         8.01058197     11.80953884     17.38994789
H         9.77192020     11.40447044     18.15165520
B         8.92612457     11.37316895     25.86792564
H         8.63665771     10.29097652     25.26106262
H         8.25202465     12.25090885     25.55097389
H        10.01738167     11.63149738     25.50218964
H         8.87680626     11.23165798     27.01721954
H         6.10026693     -3.36391640      4.91365194
H         4.37801218     -2.82773447      4.17688608
H         4.63785887     -4.71085930      4.39013910
B         4.85734797     -3.58034205      4.91099310
H         4.33916616     -3.50450993      5.99347591
H         4.54189062     -4.31699753     11.14272976
B         4.48927784     -3.36353350     11.98061085
H         5.53825474     -2.85366416     12.36201382
H         3.75295115     -2.51732397     11.41738892
H         3.89854455     -3.58619642     13.03809547
H         5.66923237     -3.04995489     18.83981705
H         4.46009302     -2.11109042     20.20390892
H         5.41166925     -3.89583516     20.74508667
H         3.95983243     -3.76339841     19.27692223
B         4.90054417     -3.24927831     19.79149437
H         5.79946709     -3.22704935     27.77042007
H         4.30083942     -2.08084536     27.39480019
B         4.71413231     -3.20076823     27.05015373
H         3.90397978     -4.10484838     27.32810974
H         5.03819323     -3.22180510     25.78101158
B         6.78393269      0.07480969      5.06232929
H         6.66414022     -0.72286433      5.93132973
H         7.21741152     -0.41498154      4.02827835
H         7.50046301      0.96619022      5.44536924
H         5.57839537      0.35050550      4.73031044
H         6.03659534      1.06583261     13.01370049
H         6.91836834     -0.73416513     12.49291229
H         5.33667326      0.18358584     11.45977974
B         6.35932016      0.33213484     12.12221813
H         7.21081400      0.96889806     11.50860119
H         6.30650997      1.57335293     19.73196602
B         6.50573635      0.40365890     19.53478813
H         6.69926262      0.13923138     18.31552124
H         7.58123016      0.12858352     19.79480553
H         5.50199461     -0.20531663     19.98242760
H         6.21365356      0.32138830     27.84424210
H         7.55721235      1.37448943     26.91895676
H         7.52346420     -0.62040919     26.47263908
B         7.42007446      0.20753488     27.37955284
H         8.23914242     -0.03723262     28.25068283
H         8.16868973      5.17801619      4.90128088
H         7.84335804      3.31814790      5.41924238
H         9.77958107      4.07273865      4.72357941
H         8.05467796      4.05240774      3.46976209
B         8.51520348      4.10534859      4.64745188
B         8.80079174      3.70460916     12.07426643
H         8.86704350      3.12293768     11.06068420
H         9.60083771      3.22937369     12.90516758
H         7.71398258      3.59356880     12.53628922
H         9.03248787      4.84249401     12.05201244
B         9.30335712      3.39938474     19.87760735
H         8.87105656      3.33683300     18.81875801
H         9.63383389      2.34835935     20.35800171
H         8.29729271      3.76599336     20.52157402
H        10.10532665      4.25713348     20.06205368
B         8.49031067      4.55720520     27.39891243
H         9.33928394      4.42266989     28.23704910
H         8.86272430      4.16741228     26.35037231
H         7.43296099      3.80220461     27.71877861
H         8.15746117      5.71483421     27.24191284
H        10.30214977      7.55071020      3.87472796
H        11.41383457      6.24162674      4.93600655
H        11.48693562      8.08913612      5.54762506
B        10.66831684      7.25319433      5.04759169
H         9.73562527      6.85244036      5.77265739
H        10.59124470      7.28291512     11.36855412
B        10.76336384      7.91079807     12.42897606
H        10.70925808      7.23878002     13.42845821
H        11.86422348      8.26268482     12.43308163
H        10.00887871      8.85148048     12.51934147
H        11.91000080      8.32606411     19.79636955
H        10.18579674      7.47330856     19.42861557
B        11.43660355      7.26526308     19.57737350
H        11.56252861      6.49881744     20.54298210
H        11.95191765      6.56088161     18.68166542
H         9.89349461      7.85584450     27.47477150
H        11.78653049      8.44985104     27.88650894
H        11.44324970      7.13983488     26.38710403
H        10.98279762      8.95501423     26.25594330
B        11.03237724      8.10316849     27.03064919
H         6.31888580     -6.79846859      4.53552437
H         6.83078623     -5.98308134      2.89374280
H         7.11648703     -7.91764879      2.94785070
B         6.51541471     -7.01621437      3.40926361
H         5.37330723     -7.16530132      3.03075695
H         5.86958981     -6.14924335     11.81631851
H         7.17107058     -7.57772732     11.90541649
B         6.45016527     -7.01844597     10.99169922
H         6.99745417     -6.53372097      9.99520111
H         5.67378092     -7.95648241     10.78228760
B         6.47238541     -6.69542170     17.85271072
H         6.46002531     -6.37873650     18.99117088
H         5.85065746     -7.74316883     17.63336754
H         7.61921024     -6.95753908     17.52554893
H         5.92598915     -5.93641806     17.08786964
H         6.78934193     -5.60456514     25.68598747
H         7.74825525     -7.32332230     25.31587791
H         6.80719614     -6.86480331     27.17180252
B         6.85683632     -6.82544327     26.02348900
H         5.90123129     -7.38401413     25.54217720
B         8.67484283     -3.18834591      3.28523588
H         9.75500774     -3.57413363      2.99679089
H         8.72555733     -3.30095577      4.52434206
H         7.70352936     -3.86573339      3.07974362
H         8.46306801     -2.07698679      2.96431732
H         8.53520203     -4.28231716     10.45658779
H         8.33801842     -3.00464845     11.96595001
H         8.87273502     -2.26216197     10.09381294
H        10.03040314     -3.33282471     11.21008110
B         8.87269497     -3.20734811     10.83099365
H         9.22645855     -4.99474192     18.88508606
B         9.35805511     -3.72294998     18.65347481
H         8.48271370     -3.09614015     18.10982704
H         9.49641037     -3.10052347     19.74165344
H        10.37069130     -3.46616244     17.95371246
B         8.92035580     -3.20580792     25.78940392
H         9.49889565     -4.25011492     25.60183907
H         7.89816236     -3.16706443     25.08231163
H         9.38687515     -2.13771796     25.45034218
H         8.60192108     -3.27912593     26.95598793
H        11.33522892      0.73680228      2.43589115
H         9.94164085      0.34614715      3.64976096
H        10.78297997     -1.17019057      2.55693793
B        10.99211025     -0.12656434      3.24595809
H        11.56899071     -0.49115646      4.26832008
H        11.45474339      1.01865244     10.89135742
H        11.24527931     -0.63716060     11.76644802
B        11.11703777     -0.11498715     10.65930557
H        11.84404087     -0.56955308      9.81142330
H        10.02544975     -0.01219338     10.22620296
B        10.50417995      0.40773201     18.20493126
H         9.95581722      1.49829590     17.90687752
H         9.47546387     -0.24407636     18.79472542
H        11.26211643      0.54751021     19.12347031
H        10.93701267     -0.10863399     17.22646332
H        10.61405468      1.79901993     25.61773300
H        12.01525497      0.28917035     26.10631752
H        10.56384563      0.86323947     27.21251297
B        10.81338501      0.68595099     26.05610657
H        10.17802715     -0.16842036     25.43730164
B        12.70334148      3.82533503      3.43931913
H        11.52262497      3.40895200      3.40007591
H        13.26089954      2.87791872      2.86554074
H        13.08332157      4.06795931      4.56720734
H        13.04071903      4.73580647      2.61489081
H        11.57641888      3.25923586     10.19703102
H        13.58040047      4.01913500     10.38392925
H        12.33376694      3.87571073     11.97920418
H        12.13751793      5.25577116     10.52733421
B        12.41717815      4.11920357     10.84269142
H        13.90160179      4.43830204     18.10740852
B        13.33620834      3.32368493     18.41392136
H        13.33002949      3.32043719     19.63976097
H        12.19831562      3.24084520     17.83983994
H        14.05912685      2.26572752     18.26488304
B        13.24641800      4.23462582     25.67751312
H        12.57706833      3.11991286     25.54171944
H        14.30220032      4.09165001     26.18909454
H        12.67385006      5.04867840     26.29804993
H        13.54177189      4.71387720     24.54385185
H         9.29435062     -9.62274361      5.30843544
H         9.52058601    -11.59100246      5.75325871
H         7.85064030    -10.89640141      4.91269445
B         9.17004585    -10.79179478      4.97121763
H         9.67658615    -11.13323879      3.92460728
H         8.49236965     -9.40808678     12.97206783
H         7.68511200    -11.15883923     12.96325779
B         8.31438065    -10.38268471     12.20060158
H         9.42817879    -10.87907219     11.98037434
H         7.86551237    -10.04534245     11.14955521
B         8.97220421    -10.54177380     19.55135727
H         8.59500408    -11.51001263     20.33003807
H         8.21951008     -9.68778992     19.36816978
H         9.09604359    -11.02861977     18.44822502
H        10.11093903    -10.29841423     19.96998978
H         9.35431480     -9.66157436     27.79232407
H         8.24047089     -9.88386345     26.16168976
H        10.03458023    -10.87366486     26.28968239
B         9.04758739    -10.48869514     26.83763313
H         8.49693775    -11.44754791     27.24641991
B        10.82695293     -6.84797430      4.86294794
H        11.13657379     -5.66971207      5.09267092
H         9.68219757     -6.86156607      4.30269480
H        10.56415367     -7.28603697      5.90780878
H        11.67848682     -7.66436386      4.46227598
H        11.70745277     -8.08137894     11.24248600
H        10.36976910     -8.21882534     12.58663845
H        10.95398808     -6.33912277     12.07622433
H        12.23079109     -7.64001846     13.09201431
B        11.35838032     -7.55047846     12.25577927
H        11.57859135     -7.79569292     20.16805649
B        11.52146530     -7.08327293     19.20278358
H        11.97247505     -6.03467607     19.70802879
H        12.38574314     -7.42124748     18.39936447
H        10.39821529     -7.10102654     18.74155617
H        11.05824947     -6.08714104     26.13094139
H        10.15071297     -6.75533009     27.46856117
H        12.35364151     -6.99190283     27.40507698
B        11.22934723     -7.05892801     26.82484055
H        11.28085041     -8.16505241     26.25401688
H        13.94211102     -4.87309265      5.32246733
H        13.05528545     -2.92973709      5.37895679
H        12.88704014     -4.28204918      3.87157202
H        14.71156883     -3.54953957      4.23993969
B        13.64028263     -3.85664344      4.74852085
B        13.44637871     -3.47886252     11.78537846
H        14.50316525     -3.54451251     11.15233517
H        13.41009045     -4.51271534     12.33298016
H        13.28933048     -2.48751998     12.58579254
H        12.38580418     -3.30007195     11.17747211
H        13.17498779     -3.81526923     18.49922371
H        14.13748455     -2.42733932     19.47609901
H        12.61467934     -1.87414074     18.34749603
H        12.25311375     -2.80509400     20.14391136
B        12.94220638     -2.79223728     19.16235542
B        13.17963600     -3.47731614     26.82329750
H        12.57538891     -3.24239779     25.82033920
H        13.98191071     -4.30795479     26.39031601
H        13.80434513     -2.56010175     27.17579079
H        12.35572147     -4.01096153     27.62046432
H        13.83259010      0.05991658      5.53470755
H        14.29187775      0.50310874      3.50988865
H        15.32690048      1.25047076      4.95962620
B        14.81296062      0.20302612      4.71587992
H        15.51717949     -0.78928787      4.67968988
H        14.64505959      0.32897809     10.99969864
B        14.50430870      0.84047878     12.10755157
H        13.55814362      0.45128158     12.63321686
H        15.45771885      0.55758590     12.74643421
H        14.39843082      2.05877399     12.09830856
H        14.85917854      1.09357512     20.18309402
H        15.66010284     -0.91816247     20.09582901
H        14.66061115     -0.09417345     18.54817772
B        15.45564651      0.16547847     19.48840714
H        16.52921867      0.52608824     19.00728226
H        15.74755383      0.29208711     27.65368462
H        13.71633434     -0.10973990     27.09906769
H        14.71149540      1.62109268     26.59115982
H        15.13287640     -0.13330893     25.72539711
B        14.75633144      0.38056058     26.77753448
B         1.92597628     -1.80152953     -0.00021005
H         1.70163667     -1.01312280      0.94567180
H         2.65228486     -1.10364175     -0.79940587
H         2.52897859     -2.95337605      0.28267524
H         0.88098091     -1.90425396     -0.68661422
H         0.79018408     -0.74357432      6.22233438
B         1.18379402     -1.70554495      6.87069082
H         2.29443550     -2.06101966      6.39368582
H         1.30769682     -1.15757513      7.97071171
H         0.21475233     -2.56259060      6.71290350
H         2.45243979     -1.87709129     13.80574703
B         1.53493512     -1.91392875     14.61582470
H         0.56104851     -1.24877656     14.52552128
H         2.22743559     -1.70841384     15.62177372
H         1.33078837     -3.17621231     14.58766747
H         1.36497223     -0.34094360     22.13406944
H         2.07335019     -1.84968400     21.10043907
B         1.64182043     -1.55012596     22.19989777
H         2.56704473     -1.75240684     22.89407730
H         0.71596807     -2.28498483     22.46265411
H         3.26072574      3.20487666     -0.34188074
H         3.93632722      1.87460077      1.11998582
B         3.71703076      2.04931664     -0.21481632
H         4.76554632      1.81436193     -0.91780353
H         2.76508713      1.30535924     -0.58645225
H         2.84328270      2.42416096      8.31074142
H         4.44445896      2.65143347      7.09234571
H         4.17516708      1.10757363      8.56032658
B         3.73410749      1.88453186      7.76218987
H         3.19743681      1.11156869      6.92115498
H         2.48054481      2.24140286     13.53829479
H         3.01192117      2.86344051     15.41829300
H         4.34306335      2.30593395     13.97055244
H         3.18927765      0.87098932     14.61609840
B         3.23250580      2.10715866     14.51253223
H         4.21885633      1.56057775     22.77033806
H         4.00286055      1.90927005     20.90862465
H         2.24976993      1.49608088     21.93543053
H         3.37991762      3.20659423     22.10570335
B         3.41769433      1.97245145     21.91374207
B         6.08519077      5.34902477      0.12944476
H         7.04821587      6.10143089     -0.13699256
H         5.44276714      5.04904127     -0.83134413
H         6.36284590      4.53718185      0.91579521
H         5.21222925      6.13747835      0.69121909
H         5.33075094      5.52779436      6.10995197
B         5.44236326      5.89720869      7.28436708
H         5.74514198      7.06142712      7.16029215
H         4.48408556      5.78833961      8.03498840
H         6.29296398      5.20362425      7.82352066
H         5.97282362      4.88811493     16.02127647
B         5.93194723      5.34899187     14.84146881
H         5.51723242      4.51553297     14.06799507
H         7.17987680      5.40370846     14.53874207
H         5.45370531      6.43445492     14.73605824
H         7.17617130      5.44059420     21.88628387
H         5.47490883      5.43786669     22.89913750
B         5.94617701      5.35899496     21.84691620
H         5.39141989      6.27183104     21.24410629
H         5.52098751      4.34701681     21.41234779
H         7.01923418     10.46046448     -0.94643539
H         7.50274611      8.37385273     -0.78383577
B         7.63461971      9.58530521     -0.33782089
H         7.26800156      9.63585567      0.89666581
H         8.85233212      9.87958813     -0.41657811
H         8.69865608      8.94181538      7.12968016
H         7.18843460      9.30836868      5.74095917
H         7.56677532      7.65544319      6.37122440
B         7.56513119      8.76941299      6.74248505
H         6.74837875      9.05804062      7.63627720
H         8.01936913      7.62986565     14.59256172
H         7.40163517      9.39615154     13.72276402
H         8.92235470      9.30713081     15.16368103
H         7.06861353      9.16626072     15.66142273
B         7.84628916      8.82915974     14.80046368
H         6.15036440      9.26275444     21.30703163
H         7.90487766     10.05417824     21.09883499
H         7.42728758      9.66802025     22.82814598
H         7.82398748      8.09845638     21.47945595
B         7.29987812      9.24389648     21.70466614
B         4.00147009     -5.36142731      0.95785993
H         4.91150570     -4.41987371      0.93056661
H         4.35716391     -6.38968039      0.49164137
H         3.60255980     -5.49368143      2.10298586
H         2.99746799     -4.99471092      0.43584141
H         4.35125065     -5.69592333      9.64388943
B         3.72038078     -5.73920393      8.67721748
H         3.58515525     -6.90522861      8.66494179
H         2.65573025     -5.14564800      8.74536800
H         4.49119282     -5.30844736      7.81611443
H         4.78431368     -5.14338827     15.79771328
B         3.57374215     -4.90592432     15.99432182
H         3.49781251     -3.83864617     16.57849312
H         3.18156815     -5.92384672     16.76290512
H         2.92663789     -4.96616936     14.96495533
H         1.83246660     -5.06044149     22.70479965
H         3.62914348     -4.83048439     22.39437103
B         2.93023849     -4.94815111     23.32225227
H         2.93546247     -4.40499306     24.38683319
H         3.28306746     -6.17481470     23.69106865
H         4.46270990     -0.97520596      1.85700119
H         6.42356730     -0.58045954      1.69868588
B         5.34320068     -0.95006561      1.01017308
H         5.12578440     -0.34218860      0.01019356
H         5.70684958     -2.08958364      0.78312653
H         4.37248993     -1.75453043      9.28714371
H         5.88172626     -2.57557988      8.43255711
H         4.76787186     -1.01232243      7.45352936
B         5.34887457     -1.50084245      8.50067043
H         6.23470783     -0.78255486      8.74044228
H         6.19290066     -2.74727392     16.19154930
H         4.42927599     -1.74944973     16.71641922
H         5.26514339     -1.71929491     14.81108665
H         6.36117601     -0.84195369     16.22300720
B         5.51769733     -1.77493596     16.04986000
H         6.36879301     -2.05648327     22.20721817
H         5.09455967     -1.93553233     23.66472626
H         5.84305048     -0.30515650     22.81680489
H         7.00358152     -1.54194808     23.85976410
B         6.08298922     -1.39935958     23.17497253
H         6.73747444      2.24066973      1.26242828
H         8.11922455      1.62853801      2.69994760
H         8.54782391      3.00515580      1.12659764
B         7.88646841      2.03355360      1.53924382
H         8.31644630      1.20362532      0.79934311
H         8.46829796      1.17008734      9.26251125
H         8.34287262      3.07085705      8.43572235
H         6.91754818      1.59266233      8.11339951
H         8.72160816      1.40622401      7.28089285
B         8.10695553      1.82594466      8.30348110
H         7.20212650      2.99091554     16.58245468
H         6.38496256      1.30203426     15.76921940
H         7.60964346      2.34595895     14.62786388
B         7.32954645      1.99082482     15.84644318
H         8.20041084      1.22141242     16.31524658
B         8.13518429      1.96058035     23.50246239
H         8.93777943      1.44186687     22.77416992
H         7.45093393      2.60093927     22.65144348
H         7.50306749      1.04784536     23.87032318
H         8.51910400      2.77146888     24.36281776
H        10.83458519      6.76987505      1.89347053
H        10.33369541      5.84829521      0.23344675
B         9.95152378      6.34599257      1.26844847
H         9.26764679      5.55025053      1.86781585
H         9.34301472      7.36450434      1.01838911
H         8.60057354      5.12765026      7.50466824
H         9.15759850      6.69507313      8.44526291
B         9.24556732      5.53312349      8.55973530
H         8.62004757      5.40377378      9.62141037
H        10.37420082      5.05741644      8.55018330
H         9.77733040      6.29598093     16.42361641
H        11.01333332      4.63107920     16.61020470
B        10.08429909      5.18700552     15.99519730
H         9.03059578      4.51048279     16.11938095
H        10.28635502      5.40772963     14.84818077
B         9.86960411      5.63701200     23.65118408
H         9.67019558      6.08811331     22.50642967
H         8.90594578      5.93985748     24.30032158
H        10.77793217      6.24265528     24.09294128
H        10.16085243      4.45866346     23.51141167
B         6.45645857     -8.78538799     -0.31126574
H         6.13558245     -8.78609657      0.81537586
H         6.17644835     -9.83637333     -0.93428022
H         5.78812838     -7.91717100     -0.92188376
H         7.66882706     -8.42947292     -0.23816274
H         4.97789335     -8.11227608      6.61975288
B         5.82792616     -8.76836395      7.40343618
H         5.01941872     -9.21117020      8.35942745
H         6.27750874     -9.73914528      6.83658171
H         6.75463820     -8.26536179      7.97116327
H         6.51450062     -8.17952156     14.67124939
H         5.37361050     -9.79858780     13.65368557
B         5.46275854     -8.65869522     14.18575859
H         4.65697956     -8.70423222     15.08143711
H         5.22014427     -7.78093672     13.32125568
H         6.68345833     -8.92426014     20.86348915
H         6.54733133     -9.00219440     22.84159660
B         5.87904072     -8.93368626     21.85745621
H         5.35958624     -7.72989464     22.00504684
H         5.03673458     -9.60031796     21.56218719
H         9.00998211     -4.53054762     -1.10475039
H         8.61485481     -5.44347429      0.82641566
B         8.20658970     -5.20914793     -0.27348799
H         7.85185623     -6.32103300     -0.64994997
H         7.32749462     -4.46890354     -0.17283970
H         7.12310076     -5.17754555      6.35807180
H         8.01480198     -4.83040905      8.00929070
H         9.11590672     -4.85245180      6.48263168
B         8.04167080     -4.66498661      6.84845018
H         7.80963135     -3.49802613      6.63915968
H         7.02762842     -4.62095022     14.28373528
H         8.65151501     -5.61716127     15.17818165
H         8.37999630     -5.75065804     13.17248344
B         8.26748085     -5.03699112     14.19234371
H         8.95395851     -4.05173349     14.01616192
H         9.05003452     -5.73471212     22.65425301
H         7.02565670     -5.44398308     22.89990234
H         8.23907089     -3.90525699     22.08899879
H         7.97025394     -5.70390511     21.03389931
B         7.99030685     -5.24098444     22.20062065
B        10.15729904     -1.73474836     -0.30265865
H        10.75725269     -2.49379539     -1.05581391
H        10.74022865     -1.84782231      0.68953800
H        10.38137531     -0.61554867     -0.67083067
H         8.96497154     -1.89041400     -0.21533985
H         9.22111034     -1.31639028      7.67286253
B        10.26346302     -1.53111935      7.08859968
H        11.16078949     -0.98518735      7.72751045
H        10.38432789     -2.76401162      7.00796461
H         9.98114967     -1.00072384      5.99203348
H         8.39088917     -1.35408163     15.03053379
H         8.92061520     -1.56755483     13.25017357
B         9.25266743     -1.02791452     14.32424927
H         9.42230225      0.17122656     14.24030781
H        10.25320244     -1.60470283     14.56499386
H        10.06732559     -0.33475369     21.27444839
H         9.84747791     -2.41868687     21.54762840
B         9.45671463     -1.27335382     21.83128738
H         9.82822800     -1.23368657     23.03219032
H         8.28532791     -1.07590175     21.70066833
H        12.82343769      0.93640769     -0.74456125
H        11.44970131      2.07642984      0.32742298
B        12.61938190      2.04420376     -0.22449237
H        12.73783207      2.95607901     -0.95374477
H        13.31807232      2.14653468      0.80206335
H        11.05069733      2.16834283      6.15777111
H        12.38732147      3.39189482      6.33363628
H        11.52819157      2.46790981      7.97573519
B        11.96095848      2.38461208      6.85945749
H        12.88549423      1.58090985      6.88623857
H        12.41076088      1.17911875     15.57992840
H        12.93871593      2.66191006     14.22111416
H        11.77426147      1.05177617     13.60661221
B        12.13566303      1.79954064     14.52982521
H        11.07311440      2.34056520     14.84341335
H        13.36023712      1.45606768     22.30105782
H        11.81162548      2.15794706     23.16629791
H        12.54014111      2.73060298     21.28448296
H        11.60202980      0.94734120     21.49852943
B        12.32537270      1.81434560     22.02531052
B         7.47742367    -12.06454468      1.26126957
H         7.32159424    -13.22735023      1.72588015
H         6.95293856    -11.20863342      1.92564261
H         8.68525124    -11.76797390      1.26511753
H         7.08268785    -12.01751328      0.08841234
H         5.83390331    -12.24180603      9.29181862
B         6.90387440    -12.39007092      8.61939430
H         6.91971636    -11.59219074      7.73277473
H         7.85550499    -12.00062943      9.42693996
H         7.04334593    -13.55664730      8.42174911
H         7.66609812    -14.17586899     15.56447887
H         9.22838783    -12.74079609     15.28311539
B         8.03534794    -12.93457127     15.62703228
H         7.36165619    -12.28241634     14.70320606
H         8.03923798    -12.56132412     16.72089767
H         7.02615643    -11.64394569     23.19453239
H         8.05936909    -13.08997631     21.91666412
B         7.98090982    -12.49758339     23.05680847
H         9.03436375    -11.91137314     23.45901299
H         7.67169142    -13.45790005     23.68760490
H        11.31693459     -8.72233772      1.51372397
H         9.94975376     -9.97278976      1.26918328
B        10.21878529     -8.84183979      0.95998323
H        10.19866848     -8.58264542     -0.23845820
H         9.43584919     -8.07084846      1.72037470
H         9.91204834    -10.16223717      8.01355839
H        10.35240173    -10.39647961      9.95290661
H        10.66105270     -8.65229797      9.07343769
B         9.90341759     -9.60967159      9.08715725
H         8.73706436     -9.28106689      9.26458836
H         9.41192245     -7.63284159     14.93179512
H        10.62727737     -8.68018723     15.89983845
H         8.88501453     -8.57325363     16.63969803
B         9.46801472     -8.71057129     15.60289288
H         9.07870102     -9.54405212     14.90882492
H         9.19950390     -8.09896278     23.69434547
H        10.72357464     -8.69059372     22.60145187
H         9.13601208     -8.42886543     21.57731819
H         9.03951359     -9.89697075     23.08562088
B         9.55457115     -8.80861855     22.76435661
H        11.44026661     -5.72352695      1.78710318
H        13.39361763     -5.27261400      1.48331761
H        12.00631809     -4.08964348      0.52728724
B        12.31682873     -5.29752016      0.95163727
H        12.35875416     -6.11381912      0.12344442
H        10.87943459     -4.86208868      9.30173302
H        12.52027321     -5.82083750      8.87578869
H        12.32073498     -3.84082150      8.26692104
H        11.28253269     -5.37298393      7.42639780
B        11.84779739     -5.01705694      8.50260258
H        11.20422459     -4.50917244     15.01861858
B        11.95074177     -5.24848938     15.77648926
H        12.51917744     -4.48440838     16.54257011
H        11.28429794     -6.18674755     16.20081902
H        12.91148472     -5.62518501     15.11195087
B        12.30036831     -5.39645195     23.10402298
H        12.31228065     -6.65352440     22.89797783
H        12.52927589     -4.58370876     22.11249352
H        11.11412430     -5.12888908     23.37201500
H        12.89358807     -4.93249702     24.04079247
H        13.95308399     -0.39927554      1.18549073
H        13.70398521     -1.58865023     -0.34709418
B        14.22408581     -1.49925447      0.81120652
H        13.86140442     -2.42012548      1.69453406
H        15.51494598     -1.48493433      0.63397610
H        14.28018284     -2.92413282      8.38400650
H        13.58583450     -1.20382214      8.78403950
B        14.52083302     -1.79243863      8.35961342
H        15.48983860     -1.49075556      9.07189655
H        14.86578560     -1.45965660      7.26896763
H        14.55115891     -1.83791184     14.42373371
H        15.00801945     -1.81845689     16.33122444
B        14.12480164     -1.57873857     15.54308510
H        13.52474403     -0.47466674     15.76490307
H        13.19467926     -2.34298229     15.72853470
B        14.20186710     -1.61737096     23.30973625
H        13.50342941     -1.79008651     22.29717636
H        13.96544075     -0.54954213     23.76003075
H        15.33470440     -1.77225852     22.88189507
H        14.04046726     -2.57090640     24.06867599
