768

Li       26.25070572     -1.82901394     -0.23758610
Li       -3.86754537     -9.67347908    -15.32748222
Li        1.09283459     -1.00691020      7.26362801
Li        2.66914487     -5.16448975      6.72295713
Li        4.13387346    -16.49395752     -6.84114599
Li       38.12899399      5.65317869     28.99429703
Li        9.55527496     13.06342888     -0.37800422
Li       30.44835091    -16.04987717      0.25572580
Li       29.23794937     -9.63022995      6.65144348
Li       14.89698410     30.67568588     43.87465286
Li       26.41507339     12.83344650     21.77163696
Li        3.68864512      9.26800060      7.12709045
Li       27.39713478      3.57794309    -17.27527237
Li       12.40071583    -13.89045238     26.89898682
Li       32.90651321     24.20718193     16.11979294
Li       -5.17489386      2.63672066     53.45234299
Li      -10.76430321     18.13372231     18.46218491
Li       -1.45268142    -19.82176399      0.23152716
Li      -34.80551910    -11.20727730     -0.13439512
Li      -12.02287102     12.58571625      8.05942154
Li       25.32650185     26.83501053    -15.45878696
Li      -18.27070427     -7.09297562    -24.89332771
Li       18.91480064     -3.31966281     32.78995132
Li        0.65795481    -23.49363899     60.09098816
Li      -10.57336235    -18.30855751     12.02025509
Li      -14.56561279     10.58345509    -19.24815178
Li       10.10006618    -35.02469254     29.04731369
Li      -34.10211182     -7.79828167     41.95058823
Li        9.60212994     -8.20376301      7.45855188
Li       -6.17509460    -27.64873123     30.41176033
Li       29.03978729     14.77213001    -10.45806217
Li       21.64240837      3.78646231      3.42772841
Li       -3.33937788     13.52311134    -20.83894539
Li       -4.06711054      0.50488281     34.15074921
Li       -7.24759865    -10.73608112      4.40985727
Li       22.15691566    -18.13808060      3.85940218
Li        9.28355217    -23.51618195     16.12996483
Li       14.17573261     10.56376076     12.22246265
Li       14.08403969    -15.64561749     23.00452614
Li       -1.94553578    -17.56794167      4.18855429
Li        9.51230812     -3.94624352      3.19205832
Li       22.87223625     18.64694595     32.96827316
Li       23.77334404    -18.36077881     20.12245178
Li        0.30888453     29.39940834     70.22581482
Li        4.31610632    -16.84041977    -13.89234543
Li       -1.63492155     15.63519192     -7.61025286
Li       -2.66566515     13.23125076     15.90645218
Li      -27.76424217      3.66525078     25.13598633
Li       30.00833321      5.07357025     -0.37353531
Li      -13.36244202    -41.20722580     45.60578156
Li      -33.28318405     -8.43334389     30.47034073
Li       29.81633949     -9.16449070     21.57940674
Li      -11.33139038    -15.82095051      0.47089648
Li        1.87114835      2.21224117      8.14366341
Li       10.72873688    -13.17604351     15.26508236
Li      -15.79461002    -40.53113174     19.60403633
Li      -17.60025215     -0.18847062      3.01887894
Li       16.98521996     41.74700928     37.18516922
Li      -17.48448753     -4.94538784      8.44311428
Li       40.03614807      9.17131424     30.50318527
Li       53.20458984     -5.16242409    -15.48764801
Li       25.38308907     -6.96565676     26.18611717
Li      -10.57844162     18.88149834      9.92733955
Li       20.15697479     17.03466606      8.33434868
Li       -1.57307625    -12.48572159    -14.95119762
Li       -5.37557888    -14.41311836      4.55410624
Li        1.50296175      3.62320065    -10.55821800
Li        0.94806004    -10.98839569     34.55286026
Li      -26.40674782     -5.02977324      7.88669395
Li       -1.89578652     18.86587334     10.46319389
Li       29.64286995     21.91489792     -4.05427551
Li       -5.28818607     -5.04525185     21.66503716
Li       31.72869110    -27.99453354     -7.81887102
Li      -19.29455185     17.74618912     18.12233353
Li       -6.28209352    -12.80438805     22.86297798
Li       11.47107887     21.91232300      3.09373689
Li        2.21269822     33.32035828     26.67466545
Li       24.11426735     14.26435661     25.52409935
Li       12.80669308      7.72362852     17.39483833
Li       14.85438633      3.71277452     55.14686584
Li       -8.40131569    -28.67065430     33.18105698
Li       10.77932167      9.24199772     -0.43763813
Li        4.41467714    -21.15553284    -11.44697857
Li       22.71145058    -32.35523987     26.48944664
Li       14.41315651     11.01500320    -10.36275864
Li        8.06436062      0.37450680     -3.69667625
Li        1.30434215      5.84318447    -13.80051899
Li        5.91629076     23.36889458     -7.19753456
Li       38.48502731     58.27780533     12.59922123
Li       22.16309547     -9.00077057     13.74171352
Li      -25.68031311      7.59016752     26.74678802
Li        4.25539494     44.24756622     27.23771095
Li       11.52156830     -0.79656446    -10.70618820
Li       -1.31254065      1.92840838     29.13870239
Li      -27.74633598    -20.65993500     22.70258522
Li      -16.89990234     11.45665550     51.29013824
Li        8.77476025    -28.09866333     40.35005569
Li       20.06422806    -14.82673931     12.26653862
Li       -4.33942795    -21.35206985     40.34429932
Li       12.31645870    -23.27299690      6.77067471
Li       28.55803108     16.59375191      0.68670613
Li      -13.45005226    -19.95827866     44.23950958
Li       24.38491631     35.86402512     19.65728569
Li       26.66060257    -33.38648605     17.97681046
Li       14.31914425    -12.26519108     36.38964844
Li        9.16765594      5.85140657      7.91702366
Li       -0.76517266     36.13722992     11.64720917
Li        2.64099693     -2.75242734     24.86224365
Li        2.17858243     -3.53804851     18.02395630
Li        0.36252692    -25.71836090     12.24696827
Li        8.66772938    -29.13665199     18.32854843
Li       -5.83499002    -21.89474297     33.09346390
Li       18.79549217    -10.24148083     -2.83186316
Li       15.98399353     -0.48499271     17.91171074
Li      -32.59230423    -17.97810173     -4.25408030
Li       13.45170021    -23.93724442     21.70342255
Li       18.68218231     23.04531479     -6.81514406
Li       -0.07940810     -9.56514645     -6.36425018
Li       26.35101509     13.23833942     14.39827728
Li       -8.00064945    -37.84208679     22.54277420
Li       -9.95151997    -17.99801254     -2.90999484
Li       61.65412140     21.27088165     12.78975964
Li       -8.90280437     -7.28881311     19.02848816
Li       15.23653793    -20.47374344     44.74064636
Li      -18.38696861      7.56442022      4.61266613
Li       -4.31979847    -21.91363716     25.39892769
Li        6.38673925     16.42750740     36.38381958
Li       19.30059433    -32.08615112     40.20347595
H         2.34178472      1.32039952      2.19062686
H         3.77982187      1.57123578      3.57403517
H         2.88767338      3.22583032      3.02116227
B         2.66918826      2.04471803      3.16371584
H         1.80550086      1.92979491      4.10765886
H         2.45277405      0.20470217     10.31384087
B         2.14215064      1.38610208     10.45012188
H         1.30389833      1.83690023      9.80531597
H         1.76269984      1.46956539     11.53814411
H         3.13667059      2.00664544     10.30092621
H         2.64182496      1.75521457     18.75383759
H         4.49132633      1.44644964     18.04261398
H         3.89623618      3.18798947     18.89293098
H         3.55010843      2.60569477     17.02141380
B         3.62571526      2.25733900     18.17669678
H         2.24883842      2.36366773     24.53193283
H         2.63207579      2.34723687     26.30199051
B         3.25552988      2.40522432     25.20497322
H         4.03275967      3.29623866     25.35642433
H         3.85472918      1.30809546     25.04928780
B         4.94213963      5.77499485      4.51892567
H         5.85764217      5.79760981      3.65304446
H         4.76920557      4.69252157      5.06409883
H         3.84294581      5.84483194      3.91420794
H         4.90413857      6.43081665      5.54109287
H         5.53298092      4.70553446     12.66529465
H         5.27585363      6.81155825     12.96209240
H         5.35298538      5.94213533     11.04497528
B         5.05025005      5.85378122     12.18949032
H         3.82174993      5.50394154     11.97535038
H         5.81701088      6.26325655     18.30290031
B         5.25347519      5.91121912     19.40450478
H         5.41858721      4.60281515     19.47451782
H         5.86146259      6.38611507     20.27878761
H         4.10486126      6.05973434     19.49742699
B         4.21067142      5.48391724     26.81671715
H         4.99986315      5.28989649     25.93751717
H         3.06318712      5.55941105     26.51976395
H         4.55761576      6.43115330     27.56474113
H         4.61521769      4.37845087     27.36877441
H         6.88280630      9.77377224      3.91597939
H         6.50337887     10.62213516      2.31002188
H         7.23398542      8.86284447      2.19927001
B         6.46187735      9.48532009      2.70305538
H         5.33755827      9.08633995      2.62997198
H         8.27802849      8.24918079     10.97832584
B         7.66215229      9.42961216     11.14179230
H         7.67764235      9.60403919     12.33680630
H         8.27062511     10.26199436     10.57509804
H         6.54260874      9.10068798     10.81863785
H         7.93646097      8.63415432     18.05929184
H         5.90824127      8.56025696     17.40339851
H         6.73896551     10.06100941     18.26352310
H         6.57552004      8.47200298     19.48315239
B         6.77062273      8.90095425     18.35959625
H         6.20416689      8.70497322     26.95066452
H         5.49918413      9.93249035     25.67534256
B         6.23362017      8.97357273     25.81387901
H         5.74212742      8.03405190     25.17944908
H         7.23512459      9.37138653     25.32233047
B         9.29008198     13.28752422      4.53884220
H        10.12168980     12.44825268      5.15078306
H         9.87905502     13.77232361      3.65529037
H         8.86359978     14.14592838      5.27873611
H         8.33142853     12.78228378      4.04551888
H         9.17970276     13.84941673     12.52593899
H         9.74911690     12.02275753     12.69068050
H         7.88849401     12.47014332     12.09088612
B         9.06159210     12.75247765     11.95527458
H         9.37061214     12.84942245     10.70420361
H         7.93628979     12.63557911     19.80105972
B         8.97715378     12.39467144     19.25040436
H         8.79998112     11.41816998     18.54232788
H         9.41551113     13.42959118     18.79606056
H         9.76781464     11.74131966     19.88579369
B         8.90865517     12.48954773     26.91403008
H         8.58584976     11.32738590     26.37753487
H        10.00072002     12.42114449     27.32162857
H         8.09561062     13.12909985     27.59100151
H         8.98449039     13.21448326     25.95911980
H         5.54848385     -2.71359444      2.72294283
H         3.80120969     -2.11108279      3.18747711
H         5.24246311     -1.71257877      4.48091793
B         4.98523760     -1.79428697      3.27937293
H         5.42629337     -0.71548885      2.84684849
H         4.81920385     -2.92803144     10.65040874
B         4.79180479     -1.94093704     11.23354435
H         5.81821394     -1.98962712     11.77043056
H         4.54118443     -0.90075630     10.67455769
H         4.00240803     -2.26824212     12.15872955
H         3.79926825     -1.35822606     18.10878563
H         5.46850443     -1.23253560     19.09169388
H         5.31857347     -0.62279123     17.40784645
H         5.31935835     -2.59039855     17.36351776
B         4.96207666     -1.57417703     18.03996658
H         4.08039379     -1.29049921     24.35115814
H         5.27291870     -0.97340083     26.09675407
B         4.21740246     -1.38565421     25.54430199
H         4.32250786     -2.52661729     25.92916870
H         3.28718853     -0.76545495     25.99855614
B         6.90367079      2.15201426      4.58746815
H         7.56862688      2.51275611      3.70263529
H         7.54068661      2.17694283      5.61267471
H         6.38704252      1.03112447      4.27253819
H         6.00766087      2.91567230      4.89412308
H         5.74883938      1.68029737     12.99293423
H         6.84559393      0.10005409     12.25736523
H         6.66182899      1.90593135     11.26490879
B         6.73116016      1.36866426     12.41192818
H         7.65810299      1.91463542     13.00742435
H         6.86960268      1.02609360     19.32385063
B         7.65966749      1.74596000     19.70294762
H         7.93594027      1.29961491     20.76829529
H         8.55040550      1.88062549     18.82729721
H         6.93757248      2.60522699     19.91597366
H         7.19389248      2.65989375     27.92555809
H         5.38946915      2.48122311     27.26486778
H         6.28144598      0.85518634     28.04634666
B         6.31808853      1.86409605     27.40365791
H         6.70777369      1.68530476     26.03631783
H         9.73312092      6.14079046      4.03243208
H         9.28618813      6.89500523      2.25505233
H         7.89231539      5.95806456      3.57848287
H         9.13570881      4.74843788      2.66683817
B         8.98765087      5.87406921      3.10274291
B         8.98692036      4.95579433     11.14332485
H         8.85463905      3.78984785     11.44603729
H         7.95792532      5.34044218     11.52538586
H         8.99393749      5.09317541      9.93854237
H         9.96510983      5.54664993     11.69715309
B         8.83283138      5.44739008     18.32449341
H         8.32362747      6.37585497     17.62183380
H         9.15543556      5.76604891     19.49012566
H        10.01093197      5.36248922     17.87846375
H         8.11437225      4.41975307     18.22303200
B         8.64607811      5.28170919     25.65824509
H         7.70002985      4.64723825     26.11941910
H         9.49110413      4.35245323     25.08821869
H         8.27081299      6.07045460     24.83694077
H         9.11011314      5.63329077     26.74472427
H         9.63966465     10.32699680      4.18681622
H        10.79525185      8.99489594      3.39560151
H        11.58796883      9.58529186      4.90597248
B        10.48133278      9.42994404      4.44482374
H         9.79590702      8.74269867      5.07754326
H        10.77599812     10.14275742     11.95639610
B        11.66645718      9.35410023     11.76066875
H        12.48506260      9.63578510     12.76464748
H        11.11238098      8.28018475     11.88040924
H        12.06256676      9.64567184     10.61631584
H        12.34882545     10.01493740     17.51987457
H        11.58665180      8.58732700     18.42183876
B        12.16553783      9.65303707     18.61960793
H        11.31794643     10.19018364     19.38702393
H        13.11232662      9.23733044     19.36659050
H        10.15772533      7.78790951     25.61833763
H        11.38891602      8.48965073     26.99554825
H        10.24826717      9.80737877     25.93052292
H         9.52345657      8.51296616     27.33960342
B        10.35520744      8.67533302     26.40099716
H         6.95973825     -6.63091850      2.90203190
H         5.75129271     -5.27052975      3.84556794
H         7.47801828     -4.60144854      3.11732244
B         6.59355783     -5.49523926      2.99004650
H         6.21083069     -5.15703154      1.99912357
H         5.87561750     -5.64769888      9.82597828
H         6.52074242     -5.75529146     11.59891701
B         6.82868862     -5.29473257     10.49492168
H         7.32991982     -4.13274002     10.39973927
H         7.82590055     -6.10679913     10.39566803
B         7.36677217     -5.56020689     17.63835335
H         6.56756639     -6.52073240     17.85224915
H         7.43211699     -4.73175907     18.61208344
H         7.28861284     -4.86731148     16.67895317
H         8.44824028     -6.18195105     17.64132881
H         5.62067127     -4.38331366     24.72710419
H         7.08326006     -4.73313570     25.97344971
H         5.52059793     -6.10008192     25.91365242
B         6.19591808     -5.33013916     25.24493217
H         6.81195116     -5.95101738     24.37069893
B         8.84843063     -1.86945009      4.30249023
H         8.41884327     -2.97937989      4.29297018
H         9.87981319     -1.71223783      3.60199142
H         9.27209187     -1.67176926      5.41959190
H         7.99417543     -1.16162467      3.90908861
H         9.82463741     -2.69793034     12.34752750
H         9.86261368     -0.93669641     13.30860615
H         8.46140766     -1.21929324     11.92228794
H        10.47614479     -1.20367563     11.39141178
B         9.63725948     -1.48676109     12.20382118
H         7.93780231     -1.45703912     19.51028252
B         9.01051521     -2.14832664     19.48592377
H         8.62392235     -3.29634047     19.39768410
H         9.64812756     -1.93975008     18.48778343
H         9.51277542     -1.93207300     20.58505058
B         8.62591457     -1.90831351     27.01817703
H         9.70461369     -1.72559106     27.54303932
H         8.80495453     -1.65246522     25.73656464
H         7.56484318     -1.33943141     27.46189308
H         8.30674553     -3.14801002     27.19714355
H        10.87103939      2.91874671      4.23622847
H        11.69060326      1.61905706      3.08656645
H        10.31134510      0.93305176      4.23885870
B        10.64710140      1.91114426      3.47665882
H         9.84178352      2.21833110      2.60193491
H        10.73173809      1.09264028     10.02793884
H        11.68161488      2.85555768     10.48905659
B        11.25207996      1.81557560     10.77464771
H        12.27026081      1.14491081     11.10039902
H        10.30561352      1.88109708     11.67963696
B        11.31440830      1.34444773     18.07103348
H        10.62054634      2.28043199     17.93779755
H        11.88053608      0.91821271     17.09794235
H        10.49906635      0.41982067     18.07935715
H        12.06449986      1.37609792     19.06132317
H        10.05355263      2.15420866     24.89878273
H         9.83573437      2.20095992     26.76302719
H        10.93954563      0.72318488     25.81996536
B        10.61628056      1.94071925     25.83984756
H        11.69409943      2.74979424     25.93278313
B        13.20152187      5.90295792      4.64269161
H        12.32103443      4.89548635      4.83882761
H        13.35924435      5.89868641      3.44671059
H        14.31043816      5.86666679      5.41209984
H        12.43760872      6.93939161      4.96103430
H        14.28091908      6.06873560     10.86626530
H        12.34468269      5.49283981     10.62591076
H        12.76510334      6.38731337     12.24037743
H        13.36371040      4.52582645     11.97051620
B        13.26719761      5.61983728     11.47431850
H        12.38760757      4.81007051     18.61947632
B        13.26715565      5.32159567     19.36935616
H        12.50064850      5.88487482     20.06010628
H        14.03963375      4.54328966     19.97538567
H        14.07168102      6.01473427     18.57791519
B        12.76933098      5.16578531     27.08596420
H        12.81901360      4.19455385     27.82661057
H        13.62473202      6.08802891     27.29674530
H        11.65125656      5.71417332     26.80073166
H        13.22756577      4.68029833     25.94986153
H         7.91681719    -10.27123547      3.42171645
H         8.62536144     -8.39436722      3.64407015
H         9.67386532     -9.87230110      2.57011867
B         8.53435421     -9.30480385      2.85888696
H         7.82858896     -8.96772671      1.94235504
H         8.09795570     -9.61752415     11.41142464
H         9.82013512    -10.31826210     10.73386955
B         9.17641640     -9.27355957     10.92768860
H         9.79290581     -8.63268471     11.84441280
H         9.08741283     -8.41037846     10.01701832
B         8.52664948     -9.35587120     17.92168236
H         7.59144402    -10.11975479     17.71535492
H         8.88960552     -8.98581409     19.03187561
H         8.40986061     -8.21083641     17.26614571
H         9.49064636    -10.03755283     17.41778564
H         8.32761765    -10.17689800     24.35288429
H         7.04039669     -8.75407028     24.83566093
H         8.31954575     -9.62790871     26.19066238
B         8.16823864     -9.27044487     25.08180428
H         8.85639191     -8.36102962     24.75520897
B        11.22246838     -5.28976393      4.46479368
H        12.23053741     -5.93220901      4.55216646
H        11.62574768     -4.41659307      3.73455215
H        10.64947319     -4.84630013      5.42813587
H        10.30307198     -5.83937883      3.75172520
H        10.58574486     -6.39340162     11.23515892
H        12.11466217     -5.43933725     12.29664135
H        10.59625816     -6.06599426     13.33547783
H        10.34312630     -4.55719948     12.18675995
B        10.90866661     -5.60782003     12.25896931
H        11.14124584     -5.80685568     18.12536812
B        11.18927670     -5.33345032     19.27845001
H        10.11738491     -5.22215128     19.86929703
H        11.79086304     -6.06583929     20.09953690
H        11.71215057     -4.19589233     19.39855385
H        10.64294910     -6.68968296     25.67826462
H        11.74125385     -6.43251801     27.16216278
H         9.82540607     -6.01006699     27.29068565
B        10.84504986     -5.93681335     26.61014748
H        11.08551979     -4.84335327     26.05284309
H        13.80920315     -0.32099649      2.41810060
H        12.96913624     -1.09292316      4.01637697
H        14.75899124     -1.78079152      3.42531919
H        13.19816303     -2.28497028      2.42302704
B        13.60009670     -1.36089694      2.95339775
B        13.11605072     -2.71168423     10.55746174
H        12.16737461     -2.44577861      9.73764515
H        13.83259773     -1.76427209     10.30052757
H        12.76376343     -2.80960751     11.71469593
H        13.41159534     -3.84956384     10.09216022
H        13.85236549     -2.61852098     17.06336975
H        12.57833576     -1.21802258     17.27023888
H        13.06097984     -2.48691034     18.65520859
H        14.40512562     -0.93337005     18.07923698
B        13.46215725     -1.75350058     17.81623268
B        13.42645931     -1.41661072     25.13395119
H        13.90552998     -0.70928913     24.33838272
H        12.23529816     -0.85334808     25.33366585
H        13.37322521     -2.55321836     24.69436646
H        14.04579163     -1.46504724     26.20660210
H        15.94103909      1.97436142      3.35188246
H        14.90919971      0.87590003      4.69360971
H        15.20740986      2.94070292      4.85813475
B        14.89497757      1.92950904      4.11939907
H        13.79390621      2.22601509      3.62073803
H        15.47006416      0.99547786     12.19820499
B        15.14250851      2.17689586     11.65598392
H        15.28974342      3.14003253     12.60886478
H        15.98665905      2.53511477     10.85158348
H        14.07007217      2.30560207     11.03877068
H        15.51628780      0.43863049     19.67185402
H        15.09122658      2.23810649     20.39099693
H        16.71554756      2.06417704     19.31135559
B        15.65721512      1.57200229     19.50379372
H        15.03013420      1.75609756     18.48332214
H        15.72160625      1.99250114     25.84267616
H        14.25377083      0.99129325     26.27670860
H        15.92683029      1.09478474     27.39114571
H        14.62928104      2.45859647     27.58304596
B        15.10062790      1.58708358     26.79459190
B         3.45850778      0.09776232     -0.48777074
H         2.68785524     -0.07661705      0.40936989
H         3.64044309     -0.90517569     -1.20782495
H         3.14282417      1.09287000     -1.11115539
H         4.46570778      0.32832086     -0.02207596
H         2.78562284      1.08778811      6.38646555
B         3.78968859      0.51806504      6.93295527
H         4.55238008      1.26259768      7.51856279
H         3.62122869     -0.64659208      7.47218513
H         4.33698988      0.17190820      5.92485523
H         2.93194628     -0.15165137     13.71901703
B         3.71593142     -0.40515509     14.65499115
H         3.28886127     -0.80585694     15.63444614
H         4.28464890      0.61898708     14.97297859
H         4.55805254     -1.15534508     14.22684193
H         4.82000494      0.61472183     20.95789337
H         3.93525457     -0.94279009     21.39419937
B         3.92603326      0.24051347     21.56287384
H         3.88307238      0.49136358     22.74659348
H         2.75299120      0.59902483     21.10517502
H         5.33747292      2.54225206      0.44666156
H         4.06335640      4.01629448      0.61902386
B         5.19249773      3.73672700      0.81906480
H         5.90861940      4.53934717      0.02078926
H         5.58949089      4.07764339      1.89443266
H         7.11907053      4.34394693      8.43734646
H         5.66078758      4.00737810      7.24808741
H         5.34828663      3.64159846      9.07259464
B         5.91086721      4.48344469      8.28576088
H         5.41431761      5.51187754      8.65348625
H         6.58809662      4.20855284     14.66360378
H         5.77237511      4.91558409     16.30605316
H         6.92174387      3.28761673     16.38121796
H         5.10617971      3.22518587     15.46776676
B         6.08534908      3.93536615     15.80294323
H         5.05287647      3.46623206     22.34523582
H         6.54464579      2.92208362     23.62570381
H         6.98502207      3.88674355     21.89624405
H         6.02998114      5.02581596     23.22324562
B         6.17460012      3.88275886     22.78502274
B         6.75024557      7.18390274     -0.33630314
H         7.62660646      8.16509533     -0.44132951
H         7.13632727      6.30465412     -1.01240134
H         6.48880720      6.95289230      0.88203359
H         5.76033592      7.55267239     -0.82204545
H         6.90282917      7.63411236      7.75154400
B         7.76479578      7.69617224      6.79421902
H         8.66475487      8.33127213      7.35825253
H         8.11433315      6.66998625      6.29059887
H         7.05730200      8.43061829      6.08479691
H         7.61721706      7.59387255     15.77450657
B         8.45812035      7.46592331     14.83563805
H         9.57144737      7.55661869     15.13135910
H         8.07274818      8.18756771     13.93528748
H         8.36158180      6.37478113     14.44690323
H         8.90707493      6.37554550     22.02187729
H         8.09343529      7.77786350     21.29182434
B         8.10543060      7.12225723     22.40945435
H         6.97901297      7.00791168     22.66990852
H         8.66796017      7.87469721     23.34076309
H         9.99970055     12.09679317      1.22666335
H         9.06297112     10.46362400      1.33922505
B        10.12529755     10.92260647      1.00563586
H        11.25277138     10.59188747      1.50702298
H        10.02057076     11.00358582     -0.23864992
H        10.15926266     12.38645840      8.83415318
H         9.14033794     11.57239532      7.33488560
H        11.00701618     10.99191093      7.49661493
B        10.08352566     11.28003407      8.11350155
H         9.89340401     10.40415955      8.82356548
H         9.47415924     11.70018101     16.43412209
H        10.66821194     10.03773403     16.23045921
H        10.60564518     11.42411518     14.77376556
H         9.05324364     10.27875805     15.28117943
B         9.95272446     10.82800770     15.69055939
H        10.82510281     10.36636162     23.43128586
H        11.07003498     10.47735119     21.47513390
H         9.27757072     10.92331314     22.01844597
H        10.89243031     12.07274818     22.57160378
B        10.46283150     10.91658783     22.36666489
B         5.37600565     -3.70347023     -0.73651111
H         4.67521572     -4.76404381     -0.85619253
H         6.51032639     -3.71069098     -1.31622410
H         4.94423532     -2.80165195     -1.34598923
H         5.66818285     -3.34239030      0.44634303
H         6.25497437     -3.83600664      6.05958986
B         5.87391949     -3.43604398      7.18837786
H         6.71162415     -3.00295806      7.86607504
H         5.10226536     -2.50190473      7.17556858
H         5.33091593     -4.42905331      7.75490475
H         6.64785147     -2.64906669     13.57964516
B         6.52886772     -3.38095856     14.48673344
H         6.07201052     -2.93884349     15.45260048
H         7.74565029     -3.73003316     14.79466820
H         6.01431608     -4.43546820     13.95450020
H         5.03965187     -3.14949751     22.69237518
H         6.23059225     -2.54622316     21.11641121
B         5.96240902     -3.38071132     21.98449135
H         6.90014648     -3.81352878     22.54024315
H         5.59545422     -4.34563732     21.20380402
H         7.25110722      0.75704014      1.39585245
H         7.89850664     -0.88475418      0.81205791
B         8.21717167      0.28218296      0.85695559
H         9.35199165      0.52224147      1.30813539
H         8.27293301      0.64467990     -0.32812631
H         7.77134180      1.11923432      9.12999249
H         6.48454905      0.05715459      7.99613953
H         8.43887997      0.03773428      7.79219103
B         7.57578039      0.10627151      8.64802074
H         7.53378248     -0.89837992      9.41601849
H         7.40868521     -0.50167131     15.02099705
H         7.09018373      1.09464693     16.33036041
H         9.08231831      0.33445606     15.95208931
H         7.74273491     -0.78980488     16.88128471
B         7.78119183      0.10879244     16.06209373
H         7.87310266     -0.33228981     22.31716728
H         6.77245617      0.40055075     23.87999535
H         8.67364597     -0.30998287     24.00848007
H         7.19106674     -1.44590890     23.74141121
B         7.61234093     -0.36523375     23.51805305
H         9.09177208      4.53468037     -0.93629599
H        10.67526340      3.12923789     -1.18369544
H         8.99335575      2.86759257     -0.07751855
B         9.79428101      3.73194170     -0.39735380
H        10.56667042      4.26311827      0.33923954
H        10.63539600      2.95481205      6.52781582
H         8.66131973      3.64184093      6.65234137
H        10.50190639      4.68347549      6.93529320
H         9.74059200      3.28608561      8.24157143
B         9.77987385      3.52727580      7.09097815
H        10.34722328      2.83406639     14.32023621
H         9.22782803      4.50838137     13.91195869
H        10.37935257      4.30026436     15.65024281
B        10.18434620      4.06922293     14.48870182
H        11.07776642      4.74854040     13.84362316
B        10.56198883      3.17861056     21.80762672
H        10.77434158      2.06951451     22.30771637
H         9.42767715      3.56822467     21.80419540
H        11.39406681      4.11152029     22.33846092
H        10.96579075      3.08216834     20.65809250
H        11.51571369      8.31367111      0.97398859
H        10.68702221      6.62934589      0.30058989
B        11.71521568      7.03219175      0.82710916
H        12.86356831      6.77555323      0.48067197
H        11.87708378      6.65723896      1.92615426
H        11.83728218      7.65742159      6.96192694
H        11.25992203      6.49327087      8.43431377
B        11.77640915      7.55631018      8.15654659
H        12.72056103      7.59807873      8.84910297
H        10.83843136      8.23081303      8.39068890
H        13.91300201      6.97510529     15.65010262
H        13.33188248      7.88058329     13.98326302
B        13.09376812      7.77489185     15.26799011
H        12.02919006      7.06066656     15.33374596
H        12.77405930      8.81118774     15.89283848
B        12.19725513      7.19049072     22.95644760
H        12.04720020      6.14217186     23.52742767
H        13.32644939      7.36072016     22.27362633
H        12.04668331      8.07372665     23.76929665
H        11.38539410      7.22013044     22.07499123
B         7.93745947     -7.42198277     -0.83947587
H         7.43789530     -8.64042473     -0.73148376
H         8.03871250     -6.91807079      0.28144336
H         9.00883007     -7.74026489     -1.23803389
H         7.22740364     -6.65993452     -1.42912805
H         8.35764885     -6.40325260      5.98446608
B         7.74435520     -7.30659771      6.71425915
H         6.56901026     -7.16372204      6.90400887
H         7.84832001     -8.40320873      6.21771336
H         8.37777710     -7.07758904      7.69897413
H         7.49344778     -7.69510841     14.92203331
H         9.21572018     -7.90043306     14.07174015
B         8.01085091     -7.59443045     13.93674946
H         7.43524170     -8.41773701     13.32167339
H         8.02419567     -6.45960236     13.44578838
H         8.25011063     -7.02733707     22.71475792
H         8.53946686     -7.25664186     20.81192589
B         7.64793539     -7.28516722     21.57522202
H         7.14471674     -8.43144798     21.54766464
H         6.76162863     -6.60359526     21.20192719
H         9.38755512     -4.99834585      1.19456208
H        10.13827324     -3.42778373      1.66257536
B         9.73243999     -3.98754811      0.66123354
H         8.76665592     -3.42407799      0.23685022
H        10.59275818     -4.11388111     -0.17540868
H         9.12369633     -3.38972735      9.02511215
H         8.99904919     -4.13878822      7.10153103
H        10.69069004     -3.49267244      7.80749369
B         9.65835094     -3.94215512      8.11808491
H         9.84776306     -5.01199961      8.66003323
H        11.21910954     -4.17140913     16.22324371
H        10.95474339     -2.20943880     15.69797230
H        10.06756020     -3.91053557     14.54618073
B        10.42164612     -3.38690686     15.64032841
H         9.48928165     -3.16091943     16.46600342
H         8.57685661     -4.06078482     23.67313766
H        10.32907677     -3.01845098     23.97836304
H        10.24420261     -5.09890175     23.22687531
H         9.86163902     -3.71641207     22.13029289
B         9.77791309     -3.93294811     23.29616165
B        11.96411896     -0.05910845     -0.28768626
H        11.12732506     -1.00201821     -0.00674740
H        11.32597351      0.83999342     -1.08150399
H        12.24778080      0.45518082      0.84406638
H        12.95232010     -0.52135789     -0.97219819
H        12.75576401      0.85732991      8.30899239
B        12.38592339      0.62969720      7.17921495
H        13.19241714     -0.10842975      6.69736481
H        11.30825329      0.13212454      7.15379620
H        12.73585129      1.64924192      6.61468124
H        11.73821735      1.34793067     14.12348938
H        13.34534168      1.04999661     13.08788490
B        12.79326630      0.69686234     14.13313389
H        13.52143669      0.71076381     15.17975616
H        12.49703312     -0.48529065     13.93619537
H        12.64408779     -1.33400059     20.96230507
H        13.03804684      0.56841105     21.38296127
B        12.08139992     -0.34084043     21.41980743
H        11.21154404     -0.01675652     20.75500488
H        11.62891388     -0.56548768     22.53192329
H        14.42610455      2.19487977      1.10848153
H        15.15794659      3.73703146      0.09972289
B        14.14696407      3.25680137      0.67359126
H        13.94053555      4.24889469      1.53029740
H        13.15038586      3.28191614     -0.09130326
H        12.98601818      4.13648605      7.02579689
H        13.94341850      5.47076797      8.23295307
H        13.07120991      3.70140195      8.86813164
B        13.76576328      4.29524469      8.05193329
H        14.76582623      3.70590448      7.74140406
H        15.26000023      3.27410078     15.54996586
H        13.80051708      3.19394565     14.29914856
H        13.28666973      3.51529241     16.34530640
B        14.10631847      3.65092206     15.40615273
H        14.16350555      4.94084835     15.34349537
H        14.85796738      4.05896091     22.21775246
H        13.32948780      2.78503680     22.19729996
H        14.86031914      2.40242267     23.45874405
H        13.57557297      4.05591917     23.75385857
B        14.17720413      3.28479719     22.89685249
B         9.67796326    -11.22738266     -1.17963302
H         9.14106369    -11.82895279     -0.29540768
H         8.88160801    -11.55900955     -2.05893397
H         9.44718838     -9.91158199     -1.05354810
H        10.82051086    -11.37595177     -1.50062811
H        10.56267738     -9.12459373      5.75598812
B        10.29735661    -10.15915585      6.42697716
H        10.73079491    -10.16225910      7.63882256
H         9.23552132    -10.47211838      6.34510088
H        10.83729839    -11.07894802      5.83643436
H        10.52141476     -9.95619297     13.30350590
H         9.30917358    -10.46891403     14.85376072
B        10.40397072    -10.74056816     14.19467354
H        10.06162071    -11.82047367     13.64995575
H        11.35589027    -10.76199627     14.92348576
H        10.80803967    -10.18920135     22.77434731
H        10.66142464     -9.97772312     20.59153557
B        10.18359852    -10.56881523     21.63001251
H        10.42621613    -11.66515732     21.29047394
H         8.92422485    -10.47053051     21.64756966
H        12.78581905     -7.68026495      1.14564252
H        10.96282673     -8.52215195      1.28828144
B        11.51678562     -7.55426073      0.87052292
H        11.70431042     -7.62816238     -0.30326742
H        11.05772495     -6.48302126      1.28450119
H        11.12047958     -6.48023510      7.88573933
H        11.35620785     -8.25538349      8.56477451
H        12.85369492     -7.32232761      7.39829111
B        11.93545437     -7.20114040      8.30716515
H        12.48538971     -6.63229322      9.17984676
H        11.66744804     -7.73611736     16.87986946
H        12.51668835     -6.46966743     15.95025539
H        12.03945923     -8.22359467     14.86096001
B        11.67943954     -7.34612131     15.71323776
H        10.67039871     -6.93621159     15.27928162
H        13.35970211     -7.41747808     22.19879723
H        12.36274147     -8.39163780     23.35330200
H        11.28996468     -7.34603930     22.10753632
H        12.30802345     -6.49020052     23.79196358
B        12.30806637     -7.28865433     22.88032722
H        13.78664970     -2.63181710     -0.98357439
H        15.70864296     -3.57958555     -1.05318868
H        14.00344181     -4.54379272     -0.41530275
B        14.54879570     -3.47180867     -0.41294640
H        14.80162621     -3.10493541      0.75423777
H        14.76817226     -2.66562724      7.23995018
H        12.93206787     -3.40989280      6.87445879
H        14.08686352     -4.56026888      8.05281448
H        14.34571838     -4.31026077      6.12495327
B        14.13013554     -3.69641852      7.05883026
H        14.62982845     -5.10587740     14.52223110
B        14.25090981     -3.98676634     14.60901928
H        14.32196712     -3.27583766     13.58203030
H        13.08200455     -3.93882322     14.93698406
H        14.93350983     -3.39503908     15.40211773
B        13.94783497     -4.15249014     21.91402435
H        13.12377167     -3.45150924     21.50646591
H        15.10483742     -3.68368006     21.88946724
H        13.91857719     -4.34767532     23.09605980
H        13.67788029     -5.19359493     21.19986153
H        16.25896454     -1.25930333      0.96646863
H        14.95510960      0.09688683      0.36664140
B        16.17402840     -0.03019485      0.65280402
H        16.80957794      0.33127323     -0.25947466
H        16.38694572      0.76390278      1.50585938
H        16.08625031      0.14752394      6.76183939
H        17.44276810      1.17217016      7.35429239
B        16.51624870      0.62680435      7.74554825
H        15.88276577      1.50445855      8.30909729
H        17.05270958     -0.22227366      8.50198841
H        15.73886204      0.39360875     15.51544666
H        17.32359695      0.79573804     14.37371445
B        16.91120529      0.61206764     15.52546787
H        17.12858772      1.60642660     16.25686455
H        17.47531319     -0.34923506     15.98355579
B        16.79322052      0.10028970     23.10747337
H        16.23019791     -0.90453476     22.96011925
H        16.61247826      0.90339762     22.21506691
H        18.06772041     -0.00491313     23.22778511
H        16.38297272      0.63845438     24.11777496
