768

Li      -32.31738281   -131.91075134    -57.81259918
Li      -42.86940765     44.50363922      3.04100275
Li        7.91764021     35.17484283    -75.61538696
Li      -44.90344238     63.76552582     -5.45066690
Li       16.24571800    -34.24927902     18.07695198
Li      -38.35091400   -139.54934692    102.20257568
Li       58.06218719    -69.79244995      0.91058815
Li      -30.01319122    -26.73787689    106.60422516
Li       72.84992981     -4.07588387     44.64516830
Li      -53.02408218    -43.83197403    113.06660461
Li      -64.17327881    103.40797424     62.61579132
Li       24.69260597    101.12773132     27.96515846
Li      110.95455170   -132.60371399    -13.20789433
Li      -15.74126148     57.36432266     -6.04192114
Li       24.81745338      2.96980596     39.76920700
Li       36.76722717    125.67624664     25.24283218
Li      -61.55677795     19.78268814    -49.77269745
Li       58.12486267    -80.88358307   -143.01652527
Li      -36.27805328    108.23329926     90.85346985
Li      102.48332214    -16.17398262    -72.25147247
Li       54.15279770     64.07564545    -24.13252640
Li      -65.34975433    -55.55250168     36.74105453
Li       68.25846100    -29.96265030      1.39615405
Li      -16.15232277      8.59955025     28.74745178
Li       70.97885132     22.97299194     17.70599747
Li      -51.25602722      6.44205427    -23.20570374
Li      -91.02828217     -1.41017377    -35.32665253
Li     -118.10524750    -26.97335625    -71.99506378
Li     -141.39810181    -35.08831024    -74.89621735
Li       97.63072205    -92.96402740     -0.54962927
Li       34.53718185     -8.12876987    112.94991302
Li     -143.55580139    -18.62384033     -4.10252857
Li       68.60560608    -48.07788467      6.56002951
Li      100.14031219     30.81013298     54.71796417
Li      104.38677979    -30.57621956     64.47496796
Li      -11.07879448     79.95816803     -5.63110638
Li       -9.62101364    -30.99967194    108.79563141
Li       60.12599564     20.51542282     68.96809387
Li      -13.35622215     67.34043884    106.90924835
Li       18.11964798     53.95957184     95.89218140
Li      -36.49361801    -62.68054199    103.14089966
Li       -1.05329204    -53.03859329    -32.06098938
Li      -30.24798203     60.55566406     54.25119019
Li      -11.22421265    -26.75697327     35.75337982
Li       48.29905319     18.09794044    -30.51708984
Li       44.20911789     64.68164825    -20.53487778
Li       -5.13702393     34.42723083   -150.50520325
Li      -70.37312317     40.23911667     81.41001892
Li      122.89276123     74.39928436    -67.43528748
Li      -45.91823578     22.72320747    -59.75621414
Li       50.96697617     12.43386173    -76.56272125
Li      -13.59880352    -34.40937042     55.21471024
Li       85.13021088    -25.93832207     -8.87064838
Li       19.37093163    -89.74206543    -39.60692596
Li       -2.15703678    -73.32762146      9.40869236
Li       16.24829292     27.23991013    -53.95469666
Li     -135.23561096    -52.83268738     42.67393112
Li       91.38200378     23.52351189    -56.24529266
Li       -6.76052856     13.58331299      9.80907917
Li      -34.66215897     -5.02863169   -108.12937164
Li      -70.04146576    -91.26071930      6.66790724
Li      -40.51218796     50.40189743     17.27936935
Li      -32.43948746     -9.38269901    -42.64862061
Li       81.53787231    -30.13272285     76.45993042
Li       74.66619110     14.04743481    138.92491150
Li      154.59991455     41.66817856    -24.63436508
Li      -21.54464722      2.63174844     76.90055084
Li       54.23268890     38.47271347     69.96870422
Li      -19.29158783    -41.39481354     14.30997181
Li      -65.72838593    123.11083984     61.15431213
Li       62.39797211    -89.19713593     50.46091080
Li       -4.98816919     -8.84867287     -8.96907806
Li        7.80564928     82.35916138    -63.61851501
Li      -59.82725906     52.27776337    -11.52946568
Li      -59.29399109     59.89582825     17.45321655
Li       26.45255280     38.94324112     58.81067276
Li      -27.91352654     -4.49271870      6.42569065
Li       24.91864014     13.28322697     13.20694542
Li        9.92375278     10.11970901     21.97002220
Li       64.60424042    -15.20805550    -12.82918549
Li      -87.70344543     14.44753838      1.60182917
Li     -156.56039429     19.76656532    -31.71585846
Li       47.56599808    -23.41838646      1.55633330
Li       37.70558929    -44.49637222     42.96410370
Li      -76.01284027    -62.64356995    -19.27969742
Li       88.17062378    -33.18296051     40.19126892
Li      -13.30616093    -15.49997711     -1.87595665
Li       47.64767456     27.90754890    -20.11311340
Li      -29.93705559    -67.86087799    -83.31132507
Li       43.01110077      2.19423294     -0.63854730
Li      -29.84671783    -55.38076019     10.34470940
Li      -40.42537308      2.70224166    -38.06555939
Li      116.84040070    -63.37313461      3.55412912
Li       60.71670532    -40.66053772     43.61893845
Li       43.44102478    151.58648682     61.19087982
Li       89.64098358     -8.44872093    -42.89209747
Li     -114.14460754     19.52922058     -9.04174232
Li       43.26776123    -27.79598236     73.01882935
Li       85.16843414    -82.06087494     24.03980446
Li      -34.22036362      1.17087901     39.89125824
Li        7.27806330     28.52800179      5.35291958
Li        5.79122877     -3.46482205     29.28219986
Li       12.57347870     99.70561981   -106.09843445
Li      -77.78498840   -109.95085907    -13.26949310
Li     -122.50037384      2.00742340    -19.64546585
Li      154.32331848    -84.24296570    -58.19794083
Li      133.53385925    -96.90937042     49.81037521
Li      -27.09106445    -41.08454895     36.23171997
Li      -48.88937378    -40.41539764      6.88115072
Li      -31.53283119     99.64024353      8.83822823
Li       20.27949905    -40.68498230    143.72778320
Li      -40.66422272    -63.02270889   -126.56512451
Li      -26.66324043     36.24437332   -120.98249817
Li       56.23246002    163.08073425     43.65927505
Li      -36.44970322     16.70645905     21.04582596
Li       77.15775299      9.17396927    -15.55751228
Li       48.15608215     -9.74540043    -80.48819733
Li       32.27605820    -53.47394943     20.62027740
Li       55.65023804    -71.00839233     88.20102692
Li      -17.40710831    -41.21530151    113.87245941
Li        3.19451189    -34.08881760     32.56958389
Li        4.16808367      5.45052052     12.23678112
Li      -25.91300201      1.37824178     32.36662674
Li       47.63348007    -31.11301041     -4.90753603
Li      -29.70804596    155.68188477    -26.86952209
Li       -2.31114340     24.85721779     51.18848801
Li      -51.15737152     43.14244461     87.02532959
Li       79.43894958     14.26477051     57.66946030
H         3.59850979      2.59771705      6.86804867
H         4.33768177      1.14059329      5.73442173
H         2.41596770      1.48549485      5.60425901
B         3.47644949      1.92666721      5.71813059
H         3.93315601      2.61192608      4.82969856
H         4.30363321      2.70097423     13.77154160
B         4.09032154      2.68326831     12.59379196
H         2.85161948      2.77974486     12.46099663
H         4.51762390      3.65223026     11.91312981
H         4.38722658      1.74769044     12.00392151
H         3.57091522      1.89365590     20.77695656
H         2.47680426      3.12605429     19.49598122
H         4.38025427      2.41553855     19.13121414
H         4.31358290      3.82250905     20.72384262
B         3.72415590      2.89816809     20.00553513
H         3.68790483      3.69348693     29.21799278
H         4.15490150      3.47204614     27.41175842
B         3.60715079      2.89534545     28.37592125
H         2.40047383      2.72421169     28.13894844
H         4.07026291      1.82004285     28.57895279
B         5.74212694      5.34228802      6.32388258
H         4.78652239      5.01563644      7.09066439
H         5.57577610      4.90382004      5.19850588
H         6.81683159      5.07477093      6.73820925
H         5.72117615      6.61396837      6.01268053
H         4.84863234      4.92528677     14.07234192
H         6.78088188      4.68199110     13.55505562
H         6.17633200      6.54404306     14.31526756
B         5.97855186      5.32935715     14.26197338
H         6.35277319      4.73302650     15.18975639
H         4.63618994      5.47567368     22.52728271
B         5.64914036      5.94272614     21.95018387
H         5.39772844      6.07167339     20.71630478
H         5.79929209      7.11864948     22.11584091
H         6.82040119      5.29347181     21.91103363
B         5.32551908      6.61337709     29.10269165
H         5.46418715      5.85250139     28.09229088
H         4.22772932      7.10450315     29.16935158
H         6.30789948      7.26738071     29.26663971
H         5.40898752      5.74371338     30.01676369
H         6.93962002      8.97368145      5.19523954
H         8.02657318      8.79525280      6.94015503
H         8.93612289      9.57952309      5.33872175
B         7.82511711      9.46431065      5.88441324
H         7.31479025     10.54237652      6.36924982
H         8.98586273     10.19941998     13.20796680
B         7.84169483      9.78817463     12.94126415
H         7.06087303     10.33758545     12.18457127
H         7.99964380      8.80543900     12.16539192
H         7.26314211      9.17421532     13.76534939
H         8.01394558      8.50079155     20.25517082
H         8.08714962     10.20146751     21.42831802
H         7.06301212     10.35092354     19.77614784
H         9.05053329      9.95377541     19.60436630
B         8.05239582      9.69370556     20.26522446
H         7.79377699     10.79310036     27.81413269
H         7.80672550      8.91403389     28.50192642
B         7.30059385      9.71736526     27.75003624
H         7.22809076      9.24988937     26.59949493
H         6.08090639      9.94734573     27.98340797
B         9.90382290     12.70767593      6.70301867
H         9.94871807     13.36298370      7.60602236
H         9.78840828     13.60798740      5.79154205
H         8.79498482     12.07124996      6.92552471
H        10.84175110     11.83167458      6.67031813
H         9.60646248     12.76048565     13.09119129
H         9.67883301     14.25339699     14.44767761
H        10.79783440     12.21575546     14.47954082
B        10.40715122     13.30676174     13.92669106
H        11.35331059     13.81362057     13.46442318
H         9.90890694     12.18646431     22.03945923
B         9.50753021     13.11386967     21.35708046
H         8.90201283     13.94996929     21.93029976
H        10.48130131     13.67462158     20.93347168
H         8.98888397     12.52873039     20.43881416
B         9.95344543     12.98832607     28.69260216
H         8.82007790     13.25232506     29.41951370
H        10.77202320     12.72856808     29.43692970
H        10.06402493     14.18079376     28.01380157
H         9.82038498     12.07108688     27.85970688
H         5.31154823     -1.78617322      5.29145241
H         6.01723957     -0.29044503      6.45162153
H         4.63333511     -1.38468421      7.13772917
B         5.58717775     -1.36165321      6.49518061
H         6.56745768     -2.13476276      6.89364433
H         6.88789272     -2.53796172     14.98600769
B         5.92063761     -1.97993422     14.47947979
H         4.74432182     -2.29388380     14.79396248
H         5.87197495     -0.78429967     14.50574780
H         5.96915245     -2.32307339     13.29160690
H         6.98367357     -0.82763940     21.56108665
H         5.79038572     -1.67662072     22.70829964
H         5.29571533     -1.56239378     20.78589439
H         5.07749796      0.01505994     21.72996902
B         5.76329851     -1.01284111     21.70130539
H         5.87977219     -0.01275172     29.15882874
H         4.15936232     -0.82452321     29.57166290
B         5.25616312     -1.12931871     29.22439575
H         5.67740154     -1.68030727     30.24958229
H         5.28661633     -1.83992052     28.31710625
B         7.64820957      1.97568607      5.93141460
H         8.58976746      1.43175554      5.39821672
H         6.92191505      1.20127082      6.43786430
H         7.09940195      2.48606539      5.08399248
H         8.06738377      2.79093981      6.70543671
H         7.74595785      1.90199518     14.02373409
H         8.62042618      3.02074361     12.51356220
H         8.50339985      0.99678874     12.11973572
B         7.84759283      1.96114695     12.67434597
H         6.77763319      1.85686624     11.98193359
H         7.55117083      2.91852760     21.18798065
B         7.70648909      2.44974971     20.00351524
H         8.15356541      3.26933503     19.01844215
H         8.52494335      1.54326642     20.10869408
H         6.71165228      2.04517746     19.48534203
H         7.34725285      1.32726729     28.48760796
H         8.04294777      3.11354733     27.94055939
H         6.43609571      2.62717223     26.97335243
B         7.37939405      2.18369126     27.62215042
H         8.03575516      1.58848763     26.70822906
H         8.85193157      4.95312786      6.69350147
H        10.77328777      5.41128016      7.03715420
H         9.56325817      6.77056980      6.55082035
H        10.11841869      5.43100166      5.12443304
B         9.84984493      5.65143108      6.32402992
B         9.98268700      6.03964233     14.16712475
H        10.82659149      6.41157007     14.88751698
H        10.49610901      5.30753613     13.46057701
H         9.53377628      7.11073017     13.53536606
H         9.16118336      5.55702591     14.89620781
B         9.98162556      5.91240215     21.67813683
H         8.84059525      6.39667845     21.16510201
H        10.72447109      6.85812330     21.78221321
H        10.16075230      5.06698704     20.79725456
H         9.68963146      5.28654146     22.68302536
B         9.32902336      5.69750881     29.32519913
H         9.63505936      6.57033730     30.00613976
H        10.02133751      6.12869596     28.41819954
H         9.81483269      4.63655329     29.53462601
H         8.14560795      5.85322666     29.15291977
H        13.13686371     10.06369400      5.11374569
H        11.82601452      9.20099831      6.33793306
H        11.21412659     10.26829624      4.71122456
B        12.10189438      9.56626511      5.15032816
H        12.33180809      8.52108765      4.54785204
H        11.75453854      9.24489403     13.92009068
B        12.41196251      9.61009407     12.91110134
H        11.88143635     10.73434258     12.66167068
H        13.56112862      9.86032391     13.16176987
H        12.41387558      8.81849670     11.93755627
H        11.61579800     11.15458107     21.14672279
H        11.27582169      9.18230534     20.99329758
B        11.84511089     10.15364265     20.47094345
H        13.07612610     10.03920746     20.44536400
H        11.53883457     10.38792229     19.26295280
H        13.24787521      9.68865108     28.41342163
H        12.06810665     10.51843548     27.03333473
H        11.23553467      9.21643448     28.42282867
H        12.08904552     11.12998390     28.80082512
B        12.05111217     10.05717564     28.16365433
H         7.47624731     -4.83163071      4.85560751
H         7.71393633     -5.60889149      6.70211554
H         7.54396582     -6.91192532      5.07567549
B         7.90772820     -5.83178186      5.48902988
H         9.04501629     -5.86430168      5.44944572
H         9.36026764     -4.33038950     13.49815655
H         7.73368311     -5.34722757     13.33527374
B         8.52628517     -4.68366051     12.72702217
H         8.92378139     -5.26623869     11.67720509
H         7.96304607     -3.69029927     12.16130924
B         7.91654682     -4.21116114     19.78809547
H         7.52735853     -4.23569155     18.60974312
H         8.74119759     -3.27686739     19.97042847
H         8.03340816     -5.35983610     20.16513824
H         6.99647951     -3.88806176     20.68386078
H         8.48082447     -4.67101669     27.28190041
H         7.43553209     -3.47832179     28.46503830
H         6.58331013     -4.97796202     27.13092422
B         7.46075630     -4.57514334     27.97781181
H         7.67163801     -5.35706377     29.00549126
B         9.81312561     -1.99593592      6.52393198
H         8.97870541     -1.15410578      6.66356516
H         9.94814301     -2.34094763      5.29364252
H         9.50955296     -2.86656690      7.28167200
H        10.81969643     -1.42481494      6.89631605
H        11.09809113     -1.75978053     13.57601547
H         9.44225788     -0.62395102     13.65307426
H        11.18826771     -0.17373107     14.74033260
H         9.98582268     -1.79664469     15.09438515
B        10.41060352     -1.00838399     14.26202202
H        11.08087444     -1.00120044     22.27176094
B        10.02800751     -0.88149756     21.83142471
H         9.31679058     -1.85677803     22.19062614
H         9.46200943      0.12194574     22.25336456
H        10.02866840     -1.08765984     20.66567039
B         9.74991226     -1.41601181     29.09289551
H         9.66896248     -0.08498352     29.34725571
H        11.07471752     -1.56224811     29.46393585
H         9.59566975     -1.78503454     27.94665527
H         9.08019066     -2.04787040     29.91866875
H        10.86768055      2.78818440      4.65649843
H        11.73093414      3.33941150      6.35976219
H        12.30892563      1.64124143      5.61850929
B        12.00238228      2.82217407      5.22744846
H        12.93784046      3.43250203      4.62786961
H        11.01051331      2.30105400     13.47050476
H        12.82924366      1.58451748     13.55783939
B        12.01388168      1.97517836     12.87538052
H        12.43479633      2.79839396     12.01690674
H        11.68508625      1.04920316     12.02237511
B        11.77466774      2.35973001     20.13902664
H        12.55928326      2.81562781     21.10250473
H        12.52265167      2.21553946     19.19717216
H        11.06275749      3.29839087     19.85128403
H        11.02900314      1.37410891     20.39076805
H        10.60521793      3.38408852     28.20323181
H        11.04156876      1.75871682     27.06180191
H        12.29443741      3.53473282     26.95103455
B        11.54185200      2.65024281     27.64977264
H        12.05755043      2.31087470     28.74683571
B        13.94658566      5.48022318      6.93265295
H        14.73126698      4.68554640      6.26857519
H        12.83288670      4.99932814      7.46602249
H        13.88513660      6.41852808      6.27020884
H        14.79044914      5.52339888      7.78033972
H        13.09153843      5.13014412     14.73925304
H        14.18265343      6.22018957     13.36050797
H        14.41471767      4.34627485     13.51308250
H        15.05874729      5.41244268     14.89737034
B        14.12881756      5.36484909     14.16457748
H        14.82123470      6.80451632     22.09083557
B        13.80450249      6.06291914     21.85590363
H        13.91783619      4.91930056     22.25109100
H        12.69315338      6.40775871     22.10256577
H        13.73601818      5.91949320     20.62220764
B        14.05723381      6.26402140     28.78842735
H        12.90309811      6.31911039     28.57918549
H        14.29129791      5.07381773     28.98387527
H        14.35465717      6.82995272     29.83551598
H        14.59591484      6.76193619     27.86822510
H         9.62000370     -8.18806744      7.69326401
H         8.70140743     -9.98910904      7.51900625
H         9.69415474     -9.31571674      5.82508945
B         9.54997921     -9.27038383      7.09878540
H        10.61646843     -9.77030945      7.57491732
H         8.81971169     -7.78521395     13.87486458
H         9.06989002     -9.75697041     14.41046047
B         9.59980583     -8.64563847     14.23237896
H        10.14300251     -8.31612492     15.16890812
H        10.42687988     -8.92940235     13.44622898
B         9.28976440     -8.79381180     21.36205864
H         8.64850616     -8.03881931     20.59769630
H         9.85985374     -9.42952919     20.46551132
H         8.53213024     -9.56095600     21.89727211
H        10.22470570     -8.45083523     22.10457039
H         9.62912464     -8.12297916     29.58356857
H         9.80691814     -8.56893063     27.80068970
H        10.36586761     -9.90607548     29.17896652
B         9.53987980     -9.07053661     28.82769394
H         8.42229366     -9.43582344     29.08345222
B        12.08013630     -4.58417511      5.29763603
H        11.23975182     -5.18782854      4.65465403
H        12.67547894     -3.61784291      4.76056433
H        12.86547375     -5.33983278      5.75863600
H        11.53520012     -3.89340162      6.14090014
H        12.78645897     -4.39114809     12.42765808
H        11.18457699     -5.45417070     12.09060764
H        11.85393143     -5.47205496     14.02962589
H        12.80984306     -6.43675327     12.37924576
B        12.21111393     -5.45181990     12.78432941
H        11.70176601     -3.55641198     22.10747337
B        12.03990364     -4.21644068     21.08828545
H        12.95736885     -3.54918242     20.51663208
H        12.68104172     -5.25286674     21.40219116
H        11.23642826     -4.58814049     20.20313072
H        12.49715614     -5.77426004     26.98531914
H        11.24125862     -4.13692379     27.05596542
H        11.84107780     -5.01916981     28.62722015
B        11.47629642     -5.21271753     27.55507851
H        10.49857712     -5.76716423     27.67497826
H        13.49219227     -1.06132364      5.97066927
H        14.64340878     -0.44780928      7.54037094
H        14.93325615     -2.30524826      6.58935785
H        13.09298038     -1.93865740      7.73339891
B        14.16929722     -1.43107891      7.02812195
B        14.15567970     -1.86511612     14.54073906
H        13.14845181     -2.52817512     14.38906288
H        14.09595490     -1.23986292     15.57707977
H        15.06861305     -2.64344311     14.55762577
H        14.36550140     -1.20342922     13.52890587
H        15.10260010     -1.93217754     21.61038017
H        13.64440823     -0.84502250     20.54179955
H        13.27388096     -1.59907961     22.32331657
H        14.49411488     -0.05192527     22.12291145
B        14.20235538     -1.12651479     21.77371597
B        14.17374992     -0.48086146     28.88096809
H        13.21737194     -0.01696261     28.07717514
H        14.34284306     -1.59416711     28.39130974
H        15.09351826      0.33370155     28.91476059
H        13.63642120     -0.46407375     30.06220436
H        15.62966919      0.90608108      5.46972275
H        17.01539993      1.84816515      4.50911856
H        15.37478638      2.79779720      4.64592505
B        16.18149567      2.10318041      5.24841928
H        16.75936890      2.24727798      6.25647497
H        15.83171082      0.98738194     13.03256702
B        16.56300354      1.99857497     13.11562061
H        16.10308266      2.78250170     14.05784988
H        17.47943306      1.49737799     13.50919056
H        16.85091782      2.63234448     12.19599819
H        16.71630287      1.63118947     20.72934341
H        15.95683861      3.19466257     19.79644585
H        14.99802113      1.50152647     19.88136101
B        15.67914200      2.24866176     20.53966331
H        15.18758297      2.57277513     21.61989403
H        15.36055565      3.43271971     26.69809532
H        17.21228027      3.21764255     27.49692345
H        15.75453472      2.50272751     28.44681168
H        16.28702545      1.64642835     26.94704819
B        16.13028908      2.75095606     27.36168098
B         3.09284902     -1.33116364      2.91426444
H         2.78262901     -2.53579521      3.18762183
H         2.96541929     -1.17754388      1.69851959
H         2.28769279     -0.74781263      3.65241838
H         4.28383398     -1.29241157      3.22640038
H         3.79608750     -1.23496211      9.30691433
B         3.92436385     -1.69205570     10.44159222
H         3.00409603     -2.21790242     10.97431660
H         4.92496300     -2.42754555     10.31507206
H         4.26904917     -0.79181242     11.22894764
H         3.61189628     -1.08993983     16.51724243
B         3.82886076     -1.57800341     17.65523338
H         4.63043213     -2.43247628     17.63142967
H         2.77767181     -1.97010016     18.01290512
H         4.04314852     -0.70230347     18.54605865
H         3.00637865     -1.10259748     25.22034836
H         3.34394884      0.89704072     25.65464973
B         3.68273807     -0.10965335     25.03364372
H         4.90618753     -0.43302989     25.41144180
H         3.66447663      0.25472111     23.88132095
H         6.16501236      2.74070120      2.70989180
H         5.68466520      3.73866510      1.09462118
B         5.69400072      2.58405018      1.56848228
H         4.57713270      2.31565809      2.10392475
H         6.05523205      1.59086025      0.84686738
H         6.19439268      3.00926518     10.32584286
H         7.05283976      1.71597111      9.23956108
H         5.17554903      1.48708653      9.60405064
B         6.04569483      2.33328247      9.33697033
H         5.69458389      2.96493983      8.24732018
H         5.04500580      0.96654707     17.26331902
H         6.54209661      1.45056844     15.97336674
H         6.12634420      2.76163149     17.29059029
H         4.75458145      2.39925814     15.95982552
B         5.64243603      1.89848256     16.70511055
H         6.09132290      2.27876258     22.75887108
H         6.65665531      3.75875759     23.99024773
H         4.62676573      3.23869681     23.57741547
H         5.52025032      1.85669076     24.51866722
B         5.80127287      2.77970529     23.79684448
B         7.72539711      6.58024406      3.16217232
H         8.69956493      6.89206886      3.72549796
H         7.13122749      5.67056179      3.66431665
H         6.86661625      7.56287766      3.08353543
H         7.68191719      6.04135084      1.98875618
H         8.55627823      5.36273813     11.50027847
B         8.16290665      5.60849094     10.26271152
H         7.57478952      4.67003059     10.03756142
H         7.77431059      6.72761011      9.94649124
H         9.22418404      5.19729185      9.65977383
H         7.01152563      7.09418535     18.26692581
B         7.84770012      6.37514830     17.76098061
H         8.66768742      7.19066000     17.18916130
H         7.50685501      5.30149794     17.12796021
H         8.51741123      5.70973253     18.55396843
H         7.51624584      5.54744482     24.53033829
H         8.11821651      5.94325781     26.37696648
B         7.26816463      6.15620470     25.51468658
H         7.11881256      7.40738392     25.39767265
H         6.19156933      5.71283722     25.87018204
H         9.67961979     10.66472340      1.19324315
H         9.72656155      9.82906628      2.78343892
B         9.58392525      9.48864269      1.60417271
H        10.65000248      9.06447697      1.11408389
H         8.59745026      9.13197327      1.13066411
H        10.63744259      9.66856766     10.38148785
H        11.34389019      8.92445755      8.69512653
H         9.54309464      8.16283703      9.53800869
B        10.27943707      9.08953857      9.28359890
H         9.65406322      9.92521000      8.54069233
H         9.68595409      8.76451397     15.75823879
H        10.42900562      9.29196930     17.57219696
H         9.68873310     10.60687065     16.30050278
H        11.30365467      9.64143562     15.69354820
B        10.33323383      9.55573750     16.40447235
H         8.88974190     10.73762417     24.28456116
H         9.43848705      8.98826408     23.59648323
H        10.64422131     10.67132473     24.33120346
H         9.49774933      9.46191692     25.50367546
B         9.68435097      9.87031364     24.37215233
B         5.35791397     -4.71571779      1.95465314
H         6.48929930     -4.24820137      2.20938253
H         5.50597239     -4.95241022      0.77962178
H         5.10046768     -5.75410652      2.39835095
H         4.42735386     -3.82883120      2.12536001
H         5.29288864     -5.32781506      8.23840237
B         5.95344782     -5.18364191      9.16355515
H         6.98493481     -5.67855787      9.02886105
H         6.14517498     -4.12878370      9.54479408
H         5.32820988     -5.81113434     10.02828503
H         5.24646044     -5.28479290     17.62418938
B         5.78477478     -5.75867414     16.55454254
H         6.59371424     -4.81383801     16.28984642
H         5.21384144     -6.01206636     15.57234287
H         6.37733936     -6.77158499     16.85140228
H         5.21701622     -5.16109037     24.83782768
H         6.38489771     -4.77021074     23.13465118
B         5.55020952     -4.36297464     24.02028465
H         4.49151325     -3.90367937     23.47169685
H         5.98778439     -3.36548591     24.53357887
H         8.65186691     -0.25898874      3.72107553
H         6.67687607     -0.64553779      3.55157924
B         7.75902653     -0.66248375      3.00205040
H         8.06994724     -1.83415747      2.69521141
H         7.56590843     -0.11489739      1.88076735
H         8.04534054     -0.23894729      9.32998562
H         8.43472576     -2.24194980      9.81189251
H         8.93179321     -0.62362200     11.03782463
B         8.13679600     -1.06520033     10.21627045
H         7.12124443     -1.28615892     10.74172974
H         6.99006224     -0.54687208     18.54013443
H         8.65920067     -1.81644034     18.34211731
H         8.52092075      0.06620704     17.71592331
H         7.37642956     -1.33277965     16.72837448
B         7.80978203     -0.99027699     17.79002571
H         8.82941628     -1.45739079     26.13301849
H         8.12238121     -0.42013252     24.58336067
H         6.78673363     -1.60706270     25.59823227
H         8.11460400     -2.27169085     24.52257538
B         7.96153736     -1.37784111     25.28620529
H         9.82690811      0.92867368      2.41470718
H        10.63316917      2.15479469      0.94081444
H         9.39844131      3.12542129      2.03965473
B         9.59647560      1.97464454      1.67961371
H         8.61834621      1.81593227      0.88821119
H        10.85785198      2.69934750      8.52651119
H        10.05233479      0.69002509      8.86516953
H         9.01211834      2.36644077      8.42157936
H         9.97264290      2.02489662     10.21905899
B         9.99189281      1.91642487      9.00779819
H        11.11260128      2.24586082     16.28990173
H         9.93576622      3.48500347     15.50202751
H         9.27158165      1.65060401     16.14256096
B         9.92430305      2.61559963     16.37418365
H         9.73572254      2.96715498     17.56401825
B         9.92251015      2.68067908     23.72437859
H         9.68956089      3.74841881     24.24944878
H        10.95242214      2.59642148     23.08254623
H         9.87662601      1.66943157     24.57687569
H         8.86805153      2.51280737     23.03251457
H        11.94054127      5.37336159      1.71552789
H        13.27100086      6.64454222      2.70749664
B        12.10437870      6.52634811      2.24555302
H        11.38495731      7.47420597      1.67497540
H        11.43944836      6.42372322      3.28592682
H        12.71208954      5.87592363     11.59575272
H        11.62280846      4.84733820     10.68369770
B        11.77478504      6.10442686     10.86558819
H        10.89539814      6.66492939     11.29389286
H        12.43160439      6.66606712      9.90062332
H        13.25676155      6.38938522     18.14598656
H        11.95042801      4.98290825     18.60358429
B        12.09556007      6.06613207     17.93866920
H        11.40796757      7.06243372     18.28190041
H        12.07237911      5.81487513     16.76515579
B        11.58366013      6.80766249     25.32865524
H        12.38513279      6.48971176     24.42959404
H        10.79115009      7.63461781     24.92581940
H        12.21887302      7.41642141     26.30977440
H        11.02744484      5.86165142     25.70900917
B         7.93160534     -9.44373608      2.09456873
H         8.83037949     -9.29019451      2.85884070
H         7.54021120     -8.50900078      1.41602862
H         8.26666641    -10.05467987      1.12615252
H         7.11806345    -10.00317383      2.66588306
H         7.06328964     -7.85879135     11.60596180
B         7.62634993     -8.67338657     10.90471077
H         7.63613892     -8.48749065      9.63657761
H         8.63762569     -8.51232243     11.49300003
H         7.11924171     -9.82047558     11.24778461
H         8.90481663     -8.41285610     18.35778999
H         7.41739702     -9.72865582     18.19414520
B         7.79688120     -8.66766834     17.84995842
H         7.08097410     -7.95875168     18.58860397
H         7.49974823     -8.29009342     16.72929764
H         8.48448372     -8.09211159     26.19215584
H         6.47454548     -8.62385464     25.55724525
B         7.54212761     -8.12631607     25.27137756
H         7.28541231     -6.97323847     24.79644775
H         7.80599833     -8.82732105     24.27865982
H        10.01877213     -4.68691540      1.65198386
H         8.33483791     -5.21615791      1.40533292
B         9.43441868     -5.59274864      1.53994381
H         9.59776115     -6.24462557      2.59273124
H         9.92712021     -6.17686987      0.58091503
H         9.77057552     -4.45341253      9.50877285
H         9.78719139     -5.46446609      7.88198185
H        11.03699589     -5.86651897      9.16466522
B         9.91125965     -5.56046724      9.12593937
H         9.27303028     -6.35228872      9.77909660
H        10.61182690     -5.26360178     15.89070511
H        10.02980042     -5.58419704     17.75689316
H         8.87792969     -4.45732117     16.25847816
B         9.64626217     -5.33142042     16.60400963
H         9.05442142     -6.44453859     16.10402107
H        10.44692230     -5.71288252     23.47554016
H         9.44992447     -4.00680351     23.72276878
H         8.36095905     -5.60360527     23.55716324
H         9.65434361     -5.31212378     25.21198845
B         9.50001240     -5.15057278     23.95602798
B        11.70260239     -1.13638949      2.99053574
H        11.15981674     -1.85443044      2.24951053
H        10.96044350     -0.83464783      3.90479684
H        12.56474495     -1.80853724      3.59218121
H        12.48202229     -0.33200267      2.28622532
H        11.55927658     -0.78295416      9.92788887
B        11.80301857     -1.78457057     10.57089615
H        10.90410614     -1.88988018     11.33571053
H        11.92711067     -2.66582417      9.85146523
H        12.90521049     -1.71604633     11.00336838
H        12.80669785     -2.50219512     17.89147186
H        11.64385128     -1.20916796     16.69366646
B        12.01573753     -1.58939958     17.88335037
H        11.00089455     -1.77245224     18.60997391
H        12.57664585     -0.57271826     18.20727921
H        11.20870113     -0.12274726     26.36268044
H        12.18094349     -1.79362833     25.86487198
B        11.97018814     -0.62092137     25.53078079
H        11.50594807     -0.53828317     24.37622643
H        13.11601353     -0.23440273     25.27860832
H        13.97966957      3.05668712      2.72312737
H        14.07211304      3.10024881      0.67893898
B        13.96184635      2.36154008      1.73654759
H        12.89422512      2.03283834      1.41386390
H        14.40925312      1.29552317      1.89765668
H        15.11138439      2.58024073      8.83557796
H        13.03639984      1.64699900      8.82903957
H        14.51286888      1.43466687     10.15406513
B        14.06053638      2.24727988      9.30188942
H        13.92510509      3.19508648     10.06819725
H        15.39534950      3.68792534     16.12062454
H        13.66438103      2.90663767     15.78404045
H        14.62015533      1.58542478     16.62914467
B        14.48975372      2.88279176     16.52382469
H        14.06009960      3.11727810     17.61214828
H        13.47634506      2.67875648     25.18637848
H        14.85145473      2.52102542     23.78355980
H        12.89883327      1.72384393     23.39659691
H        13.17620754      3.61764669     23.48982430
B        13.62177849      2.60893703     23.97139549
B         9.70883751    -12.87082958      1.42350924
H        10.39904785    -12.47672367      2.32223439
H         9.79868126    -11.97086048      0.51138628
H         9.90153694    -13.93927574      0.91917080
H         8.55640316    -12.80118275      1.94561589
H        10.11855316    -13.54624557     10.29869366
B         9.84281254    -12.67898560      9.46379852
H        10.89422035    -12.20993042      9.06398010
H         9.26224995    -13.17580318      8.53833675
H         9.26695633    -11.76441669      9.92700195
H        10.89240837    -12.43677521     15.60488129
H        10.05400085    -12.34552670     17.42647743
B        10.30642509    -11.65506840     16.39646721
H        10.82484818    -10.66004658     16.79577827
H         9.34756374    -11.05134583     15.94450760
H         8.56163597    -11.62965965     24.14730263
H        10.44601250    -11.36511993     23.32340050
B         9.53061581    -12.19351768     23.53204918
H         9.80427361    -12.93798637     24.47790718
H         9.46539307    -13.01675892     22.55585289
H        12.01506042     -7.99890327      2.38659167
H        11.35878849     -8.52458572      4.03509045
B        12.49017143     -8.14888191      3.49826550
H        13.01027679     -6.99981928      3.74607897
H        13.32173443     -8.98830032      3.52640533
H        12.50445938     -9.51962662      9.24304390
H        11.43988895     -7.96883297      9.46363831
H        11.29655457     -9.68750095     10.79638195
B        11.99772739     -8.86989307     10.11727619
H        12.74254322     -8.11916351     10.85011101
H        11.45156765     -8.58555031     18.96958923
H        13.21351242     -7.73242331     18.51094627
H        12.41901207     -9.20325279     17.47299767
B        12.16160679     -8.19283295     18.04616547
H        11.45681190     -7.36742592     17.36828613
H        11.47601986     -7.67936945     25.65860176
H        12.43952274     -9.40928745     25.43768311
H        11.45137024     -8.75914764     23.98787880
H        10.69903660     -9.83215809     25.36029434
B        11.41953087     -8.72890377     25.18279839
H        14.22436619     -4.52509594      2.75082445
H        13.57576466     -6.02369547      1.50984275
H        15.24163246     -5.09327507      1.05437994
B        14.17700195     -4.96632242      1.60255086
H        13.63296890     -3.92094803      0.95673960
H        14.57510185     -5.94726992      9.29268074
H        15.07429981     -4.27262974      8.57886887
H        13.93397903     -4.00276566     10.07348919
H        13.18477726     -4.73943472      8.35815430
B        14.16130829     -4.78695536      9.16735554
H        13.54785728     -4.56908178     15.87571526
B        14.25487900     -5.35318708     16.60301781
H        13.68500233     -6.38789701     16.41587257
H        15.46021080     -5.30904531     16.48153687
H        13.87537479     -5.16851473     17.65728569
B        13.70360374     -4.40746498     24.27204323
H        13.14178085     -5.46468353     23.74101830
H        13.24658012     -3.39750504     23.63114929
H        13.45486927     -4.10680819     25.36259270
H        14.95753193     -4.56341839     24.03980064
H        15.22083664     -1.05295479      3.57389998
H        16.07086563     -1.91315651      1.90216100
B        16.21823692     -1.57999265      3.04318070
H        16.26573753     -2.64267206      3.53871632
H        17.32696533     -0.85488874      3.22316837
H        15.33835411     -1.47510946     11.07779408
H        16.66604996     -2.11086631     10.08936787
B        16.23678589     -1.10546660     10.46114922
H        15.99038410     -0.59015858      9.29614258
H        17.06784439     -0.49282584     11.00259781
H        16.64563560     -0.38409665     16.59816360
H        15.59056377     -0.24358881     18.21487999
B        16.60943222     -0.83515108     17.72709846
H        16.50702667     -2.05984354     17.63684464
H        17.61426544     -0.28089267     18.30043411
B        16.12609863     -1.16510916     25.15669060
H        15.39557934     -0.65583050     24.36479568
H        16.73689461     -0.47634271     25.80281067
H        16.94718361     -1.79186392     24.58378983
H        15.60887623     -1.80457747     26.11845589
