3075

Na        2.17392874      0.17389464      4.43934202
Na        2.14101982      0.10884525      8.90774632
Na        1.90375292     -0.46287191     13.72723579
Na        2.13672972      0.06685986     18.70927048
Na        2.26756072      0.24119022     22.73509216
Na        2.42460537      0.43050984     27.65912437
Na        2.25877523      0.31299365     32.05921936
Na        2.39552927      4.54198933      9.34446239
Na        4.65645885      4.61107588     15.78533173
Na        2.30095053      4.54401445     17.99426651
Na        2.24563384      4.54195595     23.20523643
Na        2.15177584      4.45491409     26.97795296
Na        4.24427080      4.41472387     34.24131012
Na        2.49260926      8.74875736      4.74509954
Na        4.59683084      9.56718349     11.34118652
Na        2.30689645      9.33337688      9.13183975
Na        2.30085826      8.90969276     18.49473953
Na        2.31526423      9.40238285     23.01424789
Na        2.43004823      9.51732349     27.26682091
Na        2.33527136      8.93796062     31.78466415
Na        2.40627456     13.70294380      4.42729712
Na        0.42056316     13.95979786      6.52217293
Na        2.25857115     13.38982582     13.98776054
Na        2.23695254     13.69681358     18.42336655
Na        2.11295772     13.93532944     23.11203384
Na        2.07839203     13.52229595     27.35736275
Na        2.41129923     13.96526241     31.70072746
Na       -0.02357518     20.55198097     -0.08141719
Na        2.27809453     18.14572334      9.07928085
Na       -0.20019040     20.67762947     13.29487610
Na        2.21544480     18.05974960     18.41605568
Na        2.12996411     18.10624123     22.97167587
Na        2.33546591     18.47461891     27.60944366
Na        7.01540852     18.18400764     32.21675873
Na        2.55304575     22.94991875      4.10785437
Na        2.48210454     22.79365349      9.14607430
Na        0.16957763     22.90959930     15.91509151
Na        2.35362244     22.64650345     18.57464600
Na        2.28653574     22.87024117     22.96810532
Na       -0.10681460     22.94710922     25.25029945
Na       -0.26357788     25.07256699     32.13465118
Na        4.59606028     27.55254745      6.83398390
Na        2.24299455     27.51599693      9.11582947
Na        2.34309196     27.30632973     13.87552071
Na        2.15540504     27.43793869     18.52179146
Na        4.40119171     29.87043571     23.29578400
Na        2.09985352     27.34178352     27.41751099
Na        2.23385644     27.18737411     31.94970322
Na        6.57594633     -0.12143024      4.59465265
Na        6.73181105      0.10958560      9.57626629
Na        6.86989689      0.09945916     13.58479309
Na        6.70536137     -0.06393093     17.89435387
Na        9.43870735      0.30316451     24.95152855
Na        6.88727856      0.20829746     27.29777145
Na        6.77814150      0.16254675     32.07997894
Na        6.80499077      4.47528076      4.56851578
Na        6.81759310      4.38301611      8.80949879
Na        4.85483551      4.37240458     11.32105827
Na        9.43851852      4.58360052     20.32954407
Na        6.69891262      4.47200871     22.49884796
Na        6.43005705      4.59401464     27.44484711
Na        6.86816549      4.88025808     31.93329048
Na        6.89362240      9.45088387      4.66267776
Na        9.08718300      9.15799141      6.92748070
Na        8.82018185      6.92097569     13.79948425
Na        6.84526730      9.02317715     17.72892761
Na        6.71910286      8.81384373     22.62638474
Na        6.74683428      9.15348434     27.57952499
Na        4.47016525      9.34056568     34.30373764
Na        6.83440781     13.53035069      4.57953262
Na        6.95576000     14.04988480      8.95914268
Na        4.94061232     11.56309700     13.96247864
Na        6.87934017     13.52707005     18.11504173
Na        6.83908653     13.63541603     22.63380432
Na        6.66894579     14.17645741     27.58746529
Na        4.94441795     15.87243462     32.19258118
Na        6.80071020     18.44939995      3.97553873
Na        6.74357939     17.96060944      9.15628242
Na        6.64443970     18.22065544     13.69791794
Na        7.04055166     18.29260063     18.45547104
Na        6.40962124     18.44852448     22.92797470
Na        4.78189707     20.63793182     27.53116989
Na        4.28355789     18.56778526     34.25921631
Na        6.91009140     23.01159477      4.56010628
Na        6.92581034     23.12367249      8.88538265
Na        4.14266777     20.49247742     14.00185490
Na        6.64258766     22.46986771     18.23684692
Na        6.68063736     22.78797913     22.87433052
Na        7.14087152     23.01904869     27.20604706
Na        7.04595900     22.67544937     31.71313286
Na        6.73934603     27.58130264      9.00583172
Na        6.94906664     27.31963730     13.88847446
Na        6.69070721     26.98911858     18.24328804
Na        5.02469683     27.60836792     25.20369720
Na        9.60981464     27.42529106     29.59954643
Na        6.73377419     27.51504707     32.07796860
Na       11.27270508      0.19845684      4.80673647
Na       11.38361168      0.01208430      9.35137367
Na        8.89817619     -2.34992003     13.99687767
Na       11.39424706     -0.34100661     18.24087715
Na       11.50373268     -0.14616030     27.77191162
Na       11.38061619     -0.04396261     31.44641304
Na       13.81617546      5.06724596      6.90682316
Na       11.47942448      4.48133993      8.98647881
Na        9.12304878      4.66672564     16.02953720
Na       13.96827602      4.70010138     15.89149570
Na       11.58553505      4.70010710     22.64012527
Na       11.42141247      4.76486158     27.42210388
Na       11.56342983      4.65098286     31.65642166
Na       13.76820374      9.16667843      2.12605548
Na       11.34790421      9.26091003      9.11167240
Na        6.71072197      4.18611574     13.61996937
Na       11.46518803      9.51910686     18.30464363
Na       11.52030277      9.23764706     22.99736786
Na       11.38480377      9.30031586     27.12904167
Na       11.55987740      9.38868523     36.54432297
Na        8.91966820     13.85880184      2.19948554
Na       11.27744579     13.74738693      9.13040638
Na       11.42563343     13.33221149     13.68786526
Na       11.66080856     13.18269348     18.37072182
Na       11.34670353     13.93156624     22.38882256
Na       11.41339493     13.72349739     27.40029716
Na       11.42536259     13.54031467     31.85044670
Na       11.51774025     18.35939026      4.92429924
Na       11.42189789     18.42510414      9.15264320
Na       11.36542320     18.08701897     13.70599651
Na       11.36423779     18.34464836     18.36734962
Na       11.53488827     17.96526909     22.76565552
Na       13.52887630     20.64087105     27.42395401
Na       11.44505215     18.44742012     31.81958389
Na       11.54159546     22.82813263      4.41850233
Na        8.78831673     22.73640442     11.35708332
Na       11.48316479     22.90269279     13.21371460
Na       11.29190636     22.99904823     18.04685020
Na       11.49099064     23.64503098     22.81640434
Na       11.44999599     23.38661575     27.35476112
Na       11.52106094     22.75353432     31.89987373
Na       11.23251534     27.31871605      4.76047564
Na       11.55359459     27.64895248      9.15530491
Na       11.34031391     27.61033249     13.08799076
Na       11.33776760     27.45284081     18.31816101
Na        9.28201389     27.60995674     24.84916687
Na       11.24450874     27.45634270     27.31167412
Na       11.42003345     27.58073425     31.96021461
Na       15.70430851      0.21152672      4.68241024
Na       15.88730240      0.25725803      8.79473400
Na       16.11971855     -0.06359826     13.48099804
Na       16.07238579     -0.13360189     17.72397995
Na       16.11032104     -0.17760652     22.89145660
Na       15.89686012      0.21125518     27.58329201
Na       16.18631744     -0.43391407     32.23324966
Na       16.03409004      4.30368853      4.43761063
Na       20.54424477      4.54292393      9.28409576
Na       18.28562355      4.11077738     11.35915756
Na       15.80872631      4.36112690     18.26545334
Na       16.04434395      4.39339018     22.84563828
Na       15.95170403      4.50982237     27.41172409
Na       16.11534882      4.52333879     32.05133438
Na       15.87021446      8.80067730      4.50563908
Na       16.01543045      8.97885513      9.01746655
Na       15.69704628      9.07787514     13.76196575
Na       13.72235489      9.37615490     20.28144455
Na       18.03194237      9.37668228     25.03548241
Na       15.96506882      8.86252785     27.26563072
Na       15.91407013      9.16856003     31.47752190
Na       13.47976780     13.72286892      6.72481251
Na       15.80860996     13.70437622      8.94952488
Na       16.14123726     13.84286976     13.95646381
Na       15.73530388      9.72313404     18.13370514
Na       16.05174828     13.55551529     22.80197334
Na       15.75557518     13.86872292     27.21993065
Na       16.21726990     13.62104130     32.38441849
Na       16.05958366     18.26925659      4.49625301
Na       16.14284325     18.40386772      9.02676868
Na       16.13971138     18.57422638     13.89991379
Na       16.15473747     18.32351685     18.25438309
Na       16.02992249     18.08200455     22.82658768
Na       15.84714413     18.50010872     27.57151031
Na       16.10774040     17.76207733     31.80127525
Na       15.98365402     22.84181595      4.90894604
Na       16.07070541     22.74085426      9.52215862
Na       15.91489983     22.87566948     13.18120480
Na       15.82755661     22.65449333     18.58806610
Na       15.98348236     23.45375252     22.93166542
Na       16.37180138     23.30875778     27.25250244
Na       16.09902382     22.95980644     31.81606293
Na       18.21582603     27.13192940      2.22220159
Na       16.18821716     27.78454971      9.30157089
Na       16.15027046     27.37793732     14.05435371
Na       15.83926868     27.61302948     17.88813210
Na       18.43094635     25.19033813     22.78352737
Na       13.88768673     25.37033653     27.43977547
Na       15.87007046     27.47328377     31.59423447
Na       20.78166389     -0.17981334      4.81756210
Na       18.58275604      0.56554586      6.76581955
Na       23.03474236     -2.22299814     13.70093250
Na       20.41779137     -0.02273615     18.37722206
Na       22.91899872      0.24843480     25.09496498
Na       20.72712517      0.20397086     27.54129982
Na       20.69079971     -0.18130504     32.04149628
Na       20.55423927      4.68891191      4.49383497
Na       18.20336151      4.57588625      6.69968081
Na       20.61129379      4.64981508     13.55317688
Na       20.33827782      4.66245174     18.23326874
Na       20.44048691      4.41201162     22.77948761
Na       20.53323364      4.80776405     27.95770836
Na       20.65820503      4.35228300     32.07738876
Na       20.45552254      9.16380787      4.47911310
Na       20.47569847      9.03854942      9.59321690
Na       20.58827972      8.98306847     13.61076832
Na       20.49733925      9.29307175     18.15234947
Na       20.69492149      9.10311890     23.16894341
Na       23.05755234     11.53163528     27.62591553
Na       20.53316116      9.17017174     32.25228882
Na       20.35755920     13.51723480      4.52515984
Na       20.57441521     13.87832260      9.49078846
Na       18.22904015     13.79433823     16.14200592
Na       20.66508865     13.19837952     18.74418259
Na       18.55367088     11.46065998     22.74685478
Na       20.50081444     14.02780628     27.26523399
Na       20.53216362     13.59193707     31.87666321
Na       20.54557419     18.21675873      4.90558767
Na       20.83864594     18.78201675      9.00102329
Na       20.63967514     18.55495262     13.75047493
Na       20.67412186     18.62492752     18.70133018
Na       20.61035728     18.06243134     22.80476189
Na       20.46487999     18.25404167     27.56097794
Na       20.44371033     18.34138298     31.99770355
Na       20.52241135     22.91153336      4.36635017
Na       20.83009338     22.92212296      8.91772366
Na       20.39088821     22.80733299     14.09758186
Na       20.45247650     23.01687241     18.58281898
Na       20.51136398     22.82088852     22.66691399
Na       20.65102196     22.82347488     27.13924789
Na       22.67935562     22.76681328     34.15148926
Na       20.39493179     27.65103149      4.15341520
Na       22.97133255     29.70389175      9.23764992
Na       20.65245628     27.36060905     13.66547871
Na       20.69685745     27.89188766     18.78411102
Na       22.95138741     27.51106834     25.09644318
Na       20.52145576     27.33880806     27.37907410
Na       18.52749062     24.96712494     31.95311546
Na       27.27064323      0.17172681      6.78331137
Na       25.11558342      0.32182118      9.37302589
Na       25.17340660      0.39541835     13.44399452
Na       22.47750664      0.41523439     20.59738159
Na       22.84752274     -2.36308718     23.00634575
Na       25.33034134      0.18228947     27.82032585
Na       23.23131371     -0.25127304     29.92055130
Na       25.12836266      4.66204643      9.26465034
Na       25.05484581      4.43125534     14.22471619
Na       25.32851410      4.83083439     18.43448639
Na       25.13772202      4.73227072     23.02584648
Na       25.11969566      4.33133602     27.39678001
Na       25.25193787      4.31731319     32.23348618
Na       24.99690247      9.04374504      4.32047129
Na       25.03754997      8.79332924      9.20558548
Na       25.02160835      9.06222630     13.72796535
Na       25.34701157      9.16601849     18.42579269
Na       25.15244675      9.17194557     22.90218925
Na       25.05135918      9.10701180     27.72690582
Na       25.04727745      8.75269985     31.69866943
Na       25.10558510     13.80721188      4.65833902
Na       24.77915382     13.55884457      8.77059269
Na       25.08766747     13.62591743     13.85501957
Na       25.16884804     14.04094982     18.47806549
Na       22.86497688     13.75319290     20.58931732
Na       27.57048607     13.85146141     29.82781601
Na       25.06421471     13.96533298     31.76158142
Na       25.07895851     18.19978523      4.30908585
Na       25.03375435     18.69268036      8.99215126
Na       25.28800392     18.20686150     13.91518879
Na       22.85520554     18.41615677     20.35695839
Na       25.34743500     18.71246910     22.89929962
Na       25.13081551     18.31672668     27.47554016
Na       25.18519020     18.05666924     32.38819122
Na       22.42787552     25.16401863      4.50880480
Na       25.27761078     22.97951889      8.91671944
Na       24.95415306     22.78283691     13.73272991
Na       25.02836227     23.03992844     18.14732933
Na       25.18091011     22.85101891     22.70256805
Na       25.10043716     22.49436188     27.19615173
Na       24.99252510     22.74491119     32.14978790
Na       25.22712898     27.13020325      4.53117561
Na       25.24678993     27.44777870      9.21550369
Na       27.37831879     27.73666954     11.50253105
Na       25.28505707     27.76667404     18.08968353
Na       25.36141777     27.52125359     22.97451210
Na       25.01838303     27.42273712     28.03796959
Na       22.77841568     24.92737198     32.04892349
Na       29.72099876      0.18640985      4.46409369
Na       32.02167892      2.18830156      9.30389690
Na       29.68711090     -0.11425359     13.50607681
Na       29.62795258      0.14540747     18.55988312
Na       29.53153801      0.10625984     23.03491592
Na       29.65449142     -0.42165041     27.35034370
Na       29.68885231     -0.15268756     32.00942230
Na       29.67474747      4.35173702      4.82821131
Na       27.26634789      4.24717379      6.90646267
Na       29.76537132      4.72940874     13.74383354
Na       29.77267265      4.52132797     18.28730774
Na       29.75067902      4.63964939     22.96786690
Na       29.60094070      4.64698505     27.59750175
Na       29.77642632      4.47124767     31.75830650
Na       29.42273331      9.05970287      4.51023722
Na       29.79487228      8.85155487      9.21937084
Na       29.84220314      9.44927406     13.65926552
Na       29.88249207      9.22293472     17.68433762
Na       29.63241577      9.19161224     23.48149872
Na       29.67868614      9.19829941     27.31309509
Na       29.68672371      9.45932007     31.86953735
Na       29.84522820     13.72562027      4.75386238
Na       29.54400063     13.52032089      8.87752342
Na       29.64692497     13.66420269     13.49117470
Na       29.76349449     13.93354607     18.45237732
Na       29.71205330     13.35023403     22.65362358
Na       29.49658966     13.80737209     27.49366570
Na       29.64333725     13.65612793     32.30065155
Na       27.27345657     20.35210419      4.47118521
Na       29.72047997     18.31608200      9.09220505
Na       29.68939018     18.47500420     13.93443108
Na       29.74008560     18.36747551     17.96636963
Na       29.71697235     18.20876503     22.99763489
Na       29.95012093     18.49166489     27.09671211
Na       29.82181168     18.23663902     32.16749573
Na       32.53414536     22.59837914      6.78251314
Na       30.06619072     22.90360451      9.14767838
Na       32.12591171     25.22577286     13.72675610
Na       29.76530838     22.64779663     17.85029602
Na       31.89419174     22.88561630     20.46182251
Na       29.48104858     22.84731293     27.55663872
Na       29.86508751     22.66509438     31.68033218
Na       29.67590904     27.45491028      4.76937628
Na       32.16444778     27.05772209     11.45938206
Na       29.67687416     27.79442787     18.31228447
Na       29.74748230     27.46889687     22.86381721
Na       29.58615685     27.44936562     27.21895027
Na       29.71144867     27.47337532     31.77188110
Na       -0.00783717      2.27472782      4.60731077
Na       -2.27091312      5.18446255      9.19783878
Na        0.10864673      2.29270673     14.03929806
Na       -0.08155408      2.40208650     18.19474220
Na        0.26785362      2.32844710     22.65700531
Na       -0.22443153      2.33068180     27.69061852
Na       -0.00268990      2.17929721     32.14541245
Na       -0.19555999      4.27550220      2.45051360
Na        0.21384178      6.75981617      8.72168922
Na        0.19389533      4.98657656     15.84719753
Na        0.07270757      6.96618986     18.25606728
Na        0.28282723      7.09217739     22.39451790
Na       -0.11712746      6.98475885     27.55541420
Na       -0.25462937      6.74565268     31.90057755
Na       -0.42817163     11.30165768      4.53842545
Na        0.14133474      9.06079865     11.29729271
Na        0.18562979     11.52013016     13.51826191
Na       -0.24452549     11.38600159     18.34063911
Na        0.23437943     11.64835548     22.95354843
Na       -0.12720053     11.47152519     27.28592491
Na       -0.06504983     11.50673962     31.66738510
Na       -0.02383885     15.88965416      3.84979153
Na       -0.01763933     15.88760757      9.13137245
Na        0.30498952     15.87421513     13.82048035
Na       -0.13811040     16.10727882     18.55348396
Na       -0.33390820     15.85455322     22.65307045
Na        0.15288453     15.97075558     27.72155762
Na       -0.02332290     16.05953026     31.94540977
Na       -2.15817428     18.19539261      4.40918922
Na        0.04140494     20.50885201      8.69919205
Na        2.16392207     22.99685287     13.65265942
Na       -0.08649660     20.51197052     18.69696808
Na        0.35478121     20.46177864     22.78821373
Na       -0.05387346     20.70911789     27.53068542
Na       -0.00019962     18.20471382     29.69963455
Na       -0.06968307     25.19577408      4.19293451
Na        0.26071870     27.11779404      6.84859610
Na       -2.44813061     27.42930794     13.90528488
Na       -0.24493414     25.36410904     18.38500404
Na        2.35389709     27.39472389     22.83693123
Na       -0.16367489     25.14478111     27.49855804
Na       -0.38823429     22.67668343     34.19854355
Na        0.13431752     29.54236221      4.63347387
Na        0.10515959     29.63979912      9.11414814
Na       -0.28544125     29.61973763     13.89389420
Na        0.27644429     29.77089882     17.79522133
Na       -0.00824094     29.64871788     22.91625214
Na        0.12170922     30.16557693     27.26101875
Na        0.37503362     29.66353607     32.01135635
Na        4.67420483      2.15186262      4.50542259
Na        4.43470335      2.13967681      8.91445446
Na        4.27797461      2.12275434     13.55708885
Na        4.33782148      2.10911703     18.14458847
Na        4.31509876      2.42682362     23.00187683
Na        4.60797739      2.16163015     27.27438164
Na        4.73284864      2.27616978     31.85762787
Na        4.81466722      6.73345661      4.50044012
Na        4.51364994      6.90200567      8.99175835
Na        2.43690801      9.58961582     13.26345444
Na        4.60091543      6.83767462     18.08261490
Na        4.14977980      6.83519745     22.68021584
Na        4.41792440      6.75293064     27.75565529
Na        2.15607452      4.59383488     31.90237045
Na        4.56919670     11.52975845      4.44366026
Na        4.94728184     11.54452419      9.15651703
Na        6.91874504      9.08308983      9.13252354
Na        4.82626104     11.38428020     18.28926659
Na        4.85898542     11.45794487     23.01647186
Na        4.59545994     11.31292152     27.41996002
Na        4.75028276     11.42683697     32.00053024
Na        4.76769924     15.84145927      4.05904245
Na        4.05886602     15.82885647      9.35174561
Na        4.52134180     16.16152191     13.28915787
Na        4.86508417     16.09916687     18.47512054
Na        4.62303209     15.98770428     22.98201370
Na        4.25891447     15.91689682     27.68098259
Na        2.31247306     18.19621849     36.31472015
Na        4.50780249     20.36716080      4.32074642
Na        4.66748524     20.44492531      8.91361809
Na        4.43470383     18.18265152     15.93828201
Na        4.56736374     20.46160507     18.25460052
Na        4.43879604     20.68808746     23.10328102
Na        2.43167305     22.91951942     27.50651932
Na        4.61896992     18.33507729     29.81914902
Na        4.68164730     25.23116493      4.51052380
Na        4.54313421     25.17492294      8.88499737
Na        4.68683767     25.30818367     13.30535126
Na        4.22899914     25.07857323     18.30732155
Na        4.56597233     25.34637260     22.89814949
Na        4.64193296     25.22600746     27.48580933
Na        4.62964821     25.12153816     31.70107269
Na        6.74939060     27.63133621      4.08559227
Na        4.51941156     29.77070618      9.25506496
Na        4.69437551     29.63249207     13.80164719
Na        4.55629206     29.65294266     18.13855553
Na        4.39857292     32.28992844     25.08571053
Na        4.08591366     27.34853172     29.73639870
Na        4.49569130     29.79371452     32.38335037
Na        8.87750912      2.28259683      4.40501213
Na        9.19835377      2.33734179      9.14798260
Na        9.07355499      2.33535433     14.05640602
Na        9.25226688      2.19912529     17.97650528
Na        6.86042547     -0.33553869     23.09940529
Na        8.95015430      2.43436027     27.57818222
Na        9.70229244      2.33513188     32.23274612
Na       11.22203255      4.14852095      4.83908463
Na        9.00094318      6.85516930      9.56826973
Na       11.65554523      4.51770926     13.85541725
Na        9.15781975      6.89497423     18.12661934
Na        9.24522686      6.83533049     22.78057671
Na        8.87994003      6.95421982     27.39103317
Na        9.24906921      7.13233376     31.82906914
Na        9.17256641      8.82786179      2.45596457
Na        9.11716652     11.33801746     13.24942780
Na        9.25858784      9.15883350     15.82170582
Na        9.04045963     13.29630470     15.79109478
Na        8.97139454     11.54474258     23.02221870
Na        8.85947037     11.66323757     27.65621376
Na        8.72359085     11.33495808     31.85036087
Na        8.97948456     15.98348045      4.84494305
Na        9.36979675     16.09305954      8.94581413
Na        9.00755692     16.11204338     13.94305134
Na        9.31007767     16.08110809     18.52989960
Na        9.45901394     18.57076645     25.22864914
Na       11.36675167     18.35188293     27.75553703
Na        9.16894913     15.92189312     31.71099663
Na        9.34692097     20.39566612      4.36906385
Na        9.00884342     20.35435295      9.15020466
Na        9.18101978     20.72945786     13.87193203
Na        9.27896786     20.68956375     18.18639755
Na        8.84688759     18.11947632     20.75297546
Na        6.81967974     18.22084808     27.33672714
Na        8.80609226     18.16380119     29.78936005
Na        8.97447968     25.27466011      4.91319370
Na        9.33229733     25.14518738      9.13796139
Na        9.06966591     25.15261841     13.85966969
Na        8.99443626     25.21424866     18.29760361
Na        8.73770905     25.38901901     22.94895744
Na        9.33226204     22.89160919     25.02797508
Na        9.30068779     25.02687263     31.76860809
Na        9.08222771     29.70538521      4.81899738
Na        9.22383785     29.76789284      9.17049122
Na        9.33738899     27.45710373     16.06622696
Na        9.48741436     30.00535774     22.77080345
Na        9.11979103     30.08590698     27.21579170
Na        9.20153809     29.71539116     32.34088516
Na       13.87086868      2.49734282      4.74542856
Na       13.66575146      2.39348316      8.61406231
Na       13.60680962      0.08243308     15.86745071
Na       13.42714500      2.20682311     17.78203392
Na       13.65318012      2.39328837     22.81340408
Na       13.50200558      2.29898238     27.10623741
Na       13.85336685      2.40976429     32.02442551
Na       13.53617954      6.74458838      4.46042633
Na       13.38796139      6.91849041      9.40946484
Na       13.45529366      6.80587482     13.77521896
Na       13.44195557      9.16926289     15.92790985
Na       13.88895607      6.93443966     22.54972458
Na       13.80670738      6.92258692     27.74519348
Na       13.55403519      6.95033360     31.72424126
Na       14.28153706     11.54119873      4.37878370
Na       14.04201031     11.44477749      9.06148243
Na       11.45359707      9.14636803     13.45044518
Na       13.65423965      7.02728605     18.09878349
Na       13.65610123     11.51088333     22.86289406
Na       13.79728794     11.55033207     27.27560043
Na       13.77478981     11.56658268     31.74259949
Na       13.70913315     15.99486160      4.28048992
Na       13.71536827     15.90479660      9.09173679
Na       13.41004944     15.77509594     13.56663322
Na       13.52640629     15.99348259     17.99405289
Na       13.49973106     15.97792530     22.50536346
Na       13.09916115     15.85315704     31.75877953
Na       13.75479698     20.55799484      4.45227766
Na       13.88727188     20.54618263      9.42009926
Na       13.69814301     20.72654915     13.11140251
Na       13.65117359     20.54953575     18.31151009
Na       13.36823940     20.72815323     22.71578598
Na       13.55066967     18.12691498     25.13203430
Na       13.87012196     20.40793800     32.17611313
Na       13.65097713     25.21430397      4.60831833
Na       13.51684666     25.04712296      9.57950497
Na       13.57503414     24.97965240     13.10359383
Na       13.75115108     25.08475876     18.43444443
Na       13.87156773     27.24416542     24.90508652
Na       11.68836117     27.30188370     22.74303055
Na       13.49048710     25.18391991     32.03701019
Na       13.72140121     29.61915970      4.27874899
Na       13.95836163     29.82825089      9.25795650
Na       13.94702721     29.82913971     13.63590050
Na       13.59332466     29.66773415     18.26257706
Na       13.45658302     29.68148041     22.54313469
Na       13.90188789     29.75335312     27.06117630
Na       13.50586414     29.71284103     31.79455757
Na       18.51136398      2.28175187      4.49651766
Na       20.57666206      0.03890008      9.05159187
Na       18.38211250      2.04849100     13.93214417
Na       18.16360664      2.32559061     18.53924942
Na       18.38910484      2.15594697     22.62972260
Na       18.42489243      2.31286860     27.15783882
Na       18.16552162      1.98795795     32.09378815
Na       18.08131599      6.69937420      4.54550266
Na       17.95566368      6.76795197      9.03877831
Na       18.65166092      6.71050835     13.55368614
Na       18.05960274      6.83969116     18.24221802
Na       18.31192589      6.93932295     22.79732132
Na       18.66647720      7.00060129     27.26106071
Na       17.99127960      7.04442215     32.01610565
Na       18.21291351     11.39287281      4.57320499
Na       18.05173683     11.22411251      9.53847790
Na       18.26775169     11.47917080     13.98558521
Na       18.36903191     14.02452660     20.57479095
Na       20.59510612     13.79173660     22.86039734
Na       17.92289734     11.47772217     27.41542625
Na       18.43098831     11.56223488     31.53286743
Na       18.28813744     16.06483078      4.30742598
Na       18.52998734     15.84011459      8.83596134
Na       18.42703629     16.03671455     13.80116749
Na       15.88139343     13.69311810     18.54530716
Na       18.41057968     16.03076363     22.62092972
Na       18.04955482     16.08080101     27.31031418
Na       18.37952614     15.83465385     32.27745819
Na       18.32281494     20.50124931      5.05636501
Na       18.53820038     20.68095398      9.40655041
Na       18.24113083     20.65551376     13.91845894
Na       18.34154320     20.47775650     17.83460236
Na       17.92015076     20.73687744     22.96525955
Na       18.26513863     20.80973244     27.11612129
Na       20.40798950     22.82057190     31.73408318
Na       18.20959282     24.89820480      4.58320236
Na       18.15573120     25.32454491      9.28217793
Na       18.05745125     25.08413887     13.32062817
Na       18.12781906     22.73829651     20.45572090
Na       18.51926613     24.85124397     27.71949959
Na       18.30365181     27.27652359     29.53244591
Na       18.35700035     29.66927338      4.73170042
Na       18.31785774     29.71389008     13.93584919
Na       18.16629791     29.86785126     17.93368721
Na       18.27427292     29.86480141     23.03078842
Na       18.17573166     29.82792473     27.17922592
Na       18.23854065     29.80079079     32.17924500
Na       22.84902573      2.28273821      4.43767786
Na       22.69508934      2.34772778      8.58662701
Na       22.70405579      2.23048639     13.69503593
Na       22.90800095      2.34363890     18.20608711
Na       22.68508530      2.39777231     27.93657112
Na       22.62114525      2.13734365     32.04070663
Na       22.70609665      6.92936707      4.64352322
Na       22.58121681      6.68091774      9.00743771
Na       22.85982895      6.94212389     13.69222546
Na       22.92121506      6.94772053     18.19814873
Na       22.70940208      6.81713104     23.11002541
Na       22.82298088      6.90964556     27.68833542
Na       22.69635391      6.71007538     31.94167519
Na       22.65237427     11.56869602      4.95256519
Na       22.52598953     11.11488247      8.91528511
Na       22.71514702     11.38873672     13.86135483
Na       23.17660141     11.27043629     18.26519775
Na       22.93090439     11.43447399     22.81093788
Na       22.79092026     14.00077534     29.52587891
Na       23.15425873     11.63025284     32.05078125
Na       22.85075951     16.01905251      4.66610622
Na       22.87508774     16.00426674      8.96732903
Na       22.78209305     15.76017857     13.52212524
Na       22.61801720     14.01451015     16.08307457
Na       23.20564651     15.81039143     22.82826614
Na       22.99061394     16.08383560     27.33065796
Na       22.54401588     16.26760101     32.43190002
Na       22.75877380     20.58766556      4.56229305
Na       23.27166557     20.77009583      9.08508015
Na       23.15261269     20.62393188     13.64180279
Na       22.95374489     20.65976906     18.48370934
Na       22.71529961     20.45198441     22.89558029
Na       22.75600815     20.53882980     27.29780579
Na       23.04075241     20.49509048     31.89872932
Na       22.92222595     27.22045517      6.66908503
Na       23.27250481     25.10225677      9.34465313
Na       22.59138870     25.32295418     13.64168262
Na       22.59060097     25.27084541     18.39095688
Na       22.93506813     25.16942215     22.80165482
Na       22.90777397     24.92166901     27.37396812
Na       22.83024788     27.03287315     29.77765656
Na       25.17419815     31.79574394      4.54702473
Na       23.30097961     31.57296371      6.85973358
Na       25.17755127     27.32081985     13.94338608
Na       23.04891205     29.96033096     18.51788139
Na       20.71735764     27.37926865     22.81634712
Na       23.25066376     34.28328323     23.04489899
Na       25.31808281     27.30605698     31.51381493
Na       27.33460045      2.25152874      4.40159369
Na       29.63344383      0.25669128      9.01235962
Na       27.65220070      2.19144678     13.63790703
Na       27.48301506      2.52843857     18.50168800
Na       27.29543877      2.33307743     23.09290695
Na       28.01618385      1.93461168     27.53790665
Na       27.65859795      2.16393518     32.08147430
Na       27.12975883      6.71093225      4.18511057
Na       27.34766960      6.77805853      8.69275475
Na       27.81551170      6.89539003     13.71307850
Na       27.19407272      7.04199743     18.36001587
Na       27.35016441      6.97431707     23.04131508
Na       27.00249100      7.03459024     27.37718582
Na       27.78470612      6.78583241     32.08933258
Na       27.38334274     11.40823364      4.38934231
Na       27.41357994     11.39322376      9.34804535
Na       27.56373405     11.43135834     13.21413517
Na       27.64752579     11.47053719     18.16777229
Na       27.08025742     11.55154896     22.75271225
Na       27.04648590     11.72251797     26.88791084
Na       27.37599373     11.49551773     31.75535202
Na       27.27011108     15.89391041      4.47059631
Na       27.46531677     15.98684597      9.21690655
Na       27.51504135     15.94284725     13.54381371
Na       27.58052826     15.82824516     18.03766441
Na       27.13160324     16.07406616     22.69459915
Na       27.26548195     15.97321892     27.53884506
Na       27.31112862     22.71966171      2.35417295
Na       27.60267067     20.65136528      9.40017414
Na       27.37725830     20.69963646     14.11255455
Na       27.03219604     20.52304268     18.40914345
Na       27.62325478     20.51640129     22.94217491
Na       27.41112137     20.54085159     27.75756836
Na       27.58821106     20.52075005     31.67785263
Na       27.50205231     24.95036888      4.41434813
Na       27.42689133     25.24857521      8.76763725
Na       27.33756447     25.28303146     13.47055531
Na       27.47416115     25.55023003     17.88750648
Na       27.54204559     25.05072021     22.96266937
Na       26.92997551     25.01598358     27.44205856
Na       27.54273796     25.19480896     32.02675247
Na       27.51387024     29.62679672      4.63358068
Na       27.56529808     29.83714485      9.13158989
Na       27.33589363     32.00797272     16.14981079
Na       27.69293594     29.90310287     18.71080589
Na       26.98335648     31.85924530     24.92897987
Na       27.31743813     29.75641060     27.69011116
Na       27.45671654     29.77764702     31.62764168
Na        0.00339359     -0.29775310      2.19541359
Na       -0.17588528     -0.18515912      6.88704300
Na        0.02830923      0.07942501     11.58977222
Na        0.08634486      0.33314484     16.07942963
Na       -0.07647746     -0.21241590     20.64670563
Na        0.06164320      0.51643062     25.15869522
Na        0.09934087      0.02877170     29.66326332
Na       -0.39088121      6.80875969      4.72738409
Na        0.17148887      4.28271246      6.88238001
Na       -0.34188813      4.50110912     11.48585510
Na        2.35072398      4.77159977     13.80281258
Na        0.06812549      4.59180307     20.56189346
Na       -0.24378486      4.63904476     25.22605705
Na        0.14767538      4.53714418     29.60005379
Na        0.27808213      8.89340115      2.14048171
Na        0.23126878      9.42251301      6.73014784
Na        0.59657788      7.05061483     13.61878872
Na        0.48921758      9.21598053     16.12693596
Na       -0.32453042      9.27056408     20.46692085
Na        0.21524514      9.12784004     25.19656563
Na       -0.18859123      9.23820496     29.79057503
Na        0.34341604     13.30137920      1.83489549
Na        0.43888861     11.65733624      9.05395794
Na        0.26580483     13.88550472     11.30734444
Na       -0.39584580     13.56376839     15.98903275
Na        0.20515603     13.57126617     20.38893509
Na       -0.10106337     13.88868713     25.24316216
Na        0.02346789     13.38812828     29.72061729
Na        0.00862485     20.27442551      4.17778778
Na        0.23504129     17.83512878      6.89986038
Na        0.04820613     18.12224388     11.16606903
Na        0.46537715     18.75958061     16.02303314
Na       -0.02910246     18.39831352     20.48232460
Na        0.15872926     17.97974205     25.32601357
Na        2.13400578     18.14940643     32.05206680
Na        2.34962273     22.67188454      0.16095060
Na        0.09149409     25.03158188      8.69799995
Na       -0.25746912     22.99040031     11.33575344
Na       -2.25461268     22.94097137     13.80115604
Na        0.21401326     25.09715652     22.74045753
Na       -2.01102448     22.80464363     22.82149696
Na        0.24179098     22.90467834     29.67576981
Na        0.09851002     27.24798584      2.18567467
Na        2.41833615     27.20663643      4.55408478
Na       -2.33146429     27.18972015      9.21924686
Na        0.06398100     27.52961349     15.92482471
Na       -0.13309477     27.56393433     20.42760086
Na        0.04494793     27.36244202     25.11489868
Na        0.00201797     27.74276161     29.67180252
Na        4.62769079      0.09272592      2.31553769
Na        4.28665495     -0.47437972      6.81823206
Na        4.03361034      0.17528157     11.50115490
Na        4.48156071     -0.19002101     16.06021309
Na        4.92421961      0.27032000     20.63084221
Na        4.42078686     -2.18764257     27.45791245
Na        4.72155190     -0.14809977     29.66009331
Na        2.35832477      4.95033789      4.65445566
Na        4.23942518      4.10740566      6.73351002
Na        4.74497032      6.92245102     13.34008026
Na        6.93978071      4.24948072     18.11277199
Na        4.55915928      4.55233526     20.45324707
Na        4.83349276      5.15469122     25.07601547
Na        4.58554745      4.42607784     29.68574142
Na        4.64074707      6.76721907      0.37474078
Na        4.69398499      9.35511398      6.84756565
Na        7.07495975      9.35972786     13.03213596
Na        4.26853561      8.91327095     15.83141613
Na        4.68059826      8.68095207     20.42281151
Na        4.60183287      8.80468273     25.00164032
Na        4.36463499      8.96844101     29.78422546
Na        5.02995729     13.43994617      2.26035714
Na        4.68512201     14.01834297      6.68787813
Na        4.47945642     13.64037132     11.51928139
Na        4.45941353     13.99480629     16.03376579
Na        4.51958704     13.77964306     20.57819557
Na        4.33120012     13.54502201     25.21695709
Na        4.84126520     13.46793365     29.86552429
Na        4.88434649     20.62673759     -0.14631636
Na        4.69200087     18.28750801      6.86976957
Na        4.29752207     18.44716263     11.34637547
Na        2.12038183     18.22080612     13.47224140
Na        4.03954077     18.13893700     20.73405647
Na        4.47810030     18.15686417     25.43881035
Na        9.13748837     20.65921593     31.50333214
Na        5.04475451     22.65197754      2.23058271
Na        4.79140854     22.75686836      6.66730785
Na        4.85851192     22.36349487     11.39098263
Na        4.39279842     22.65874290     15.97591782
Na        4.17352104     23.02068138     20.59629631
Na        4.73062468     23.10752678     25.39651680
Na        4.82634354     22.80438042     29.73666573
Na        4.43637991     27.21389198      2.16320872
Na        4.65108442     29.58990669      4.36786604
Na        4.36028099     27.40803146     11.38212776
Na        4.43786812     27.26771927     16.04935837
Na        4.63366127     27.75917625     20.71417809
Na        6.78741121     27.62296486     27.86542130
Na        9.19511890     25.22436905     27.10366440
Na        9.29856873     -0.04121226      2.33882594
Na        8.98221874     -0.15056750      7.15829372
Na        8.76088905      0.00563960     11.56151199
Na        8.86102581      0.03102525     15.94429207
Na        9.14310551      0.06595820     20.38809013
Na       11.39560223      0.05146477     22.55405998
Na        8.43508911     -0.01486205     29.79600906
Na        9.10554314      4.72206116      2.01659918
Na        9.19308472      4.59150696      6.68678761
Na        9.30880547      4.29531384     11.64198780
Na       11.58059692      4.50088882     18.65812492
Na        8.84912014      2.40025854     22.37762260
Na        9.29842186      4.71823645     25.20678902
Na        8.95480633      4.25358009     29.61652565
Na        6.90464783      9.06218719     -0.12485657
Na        9.19168663      6.78935575      4.65783787
Na        9.28385258     11.30596161      9.25820637
Na        9.25402260     11.33249569     18.26954460
Na        9.31057835      9.15302849     20.67549324
Na        9.31192970      9.40483475     25.33650017
Na        9.47313404      9.35311985     29.52189636
Na        9.47598457     11.26185989      4.34126663
Na        9.46574593     13.71208382      6.70609808
Na        8.95492554     13.96551132     11.43179226
Na        6.90944338     13.92106152     13.87960911
Na        8.99797440     13.30421352     20.47296524
Na        8.69551754     13.79209232     25.31424332
Na        9.01743793     13.80042267     29.66054726
Na        9.74720860     18.10022736      2.30467343
Na        9.05254459     18.27063942      6.81114769
Na        8.98210716     18.31421280     11.48302078
Na        9.10580635     18.52860260     15.82211113
Na        9.07588673     15.90888882     23.25235748
Na        9.10918903     16.19881439     27.25791168
Na        9.60938740     20.67319489     27.55278969
Na        9.50571251     22.60486603      2.31424952
Na        9.64076042     22.44735909      6.84361267
Na        6.79114437     22.84353065     13.96785927
Na        9.03447247     23.22659492     15.80709934
Na        9.18581390     23.05653191     20.58545685
Na        9.43607807     20.88789749     22.75911903
Na        9.60599041     23.07229996     29.69690895
Na        9.41298008     27.03665543      2.29030633
Na        8.66721439     27.66209221      6.72634172
Na        9.16163158     27.18460464     11.23527431
Na        8.85546207     29.69245720     18.22947502
Na        9.06647587     27.51918602     20.38286400
Na        6.80946493     27.51132965     22.88493156
Na       13.50492668      0.14997761      2.21573973
Na       13.46373653     -0.56711501      6.71626425
Na       13.41952705      0.12799525     11.29021263
Na       11.54509163      0.05161293     13.50188446
Na       13.92991257     -0.14318676     20.41610527
Na       13.33595943      0.20551743     25.01645851
Na       13.98413849      0.29493421     29.61218643
Na       13.32985687      4.77355003      2.36290193
Na       16.20755005      4.66017199      9.17320633
Na       16.18235970      4.97772884     13.66417503
Na       14.09393024      2.48758817     13.38633156
Na       14.00864601      4.34620047     20.43413734
Na       13.47857380      4.69745398     24.93833542
Na       13.80956936      4.43517303     29.46360016
Na       11.26710320      9.43329811      0.06945227
Na       13.44365501      9.14105797      6.97828293
Na       13.48582077      9.25658607     11.33961678
Na       14.10781574     11.49960423     13.54396439
Na       16.23645782      9.09316921     22.68320847
Na       13.76078320      8.72118950     25.16903687
Na       13.59309006      9.44994545     29.59717369
Na       13.79478645     13.73257542      2.10760236
Na       11.47154522     14.05352974      4.46194983
Na       13.66771698     13.95820332     11.30727291
Na       13.86612415     13.45493412     16.17667007
Na       13.80232620     13.73784733     20.43385315
Na       13.51453686     13.82812881     25.02745247
Na       14.45846081     13.85394573     29.98946571
Na       13.61232567     18.04689980      2.15092349
Na       13.79503155     18.22311020      7.02167845
Na       14.01210499     18.21623802     11.39270592
Na       13.41315842     18.52203369     15.86394215
Na       14.05550671     18.06722641     20.41535378
Na       13.71008778     16.00588608     27.53641701
Na       14.00756836     18.18200684     29.47265625
Na       14.18802261     22.81412315      2.25702357
Na       13.83003807     22.82691956      7.08426285
Na       11.43032360     22.90108299      9.58386135
Na       13.82410145     23.13179588     15.95358467
Na       13.41995811     22.60918427     20.53983879
Na       13.52408409     22.95126534     25.09535980
Na       14.15428352     22.87157059     29.73713303
Na       13.73337078     27.43425941      2.30453515
Na       13.64908504     27.38589096      7.16452980
Na       14.05371380     27.54844093     11.38182735
Na       13.73961163     27.00546646     15.94398212
Na       13.89113045     26.77389145     20.61572266
Na       16.05469704     27.49682808     22.68156624
Na       13.96242809     27.63788605     29.52612305
Na       18.77748108      0.12801442      2.47145057
Na       18.47745514     -2.18067694      8.44673824
Na       18.32821655     -0.42660388     11.07285690
Na       20.55904198      0.06252639     13.71347427
Na       18.21213531     -0.04867354     20.68840218
Na       18.07839394      0.12272178     25.29215050
Na       18.61855316     -0.39189640     29.85940742
Na       18.22821617      4.51917791      2.42020345
Na       18.30677414      2.26768923      9.00686836
Na       13.65775108      4.53792667     11.27923203
Na       18.22378922      4.43298292     16.18406677
Na       17.75819778      4.71618986     20.66358376
Na       18.37305641      4.64127779     25.31414032
Na       18.23563385      4.64165401     29.65045547
Na       18.19945526      9.34570122      2.33694386
Na       18.26151276      9.28081512      7.05964279
Na       18.17746735      9.19104099     11.48941422
Na       18.22941017      8.88604069     15.85867691
Na       18.39620399      9.07817459     20.53592491
Na       20.50675583      9.34724617     27.50934792
Na       18.28871346      9.36386395     29.56672287
Na       16.11870956     13.78242302      4.52679062
Na       18.14113808     13.61260319      7.00621796
Na       18.09288979     13.86423111     11.59214878
Na       18.06650162     11.48826313     18.06049156
Na       18.49182701     15.96770382     18.27110291
Na       18.02687645     13.82637024     25.18647385
Na       17.92245102     13.88879871     29.46538162
Na       18.50448227     18.35943413      2.18746042
Na       18.34497452     18.21557426      6.99839592
Na       18.30698586     18.13686752     11.45704651
Na       18.39986038     18.00864220     16.07507133
Na       18.23041534     18.52865791     20.50594139
Na       18.21001053     18.26186371     25.02794838
Na       18.18929291     17.99369621     29.63026619
Na       18.27970695     22.28588486      2.48536944
Na       18.38552475     22.91607666      7.12011766
Na       18.46777725     22.62211227     11.60940456
Na       17.92626762     23.19348717     16.14041138
Na       18.09930229     25.40818214     18.69950294
Na       18.07157326     23.02717590     24.85754967
Na       18.16440964     21.05174065     31.14220428
Na       15.99748135     27.34670448      4.52767849
Na       18.31811142     27.36069107      6.66180182
Na       18.54511452     27.62489319     11.40975285
Na       18.79990959     26.96648788     15.96211910
Na       17.82934570     27.85663605     20.54617500
Na       18.76896667     27.02704048     25.31913567
Na       15.92259312     27.52658081     27.10618782
Na       23.17994308      0.06667390      2.27282214
Na       22.95345306     -2.55093527      4.36230707
Na       22.91461754      0.25200993     11.08326435
Na       22.84072685     -0.02983459     15.92726326
Na       24.99910927     -0.27277455     22.57516861
Na       20.51832962      0.19020836     22.86788368
Na       23.18834496     -2.39773750     32.22315598
Na       23.10799789      4.72938347      2.21630096
Na       22.84246063      4.59721231      6.67665863
Na       22.82890511      4.32558441     11.43640900
Na       22.69167137      4.35172558     16.04256058
Na       22.98602295      4.91065407     20.48636055
Na       22.69752121      4.14803267     25.45935822
Na       23.24658012      4.60802650     29.75697517
Na       23.03276443      9.11439610      2.31573057
Na       22.69006920      9.11186695      6.73079824
Na       22.83506012      9.26598740     11.49577236
Na       22.75278091      9.17300797     16.04277992
Na       22.53982162      8.98126888     20.75305367
Na       22.84764671      9.27188206     25.40935326
Na       22.48756409      9.16939735     29.80567169
Na       22.49913979     13.77639198      2.34014010
Na       22.63485336     13.72338963      6.84755802
Na       23.01864815     13.24978542     11.44166183
Na       20.44957352     13.57257557     13.83063221
Na       22.74831963     16.14137459     18.48912430
Na       22.74363899     13.38137054     25.03274345
Na       25.24315262     13.98214817     27.11935997
Na       22.34427452     18.38011169      2.47001815
Na       23.01668167     18.19009972      6.82054996
Na       22.84097672     18.30147362     11.33730984
Na       22.60252953     18.35468292     15.94642162
Na       25.21403885     17.96377373     18.16822433
Na       22.81575966     18.29461670     25.07998276
Na       22.98937416     18.09492874     29.75324059
Na       25.09392357     22.87290764      4.62482691
Na       23.14253426     23.00387383      6.57969427
Na       22.79230881     22.76643181     11.39960575
Na       22.66991615     22.94746399     15.96572685
Na       23.15160370     23.17498016     20.43490219
Na       22.76697159     22.50381660     25.00814629
Na       22.64312935     22.56203842     29.58860397
Na       23.05432129     27.42381287      2.24845767
Na       20.46254730     27.27110863      9.25653362
Na       23.39064407     27.75034332     11.39255238
Na       22.77100563     27.58740044     16.26368523
Na       22.69714355     27.54861832     20.52832031
Na       23.24476624     29.81262016     27.65939903
Na       20.62588692     27.58985519     31.80506134
Na       27.28508377     -0.08280004      2.40446734
Na       27.59779167      2.56714463      9.27119637
Na       27.60958481      0.18389298     11.26795769
Na       25.14668274      0.38689908     18.32077217
Na       27.20682335      0.43308726     20.56530571
Na       27.55925369     -2.02530408     22.46548843
Na       25.40511703      0.24551511     31.98094368
Na       27.71287155      4.54231739      2.36922073
Na       25.21822357      4.63796520      4.68839264
Na       27.25976181      4.81747484     11.67293358
Na       27.68196487      4.28853846     16.19805908
Na       27.76629829      4.72669649     20.87384605
Na       27.38617325      4.50373793     25.23276901
Na       27.56899452      4.52940273     29.85849762
Na       27.11918449      9.05891037      2.01433730
Na       27.17958260      9.18606377      6.56299305
Na       27.43066025      8.90594292     11.38467693
Na       27.33456421      9.73273754     15.73795223
Na       27.53956032      9.06928730     20.44127274
Na       27.27540588      9.48036957     25.24702454
Na       27.46088791      8.99244022     29.66547775
Na       27.04854012     13.75877285      2.30269313
Na       27.10167122     13.31882477      6.79623127
Na       26.99044228     13.82188416     11.22255802
Na       27.58870888     13.65515232     15.98479748
Na       27.16806412     13.75481796     20.64016342
Na       27.33014107     14.08236885     24.93493080
Na       27.27038193     16.03800011     31.89202690
Na       27.67250252     18.02181625      2.26279068
Na       27.55080986     18.27083397      6.87758541
Na       27.02494812     18.49182129     11.55286121
Na       27.51576424     18.46972084     16.10979843
Na       27.54379272     17.98190498     20.49516487
Na       27.48691750     18.24595261     25.22689819
Na       27.26539993     18.24977875     29.68424225
Na       29.83339119     22.39439964      4.67003775
Na       27.51501274     22.67992210      6.62761974
Na       27.41136169     23.01791382     11.42357922
Na       27.32986832     22.98534203     16.07561302
Na       27.54419327     22.97802734     20.36502266
Na       27.43760109     22.51068878     25.11696815
Na       27.05756569     23.15239334     29.65649605
Na       27.47763252     27.97520065      2.17656207
Na       27.60703278     27.50383377      6.83769894
Na       27.18445396     29.75975037     13.49986458
Na       27.64169121     28.09311676     15.96071529
Na       27.74150658     27.49141884     20.55334663
Na       27.07199287     27.77435303     25.52549934
Na       27.70169830     27.46109390     29.69511986
O         0.05600590     -0.23385186      4.46178532
O         0.08557296     -0.18881495      9.14054012
O        -0.18783295      0.05628587     13.86389256
O        -0.09221520      0.11442369     18.41334152
O         0.14504755     -0.02914677     22.74123192
O         0.26207373      0.37508422     27.55995560
O         0.09178136      0.04414885     31.95723534
O        -0.03366467      4.43336344      4.67389154
O        -0.09932015      4.48308516      9.32773781
O         0.26165727      4.45199299     13.51451588
O         0.06916506      4.50569153     18.35020828
O        -0.07502619      4.55377245     22.89446068
O        -0.07218015      4.44976902     27.36372948
O         0.04020090      4.53510046     31.99098587
O        -0.07619177      8.99039459      4.38340998
O         0.05625971      9.02339077      9.02487659
O         0.16425288      9.25398350     13.61154652
O        -0.06106307      9.17390442     18.22398567
O         0.00385712      9.17436981     22.91444016
O        -0.04483177      9.15675259     27.54524803
O         0.11518067      9.18511391     31.82742119
O         0.12960571     13.67225838      4.34848022
O         0.05112419     13.77636623      8.91585255
O        -0.00609945     13.62168312     13.71557903
O         0.00931093     13.61441898     18.07637024
O        -0.14787002     13.72484398     22.94726372
O         0.04817379     13.70069885     27.41132355
O         0.02987538     13.74297619     31.84008789
O        -0.00394641     18.13189507      4.77619314
O         0.09490507     18.11788559      9.01165771
O        -0.02416062     18.43503952     13.66308403
O         0.01035916     18.26829338     18.31355858
O        -0.22120732     18.12689209     22.82938004
O         0.15187803     18.38937759     27.51043892
O         0.01312376     18.44665909     31.98660469
O         0.03988361     22.84929276      4.49147129
O         0.22431329     22.78960609      8.82645893
O        -0.02779195     22.77109146     13.64086533
O         0.00551487     22.82948303     18.11366844
O         0.19142985     22.74605751     22.85346794
O        -0.08830149     23.00805855     27.45181084
O         0.04303354     22.65662575     31.85962296
O         0.15172520     27.34934044      4.51684856
O         0.07835669     27.55461311      9.09930515
O        -0.11559320     27.45960999     13.78966808
O        -0.09519345     27.48691750     18.13169861
O        -0.06895640     27.46513748     22.64285660
O        -0.14083903     27.44175148     27.36031342
O         0.02771990     27.33696938     31.83221626
O         4.47932148     -0.13421921      4.58486366
O         4.45938492     -0.00706440      9.33156490
O         4.40475035      0.06605159     13.82112026
O         4.65249014      0.13981785     18.28280258
O         4.64357567      0.26090649     22.82482529
O         4.60044956      0.05571801     27.43686676
O         4.75110054     -0.00380702     31.79845047
O         4.42288160      4.40763044      4.58944321
O         4.60410738      4.45058966      9.16198158
O         4.48818016      4.53747272     13.48883343
O         4.53376102      4.53868866     18.01727295
O         4.59378719      4.65145731     22.82821846
O         4.37990284      4.59491444     27.36980247
O         4.63258886      4.51027155     32.11270523
O         4.70916557      9.04553318      4.69435072
O         4.56780910      9.22005558      9.05305481
O         4.59842539      9.18452549     13.56724072
O         4.67039251      9.02770424     18.14850235
O         4.47923422      8.90974522     22.76832581
O         4.47747946      9.11825562     27.29883003
O         4.70124483      9.06745815     31.98668289
O         4.63822842     13.66891956      4.49087858
O         4.91316128     13.94966030      9.15883446
O         4.63517284     13.64886570     13.72863102
O         4.42025328     13.74363232     18.15272903
O         4.63928080     13.65770435     22.80034637
O         4.47303677     13.61639595     27.62885475
O         4.55378962     13.62792206     32.02293015
O         4.48053074     18.16855621      4.49561024
O         4.53497219     18.17959976      9.17019176
O         4.29085445     18.26965904     13.73882103
O         4.64690971     18.48105812     18.48930740
O         4.18956470     18.20499039     23.09238243
O         4.60391665     18.27695656     27.49381828
O         4.62863827     18.25100708     32.03116608
O         4.76800632     22.75553131      4.48207569
O         4.70307827     22.78089142      9.01492023
O         4.49594545     22.86989212     13.61496258
O         4.50842190     22.82924461     18.38023758
O         4.48982573     23.19285011     22.96824265
O         4.77485943     22.99867630     27.61701393
O         4.81895399     22.75886917     31.95848083
O         4.50744009     27.37352943      4.35937881
O         4.48643637     27.67107582      9.17057896
O         4.64095831     27.47636223     13.71280670
O         4.43406534     27.48380852     18.41779137
O         4.73501778     27.53258324     22.96636009
O         4.53388882     27.51765442     27.47530746
O         4.58386660     27.56404305     31.95833778
O         9.04705238     -0.01987039      4.72156811
O         8.93388653     -0.06493747      9.43159008
O         9.12806129      0.06743207     13.81360435
O         9.28283310     -0.04855420     18.22469139
O         9.01848412      0.07729404     22.73795319
O         9.12804222      0.15408193     27.32916832
O         9.23384190      0.08526565     31.98711777
O         8.94437408      4.47352982      4.41064882
O         9.01930523      4.52245712      8.88146496
O         9.09963799      4.47982025     13.78005886
O         9.30912590      4.66297102     18.29685402
O         9.20593262      4.54184294     22.52375221
O         9.17433262      4.63500023     27.38426781
O         9.29475403      4.57350397     31.81217194
O         9.13949013      9.05001354      4.59749651
O         9.10403347      9.09850025      9.06443214
O         9.20057392      9.35852623     13.70055199
O         9.30001354      9.11462688     18.06493378
O         9.14359093      9.07653427     23.02468872
O         8.90500927      9.24018002     27.40030861
O         9.08317566      9.06110954     31.71064186
O         9.31195545     13.70031261      4.48675871
O         9.21384811     13.87972641      8.88712788
O         9.14318848     13.56031322     13.67804146
O         9.32539272     13.51358795     18.52340508
O         9.08306217     13.78601551     22.87272263
O         8.91271305     13.72823238     27.52823830
O         9.16168785     13.65520573     31.80208397
O         9.20684433     18.22555161      4.41676283
O         9.14035892     18.19433403      8.99762630
O         9.02272606     18.41195679     13.66689491
O         9.20884800     18.41290092     18.62338829
O         8.97448730     18.16780472     22.85857010
O         8.95048714     18.37715340     27.49399567
O         9.20814419     18.40496635     32.03430557
O         9.32057667     22.69681931      4.45331526
O         9.24107075     22.68841934      9.12659645
O         9.28265762     22.79664230     13.53731346
O         8.93296146     22.90266418     18.25152206
O         9.03367710     23.21180916     22.91834450
O         9.29304409     22.92554092     27.38200378
O         9.40811443     22.88311195     31.98143768
O         8.98560238     27.56443024      4.57064867
O         9.20195198     27.50063896      8.86679459
O         9.02813530     27.42030525     13.55429363
O         9.04844761     27.31153870     18.08545303
O         9.18437958     27.60130692     22.74477386
O         9.05416012     27.44416428     27.33829689
O         9.30587769     27.43197250     32.00706482
O        13.59098721     -0.01944895      4.63166952
O        13.55359268      0.00562342      8.93565178
O        13.78557014     -0.03240259     13.35028744
O        13.63271141     -0.27215084     17.99705124
O        13.57871914     -0.06715240     22.64397049
O        13.58541489      0.06252256     27.40382195
O        13.63197994      0.09186997     32.02159500
O        13.60045052      4.67242336      4.73096991
O        13.74445343      4.61086893      9.06085873
O        13.92318630      4.63166714     13.54127216
O        13.73915863      4.55592155     18.20078659
O        13.69156933      4.71527386     22.66378975
O        13.55982399      4.49181128     27.43672180
O        13.76223660      4.68223429     31.72273064
O        13.66296291      9.12366486      4.66282797
O        13.77172279      9.10062885      9.16890240
O        13.57768726      9.19390583     13.63967133
O        13.54730320      9.16930103     18.09260750
O        13.85794735      9.16686153     22.78853416
O        13.61971760      9.27518654     27.38471985
O        13.38699436      9.26848507     31.70797729
O        13.71955204     13.89853954      4.47847462
O        13.62991619     13.62972069      9.11568546
O        13.87139988     13.59959888     13.66639137
O        13.80805588     13.89684105     18.28456497
O        13.80934811     13.75444412     22.61506462
O        13.59746742     13.77665329     27.23461151
O        13.90392685     13.83374500     31.95913124
O        13.81061363     18.19184875      4.69911575
O        13.89197445     18.26711845      9.00844479
O        13.43226433     18.09723663     13.54981327
O        13.76566029     18.33040428     18.28963852
O        13.74565220     18.09764481     22.72101974
O        13.54831982     18.33937454     27.30665588
O        13.73072147     18.11836433     31.84030151
O        13.70727634     22.88189507      4.51796007
O        13.84293175     22.77566338      9.27450848
O        13.75489044     22.82717514     13.66939926
O        13.53582668     22.68822289     18.24221420
O        13.66449451     23.06515884     22.81621170
O        13.86140442     23.11878586     27.52528000
O        13.79711437     22.85702896     32.06797028
O        13.49438000     27.47439957      4.55775595
O        13.65366268     27.26393890      9.31089973
O        13.95875549     27.24288177     13.65993786
O        13.60380650     27.33917809     18.36391068
O        13.78372288     27.47520828     22.73843002
O        13.73605824     27.61441422     27.24209023
O        13.72254944     27.45898438     31.81517792
O        18.42593765     -0.21028240      4.70039940
O        18.33860207      0.16961072      8.98623276
O        18.36956406     -0.14984654     13.29984283
O        18.06538010      0.08959758     18.45617485
O        18.33065796     -0.00162799     23.02243042
O        18.21478271      0.17676002     27.59881401
O        18.38917923     -0.15586640     32.23353577
O        17.99633026      4.59326887      4.57740641
O        18.24387169      4.51537895      9.22875881
O        18.36968613      4.59891272     13.86919594
O        17.98519516      4.65641546     18.43518066
O        18.25185966      4.57762098     22.79527855
O        18.36894035      4.56713295     27.42952919
O        18.31885338      4.74809933     32.06958771
O        18.17651367      9.08037853      4.43464279
O        18.22627640      9.04977036      9.25303841
O        18.34500885      9.35460472     13.81337547
O        18.18266869      9.22370243     18.22546387
O        18.49343872      9.12471962     22.85986900
O        18.26074409      9.18675423     27.42959023
O        18.17928123      9.30581570     31.87796974
O        18.29487801     13.60777473      4.87592888
O        18.16529274     13.54520226      9.46025181
O        18.32294273     13.94419098     14.13693142
O        18.21025848     13.72519207     18.25871277
O        18.41426849     13.82656860     22.87544823
O        18.16990852     13.74076271     27.33148193
O        18.28271103     13.78250122     31.72814560
O        18.29400826     18.40860939      4.55718422
O        18.53345680     18.31671143      9.08595753
O        18.39558983     18.27043533     13.85450077
O        18.42340088     18.27809143     18.37993240
O        18.39135933     18.59555626     22.64876366
O        18.04717255     18.48577118     27.38131714
O        18.42240906     18.08122444     31.94485092
O        18.22475815     22.72021294      4.69990158
O        18.35150337     22.93264008      9.22786045
O        18.03629112     22.94038391     13.68227291
O        18.12042236     22.86071205     18.24740601
O        18.34326935     23.07357216     22.67862320
O        18.46373749     22.83231544     27.13043785
O        18.25852013     22.87330818     32.16202927
O        18.35991096     27.27166557      4.41668558
O        18.33934212     27.45054817      9.14814568
O        18.49752617     27.45545387     13.73578262
O        18.42355919     27.57013702     18.16763687
O        18.46243477     27.37878036     22.64064980
O        18.17678261     27.32088852     27.29905701
O        18.15741158     27.61171150     31.86623764
O        23.08537102      0.05073890      4.53253603
O        22.97869873      0.05556506      8.93038273
O        22.92667007      0.04843196     13.50672054
O        22.85088158      0.21251456     18.32470703
O        22.84090614      0.00297247     22.80609703
O        22.82214928      0.30059937     27.69644165
O        23.17080498     -0.07559216     32.08037949
O        22.77103233      4.70575237      4.50869608
O        22.90007019      4.45377684      9.09685707
O        22.85292053      4.55145788     13.73168278
O        22.88988304      4.63191700     18.35394096
O        22.89942741      4.48822069     23.01731873
O        22.82191277      4.68742514     27.56675529
O        22.84485245      4.54918718     31.98801231
O        22.52439880      9.26876736      4.51388741
O        22.65523720      8.97582340      8.97197151
O        22.83361435      9.28146267     13.63090897
O        23.08271790      9.14017773     18.26487732
O        22.84153938      9.11945248     22.93815231
O        22.77293968      9.19318771     27.69835472
O        22.81225967      9.16905975     32.07016373
O        22.68193626     13.81932354      4.68839788
O        22.58010292     13.47018147      9.12151814
O        22.83147240     13.65579605     13.64288712
O        22.85573387     13.77077293     18.40221214
O        22.70067596     13.76027203     22.95581627
O        22.92032623     13.82792187     27.39118576
O        22.89755249     13.92621613     31.99573135
O        22.93375206     18.24014664      4.63155556
O        23.00352287     18.16602898      8.96725655
O        23.08368492     18.30075264     13.68251801
O        22.83934402     18.31741524     18.24726105
O        23.01879120     18.08512497     22.55946541
O        22.82909393     18.27075386     27.46850777
O        22.83970070     18.40456200     32.30998611
O        22.91570854     22.88463783      4.54957342
O        23.00084114     22.83148193      9.00187778
O        22.80435371     22.80512238     13.71360397
O        22.76622009     22.86764145     18.23026848
O        22.71904564     22.77093315     22.64856148
O        22.77055359     22.73748398     27.24596786
O        22.69087982     22.67885780     31.94179153
O        22.95774841     27.23989487      4.42646694
O        22.84454346     27.28875923      9.17317104
O        22.91886711     27.42804909     13.80954742
O        23.00957108     27.59829903     18.45859909
O        23.00169182     27.46047401     22.83030128
O        23.03878784     27.39418602     27.58560753
O        22.99123192     27.26359940     31.98055458
O        27.36260986     -0.03899685      4.62518835
O        27.55506897     -0.04861039      9.10166550
O        27.53154755      0.01601063     13.75644398
O        27.46984673      0.09064049     18.34210968
O        27.42989731      0.12660140     22.75424767
O        27.34650040     -0.19983092     27.22921944
O        27.51437187     -0.02251982     32.14736938
O        27.40163231      4.52315807      4.53576756
O        27.29093170      4.76709032      9.18737411
O        27.57402802      4.59031105     13.88364506
O        27.40996361      4.75790691     18.35554695
O        27.46602058      4.50001574     23.17592430
O        27.41826439      4.53445530     27.47565651
O        27.46269035      4.60977268     31.85771179
O        27.09902000      9.13766766      4.38496828
O        27.26757622      8.87112808      9.08843422
O        27.78183746      9.35452461     13.60568333
O        27.44642639      9.30570793     18.21133614
O        27.49078751      9.20155907     22.99062347
O        27.29443550      9.34451962     27.46643066
O        27.38824272      8.97225285     31.86289406
O        27.53634071     13.62494373      4.53580141
O        27.24149704     13.62699318      9.06715012
O        27.48882484     13.56085777     13.68387794
O        27.33242416     13.81701088     18.20022202
O        27.74676704     13.77206898     22.69535637
O        27.35057640     13.75808525     27.63793755
O        27.31770134     13.75590611     32.08295822
O        27.40895844     18.11616516      4.52643108
O        27.21043777     18.39867020      9.06815243
O        27.45659447     18.48616982     13.73428059
O        27.40049553     18.20960426     18.10346985
O        27.52786827     18.28632927     22.87013054
O        27.54427910     18.08684731     27.41878319
O        27.51309013     18.29326820     31.79140282
O        27.41781998     22.70978165      4.50174761
O        27.49745178     23.00710106      9.09447956
O        27.29373169     22.84979057     13.87650299
O        27.34569931     23.01539421     18.17444038
O        27.36155510     22.70576286     22.84846497
O        27.14973831     22.76419830     27.40263176
O        27.42469597     22.85626030     32.04383087
O        27.52657700     27.51075745      4.61813593
O        27.42712975     27.54909897      9.19424438
O        27.35417938     27.52637291     13.75898933
O        27.55171585     27.79830933     18.24304581
O        27.53112793     27.71493340     23.05864906
O        27.25474930     27.34263039     27.57452774
O        27.55653000     27.64404488     31.99024582
H         2.43955278      2.38729763      3.25959444
H         0.71147537      2.36668253      2.36041570
B         1.89713633      1.95082533      2.28668046
H         2.40715027      2.47061515      1.21767044
H         1.90528905      0.78100038      2.28957438
H         3.44166207      1.59902894      6.59569931
H         2.31166983      2.36404181      8.09508705
B         2.42820930      2.08961749      6.87391233
H         2.37110019      3.11382008      6.09896564
H         1.54524970      1.29233158      6.67473602
H         1.70675290      3.40951610     11.74462795
H         2.18956280      1.65526474     12.53201199
H         3.51369834      2.38812065     11.41739750
B         2.29089236      2.41584277     11.60192013
H         1.77523959      1.65896916     10.79730129
H         1.99875987      3.45944691     15.53225136
H         1.85579729      2.16423798     17.00270462
H         3.62651706      2.36674523     15.98145676
B         2.40866876      2.43245935     15.97137642
H         2.22195458      1.41851258     15.29364586
H         2.52164674      1.06477404     20.63450241
H         1.89233863      2.51887202     19.70052528
H         3.77311373      2.41574454     20.07336807
B         2.62778354      2.23525882     20.55034828
H         2.50344229      2.61211443     21.69243622
H         2.60064554      0.96806878     25.33664513
H         3.37281013      2.87065792     25.01243591
H         1.65870476      2.36492085     26.08344650
B         2.36017013      2.11831236     25.09656715
H         1.74995601      2.13789558     24.15625954
H         2.48437452      2.32745790     28.18166161
H         2.07964110      3.53105831     29.68203735
H         3.52724838      1.99134076     29.64006615
B         2.33335996      2.43180060     29.33245087
H         1.46904254      1.61566961     29.76755142
H         3.35956860      6.43617344      2.57341552
H         1.76835775      7.54224014      2.90121961
H         1.67381310      5.66251278      2.07589841
B         2.25286627      6.65005350      2.10412645
H         2.19618773      7.14427233      1.03150475
H         3.69045997      7.26023531      6.29119444
H         2.49545717      5.72846556      6.93056488
H         1.78949249      6.98453140      5.77869225
B         2.54470921      6.94545889      6.75596905
H         2.11901665      7.68853951      7.64307547
H         3.61720753      6.28457117     11.34462070
H         2.04903078      6.98753309     10.40749264
H         2.31568456      7.72007990     12.04647446
B         2.43732429      6.65744495     11.44160938
H         1.82146573      5.75447559     11.93736172
H         1.14769375      6.87568808     16.22962952
H         2.48553872      5.60371685     15.80434227
H         2.91308832      7.33652830     16.58220863
B         2.27604222      6.77292204     15.77437401
H         2.40203571      7.26824856     14.67774773
H         1.07431304      7.32170343     20.38558197
H         3.14170504      7.31031418     20.68771744
H         2.17508030      5.56870985     20.52692986
H         2.50230932      6.77599239     19.05590057
B         2.15254426      6.71001291     20.26820946
H         3.56387234      6.80625343     25.29350281
H         1.71413445      7.07243013     25.96231842
H         1.97155714      7.16533852     24.10501862
H         2.25928283      5.40744591     25.04756927
B         2.41570020      6.55678940     25.05340385
H         2.97681594      6.96136618     30.78435707
H         2.47004795      7.75579929     29.13158607
H         2.80442858      5.70600605     29.30865669
H         1.25548148      6.49959087     30.08981705
B         2.35807943      6.69004059     29.81578636
H         2.88506055     12.35273647      2.01277590
H         2.45810223     10.39698410      2.87950850
H         1.19755459     11.47459888      1.82674694
H         2.81439257     10.63415241      0.93502253
B         2.36203837     11.14285564      1.95795119
H         2.27738619     11.15472889      5.32140350
H         3.13728523     12.36884880      6.84958029
H         1.28044999     11.67785645      6.79055929
H         2.91054702     10.24365997      6.93304062
B         2.56388021     11.41642189      6.56416368
B         2.34741807     11.09852791     11.27407837
H         2.90841770     11.53191566     10.25044155
H         2.88696265     11.44027519     12.35097694
H         1.29977381     11.70765591     11.21977329
H         2.26532269      9.90192032     11.14340401
B         2.05019593     11.65263653     15.84658718
H         2.52979112     12.62245464     16.29742241
H         2.67917323     11.31968594     14.75024509
H         2.18600082     10.64127541     16.54073334
H         0.87821621     11.81793880     15.47307396
B         2.10163760     11.64367390     20.71018791
H         2.14462805     11.29978180     21.91843987
H         2.19720387     12.83998871     20.61827469
H         2.73314548     10.93468380     20.00244713
H         1.06952071     11.19804955     20.33439827
B         2.49873281     11.37612343     24.98465347
H         2.81945276     11.83606529     26.03103256
H         1.36109722     11.76719093     24.93600273
H         3.32248640     11.89794922     24.25322342
H         2.70346618     10.08905220     24.97653770
H         2.68531799     11.74012661     30.52725029
B         2.09404755     11.20798874     29.60943604
H         2.54986501     11.42185497     28.56495857
H         0.93391687     11.66748524     29.38395309
H         2.12630653     10.03712082     29.75905991
H         1.84056389     17.32015800      2.33455610
B         2.46368742     16.23867226      2.30356550
H         1.90937746     15.46140385      1.39878786
H         2.45547771     15.67021370      3.31871724
H         3.53342557     16.39982605      1.91597068
H         3.17997336     15.81905937      5.99835682
B         2.48559141     15.78532600      6.87555933
H         2.61648679     14.75141048      7.41429138
H         1.24693537     15.94618130      6.44465971
H         3.09069228     16.62333107      7.53947783
H         0.97124046     16.27234268     11.59712505
B         2.09741139     15.96759033     11.27251434
H         2.39675331     14.93525887     11.92142296
H         2.95110250     16.78711128     11.43768501
H         2.15210509     15.65265560     10.09288120
H         3.21236420     15.83808231     16.95932579
B         2.52749085     16.14886856     16.01708031
H         1.27933395     15.59440136     15.87111473
H         3.06075144     15.80684853     15.00922394
H         2.16576695     17.26503944     16.04023743
H         3.22127509     15.92389011     20.86259079
H         2.12363410     17.41617584     21.03156471
B         2.08960199     16.21096611     20.96620750
H         1.50778890     15.87261486     19.80721283
H         1.63405263     15.49519157     21.90301323
H         2.31627965     16.49995804     26.15414429
H         2.79583740     16.24144936     24.39053154
B         2.01547933     15.85243893     25.17362213
H         2.03450704     14.61337662     25.27520370
H         0.88187170     16.09866524     24.82652283
H         2.16266942     17.23971558     30.01455498
H         2.80983949     15.27279091     30.03713226
B         2.04919505     16.09713554     29.49704552
H         0.85399389     15.86245346     29.78546143
H         2.25394368     16.22903061     28.30490685
H         2.12225699     21.82997894      2.42454267
H         3.18646383     20.26480675      2.95184183
B         2.26336098     20.62338638      2.18176079
H         1.20335388     20.03269386      2.20703769
H         2.90145206     20.78573036      1.16598296
H         2.15193558     20.88471985      5.91946411
H         2.47291350     21.07858658      7.95076942
B         2.78145504     20.44739342      6.99415112
H         2.37856746     19.23091316      6.95504951
H         3.97236967     20.60346985      6.92142344
H         2.85954547     20.69240570     10.22995949
H         2.18080020     19.40923500     11.52975368
B         2.47708297     20.52261162     11.39347363
H         3.43263960     20.84814262     11.99229431
H         1.53219604     21.23278236     11.65857315
H         1.78359139     20.27466965     15.26889324
H         2.33948946     21.88148308     15.98853493
B         2.46106172     20.69409752     16.14296913
H         2.08331227     20.20651627     17.08242989
H         3.58109379     20.12883377     15.99509811
H         2.77366638     20.11809540     21.59777069
H         2.08167243     21.68823051     20.47234917
B         2.20256066     20.49125862     20.53219414
H         2.65534902     19.98125076     19.43160820
H         1.13610053     20.09684563     20.69319344
H         2.14272356     20.41558266     24.22540092
H         2.40529442     21.89271927     25.38584137
B         2.32132673     20.64332581     25.34764290
H         1.37394106     20.16620064     25.94081497
H         3.25872850     20.06770325     25.86347198
H         1.52946281     20.07032585     29.30280685
H         3.21836662     19.89733315     28.89630890
H         2.98173285     20.54957962     30.61742783
B         2.51010680     20.66982841     29.54315376
H         2.53244781     21.87337494     29.28888893
H         0.75954592     25.18921661      1.94589877
H         1.98818493     25.21374702      3.32326913
H         2.56437159     26.42054558      1.91343963
B         2.04369378     25.38535690      2.21494484
H         2.55511880     24.34568024      1.79301178
H         1.20878160     25.24377251      6.60095692
H         2.78502417     24.81642914      5.41591978
H         2.65630627     24.53405571      7.63138437
B         2.40482044     25.18815994      6.60210180
H         2.86441994     26.35018921      6.56163120
H         0.81893975     24.79304886     11.42432213
H         2.73954606     23.93946457     11.29787827
H         2.07412529     25.51552200     12.66919613
B         2.05943799     24.97113800     11.54874325
H         2.48411870     25.52736092     10.48708344
H         2.36042452     24.26532745     16.60329247
H         2.70558071     25.00366402     14.80998707
H         2.25669193     26.35579681     16.24505806
B         2.02758741     25.20435905     15.81705093
H         0.85064000     25.43792725     15.76734734
H         3.36518335     25.39397430     20.49846077
H         1.76412034     25.37693405     19.31304550
H         1.50013340     25.61604691     21.23389244
B         2.22073174     25.08149338     20.45512962
H         2.03056121     23.84360504     20.55317307
H         1.78871226     24.63937569     25.70289040
H         1.74066067     26.47648048     25.02211952
H         2.07363534     25.19442940     23.73666573
B         2.34431839     25.46760178     24.98179245
H         3.65496635     25.45854950     25.32584763
H         2.94959450     24.67594910     30.40058327
H         0.99455297     24.85437202     30.11556816
H         2.23917627     24.78676796     28.31414223
B         2.04996061     25.10918236     29.49921036
H         2.06928706     26.38314056     29.43371964
H         2.30044580     29.25375557      3.44506669
H         2.87794542     28.64355659      1.48445892
H         2.84611773     30.38953972      1.98794258
B         2.28546572     29.37143707      2.26423168
H         1.06647956     29.60005760      2.07286119
H         1.48300600     29.49043655      7.19532156
H         2.84238601     29.38644218      5.98300362
H         2.30692697     31.18163490      6.62492037
H         3.22882986     29.75964165      7.91623592
B         2.48266149     30.03910065      6.95158052
H         2.36515260     28.79920578     11.05667973
H         2.65434837     29.27556801     12.88021946
H         3.85921812     29.83714676     11.45378876
H         1.97683251     30.74369431     11.57054329
B         2.70062065     29.73951912     11.79301357
H         3.52120113     29.23058319     16.10407448
H         2.18187237     30.44164848     16.43959999
H         1.92607188     29.13775253     14.69185257
H         1.93429387     28.51416397     16.69264030
B         2.38333869     29.31533051     16.07351494
H         3.11552763     29.75234604     21.45815086
H         3.03744674     29.15899849     19.48147392
H         1.32044196     29.24412918     20.46965218
H         2.53087163     30.89529991     20.31430626
B         2.50185800     29.77247047     20.36799431
H         3.11520243     28.51138115     25.30894661
H         2.10319209     29.90288162     26.36795044
H         3.48016167     30.53518105     25.21487999
H         1.76181841     29.98420525     24.41725731
B         2.58267856     29.68900108     25.28418350
B         2.53956771     29.94031334     29.91336250
H         3.54140162     29.41615486     29.48267174
H         2.48192430     31.13092613     29.83328438
H         1.66015649     29.36083412     29.19873428
H         2.51501989     29.37684631     30.93848991
B         6.81174135      2.47012258      1.90633535
H         6.63566589      1.32924163      1.86609399
H         5.88531256      2.99291325      2.40333986
H         7.95155954      2.49505043      2.46711588
H         6.85056162      2.86296678      0.74881965
B         6.81065464      2.22787619      6.55479956
H         6.31104469      3.26103616      7.12224388
H         7.85766172      2.05475354      7.14928722
H         6.16210508      1.13580406      6.49871111
H         6.99306440      2.60391998      5.45678520
B         7.08441305      2.35210967     11.11873436
H         8.12987041      1.77419603     11.26943588
H         7.30548716      3.54596639     11.27778625
H         6.52084255      2.32064605     10.04126644
H         6.33752060      2.06158090     12.07390976
H         6.39448500      2.32312846     14.82049084
B         6.83200502      2.10816050     15.94664478
H         7.86712551      2.72751737     16.27385712
H         6.75757122      0.94134712     16.03521347
H         6.05830288      2.33929610     16.81365776
H         7.52093506      1.45813489     20.86689949
B         6.86654615      2.18242121     20.14096451
H         5.93034172      2.74413037     20.71066284
H         6.39139080      1.52711725     19.15445518
H         7.55230379      3.13562894     19.78775978
H         7.01441717      1.32667196     24.75068474
B         6.54198503      2.61756396     24.80455780
H         6.62782669      2.80903769     23.63492203
H         7.33564425      3.39387536     25.36629868
H         5.49980497      2.72035527     25.25035858
H         6.66437006      3.69829750     29.68663216
B         6.78809690      2.40983343     29.44421959
H         7.98727179      2.28200626     29.86712074
H         6.66731024      2.23171186     28.25187302
H         6.05833721      1.62030697     29.95770454
H         7.68623114      6.79610443      1.33755302
B         6.87298346      6.68315983      2.27470732
H         5.82493925      7.14491463      2.07410717
H         7.48584318      7.25030422      3.28000641
H         6.91804600      5.53046608      2.58774424
H         7.03387213      5.45990372      6.48171616
H         8.30846500      6.81965446      7.12478971
B         7.13208246      6.64789867      6.69504595
H         6.96427536      7.20298862      5.63185072
H         6.22967291      6.86740017      7.59388351
H         5.70331430      7.52429581     11.26254463
H         6.70151758      6.00281858     10.72394371
B         6.69080544      6.93316746     11.50584602
H         7.76230907      7.41054058     11.29785252
H         6.81292343      6.38707018     12.56640625
H         7.16545248      5.60465479     15.25480175
H         7.12557030      7.72970247     15.33599758
B         6.73052216      6.66345119     15.79885101
H         5.41994476      6.74126911     15.90893936
H         7.38786459      6.55174208     16.93084717
H         7.78554773      5.97180748     20.95158577
H         7.45664978      7.49287701     20.02440453
B         6.85914993      6.63858461     20.77622795
H         6.18195486      6.00360966     19.94540596
H         6.10457754      7.14597368     21.73564911
H         5.94360781      7.08025360     24.20762634
H         6.14405346      7.34177876     26.17148018
B         6.76926088      6.96217203     25.14203262
H         6.98937321      5.75943518     25.32050514
H         7.78311539      7.63853312     24.71779442
H         6.50921726      8.12421227     29.13887596
H         6.81880617      6.40156841     28.60212135
B         6.42622852      6.98151112     29.56596947
H         7.15769243      6.95243216     30.51183891
H         5.31639481      6.56564808     29.89455223
H         8.27032661     10.72331524      2.25602150
H         6.92540121     12.26880264      1.95941317
B         7.09890699     11.01858425      2.14014435
H         6.58742714     10.63876915      1.12961864
H         6.31527042     10.75887871      3.12825513
H         7.93642092     10.97295666      7.23425531
H         7.20902252     12.65212154      7.06930876
B         6.91344404     11.53376579      6.68560266
H         7.37007904     11.78122044      5.55291605
H         5.80493927     10.95654774      6.76279116
H         6.97955275     12.06073952     12.31553459
H         7.21547508     12.57264900     10.52186012
B         6.63588095     11.82449150     11.19173813
H         6.84907579     10.67160797     10.84354877
H         5.37145662     11.90307617     11.24548340
H         6.68883467     12.70482349     16.48710823
H         7.32381344     11.90928078     14.99370956
H         5.85142708     10.82710171     16.00461197
B         6.89615536     11.61098766     16.01490974
H         7.74096107     11.28627682     16.70662117
H         6.76219225     10.98115540     19.51750183
H         7.65393686     11.52140141     21.30574036
H         5.65213060     10.99776268     21.12869835
B         6.68306589     11.53591156     20.56455612
H         6.38607836     12.68123817     20.56721306
H         6.41844893     12.83234501     24.77511978
H         7.82029295     11.58283615     24.95624352
H         5.98159027     10.79653549     24.88232994
B         6.65461397     11.78860283     25.37034988
H         6.75096512     11.99359512     26.63021851
H         6.96066475     10.72181892     28.92310524
H         6.91823721     10.65561008     30.66344070
H         5.18840647     11.27567005     29.65419579
B         6.50386858     11.37926579     29.85021210
H         6.89867926     12.50199509     29.96888351
H         6.38851309     16.62974358      1.90579975
H         8.31352043     15.94465923      2.15068841
H         6.77481270     14.76669407      2.10232973
B         7.08676052     15.86629200      2.49599051
H         6.97072077     15.90796471      3.73198056
H         8.06098080     16.36768341      6.99485064
H         6.30075550     15.70627880      7.71485567
H         7.66434145     14.50663567      6.45486593
B         7.12278223     15.62346077      6.62506294
H         6.59491396     16.03966522      5.56806993
H         5.48982859     15.76413727     11.35691643
H         7.09866810     15.78550816     12.71760750
H         6.96632338     17.21800041     11.18055916
B         6.74700975     16.05029869     11.53537560
H         7.38261271     15.29672813     10.91126537
H         7.73528433     15.75781250     15.75327969
H         5.55896807     16.09383583     15.91096401
H         7.01863050     17.53565025     16.31081772
B         6.87672615     16.29092789     16.38113976
H         6.90416765     15.70065498     17.50358391
H         7.31388569     16.63177490     21.95739555
H         6.89067602     15.28425884     20.46192169
H         6.70860910     17.27871895     20.17321014
B         6.66079760     16.35978889     20.97199059
H         5.33158827     16.34928322     21.09293556
H         6.88582802     15.63760757     24.11540794
H         5.45702839     15.88895702     25.42678833
H         7.34024334     15.82683372     26.00468063
H         6.90719891     17.47896957     24.73778725
B         6.59201145     16.30681229     25.08749199
H         7.30109453     15.30575657     30.67427254
H         7.17110443     17.22398567     30.23349380
H         7.10768032     16.21536255     28.75406265
H         5.61626387     15.97621059     30.09495926
B         6.76465702     16.09576416     29.90526009
H         6.96759224     20.98315620      3.56638861
H         5.56160450     20.44207764      2.19592571
H         7.08640480     21.65632439      1.62754798
H         7.53998709     19.68554306      2.02481222
B         6.85544014     20.71595383      2.38829637
H         6.84000206     21.59527397      7.06411934
H         6.84377527     19.63058472      7.63623476
H         6.18834352     20.21370506      5.87168837
H         8.07326221     20.32921791      6.03576136
B         7.05826855     20.42542458      6.70286131
H         7.93507910     20.41155243     11.79837799
H         6.52532148     19.45478439     10.88457203
H         6.32287502     20.73616028     12.46708012
H         6.56450653     21.28476906     10.41837025
B         6.83192778     20.60892296     11.36341858
B         6.43448973     20.73555183     15.63746929
H         6.00167274     20.35102844     16.68786812
H         7.42294359     21.45161819     15.61633205
H         6.56373930     19.89321518     14.79394627
H         5.62836266     21.54141808     15.21576023
B         6.70249987     20.88697243     20.94407463
H         7.34157705     21.66286850     20.15616226
H         5.68489265     21.41460228     21.28597450
H         6.51838732     19.76325607     20.37989235
H         7.34404469     20.45565414     21.95500374
B         6.55052042     20.90664101     25.28049278
H         7.05398130     19.87278557     24.77164078
H         6.84551430     20.95599174     26.42776489
H         7.02721310     22.10025597     24.95324135
H         5.35750532     20.92467880     25.20003510
B         6.85273600     20.81224823     29.66966629
H         7.02471733     21.95211601     29.26173782
H         5.80006266     20.28067589     29.25734901
H         7.76363039     20.30062675     28.98713875
H         6.77985477     20.71175003     30.93555832
H         6.70789814     25.13328552      3.81957006
B         6.88458681     25.36809921      2.62073874
H         6.93168116     26.62308311      2.39938807
H         5.88852739     24.91369057      1.99806607
H         7.87757254     24.99963188      2.01231122
H         7.15148592     25.76133156      6.20415020
B         6.76139736     25.02465820      7.17199945
H         7.27368736     23.92070007      7.05687904
H         5.57461309     25.16584778      6.98609257
H         7.00514650     25.60768700      8.22572422
H         7.48286772     24.77059555     10.48968220
B         6.64858532     25.26584816     11.22529030
H         5.49084949     24.80870056     11.03357506
H         6.71780109     26.44923592     11.15157032
H         6.77443027     24.98944664     12.34200859
H         6.65118504     23.85173035     15.82280540
B         6.90556049     24.97249603     16.31782150
H         6.64024162     24.87479973     17.54261589
H         6.33135366     25.74362183     15.61122036
H         8.05907536     25.36570168     16.11594963
H         6.96654320     23.95672417     21.23251534
B         6.82482576     25.02663040     20.64022827
H         6.96718693     26.03768539     21.35986519
H         5.54030848     24.97946167     20.45412064
H         7.47618389     25.28009987     19.66300583
H         7.14689922     25.58999062     26.54327393
H         6.32180023     24.40912437     25.14483833
B         7.19469118     25.24542427     25.38341904
H         7.05305386     26.27263069     24.65332794
H         8.21761608     24.65114975     25.18615341
H         7.83122349     24.94080734     28.86968613
H         5.71100760     25.47653389     29.48536110
B         6.99008417     25.46765327     29.68969917
H         7.18328762     24.73397064     30.66888046
H         7.11875391     26.66413879     29.99742699
H         5.89786768     29.39314651      1.45189059
H         7.21575499     30.80117798      2.00381279
B         6.85466194     29.66030121      2.29754806
H         6.29499578     29.79380035      3.34075403
H         7.70998526     28.79795265      2.42100930
H         7.60232782     29.71785355      7.55865526
H         6.79351044     30.64768791      6.15666819
B         6.67180109     29.69370461      6.72803926
H         6.52725124     28.70621872      6.02337313
H         5.64811707     29.70955849      7.39492321
H         6.11429262     31.01207542     11.91242027
H         6.93150282     29.37989235     12.89027977
B         6.69666004     29.92424011     11.75893402
H         6.13295555     29.22430420     11.08724117
H         7.77456617     30.10743713     11.20170307
H         7.24145842     30.61709595     15.22299862
H         7.17400980     30.03520393     17.13246346
B         6.83730412     29.69084358     15.98212719
H         5.53962564     29.86844826     16.19104195
H         7.01784992     28.52402687     15.77786160
H         7.57671595     29.86181831     21.70532990
H         6.82748556     28.31912231     20.67839622
B         6.96063137     29.49748993     20.66627502
H         5.73118877     29.71056747     20.87401199
H         7.46880436     29.96759033     19.70495033
H         6.34914541     29.68157768     26.07571983
H         7.48418808     30.93068886     25.05962563
B         7.05015421     29.80142021     25.07593346
H         7.94896460     29.04980659     24.96941376
H         6.40628052     29.48254204     24.06774330
H         7.99707603     29.11433601     29.45066261
H         7.13476324     29.81337929     31.11276817
B         7.06550407     29.74202347     29.87664223
H         6.67026567     30.76028252     29.24094963
H         6.28306389     28.91321945     29.62521744
H        10.41705036      1.90479839      2.53967571
H        11.60424709      3.56584215      2.53527498
H        11.78899765      2.37635660      0.97108722
B        11.50454617      2.36864471      2.16424680
H        12.42831802      1.79418290      2.77544332
H        10.03730011      1.78320193      6.73908806
H        10.99701500      3.43523264      7.22532177
H        11.86580753      2.20691180      5.78465748
B        11.25717163      2.22009015      6.84381008
H        11.70561314      1.77828813      7.82721519
H        10.77554893      2.10204053     11.88843632
H        12.51115799      2.22410631     11.57049847
H        11.58691883      3.84213519     11.28505898
B        11.43276501      2.64335299     11.10530758
H        11.01342773      2.25615764     10.03099251
H        12.11013222      3.29041600     15.87825966
H        11.59796524      1.21934307     16.25833321
H        11.83249378      2.11141276     14.36697578
B        11.43301868      2.29077935     15.55659866
H        10.26831150      2.47958612     15.71784782
H        10.33201885      2.32060385     20.70266724
H        11.61677647      0.83195317     20.43218422
H        12.40783787      2.53921866     20.92180252
B        11.42813110      1.96817708     20.37692833
H        11.53592300      2.12507296     19.19252014
H        12.29086590      1.92097139     25.22444534
H        10.21548748      2.28566837     25.48442459
H        10.97568798      2.03270793     23.58909988
B        11.20457363      2.43895888     24.79816628
H        11.27227783      3.65491843     24.59008026
H        12.22009563      3.03339553     29.96422386
H        11.22287655      2.38343954     28.56366539
H        10.44362068      2.31010246     30.48188972
B        11.38953686      2.24421763     29.71485519
H        11.79478455      1.13259351     29.97576523
H        12.87898064      7.14127541      1.98941731
H        11.49644279      8.43534756      2.09418297
H        11.50760555      6.75010824      3.13185740
B        11.69088745      7.22444773      2.06716728
H        10.96225548      6.58192348      1.37338722
H        11.02159214      7.74538136      6.83654833
H        11.40387535      5.72123146      7.00381947
H        12.74928570      7.29779434      6.58175421
B        11.65401840      6.82487774      6.47677708
H        11.36616421      6.60176516      5.37759590
H        10.14203072      7.43122387     11.41834545
H        11.12966633      5.96911192     12.33740139
H        11.51462650      6.29248381     10.45417309
H        12.18642521      7.61733723     11.88891125
B        11.21614170      6.90121460     11.48342323
H        11.30602169      7.35868359     17.00641632
H        10.55387688      6.30753565     15.39067078
H        12.45023441      6.97020054     15.37821770
H        11.84649849      5.77293301     16.63221931
B        11.46324253      6.70339775     16.00342369
H        10.40979862      6.58810377     20.02621078
H        12.31665707      6.45064545     19.65547180
H        11.51747799      8.19738579     20.21086693
H        11.76494312      6.50951576     21.64087105
B        11.58852196      6.90899038     20.45796967
H        10.98766327      5.85322475     25.55017853
H        11.57556152      6.45858479     23.77811623
H        10.86150169      7.68539667     25.11322975
H        12.85062695      6.91468668     25.28438187
B        11.58662987      6.72750330     24.96060753
H        11.29915810      6.64345264     28.09913826
H        10.59875202      6.11963224     29.96216011
H        12.41654015      6.27280378     29.70811653
H        11.55858803      7.99425364     29.65201569
B        11.46460629      6.81125736     29.34486771
B        11.62197018     11.39873409      2.28855443
H        12.12976551     12.31100750      1.57142293
H        11.49724483     11.75786400      3.40301943
H        10.76081944     10.89506531      1.79792476
H        12.55184078     10.67248726      2.58800077
B        11.36598301     11.52478027      7.02967501
H        11.75736713     11.90377998      5.88247442
H        12.36901951     11.85013294      7.77545738
H        10.47898579     12.10822392      7.42936230
H        11.08512497     10.34776974      7.10803747
B        11.48843956     11.56695938     11.40077877
H        11.17631531     12.58931160     11.12072182
H        11.81830311     10.80976677     10.59243393
H        12.27035618     11.40570259     12.24389648
H        10.54794025     10.95752811     11.86317158
B        11.61377811     11.54658508     15.84335327
H        11.60248089     12.87676907     15.78018665
H        10.96590042     11.31575394     16.90009499
H        11.16984653     11.11984253     14.76558971
H        12.74316692     11.22544861     16.06929016
H        12.09099483     11.30657005     19.63838005
B        11.35235882     11.22510719     20.69148445
H        10.06258869     11.47505093     20.61640358
H        11.85131741     12.15118885     21.39809799
H        11.35975361     10.15750980     21.24597168
H        10.57340622     11.19041252     25.85248756
B        11.32310104     11.32941532     25.02713776
H        11.99827862     12.46155071     25.14828110
H        10.88965511     11.24171448     23.89060402
H        12.08272076     10.40755081     25.06289291
H        10.28049564     11.89343834     29.63833427
B        11.48281193     11.70839024     29.66564751
H        11.72588730     10.86326027     28.75267792
H        11.80179310     11.40909195     30.74461937
H        12.07895279     12.82115746     29.24295807
H        10.55008888     15.22730827      2.42825699
B        11.46104240     16.03869057      2.22643638
H        11.18307781     16.38699150      1.07772434
H        12.50782776     15.42534828      2.27926159
H        11.41500759     16.87596130      3.14036274
H        11.63141155     14.94564438      7.49087477
B        11.56069565     16.04800987      7.02581835
H        11.49693298     16.93615532      7.75537968
H        10.56172657     16.07853889      6.40204096
H        12.48278046     16.39296150      6.22258997
H        10.08000660     15.87975597     10.96207523
H        10.92444706     15.84656715     12.73801804
B        11.18411541     16.11065674     11.62911606
H        12.04467964     15.50874519     11.15320873
H        11.42896080     17.16614914     11.56496620
H        10.05030346     16.59197617     16.30555344
H        11.14313889     15.77810192     14.96586514
B        11.11244774     16.03707886     16.17859840
H        11.96761990     16.90731239     16.49727821
H        11.16170692     15.07367516     16.79969025
H        11.18808365     16.99745750     19.77259636
H        11.00087261     15.00230694     20.14845276
B        11.57177353     16.09914398     20.42718124
H        12.76978588     15.81261444     20.31224823
H        11.22473621     16.34256935     21.51954079
H        12.18944550     15.56333923     25.86221313
H        10.23483562     15.54559422     25.33576775
B        11.37539959     15.95127964     25.09820747
H        11.17348003     17.17216873     25.27318764
H        11.67394257     15.81615639     23.86115265
H        11.33094120     15.04214573     29.47331238
H        11.74308300     17.09291077     29.75817299
B        11.10891342     16.18732452     29.11569405
H        11.45134258     15.88157558     28.02417564
H         9.79256344     16.18970871     29.14101791
H        11.84934711     20.84275627      3.36354780
H        12.14434719     19.55532837      2.00823498
B        11.60155964     20.54747009      2.23835516
H        10.49346924     20.52247810      1.99982989
H        12.18457985     21.36910057      1.47027040
H        10.63041592     20.02320099      6.45498276
H        12.75947857     20.11473465      6.59708738
B        11.71438217     20.62836266      7.00094986
H        11.64973736     21.79783440      6.58765650
H        11.56187916     20.56468391      8.18324375
H        12.13707161     19.42888451     11.81112289
H        10.31080151     20.12075043     12.13435745
B        11.25240421     20.32571220     11.48569202
H        11.84452915     21.23237801     11.84930801
H        10.95839787     20.39973259     10.35883808
H        11.24503422     19.82442474     14.96154213
H        10.22290897     20.74235153     16.44437408
B        11.35501575     20.42717361     15.98424625
H        11.91065025     19.87812424     16.94196129
H        12.10651588     21.43369102     15.69901466
H        10.08471775     20.79895592     20.63960648
H        11.63770676     21.41251373     21.50785828
H        11.88353920     21.01355553     19.59581375
B        11.30999660     20.58555984     20.61706161
H        11.58249855     19.39151382     20.88698387
H        12.90188122     20.35873032     24.94919586
H        11.28261566     19.60410309     24.22777939
H        11.18553066     21.52894211     24.29995728
B        11.66380882     20.47421646     24.95623589
H        11.21300030     20.28342438     26.02498055
H        11.38361263     20.71908188     30.96212387
H        12.12614632     19.84689522     29.33776093
H        11.69427681     21.57203865     29.19252014
B        11.24702168     20.68387222     29.78193855
H         9.97607517     20.37145996     29.57804871
H        12.51730919     24.56174850      2.11567783
H        10.67278862     24.60750008      1.42224014
H        11.68280029     26.32719231      1.77767253
B        11.47315407     25.19920731      2.15147018
H        11.11516190     25.15172768      3.35961413
H        11.44020081     26.33304787      6.78841019
H        10.94661331     24.51110649      6.55154133
H        11.31901169     25.39735413      8.35261536
B        11.80300903     25.23493958      7.22971535
H        13.04416656     25.16550827      7.38508654
H        11.30468750     25.68199158     10.25252438
H        11.99848557     24.09596062     11.27911091
H        10.11397076     24.73272896     11.43995476
B        11.22250748     25.01988792     11.24405193
H        11.75362682     25.56074333     12.32812309
H        12.53702259     25.00334549     16.40940285
H        11.12947083     24.77771950     14.78064346
H        11.25553703     26.62448692     15.73312378
B        11.36075974     25.41431427     15.89852524
H        10.44669533     25.09075356     16.62811470
H        11.70068550     25.55005646     19.40066910
H        12.46006966     24.80190659     21.23239517
H        11.18178749     23.83257484     20.17061043
B        11.43787193     25.01483345     20.53689766
H        10.44778824     25.47154045     21.30064201
H        11.21212959     23.82548141     25.25258446
H        10.65571213     25.60155296     25.82727242
H        10.91910648     25.47511673     23.86240196
B        11.31753731     25.02691650     24.99710464
H        12.61016560     25.23254013     24.75192451
H        11.89003754     24.10981178     30.00567818
H        11.28664112     26.20536613     30.38892746
H        11.98516846     25.71946144     28.73818588
H        10.16148186     25.08480644     29.13869858
B        11.32747936     25.19222260     29.57064629
H        10.82142544     29.43777466      1.06477559
H        10.95822811     28.67665291      2.77852416
H        12.72902393     29.63869667      1.88320434
H        11.27163410     30.68501091      2.68187904
B        11.52539444     29.66797066      2.08098650
H        11.66977310     29.40180969      8.06698799
H         9.79134750     29.71815872      7.31511784
H        11.26419735     30.87995529      6.82595968
H        11.01718903     29.11384010      6.00803041
B        10.92601490     29.71501160      7.06702995
H        11.02227497     29.03017044     10.55896950
H        10.23548317     29.48026085     12.29799557
H        12.26345158     29.23146248     11.96526527
H        11.39949894     30.88462257     11.32656860
B        11.11389351     29.75174141     11.46365166
H        11.02193928     30.26640129     14.62613869
H        11.88647747     28.89997864     15.50593185
H        11.97139072     30.56938744     16.33989143
H        10.28613853     29.65413666     16.37051964
B        11.32845020     29.85436440     15.74676418
B        11.50529575     29.30770683     20.32148552
H        11.25652599     29.63745880     19.10222626
H        10.78868294     28.37102890     20.43033791
H        12.70954990     29.11171150     20.68751907
H        11.18120766     30.19716835     21.09979057
B        11.21842957     29.80457878     24.89793777
H        11.98088741     30.20781708     25.84797668
H        10.09063625     29.95112991     25.15750504
H        11.32713795     30.56653976     23.93011665
H        11.46285439     28.69122887     24.48271179
B        11.39954758     29.52832222     29.63804436
H        11.83086395     28.32178116     29.73241043
H        12.11850452     30.55695724     30.03429222
H        11.20845604     29.82737923     28.50913811
H        10.35921764     29.69602203     30.26243210
B        15.78263855      2.37031102      2.01071501
H        16.93965721      2.58766532      1.99858630
H        15.72106075      1.52780843      1.15087271
H        15.49116611      2.02800679      3.12351656
H        15.35869503      3.42025352      1.70349300
H        15.38974762      1.45073628      6.50681973
B        16.15351295      2.28353333      6.31840420
H        17.31361008      2.09398055      6.92842674
H        15.71751881      3.38183093      6.67604733
H        16.12040138      2.43583441      5.11920166
H        14.63025951      1.95825720     11.25485134
B        15.79103661      2.29851604     11.08770943
H        16.42367935      1.32739961     10.53514957
H        16.29276085      2.40804482     12.25251579
H        15.76811218      3.37169003     10.43860722
H        14.84330273      2.74974656     15.49631119
B        15.75572586      2.00318289     15.81084919
H        16.85842705      2.51002526     15.90721512
H        15.87287998      0.88505369     15.32530022
H        15.64125347      2.09232092     17.07501984
H        16.91753960      1.85122108     21.12157822
B        15.87047958      2.43001223     20.62821198
H        16.20896721      2.06976795     19.46517563
H        16.00245667      3.56624293     20.86970711
H        14.87189960      1.92136061     20.99790001
H        16.05753517      1.07034945     24.76846886
B        15.89549541      2.31431675     24.92424965
H        15.05515289      2.94903779     24.16300201
H        16.88109589      3.03783703     24.61450577
H        15.48561096      2.45993900     26.07225418
H        16.41184998      1.05812955     29.71153831
H        16.06144333      2.55346417     28.53554153
B        16.02309227      2.21323705     29.65720940
H        14.89664364      2.18674994     29.96015549
H        16.62308311      2.75843143     30.43045425
H        16.12860680      7.29495382      0.81777567
H        15.58884525      5.96502209      2.23538136
B        16.08912277      7.11801147      2.09655786
H        17.22552490      7.21081161      2.63281775
H        15.28374863      7.88317299      2.57755947
H        15.50930882      6.41566992      5.87493229
H        15.87967205      8.08908272      6.93641901
B        16.20368385      6.97426081      6.79993248
H        16.04513168      6.29085684      7.78417158
H        17.47140694      6.90749645      6.72645998
H        14.87241745      6.61470461     11.57616615
H        16.25139809      8.02285099     11.94045544
B        16.07535553      6.89257526     11.48216629
H        16.63929367      6.07296085     12.12822819
H        16.10751152      6.71324873     10.29481411
H        16.11290741      5.02305984     15.88909912
H        15.27602863      6.44674587     17.05141068
B        15.96611691      6.25208139     15.98369884
H        17.04346275      6.85410738     15.74655151
H        15.16705894      6.50580597     15.06498623
H        16.15948296      8.01493835     20.39916039
H        14.51554680      7.10850239     20.54983711
B        15.64247227      6.88521004     20.24753571
H        15.97104359      6.52349377     19.19941139
H        16.02600670      6.27394009     21.18428230
H        15.34918594      6.00672960     25.13959885
H        15.72323990      8.02008247     25.03018761
B        16.19517517      6.86447525     24.84116936
H        17.16373634      6.46435499     25.44178963
H        16.39730835      6.74824953     23.68065834
H        15.01452637      7.38408422     30.09329796
H        16.73941040      8.09254360     29.29084969
B        16.03303528      7.07724810     29.45557213
H        16.48930359      6.13784266     30.18111229
H        15.76764965      6.55254936     28.44250679
H        14.81047058     11.48873615      2.04590321
H        16.69622803     11.73293877      1.29086411
B        15.99857426     11.33329582      2.21552920
H        16.54360390     11.78351116      3.15656924
H        16.13226509     10.09702587      2.32777214
H        15.42145061     12.28600883      7.21824646
H        15.06043911     10.45667267      7.03169250
H        16.98713875     11.09422398      7.45900631
B        15.91203213     11.21232605      6.94710064
H        16.20208740     11.16418648      5.81919193
H        15.26568031     12.35785484     10.97019100
H        15.16273594     10.87912178     12.24205875
H        16.50398636     12.08855724     12.50830555
B        15.91130257     11.47101974     11.58601189
H        16.54302216     10.64472294     10.97143269
H        16.16315460     11.63282871     16.89861488
H        16.43293381     11.46327305     14.90629482
H        14.78614330     11.45205116     15.63133526
B        15.91133308     11.08808613     15.89075375
H        15.83122444      9.88317871     15.82639980
H        17.03062820     12.43632698     20.68942261
H        15.35597897     11.79875755     21.68529129
H        16.42092514     10.42227268     20.76613045
B        16.11105347     11.65519524     20.67553520
H        15.42959785     11.74643993     19.69547081
H        17.01827049     11.72136879     25.03906250
H        15.13272095     12.30460167     24.97672653
H        15.88696575     11.49884129     26.53413582
B        15.86856651     11.46358395     25.30837059
H        15.49243736     10.52361298     24.63977051
H        16.34461594     12.21769905     29.01536560
H        14.70358372     11.35657978     29.76514053
H        16.45892143     11.44654465     30.87838936
B        15.98349857     11.37909031     29.76241684
H        16.34060669     10.40989876     29.31827354
H        17.04909134     15.76208687      2.49237823
H        15.50750160     17.30360603      2.64652658
H        15.17677402     15.20665455      3.09711194
B        15.89012241     15.98153877      2.39870453
H        15.59868908     15.63519096      1.29635215
H        15.73924828     15.58609486      8.06978512
H        15.78543949     15.82455063      5.78115559
H        17.35099983     15.92826271      6.84211206
B        16.15647316     16.20149994      6.98434401
H        16.34973526     17.50341415      7.01434898
H        16.84726906     16.18215752     10.68858337
H        16.17329788     14.36838627     11.39364529
H        15.00211430     16.00343704     11.31224060
B        16.08493805     15.66351700     11.49641609
H        16.26132202     15.93045044     12.65482521
H        16.96339417     15.71394062     15.47278595
H        15.01908112     16.39675140     15.93430233
H        15.90718555     14.65598869     16.64410782
H        16.29186058     16.31645393     17.22631836
B        15.98560524     15.74595070     16.22023392
H        16.13637733     17.35240936     20.62260246
H        14.92628098     15.89342690     20.76263618
H        16.61886787     15.57715702     19.77156258
H        16.77687454     15.63641644     21.65211678
B        16.14925003     16.17193985     20.71361351
H        14.84526920     16.07937813     24.86330605
H        16.28487587     14.88887787     24.81685257
H        16.68519020     16.77284622     24.60088348
H        16.01397324     16.14788628     26.33451843
B        15.99018860     15.92192745     25.12124825
H        16.50006104     15.78284836     30.67482376
H        16.50998116     16.99480820     29.26285934
H        16.24330330     15.02843094     28.88218880
H        14.67056561     16.22197342     29.74592018
B        15.84738636     15.99165154     29.63615990
H        16.11476707     20.97097397      3.44761205
H        14.76274490     20.75434303      2.23477769
H        16.33740234     21.39683914      1.39992309
H        16.22010231     19.36666489      1.93394053
B        15.85810184     20.58392906      2.19184875
B        15.96368504     20.24930191      7.09889746
H        16.21851349     19.04092026      7.00950861
H        15.21731567     20.48499298      8.02147961
H        17.14554024     20.78401375      7.30606174
H        15.84254932     20.70133018      6.04943085
B        16.18012238     20.30669403     11.64906693
H        15.94975853     19.19452477     11.34708023
H        15.30823708     20.85764694     11.10809517
H        16.06431007     20.53393364     12.82226944
H        17.23230553     20.62193108     11.20800591
B        16.11697960     20.64781952     16.04003525
H        15.06054020     20.33540535     15.49533463
H        17.08910751     19.96399879     15.70878220
H        16.19313240     21.67550850     15.46030140
H        16.08234978     21.10034752     17.15948868
B        15.66810799     20.78949547     20.84390068
H        14.41659451     21.03593445     20.86434174
H        15.78392792     20.05420113     21.79776382
H        15.91679859     20.13540268     19.84104347
H        16.35013771     21.77803230     21.03941345
H        15.43093014     19.46819115     24.87674522
B        15.77196407     20.55366325     25.09261894
H        15.38595867     20.92484856     26.28116035
H        15.59343815     21.45990562     24.30322266
H        16.98676300     20.43026352     25.33319283
H        16.67172432     21.13048553     29.25075722
B        15.76562309     20.46708870     29.83680153
H        14.64308071     20.71377373     29.41059113
H        15.73296928     20.51587486     31.07345009
H        16.01503754     19.24955559     29.55551338
H        15.10784435     25.17930222      2.76585174
B        16.18815994     25.22466087      2.21867752
H        16.16757774     26.35260963      1.93450594
H        16.42219734     24.74597931      1.18017733
H        16.82131004     24.75613785      3.09987354
H        15.30826855     24.47631836      6.63937044
B        16.14453316     25.23999786      6.96786165
H        17.23806190     24.84651375      7.45565844
H        15.62506390     25.98753929      7.76128244
H        16.30584335     26.01618576      6.05571508
H        16.14300728     26.67515945     11.54401016
B        16.08529472     25.41419029     11.79675102
H        16.97762680     24.74964333     11.43915272
H        15.14004898     24.80761719     11.28102875
H        15.77371597     25.42490196     13.07818794
H        14.72211838     25.49932480     15.67737675
H        16.66796494     25.96384430     16.21279526
B        15.78211117     25.24877548     16.15748215
H        15.52169418     24.89972115     17.31600761
H        16.41460800     24.41173935     15.48090935
H        17.26389313     24.96822929     20.84734344
H        15.43608284     24.44277000     19.97639656
B        16.03421974     25.29942322     20.54302788
H        15.53560925     25.49781609     21.64618874
H        15.93649197     26.45114326     19.98411369
H        16.53725815     25.45773697     24.04595184
H        15.00977325     25.42307472     25.42496872
B        16.14804077     25.10612488     25.12116814
H        15.99059772     23.80420876     25.01620102
H        16.99455643     25.55566406     25.97991371
H        16.10687637     26.48101234     29.79979515
H        15.77088928     24.93638611     28.60022163
B        16.19124222     25.27667809     29.67919159
H        17.13215637     24.70813942     30.00849342
H        15.46701622     24.84783745     30.63543320
H        16.25314713     29.55177879      0.93753904
H        16.64588928     29.04591942      2.83705282
B        15.89505386     29.70625496      2.19428802
H        16.01709747     30.90159225      2.51737976
H        14.64265060     29.50787926      2.26431561
H        15.94988251     30.99536324      6.92168474
H        15.97876358     29.44233131      5.70137262
B        15.64140224     29.79662514      6.84040308
H        16.40753174     29.27900314      7.62921906
H        14.53637218     29.55760002      7.19041300
H        17.36700630     29.35657501     11.60347652
H        15.76091480     30.48239136     11.91665268
B        16.28772163     29.66495895     11.23094749
H        16.41593742     30.09517288     10.04099560
H        15.51246071     28.77173996     10.93048191
H        16.66030312     30.85785103     15.33688354
H        15.58925343     29.20903206     14.62311459
B        16.09827995     29.75196266     15.59852982
H        16.90348625     28.86359596     15.90411282
H        15.15425968     29.69964409     16.38152885
H        16.40011978     29.83557129     21.65272903
H        14.92452908     30.35764694     20.09942436
B        15.86854553     29.70551682     20.52510643
H        16.71472740     29.55353928     19.70067978
H        15.50413132     28.58485413     20.63851166
H        15.77203655     29.53580284     23.68961334
H        15.95915127     30.85750580     25.03557968
H        17.04538345     29.08428574     25.02478409
B        15.81170273     29.65662766     24.86990738
H        15.05167770     28.91912270     25.37230110
H        15.91235161     28.56475067     29.94934082
H        14.57127666     29.81582642     29.40545845
H        16.15744400     29.66758537     28.41882324
B        15.72612000     29.63550186     29.58567810
H        16.18020248     30.52515984     30.37459564
H        21.53292847      3.01654387      2.10296273
H        19.42330360      2.63747549      2.45679522
H        20.69924545      2.38606811      3.88893151
B        20.65691948      2.28863430      2.66619730
H        20.82059479      1.40836799      1.85110581
H        20.51973534      3.81940866      6.94048738
H        21.17971802      1.93754292      6.29134274
H        19.30844116      2.35445046      6.27284479
B        20.26864243      2.61772060      6.87441874
H        20.30642891      2.25211048      8.06238651
H        21.13726044      1.93249857     12.22469521
H        19.79088211      1.56685412     10.98338318
H        21.50101280      1.96652746     10.27674198
B        20.69915962      2.38317919     11.12504196
H        20.35756874      3.48142338     11.20434761
H        19.52715302      2.23872733     16.22229385
H        20.65103149      3.81564879     15.60111904
H        20.89821243      2.13827944     14.78552151
B        20.62424278      2.67248034     15.93037701
H        21.48052788      2.51840615     16.70783615
H        19.18979454      2.64315176     20.53442001
H        20.69479942      2.54284334     19.10046005
H        20.11006737      1.09555638     20.52211571
B        20.29554749      2.32905316     20.30811501
H        21.07556152      2.68748951     21.19174957
H        19.46725464      2.53950906     24.45122528
H        19.96823120      1.13120461     25.64393234
H        20.96768951      2.76323199     25.95239830
B        20.45223808      2.12659526     25.03934097
H        21.39485168      1.80308557     24.21714401
H        21.65994453      2.79679680     29.98892593
H        19.76835632      2.66978955     30.71025658
H        21.12836647      1.05184412     30.29062271
B        20.60782433      2.14164186     29.99202728
H        20.17817497      2.02499676     28.90278816
H        20.60837936      7.18498373      3.77960300
H        20.65654182      5.66932869      2.46748948
H        19.57360077      7.37911177      2.40153575
H        21.48805237      7.21763134      2.14068246
B        20.50015640      6.82570648      2.70313573
H        20.59014893      6.03082943      7.98542500
H        19.70521545      6.76390314      6.32241344
H        20.22781754      8.10403824      7.73023748
H        21.82034111      7.01258755      6.81476402
B        20.58675194      7.03022099      7.20403004
H        20.16281319      7.81357622     11.50018692
H        19.94992256      5.67871094     11.54108429
H        20.82735825      6.60900831     10.00307751
H        21.78940392      6.80775738     11.69443226
B        20.65674400      6.75167179     11.25162029
H        21.36927795      6.35331821     16.34718323
H        19.41386223      6.20554352     16.34835052
H        20.13240242      8.06844711     15.89813042
H        20.44574928      6.51304436     14.61416626
B        20.33392906      6.83049345     15.79308987
H        20.38936806      5.85409117     20.50376320
H        20.84309196      7.45448923     19.26822281
H        19.81731415      7.85683632     20.96722984
H        21.66732979      7.05456638     21.14876747
B        20.64092255      7.07553339     20.41490173
B        20.59819031      6.85971212     25.06131554
H        20.86194420      6.25524759     26.15409660
H        21.08541679      8.04938984     25.11330986
H        20.76087761      6.26944113     23.88167572
H        19.45246696      6.86424589     25.04603767
B        20.40800858      6.93168879     29.63996696
H        19.30135155      6.65437889     29.40269089
H        20.96675491      6.15175056     30.42299080
H        21.13881683      6.77120543     28.59617424
H        20.60539818      8.09383297     30.10976982
B        20.60923958     11.54953671      2.37983203
H        20.53783417     12.77803802      2.05732417
H        21.88130951     11.41199493      2.30011940
H        20.57315636     11.38725281      3.58712578
H        19.95519066     10.92808151      1.60935795
B        20.39017868     11.28530216      7.12443066
H        21.18630981     12.03485680      6.76455927
H        20.84336281     10.31119251      6.47133780
H        20.45254135     10.99091816      8.36905575
H        19.35638428     11.42106628      6.43560410
H        20.97280693     11.77558327     12.51667976
B        20.34572029     11.47285557     11.47604275
H        20.99021149     11.95637226     10.58181000
H        19.18165588     11.71959877     11.55469227
H        20.44303703     10.21328449     11.59968853
H        21.70796967     11.64717388     16.46629524
B        20.63920975     11.43578339     16.01041031
H        20.85353470     10.93497658     14.95329571
H        20.04671288     12.54485703     15.97799969
H        19.81652260     10.89580154     16.61645699
H        20.94569969     11.91417122     21.84687614
B        20.52344894     11.19420147     20.94040489
H        19.35230064     11.23775578     20.76194572
H        20.79654312      9.99352837     21.23270416
H        21.14468002     11.61951923     19.88866806
H        19.85117531     12.03921413     25.16007996
B        20.62269402     11.23150158     25.60857391
H        21.00873566     11.45260906     26.70132637
H        21.36211205     11.10188961     24.54152489
H        19.94055367     10.14337730     25.50907135
H        20.89742661     11.43054581     31.17671394
B        20.57678986     11.59609032     30.03254128
H        21.49729156     12.09942150     29.26383209
H        19.48467255     12.27753830     29.83391953
H        20.27828217     10.35888004     29.72607613
H        20.07613754     15.31911087      2.97923899
H        20.19096184     16.44218826      1.30203187
B        20.63779640     16.17409706      2.41367602
H        20.40511131     17.13534355      3.01301861
H        21.82173347     15.81116867      2.50013900
H        20.51727486     15.85022354      7.96341228
H        20.98934937     17.51857185      7.11861849
B        20.58093834     16.35158920      6.84664488
H        21.53425598     15.89232731      6.28412342
H        19.55397606     16.40083313      6.15463829
H        20.34225845     15.06840801     12.14104557
H        20.23016548     17.11355972     11.81100273
B        20.35221863     15.93958473     11.28256035
H        21.21844864     15.93741989     10.53481960
H        19.35857964     15.79210663     10.64101028
H        20.42701721     15.57507992     17.31245422
H        19.57065201     16.37082100     15.63136673
B        20.70504189     16.28382492     16.28283119
H        20.80244446     17.33851433     16.64077377
H        21.55884361     15.72457981     15.68744373
H        20.65056801     14.76634884     20.96266747
H        20.98169136     16.02200890     19.55159378
B        20.39621162     15.91603661     20.64118004
H        19.25456047     16.13594818     20.43743896
H        21.06916046     16.60427284     21.39260483
H        21.10942078     16.41229057     24.30310059
H        19.22124481     16.52057457     24.89367104
B        20.33521843     15.97157764     25.07486153
H        20.30420303     14.70456314     25.12482262
H        20.78977013     16.31766510     26.17523003
H        19.96918106     16.14933205     28.52759552
H        19.92593956     16.30411530     30.47702789
B        20.61666679     15.93863392     29.52820969
H        20.80145836     14.78699207     29.89110565
H        21.69316292     16.44399261     29.41505623
H        21.88675117     20.64096260      1.74330115
H        19.98741341     20.07961464      1.48848462
B        20.71668816     20.64046288      2.30456281
H        20.69780540     20.05007362      3.32461190
H        20.38456726     21.82024765      2.47684503
H        20.41112709     19.79213715      7.13761473
H        20.37294388     21.85642433      6.65803576
B        20.92620659     20.81766510      6.76652288
H        21.91565132     21.10247612      7.38252592
H        21.15233231     20.52948952      5.67940950
H        19.62651062     20.00759697     11.23037720
H        20.39478493     21.96500778     11.21107674
H        21.66898155     20.22026253     11.07629967
B        20.65038681     20.67495346     11.57526493
H        20.90282249     20.79266548     12.80740356
H        21.43995857     20.44007874     16.59065056
H        19.88557243     21.57419205     16.14026260
H        19.73391342     19.64585495     16.26405716
B        20.43822289     20.51468658     15.87482357
H        20.87262344     20.34153938     14.70725918
H        20.74685860     21.01411057     21.60808372
H        20.95801163     20.84814262     19.67211151
H        19.16218948     20.52846718     20.50137138
B        20.43209076     20.40112877     20.61980629
H        20.71294785     19.16009521     20.72513771
H        20.82534218     20.04301262     26.37822723
H        19.85743332     19.36958885     24.45557785
H        21.79757309     20.34309006     24.84548378
B        20.63265610     20.14752960     25.12586212
H        20.06913757     21.35404778     25.18269920
H        20.66918373     21.01547813     30.84749222
H        19.33647728     20.28426552     29.42089462
H        21.39347458     20.30434799     29.23132896
B        20.36760712     20.92153740     29.67777824
H        19.99688530     21.96639061     29.14933968
H        20.44352722     25.02593994      3.46894503
H        20.18258667     24.36822128      1.66835070
H        21.88594437     25.16135979      2.08016539
B        20.67141724     25.25465202      2.29375792
H        20.34287643     26.26298141      1.75743532
H        20.10038757     24.32963181      7.66256285
H        20.14762306     25.25102043      5.79149723
H        21.79388237     25.20332146      7.07795477
B        20.55883598     25.22756004      7.02149057
H        20.28854370     26.36714554      7.18360758
H        19.10612297     25.26822662     11.46309757
H        20.86847115     24.39479446     12.00674725
H        20.75483704     26.44999695     11.43162537
B        20.33873558     25.31082916     11.35261345
H        20.49976540     25.13045311     10.25630951
H        19.52273369     24.88832283     16.39477730
H        21.12780571     24.58073044     17.27916145
H        20.98305130     26.17627716     16.10045433
B        20.69573212     24.97119522     16.24131584
H        21.14884567     24.26605034     15.30393887
H        21.23571014     25.98440552     20.02467918
H        20.32653999     25.21160316     21.81540298
H        19.52107430     24.80348587     19.98840523
H        21.26726723     23.91316605     20.53996658
B        20.60260963     24.91675758     20.65011787
H        20.32104874     25.49140167     26.25831795
H        20.69456291     25.78800583     24.12112617
H        21.84135818     24.52208519     25.16078568
H        20.08285522     23.98772430     24.95840263
B        20.70618629     25.06267548     25.14595604
H        20.51898575     24.65839386     28.37591743
H        20.68490601     26.09624672     30.03052521
H        19.67188263     24.35282516     30.21078873
H        21.66146278     24.35589981     30.01582527
B        20.64336586     24.86354828     29.66097641
H        21.35957146     30.69794083      2.27512383
H        20.98773384     28.65948296      2.28513622
H        19.55650139     30.09173965      2.76337767
H        20.35437202     29.60129738      0.96980256
B        20.57685280     29.77982521      2.18178582
H        21.23930740     30.10173225      6.15303993
H        19.49004936     30.06944847      6.57188416
H        20.45315361     28.26558876      6.18628025
H        20.91780853     29.37863159      7.85799837
B        20.48097038     29.42239380      6.73047400
B        20.46487808     29.75805664     11.21355629
H        21.45673180     29.00494766     11.08302402
H        20.84188461     30.81029320     10.84149361
H        19.74655533     29.24780083     10.28197575
H        19.77927780     29.77572632     12.36781693
B        20.71740913     30.20426941     16.03469849
H        20.84014320     30.45203590     17.21018791
H        20.45990753     31.32504082     15.57936573
H        21.81773758     29.95738792     15.53180790
H        19.75548363     29.54204941     15.69678783
B        20.92196274     29.80713081     20.87542725
H        20.38622093     30.49755096     19.95832825
H        22.04232597     29.58404732     20.71885300
H        20.80663681     30.14051819     21.98871422
H        20.35266685     28.79956055     20.53151894
B        20.67435074     29.13078117     25.49755096
H        20.43872833     29.56978989     26.59685326
H        19.55437279     29.48503876     24.86947823
H        21.73597717     29.71115494     25.08352661
H        20.74121284     27.94309998     25.46613884
H        21.25970840     29.81669617     28.61150742
B        20.97620773     29.56814575     29.74191666
H        20.18891716     28.55130196     29.35871696
H        20.41258240     30.30129242     30.48300743
H        22.02642059     29.13142586     30.27987862
H        25.61802864      2.31841421      0.97351491
B        25.18980980      2.28862095      2.10136223
H        25.34766960      1.10703278      2.30103660
H        24.00805664      2.59598446      2.04656839
H        25.65341759      3.20885777      2.76699352
H        23.93405914      2.60557389      6.79365015
B        25.08798027      2.09886813      6.96447849
H        25.69315529      2.18635988      8.12090492
H        25.86181068      2.64716101      6.15931749
H        24.89659691      0.96104586      6.60658073
H        24.24280167      2.31666923     11.36625099
B        25.35760498      2.35356402     11.59788227
H        25.81082726      1.22523785     11.26258469
H        25.52347565      2.31895232     12.78803539
H        25.68823051      3.25663733     10.72198105
H        25.30922127      3.36190414     16.35755348
B        25.83430290      2.26168299     16.05934334
H        25.29836655      1.27050912     16.51223564
H        27.11313438      2.23947525     16.21608162
H        25.71920013      2.14215779     14.84679413
H        25.77110481      3.30004668     20.12597084
H        23.82469177      2.78420138     20.94385338
B        24.99809456      2.55560398     20.70697021
H        24.94426155      1.46963668     20.16670990
H        25.55179405      2.29976630     21.73481178
H        25.71755600      1.31416690     24.73999596
H        25.51268578      3.37859011     24.62412643
B        25.37228584      2.36934280     25.24880409
H        24.14220238      2.12786412     25.18117905
H        25.83063126      2.50258374     26.39381599
H        26.25332451      1.55209529     29.94269943
H        25.27189636      3.46985126     30.07995605
B        25.25487137      2.23871398     29.66131020
H        24.68305588      2.02017379     28.57053566
H        24.52986908      1.63478184     30.52377892
H        24.40607452      6.20321751      1.55237460
H        24.89762115      6.71335030      3.34006977
B        25.21013641      6.84092379      2.21895027
H        26.30468559      6.61442709      1.90922809
H        25.24897194      7.99890566      1.80391645
H        25.91420937      7.54526901      6.71307039
H        24.29438591      7.31291437      7.26828289
B        25.09699249      6.71005249      6.67913532
H        24.75017929      6.38832808      5.63930368
H        25.33417511      5.53584719      7.24149847
H        25.08517647      5.45964766     11.61949158
H        23.87302017      6.93718433     11.63079929
B        25.09031296      6.71508741     11.48153114
H        26.06080437      6.92628241     12.31461334
H        25.44782448      7.07720900     10.39948177
H        23.80332756      6.64578009     15.83307171
H        25.41323662      6.90822077     14.97797775
B        24.96705437      6.62742996     16.14212608
H        25.43971062      7.69414425     16.73538208
H        25.39762878      5.59256697     16.44257736
H        26.16720963      6.46860600     20.57955933
H        25.05195808      8.27476692     20.74303246
B        25.05768394      6.91784048     20.62164116
H        24.62380981      6.73212051     19.44268608
H        24.42149925      6.29870415     21.39491653
H        24.16041946      6.11986303     25.51094437
H        25.12659264      7.06861639     23.88156891
B        25.05181313      6.91402912     25.11083984
H        24.88940811      8.00903893     25.60589600
H        26.11242867      6.42659140     25.56425476
H        24.48983383      6.07895374     29.01948357
H        24.08648300      7.70127535     30.16142845
H        25.69441605      7.65497494     29.29161263
B        24.93799400      6.87891102     29.89226341
H        25.37027931      6.44709539     30.90988922
H        24.93885612     10.57025337      1.63082218
H        24.93663216     11.10979080      3.47607851
H        25.13776398     12.46121502      1.85221541
B        25.46488190     11.40033054      2.40782738
H        26.67556953     11.17578506      2.52202487
H        24.66888809     10.12114906      6.54954815
H        23.65883064     11.78298950      6.62509012
H        25.33328819     11.93247414      5.75547647
B        24.79962921     11.27661610      6.59219885
H        25.53514481     11.58860016      7.51807880
H        24.16235733     11.65599823     11.79724503
H        26.05710602     11.97723198     11.39261341
H        24.87331963     11.33479691     10.03334713
B        25.09748268     11.20551872     11.13240623
H        25.41296577      9.90537834     11.31377983
H        23.79459000     11.52702427     16.14336967
H        24.86644745      9.88055134     15.88295269
H        25.83436584     11.44202518     16.70578003
B        24.93121529     11.08707142     15.85237980
H        25.37171936     11.43558979     14.84103107
H        25.36164093     10.63731098     20.44717216
H        24.86680031     11.72524261     21.98432541
H        23.52787590     11.36227512     20.57682610
B        24.76698875     11.61853123     20.78637695
H        25.23708344     12.53978729     20.11226845
H        25.62552071     11.92381763     24.50595093
H        25.18114281     10.45850945     25.89761734
H        23.66934013     11.23258781     24.69886780
B        24.76020050     11.40412235     25.25311852
H        24.52854538     12.26831150     26.04243469
H        25.37275124     11.89610100     30.91765404
H        24.00169182     10.97261524     29.69194603
H        25.36021423     10.05904770     30.12348557
B        25.16538811     11.21241856     29.93246460
H        25.87031364     11.72981834     29.14781952
H        26.53948021     16.32721710      2.13214040
H        24.77998543     17.03095627      2.19651961
H        25.11545181     15.63800716      3.37173772
B        25.37481117     15.95732784      2.25810719
H        25.24510956     15.20234394      1.38227272
H        23.67469597     15.78116512      6.98366022
H        25.27595901     16.60044861      5.82880354
H        25.02254677     16.52240372      7.93986845
H        25.38123703     14.74357891      7.08191395
B        24.81505966     15.92389202      6.84594584
H        24.70475578     14.75740528     11.39221764
H        25.58702660     15.85809422     12.80498314
H        26.05240822     16.16804886     10.91533756
H        24.22878456     16.42051506     11.47969055
B        25.26999092     15.77218151     11.65187645
H        24.20649147     16.40859413     15.11224270
H        25.84647179     15.50379276     14.79444122
H        25.68686295     16.60607147     16.48558426
H        24.77000237     14.74580479     16.17743301
B        25.11868095     15.75158215     15.73253441
H        25.35600853     16.93549538     21.33610535
H        23.99800110     16.13700676     20.61371803
H        25.66065407     15.96220303     19.56245232
H        25.29775810     14.84939671     21.30687332
B        25.14848137     15.94333458     20.67631531
H        24.65720558     16.79641151     25.79064178
H        26.29531670     16.89879036     24.62026024
H        26.02169418     15.51602840     25.94320488
H        25.07801437     15.42823124     24.31156540
B        25.54964256     16.24101448     25.16881561
B        25.01717567     16.06011009     29.89318466
H        25.38240051     14.93414402     29.69996262
H        25.68274307     16.75016785     29.08634567
H        23.83316612     16.18822479     29.76197243
H        25.32453346     16.29382896     31.23138809
B        25.32948112     20.61123466      2.20913196
H        25.98615646     21.46070099      1.58465385
H        25.83137512     19.49708176      2.07558298
H        25.27491379     20.97985649      3.38232327
H        24.18814087     20.62232590      1.68963742
B        25.44795799     20.43026161      6.88660717
H        26.68116760     20.64919853      6.83214712
H        25.24596786     20.52664757      8.10613155
H        24.59600067     21.21253204      6.29514933
H        24.95765686     19.32211304      6.73092699
B        25.08690453     20.63302994     11.29070091
H        25.69887924     20.24247360     10.35889149
H        24.49545670     21.64083672     10.87111759
H        24.21807671     19.86611557     11.75321388
H        25.79039574     21.09559822     12.08819294
H        24.58365440     19.92037773     15.15244484
B        25.03281784     20.58118248     16.07163429
H        26.31145477     20.44439507     15.95279884
H        24.63122749     20.12535667     17.05499268
H        24.68772507     21.78093338     15.98677540
H        23.84867096     20.51657486     20.61758995
B        25.02973747     20.48055077     20.19082642
H        25.08085632     19.87084389     19.11524010
H        25.97536278     20.25339890     21.07066917
H        25.29081154     21.68548775     19.93721962
H        24.67235756     21.46680450     25.51945496
B        25.12262535     20.46926498     25.02778816
H        24.72387505     20.69358253     23.79456902
H        24.60641861     19.45827103     25.56668854
H        26.37778854     20.39904594     25.04590607
H        24.08753967     20.72798347     29.79500961
B        25.08410835     20.30077171     29.37983131
H        26.03041458     20.95167160     29.98574638
H        25.06250381     20.65812111     28.12885857
H        25.19281578     19.07682991     29.43135071
H        25.58433723     26.32322311      2.15132165
B        25.30477524     25.16696739      2.09035444
H        25.61433029     24.48772049      3.12540555
H        25.83344841     24.66099548      1.09783983
H        24.14112282     24.82699585      1.88606811
H        25.54753494     25.38211441      5.53034258
H        23.80195236     25.33020782      6.66866922
B        25.02087784     25.15481186      6.66298437
H        25.12900352     24.01368713      6.95993996
H        25.69713783     25.60557556      7.57821369
H        25.29529190     26.25692558     11.71062088
H        25.16105461     25.24212646      9.90798283
B        24.99074745     25.19892693     11.28605366
H        25.69454002     24.31358528     11.67352009
H        23.82081413     24.96572685     11.48105049
H        25.55941010     25.08563805     17.10605431
H        25.32108688     24.30556107     15.12558556
B        25.18290520     25.22932625     15.90803909
H        23.87971687     25.69425583     15.99079514
H        25.95780373     25.99021912     15.40817928
H        25.06912994     26.18034935     20.10654068
H        25.90331841     25.76358414     21.90821266
B        25.69739723     25.35066032     20.76841736
H        24.94049835     24.36237335     20.91307259
H        26.80064201     25.17469788     20.27960205
H        25.14777184     23.87739754     24.91606712
H        24.69817543     25.34107590     26.21329689
B        25.24957275     25.11713028     25.02527618
H        26.45649338     25.39056778     25.16393280
H        24.58008957     25.76473999     24.23948860
H        24.88469887     25.05728722     28.62759972
H        26.22002792     25.33725357     30.02640915
B        25.13710976     24.82595825     29.75994873
H        24.34980202     25.30974579     30.56135750
H        25.01264191     23.58682442     29.91945457
H        26.44051743     29.74731445      2.32684088
H        24.75172043     29.83352661      3.41724396
B        25.31410408     29.91941261      2.34667516
H        24.91665459     30.85870743      1.53801143
H        24.70600700     28.88061523      1.76431572
H        25.13532448     28.21887016      6.79793882
H        26.46590042     29.49878120      6.86411142
B        25.31869698     29.38101578      7.06023645
H        24.70613670     29.95590210      6.01594496
H        24.90783691     29.63603783      8.12833691
H        24.74674606     29.02727127     10.57255650
H        26.28888893     29.58958054     11.62898350
B        25.12985229     29.91771317     11.37154484
H        24.67726326     30.97386932     11.05134106
H        24.52105713     29.87005043     12.38443375
H        25.84368324     29.67231369     16.87471771
H        24.09561348     29.79501152     16.18840981
H        25.52059174     29.83149910     14.74232483
B        25.23202324     30.14189339     15.98067093
H        25.50515175     31.28328133     15.88387680
H        24.86064529     29.84679222     19.24030113
H        25.55122185     28.76516724     21.08210373
H        24.24898911     30.09943199     21.07696915
B        25.22519684     29.77331352     20.41343117
H        26.15626144     30.52393723     20.47039604
H        25.52856064     30.06949425     25.77795410
H        23.72945595     29.67901230     25.16100502
H        25.13054466     28.46123505     25.08857727
B        24.92958069     29.60039330     24.90776253
H        25.12102890     29.72183418     23.74824715
H        25.12169647     30.31450653     28.68871880
H        26.31963539     29.16557312     29.79187012
H        24.21138382     28.94456482     29.95191002
B        25.21069717     29.73210907     29.75215530
H        25.17558479     30.45430565     30.72516060
H        30.96885681      2.08976674      2.63971376
H        29.33468628      3.02063775      1.59167528
H        29.11703873      2.31013465      3.57256794
B        29.65147591      2.20305133      2.46737456
H        29.36446381      1.11224508      1.97124529
H        30.51168442      1.83406746      6.42355156
H        29.72265244      3.45740151      7.40271854
H        28.93275261      1.37226164      7.48654509
B        29.47952461      2.29502177      6.91010094
H        28.76885223      2.52101207      5.98032761
H        29.12061691      1.76252198     11.70650387
H        29.75249100      2.57581329     10.00032997
H        31.15439796      2.04082108     11.25479507
B        29.97896194      2.49906158     11.17550945
H        29.93353653      3.45962906     11.69818401
H        31.09440231      2.40919757     15.94709778
H        29.24469757      1.66429043     15.79744911
H        29.62923241      3.62257051     15.50138760
B        29.94146729      2.60191226     16.22777939
H        29.67552948      2.81122661     17.46398544
H        29.35528755      1.15412056     21.11806679
H        30.91009521      1.90774620     20.37423134
H        29.47285843      3.06448793     21.41830063
B        29.71608734      2.16025281     20.61657715
H        29.05005074      2.56135225     19.69845772
H        29.83873177      0.98959732     25.83895683
H        29.51734924      3.08813906     26.13230705
H        30.75155830      2.52829123     24.75119400
H        28.96422577      2.17802191     24.48203659
B        29.72459984      2.10188699     25.32332230
H        29.51805687      1.03495848     29.83169365
H        29.64341164      2.57564497     30.89234161
H        31.11857605      2.18833899     29.66511345
H        29.45991135      2.93957543     28.85926247
B        29.79566383      2.18530607     29.74295425
H        28.40508270      6.54055834      2.22231698
H        29.86610222      6.84821892      0.96996182
H        30.29210281      7.10130310      2.86028218
H        30.05915833      5.35881853      2.24674487
B        29.61407471      6.43261051      2.05560255
H        28.85292053      7.38781023      6.94820261
H        30.78693199      6.88979626      7.09925604
H        29.30058098      5.47122335      7.02301168
H        29.65708923      6.53600216      5.35419846
B        29.66538239      6.54703712      6.61907005
H        30.24830055      7.24261332     12.50766277
H        29.71636391      5.61867380     11.29876614
H        29.08362961      7.53759289     10.83605671
H        30.87642670      7.18171215     10.58529377
B        29.97949791      6.77852154     11.35287952
B        29.56173134      6.71691847     16.25254059
H        29.17120934      6.58359146     17.35577965
H        29.43233109      7.84365749     15.73614025
H        30.73571968      6.60278416     16.55132675
H        29.00999260      5.85442162     15.51787663
B        29.54722977      7.03664589     20.88845062
H        30.14180374      5.89603090     21.10336113
H        29.69960976      7.74679470     22.01147079
H        30.02134895      7.49944973     19.85136986
H        28.41199493      6.77544689     20.71543312
B        29.61808395      6.80966043     25.47138214
H        28.77486038      7.60542727     25.30248833
H        30.76716232      7.20722723     24.99436760
H        29.54575539      6.65803766     26.66104507
H        29.67303467      5.73816490     24.85380745
B        29.66930199      6.86376905     29.71441650
H        29.83505630      6.65572929     30.92290688
H        28.56914330      6.39717436     29.73033142
H        29.82328987      8.06536579     29.55885696
H        30.29872322      6.14094830     29.03158951
H        30.39532852     12.00442314      2.96349359
B        29.75344467     11.29584980      2.11666870
H        30.35275841     11.31068611      1.02415621
H        28.53884506     11.58329105      2.03039527
H        29.96035385     10.14519787      2.38637710
H        29.31320190      9.65023518      6.74879265
B        29.40478706     10.84718800      6.55771780
H        29.84330559     11.06596375      5.44632769
H        30.09490585     11.35023308      7.41481876
H        28.23362350     11.24503040      6.66015720
H        28.81651878     11.73291302     11.39937496
B        30.04123497     11.48660374     11.07680035
H        30.67858315     12.41367435     11.58704853
H        29.77396202     10.96016693      9.95551872
H        30.38328934     10.55588531     11.77282524
H        30.54591942     11.73671436     15.04265118
B        29.85239220     11.33716583     15.95613480
H        30.15473366     11.88032722     17.02443695
H        29.73030663     10.16616726     15.81786156
H        28.63378525     11.55192089     15.94993210
H        29.62625694     11.06658363     19.18007851
B        29.58900070     11.58131981     20.44522476
H        30.40227127     11.11997604     21.25423622
H        28.39303398     11.44514084     20.70354843
H        30.02873230     12.61357021     20.26620483
H        30.11752129     11.05960178     23.69625092
H        30.20921516     12.48999596     25.31687546
B        29.95935059     11.22139263     24.98905945
H        28.73475456     11.20213413     25.44414902
H        30.63210678     10.54589558     25.72819901
H        29.97651100     11.58863258     28.48271370
H        28.33092880     11.25808430     29.60110855
B        29.47850990     11.77227592     29.63166237
H        30.17079353     11.17114449     30.43949890
H        29.52375984     13.01366329     29.78700829
H        29.59770775     15.83835316      3.57291198
H        30.34609795     17.05779839      2.58952284
B        29.90659332     15.97162914      2.43924904
H        30.78806877     15.13202381      2.19995952
H        28.85402489     15.87352943      1.92002892
H        28.35116196     15.85488892      6.86659956
H        30.08909607     16.42592239      8.08140373
B        29.64447975     16.25596619      6.93911123
H        30.34389877     15.40279865      6.45875168
H        29.71760750     17.33853722      6.44995546
H        30.40275192     16.22582054     11.81833839
H        29.85989189     16.03672218      9.95217419
B        29.39762878     16.04491043     11.01725483
H        28.91063690     14.97874165     11.23905945
H        28.69877434     17.15125465     11.09452629
H        29.91335869     17.11925125     16.08593369
H        29.96030617     15.99995804     14.76947308
B        29.47912598     16.17765427     15.72350216
H        29.96869278     15.38124084     16.54163170
H        28.31707573     16.00857925     15.82615852
H        29.58504486     17.27652168     20.89216995
H        28.26297951     16.00756264     20.04206848
B        29.38870049     16.06991959     20.70843124
H        30.09871864     15.58204174     19.81623268
H        29.47926140     15.38619328     21.74020004
H        28.53051567     16.09913635     25.38608170
H        30.12461662     15.71823978     26.49994659
B        29.85910034     15.99411869     25.36291504
H        30.10902214     15.12427330     24.54775047
H        30.30534744     17.06165314     24.96141624
H        30.20908737     15.29326630     29.39777946
H        29.58119392     17.49812889     29.84753418
B        29.30210495     16.10082626     29.96513176
H        28.06975365     15.98978615     29.94586182
H        29.63058281     16.03155518     31.21749306
H        29.05203629     19.70133781      2.74612164
H        28.87077141     21.12636566      1.47508454
H        30.49217033     20.17463684      1.52480292
B        29.68761635     20.55958557      2.22426510
H        30.24083328     21.25461769      2.93746710
H        29.12849426     20.13478661      6.36395741
H        31.08181763     20.08564377      6.62379837
H        29.92842484     20.32755280      8.15849972
B        30.12012100     20.69749260      6.86370087
H        29.90493774     21.87170029      6.67166758
H        30.96389389     20.61190605     10.96798801
H        29.01017761     19.97294807     10.65881062
H        29.54523849     22.05056953     10.94235325
B        29.76859856     20.85490036     11.16168880
H        29.54371071     20.66886711     12.41313362
H        30.09090805     19.46609688     15.83224201
H        30.20413399     21.51154327     15.88591576
H        29.89522552     20.41776466     17.54049492
B        29.61956024     20.58120728     16.31259346
H        28.37136841     20.65991974     16.18663979
H        29.77881813     20.45408630     22.11999893
H        30.12751579     19.84915352     20.29263496
H        30.24077606     21.62168694     20.53183365
B        29.54501915     20.71212959     20.93898201
H        28.44697189     21.04626083     20.40441322
H        30.40080070     21.27357674     24.43228722
H        29.16083527     20.96835136     26.08933640
H        30.78839111     19.87674522     25.37582779
B        29.77778435     20.44126511     25.19045639
H        29.11099052     19.87492371     24.24009895
H        29.59124756     20.33148575     28.30796623
H        29.47475433     21.94401932     29.65647888
H        30.46752548     20.34180260     30.09620285
B        29.57382202     20.70860863     29.48265266
H        28.53420258     20.19748306     29.74847412
H        28.42241478     25.52781487      2.26579547
H        30.46049500     25.86618233      2.16002846
H        29.72334671     23.92045784      1.90865374
B        29.58347321     25.07866096      2.62705088
H        29.82974625     24.74434280      3.70861626
H        29.82619476     26.65223885      6.99664497
H        30.68845177     24.92034531      6.54200840
H        28.97581291     25.27112579      5.81670046
B        29.68379211     25.42528915      6.75211382
H        29.15234184     24.68173790      7.71092367
H        28.44411850     24.86122704     11.68711090
H        30.04468346     24.77491570     10.55396938
H        29.69392014     26.32595825     11.86227608
H        30.21821976     24.64365387     12.41878700
B        29.60785103     25.18871307     11.63064384
H        30.05278969     24.07646370     16.33325386
H        28.62460899     25.27468872     15.70989799
H        30.50597000     26.01195145     16.39670753
H        30.15790558     25.12471008     14.72305202
B        29.79906845     25.10236931     15.88292980
H        30.86837387     25.19518471     20.92107773
H        28.83368874     25.66724968     20.95421219
H        29.76668930     25.65658188     19.20071983
H        29.42440605     24.04551125     20.36215210
B        29.75893593     25.17908096     20.32860374
H        29.22145653     24.04332352     25.46717262
H        29.71231461     25.07756424     23.71032333
H        29.29549408     26.14829636     25.52037621
H        31.04283142     24.87045097     25.00200081
B        29.76871872     25.04001617     24.99625587
H        30.01189232     24.12649918     29.85144043
H        29.72561836     25.45954323     31.23669815
H        29.79907417     26.06313133     29.37681580
H        28.25575066     25.12948227     29.81230927
B        29.46357918     25.14328194     30.00890350
B        29.86823273     29.46649933      2.25619912
H        29.57652092     30.64557838      2.23522854
H        29.10066795     28.93012619      2.94604850
H        29.81345558     29.03695679      1.05196357
H        31.19575500     29.30651474      2.42236590
B        29.99256325     29.56186104      6.96769667
H        30.07428360     29.89895058      5.77117729
H        31.09565163     29.16202545      7.26350546
H        29.74468231     30.61195564      7.42064381
H        29.18791962     28.88444519      7.45837975
B        29.68978691     29.88356590     11.57751083
H        29.71776199     29.11764908     12.65441704
H        28.59737968     30.30046654     11.45551395
H        30.58192062     30.64063263     11.82063866
H        29.96342468     29.10025787     10.69645977
B        29.87150764     29.90074348     16.11957550
H        29.22152901     29.22695923     16.93146324
H        30.81335640     30.45181465     16.58326340
H        30.36116982     29.05615807     15.46493816
H        29.08918381     30.58646011     15.58041096
H        30.56731987     30.23898125     21.52640533
B        29.83144188     29.74012375     20.70541954
H        29.70028687     28.49170113     20.95711708
H        30.43427467     29.83420753     19.57341003
H        28.76495361     30.10284424     20.63669777
H        30.65796280     30.70320320     25.40601349
B        29.82433701     29.91215515     25.03837967
H        29.10652924     29.35213280     25.96906090
H        30.31445122     28.98747444     24.39431572
H        28.95817184     30.49680519     24.42327690
H        29.93273354     29.74013519     28.39791679
B        29.50865936     29.69427109     29.61318779
H        29.90723610     28.64694977     29.84799576
H        28.30093193     30.07306480     29.68697548
H        30.43348503     30.23585320     30.16085052
