3075

Na        4.63721943     -0.25750655      2.11559081
Na        2.22283125     -0.33023143      8.90296078
Na        2.28532362      0.19047000     13.58247852
Na        2.36252570     -0.16598094     18.53637695
Na        2.11268234      0.18755160     22.58602715
Na        2.07291007      0.20305546     27.52979660
Na        4.56252813     -4.20941162     29.51005363
Na        2.38285899      4.42306948      9.32323265
Na        2.31281018      4.60487509     13.47826862
Na        2.18358040      4.38603783     17.89877892
Na        2.11912966      4.36946869     22.61210442
Na        2.22941589      4.14601898     27.29734039
Na        2.04540849      4.61828995     31.91750908
Na        2.19421935      9.12786198      4.61562157
Na        2.47143316      9.04352283      8.88660145
Na        2.25583053      8.84001255     13.65348053
Na       -0.11454494      6.71155643     17.95850945
Na        2.37031007      9.76466560     22.87079048
Na        2.03653717      9.59340572     27.47691536
Na        2.00643897      9.18956852     32.05210114
Na        2.13662720     13.94386959      4.22147989
Na        2.22672415     13.65251541      8.88457489
Na        2.16222382     13.79576206     13.82004642
Na        4.26039934     11.47609043     18.52863693
Na        2.28213811     13.88217354     22.53667831
Na        2.24326301     13.90453148     27.05041122
Na        2.08859944     13.99768353     32.27980423
Na        2.39067078     18.09678459      4.54994678
Na        2.25484967     18.12878418      9.21692371
Na        2.24576950     18.32597542     13.57365227
Na        2.36730456     18.23144722     18.21445465
Na        4.50297213     18.41485214     20.63506699
Na        0.10470900     18.48718643     29.76354599
Na        2.22205734     18.44894409     32.12738037
Na        2.48567653     22.62591171      4.54032564
Na        2.35368800     22.63012695      9.38089180
Na        2.27147436     22.54344177     13.86286545
Na        4.26950884     25.10138512     17.96862030
Na        2.03304148     23.28829956     22.90185356
Na        2.29126644     22.64669991     27.42764091
Na        2.36237693     22.99205017     32.11417389
Na        0.15093675     27.22476387      6.83037710
Na        4.52896881     27.39500046      6.75504589
Na       -0.39397442     27.51871490     15.64251137
Na        2.05844951     27.78271484     18.15547752
Na        2.19977903     27.27843094     22.99386406
Na        2.28318381     28.00750542     27.10604477
Na        4.84771013     25.05542183     32.03258133
Na        6.95903444     -0.32421422      4.42858934
Na        4.71697664     -0.02679095      6.88197565
Na        6.70633841      0.06233402     13.55025291
Na        6.97641087      0.44809940     18.29628754
Na        6.82230902      0.09137695     22.26871872
Na        4.96318340     -0.06955539     29.52325821
Na        6.91989088      0.13594259     31.80541801
Na        6.76765251      4.25412703      4.23729944
Na        6.73315620      4.46066999      8.82966328
Na        8.99927425      4.05337286     11.45387936
Na        4.91138220      4.50655746     15.81426430
Na        4.38044024      4.53126383     20.41028786
Na        6.89499712      4.54361343     27.37540817
Na        6.84061432      4.33971405     32.16457367
Na        6.89418173      9.12043095      4.32952309
Na        6.82747507      9.03927517      9.38601112
Na        6.83418655      9.27683544     13.75216866
Na        6.66902304      9.57094955     18.18642044
Na        6.72169924      8.89227962     23.15579224
Na        6.71354103      9.10640144     27.48044395
Na        6.72669077      9.24682140     31.79664612
Na        6.90282583     14.10554695      4.39406204
Na        6.84667540     13.83316708      9.15319920
Na        6.84812689     13.92132282     13.56444645
Na        4.85735655     13.43763638     15.96508598
Na        6.79651403     13.65795612     22.60770988
Na        9.14608383     13.58741379     29.63879395
Na        6.61799479     13.76725960     31.87209511
Na        4.62571049     20.28687096      4.63872528
Na        6.92057180     18.28915215      9.49577522
Na        6.85377407     17.77251053     14.27520275
Na        6.70360088     18.44460869     18.53691864
Na        7.11434937     18.05791283     22.69375610
Na        6.92022610     18.57771683     27.19239616
Na        7.05273914     18.17352676     32.17041016
Na        6.84513140     22.46066093      4.33319473
Na        6.84357452     23.01486206      9.48499203
Na        6.72661495     22.90980530     13.93824959
Na        6.74512196     22.50724030     18.38705254
Na        6.95290804     22.94141769     22.62920952
Na        6.84684372     22.80316162     27.43353653
Na        6.79145813     22.40736771     31.90334892
Na        6.65513134     27.14886284      9.03971767
Na        6.72316027     27.27396774     13.70810223
Na        6.97311974     27.40343666     18.67311287
Na        6.77943563     27.75718880     22.75644112
Na        9.31414509     27.35662460     29.82074356
Na        6.73640823     27.94760513     31.99038124
Na       11.49630642     -0.30726483      4.33918619
Na       11.38626003     -0.09974613      8.80513000
Na        9.17104530     -2.11572790     13.58710957
Na       11.56120968      0.25893232     18.18446350
Na       11.82697964     -0.17179918     27.94095421
Na       11.38274860      0.21505247     31.64588165
Na       11.58975983      4.54325533      4.81294250
Na       11.22324276      4.25960445      9.27194118
Na       11.48053360      4.77933598     13.62312889
Na        9.59404278      4.82833672     16.00876236
Na       11.41284466      4.63531494     22.94158936
Na       11.64238262      4.69848919     27.31057930
Na       11.48310566      4.77966022     31.86562157
Na       11.42684746      9.28889561      4.52408218
Na       11.18633366      9.18422031      9.06477165
Na       11.18730736      9.31582069     13.92326641
Na       10.96035290      9.24303246     18.20287895
Na       11.43431568      8.92125320     22.49195290
Na       11.18246365      9.25175285     27.26190948
Na       11.17998981      8.77941513     32.13365555
Na       11.27429104     13.33984947      4.35821199
Na       11.26549625     13.86329937      9.12314796
Na       14.02075577     14.17878246     16.06149101
Na       11.66935730     13.78149605     18.64613152
Na       11.27907467     13.75628376     22.85708809
Na       11.59399891     13.36049652     27.37414360
Na       13.84373474     13.54672909     29.51771164
Na       11.60606003     18.05115128      4.05955029
Na       11.51554966     18.24811745      8.92456150
Na       11.44388866     18.33402061     13.70940399
Na       11.33353233     18.02391052     18.13214684
Na       11.55525398     18.57418060     22.85029602
Na       13.74480057     20.31431580     27.81017303
Na        9.12215424     17.76980591     29.73295021
Na       11.31548119     22.48690033      4.48929501
Na       11.42610836     22.97562981      9.12087631
Na       11.65731621     23.20786667     13.82550335
Na       11.42875099     22.87327957     18.32336617
Na       11.65148449     23.28366470     22.62862587
Na       11.79287338     22.85099983     27.89094925
Na       11.46559525     22.44172668     32.06120300
Na       11.13456726     27.16774940      4.37018204
Na       11.30781460     27.68975067      9.31717014
Na       13.65386295     29.89762306     13.72090816
Na       11.57739735     27.57628632     18.33382416
Na       11.61439896     27.66799545     23.22829819
Na       11.56663799     27.30838966     27.66684723
Na       11.56705093     27.23962784     31.94978905
Na       18.11496162     -0.35739690      7.05494928
Na       13.93796921     -2.01973224      8.90595341
Na       15.83903790      0.27904096     13.88652229
Na       15.96124554      0.41141850     18.27749443
Na       15.89002323      0.02256121     22.62900925
Na       16.04823494     -0.12401693     27.38509941
Na       16.14660645      0.19667149     32.62137985
Na       16.01700592      4.52981949      4.53275251
Na       15.71109486      4.16439295      9.08767223
Na       15.95045185      4.38523912     13.85463428
Na       15.83237839      4.46702480     18.46294594
Na       16.00622177      4.68218040     23.14256668
Na       15.93175220      4.68612814     27.66920280
Na       15.94472122      4.42164183     32.50197220
Na       15.94912529      8.77005768      4.68370390
Na       15.91019917      9.12854385      9.54911995
Na       16.01480865      9.50172424     13.64877033
Na       16.03254509      9.00809669     18.34589386
Na       15.80735874      9.07967949     23.13865662
Na       16.00942802      9.45857334     27.20514488
Na       16.00859833      9.18150330     32.18325424
Na       15.79471397     13.58569336      4.60074854
Na       15.88765907     13.67079926      9.15155506
Na       17.85838699     15.91991806     14.19049549
Na       13.36781120     16.15124512     18.68373108
Na       16.09888840     13.83222580     22.81160927
Na       16.19694138     13.61600113     27.36609268
Na       15.97208881     13.48589325     32.13174057
Na       16.09328842     17.86451721      4.31180191
Na       16.02344894     18.61423302      8.65003777
Na       16.14209366     18.40783691     13.33150101
Na       16.04407120     18.11741257     18.52781105
Na       16.07744408     18.48374557     23.30120468
Na       13.75289726     15.72959137     27.26258278
Na       16.21580315     17.99924088     32.44527054
Na       16.28154182     22.48877525      4.65933084
Na       15.91057968     22.89099312      8.97605896
Na       16.36561012     22.71836472     13.89812088
Na       16.07019806     23.28565979     18.40930557
Na       15.84504223     22.85690880     23.52321243
Na       16.41338921     22.72092438     27.87562561
Na       16.19409943     22.77457619     32.23036194
Na       15.85827065     27.00392342      4.43478107
Na       18.46785927     27.83321381     11.35659790
Na       16.06128502     27.60396194     13.72322845
Na       17.83962822     29.65442276     18.49691200
Na       16.05337334     27.75861168     23.16636467
Na       13.61263466     29.51346016     27.76486206
Na       16.14489937     27.14460945     32.51763535
Na       17.91226387      1.96237302      4.88619804
Na       20.44294739      0.11641353      9.33327961
Na       20.52167320      0.16115707     13.42822552
Na       20.31610680     -0.28149968     18.43474197
Na       22.85431099      2.29533124     22.75831032
Na       18.47954941     -2.24870229     27.51388168
Na       18.20167160     -0.04305373     30.05605125
Na       20.46407890      4.32882786      4.44712257
Na       20.44306183      4.45606041      8.92875481
Na       20.41411781      4.78973103     13.46398640
Na       20.72267342      4.68623686     18.27220345
Na       22.74422455      6.81122780     22.89180183
Na       20.77137184      4.43937492     27.39447975
Na       20.54839325      5.00515795     31.80510902
Na       20.68527985      8.89536953      4.74933720
Na       20.48128510      9.14934731      9.21463490
Na       20.30391502      8.71470642     13.52546120
Na       20.51271820      8.84238243     18.25939178
Na       20.70232582      9.27203369     22.98251152
Na       20.64208031      8.98490429     27.58111572
Na       20.51264572      8.69519901     31.98084641
Na       20.63715363     13.14113045      4.54298210
Na       22.68316841     13.98147869     11.39840603
Na       22.81336212     11.61000729     13.86910725
Na       20.61068344     13.66873360     18.21053505
Na       20.69441223     13.82848167     22.88958549
Na       20.75733185     13.63669014     27.64902115
Na       20.65795135     13.74462509     32.36371994
Na       20.68507195     18.09329605      4.96849537
Na       20.78832054     18.57017517      8.76636791
Na       20.55154228     18.40521812     13.86971283
Na       20.46793938     18.24221611     18.32056427
Na       20.61280441     18.19015694     23.11571884
Na       20.79429817     18.12116623     27.76735306
Na       20.65498734     18.41884041     31.80820847
Na       20.60779572     22.55366707      4.58290625
Na       20.48514557     22.88713455      9.14770126
Na       20.72572136     22.91350937     14.24275303
Na       20.74517059     22.51264954     18.55916023
Na       20.64355278     22.58453178     22.89973259
Na       22.90120316     23.25211716     29.86361885
Na       20.65318871     22.61038399     32.22967911
Na       22.96058273     27.46385193      6.53716755
Na       20.60581589     27.11420250      8.92877865
Na       20.53033066     27.35214043     13.74964714
Na       20.59957123     28.02129364     18.52462006
Na       23.13545990     29.64580345     22.47463989
Na       20.79973793     27.22706032     27.34059334
Na       18.55989265     27.29597664     34.47109985
Na       24.79217720     -0.01789197      4.86185646
Na       22.38167381      0.11877387      7.07484674
Na       25.29111481     -0.25183925     13.56154919
Na       25.19949913      0.14346881     18.24939156
Na       24.86962700      0.18251960     22.70674706
Na       25.02243996     -0.14741787     27.49944305
Na       24.89448547      0.05396682     32.21221924
Na       25.18716621      4.44328213      8.88509941
Na       24.93283081      4.54131317     13.27473927
Na       24.91141510      4.09324503     17.80939102
Na       24.95243073      4.70373440     22.92040443
Na       25.25495911      4.52528143     27.51857567
Na       25.06219292      4.58758545     31.89568138
Na       25.12503624      9.14281750      4.25403786
Na       22.46971512      6.83230782      8.93118858
Na       23.00384712      6.88520527     13.55588436
Na       25.09805679      8.92699337     18.40520859
Na       25.19868660      8.92105389     22.60396767
Na       24.93372154      9.12135410     27.19101524
Na       25.05067062      8.68442822     31.89808273
Na       24.94815826     13.53109837      4.73334026
Na       24.98214531     13.65740299      9.21307564
Na       25.10550308     13.83439064     13.71796513
Na       25.35071754     13.71885967     18.31648064
Na       25.27976799     13.73836803     22.74214935
Na       25.33679008     13.87141418     27.31716919
Na       25.31460762     13.96736813     32.28168106
Na       25.20540237     18.23855019      4.38080311
Na       25.39549828     18.61398315      9.35011959
Na       25.25613594     18.02939415     13.68594646
Na       25.21141434     18.29329300     18.60498619
Na       25.26991081     18.21894264     22.28902245
Na       25.12596703     18.18444824     27.69536400
Na       25.06938362     17.83155251     31.76442909
Na       24.97163010     23.21897888      4.70285082
Na       25.14531136     22.50822830      8.95819855
Na       25.20479774     22.78402519     13.71368408
Na       22.70060730     23.00280380     20.87785149
Na       25.00587845     23.13390160     22.96697426
Na       25.31532097     23.01672554     27.29357147
Na       25.23706055     23.10614204     32.03807831
Na       25.27742577     27.49975967      4.56467199
Na       22.90316010     29.82410622      9.01549816
Na       25.12814522     27.95063972     13.95050716
Na       25.09208488     27.19688988     18.16577148
Na       25.05241203     27.03653336     22.88006783
Na       25.01859856     27.67029572     27.69462585
Na       25.08570480     27.47482681     32.00003433
Na       29.86224556     -0.17581892      4.50324535
Na       29.77540779      0.07822811      8.86518955
Na       29.68684578      0.04460980     13.59372425
Na       29.42884636      0.17954643     17.95995331
Na       29.57049751     -0.10142586     22.94554520
Na       29.51198196      0.33939362     27.00408554
Na       29.79170609      0.37867206     32.03540802
Na       29.66686821      4.36540937      4.86448717
Na       29.87747002      4.75519180      8.72677326
Na       29.86611938      4.51118135     13.52463913
Na       29.64487648      4.08918095     18.01646996
Na       29.68828964      4.34883118     22.49602699
Na       29.73008919      4.64139605     27.48600006
Na       29.39387512      4.21305227     32.19153595
Na       31.74946213      6.83152580      4.91419363
Na       29.72786331      9.18124390      9.26610661
Na       29.44314575      8.82495308     14.06549835
Na       31.85302353      9.03642845     16.00324821
Na       29.67390633      9.26557255     22.82645607
Na       31.96740150      6.98060560     27.49469376
Na       29.47058105      9.25105286     31.90764046
Na       29.69753075     13.69383144      4.85152435
Na       29.69375229     13.40284538      9.19900227
Na       29.59675407     13.32122707     13.38842773
Na       29.75969887     13.28287697     18.07373428
Na       29.74651146     13.89803696     22.85709190
Na       29.82093048     13.59489918     27.53132629
Na       29.60700035     13.38689899     31.77198410
Na       30.06238937     18.84501457      4.85460997
Na       29.91662025     17.86528206      9.04699802
Na       29.57436943     18.66977119     13.58780956
Na       27.80055237     20.35176849     18.26372910
Na       29.80401421     17.94392204     22.80519676
Na       29.90448761     18.24973488     27.40946579
Na       27.50014496     18.48332405     29.87198639
Na       29.71862030     22.62091446      4.39050388
Na       29.90035057     22.79567337      9.39319229
Na       29.61154938     23.11741447     13.97025394
Na       29.61830521     22.56398392     17.87766647
Na       29.62260628     22.70921326     22.46712875
Na       29.79474068     22.61891747     27.96459770
Na       29.74750710     22.98402977     31.97649002
Na       29.86313248     27.23186684      4.61233997
Na       27.64272308     27.39182091     11.26877308
Na       29.74632072     27.42092896     18.47594261
Na       29.45020103     27.32111931     22.46561432
Na       29.87695885     27.20274925     27.47237396
Na       29.78689957     27.64895248     32.09864044
Na        0.40734789      2.27450871      4.51143885
Na        0.27206576      2.27215719      9.22692776
Na        0.43940571      2.31201315     13.67568779
Na        0.08876846      2.24783468     18.26578903
Na       -0.34634742      2.20819068     23.22240257
Na       -0.02749831      2.28174114     27.62982178
Na       -0.05479591      2.32987785     32.25599670
Na        2.28397036      4.78669882      4.52523613
Na        0.02083145      9.35377979      7.04321051
Na       -0.13908239      9.16038418     11.48448086
Na       -2.25481296      9.24744797     18.55718231
Na        0.25380692      6.98399305     23.19486427
Na       -2.44465637      9.40666771     27.27416229
Na       -0.24548851      6.82694769     31.75407600
Na       -0.12075582     11.46798325      4.70290709
Na        0.12277418     11.47212124      9.55878067
Na       -0.01077397     11.35958958     13.39240646
Na        0.32475773     11.52439594     18.70187759
Na        0.07607927     11.62935352     22.49230194
Na        0.20087376     13.20867729     24.91385078
Na        0.13772164     11.40657616     31.58031845
Na       -0.30179077     16.10520744      4.25850630
Na       -0.08810838     15.91468334      8.79373646
Na       -0.24259041     15.87047005     14.25234127
Na       -0.29540733     16.06717110     17.70546341
Na        2.26187682     18.24786377     22.44416428
Na       -0.47392944     16.10539627     27.39671898
Na       -0.05780488     18.10611534     34.20125580
Na        0.48462784     20.57581520      4.31483841
Na        0.25847667     20.57830429      8.98633385
Na       -0.36121246     20.50089836     13.41546059
Na        0.09658725     20.66294289     18.08119965
Na       -0.06369980     20.42653465     22.93193054
Na        0.24140072     20.62921143     27.83329201
Na       -0.19862799     20.48986244     32.17204666
Na        0.18405810     25.24730301      4.68248987
Na        0.26225027     25.09076881      9.09358883
Na        0.24822190     25.02124977     13.71569347
Na       -0.02163374     25.14480019     17.89355087
Na       -0.22827570     25.04726791     22.98350906
Na        0.31131798     25.11441612     27.34828186
Na       -0.06646907     25.28606033     31.64326096
Na       -0.08755848     29.86270905      4.17422915
Na       -0.40265775     29.52516747      8.92029095
Na        0.01040160     29.82505989     13.20443821
Na       -0.04786835     29.85837555     18.35242271
Na       -0.14898075     29.53684807     22.50452995
Na       -0.06701495     29.93097687     27.61520195
Na        0.04285482     29.69511223     32.50261688
Na        4.61373568      2.11634755      4.39420462
Na        4.56504679      2.28381252      9.08103371
Na        4.55171537      2.30690670     13.60336590
Na        4.59187126      2.35976243     18.43431091
Na        4.58436966      1.91086400     23.08747292
Na        4.95134163      2.29671407     27.25315666
Na        2.36360073      0.24159463     31.72473145
Na        4.29760170      6.87760496      4.44645882
Na        4.31984138      6.69953156      8.86650753
Na        4.30851555      6.65568876     13.74110794
Na        4.71618795      6.98144245     18.17506027
Na        4.33745623      6.84107590     22.60055923
Na        4.04823971      6.93497849     27.27900314
Na        4.44759226      6.66804266     31.85132217
Na        4.06791401     11.51059341      4.60459280
Na        4.55637121     11.29934883      8.96082973
Na        4.87049103     11.37030888     13.42316914
Na        4.73178244      8.94342422     20.53211212
Na        4.65263033     11.48960972     22.61808014
Na        4.21846294     11.48680592     27.10764694
Na        4.24911070     11.67446995     31.57973480
Na        4.49409294     15.85720348      4.05904293
Na        4.85967588     16.38742828      9.30858517
Na        4.45738316     16.04405022     13.40856743
Na        4.68749952     15.69336891     18.14722061
Na        4.75824547     16.26005745     22.66789246
Na        5.00891447     15.81943989     27.33170509
Na        4.19100046     15.90502357     31.94684410
Na        5.19161654     22.92190361      6.82745171
Na        4.74155664     20.55258369      9.03449345
Na        4.67069912     20.45789146     14.06773472
Na        4.36374426     22.91370964     16.18986320
Na        4.30876589     18.35674667     25.09980965
Na        4.29049540     20.44083786     27.37251282
Na        4.33512640     20.61089134     31.74519157
Na        4.92963409     29.74491119      9.14780045
Na        4.29956770     25.16859245      9.11969566
Na        4.33361387     25.02353096     13.79973602
Na        4.01776886     27.00367928     16.09683990
Na        4.79306173     25.19321251     22.65037918
Na        4.47586966     27.54215050     24.95164108
Na        2.31734419     27.26264000     31.69828224
Na        2.28178930     27.67251396      4.45407867
Na        6.82138109     32.03814697      9.04295063
Na        2.25209880     27.43281555     13.69352818
Na        4.74004602     29.81822014     18.00567055
Na        4.42136955     29.68437004     22.60991669
Na        4.82946014     29.88675880     27.11603928
Na        4.96034479     27.20738602     34.13176727
Na        8.76052666      2.25209761      4.24023485
Na        9.03487873      2.14476681      9.31304550
Na        8.98109627      0.21310654     11.31115627
Na        9.54967785      4.42281580     20.40624237
Na        8.91208172      2.27299190     23.15570259
Na        9.10007954      2.25436091     27.41688728
Na        9.19293499      2.26242828     31.58151627
Na        8.75699425      6.72985125      4.65071583
Na        9.12359619      6.81288528      9.23594570
Na        9.24546623      6.64345360     13.28117275
Na        8.84400177      7.11449385     18.21251678
Na        9.26135921      6.69952488     22.84385872
Na        9.14056110      6.85678387     27.58811378
Na        8.65082455      6.87201500     31.87071609
Na        9.02627468     11.53001118      4.46975899
Na        8.60449791     11.51010895      9.03419495
Na       11.46775436     13.60535431     13.76277161
Na        8.80869293     11.65311241     18.09000969
Na        9.21224403     11.09613037     22.96681213
Na        8.55656528     11.80272198     27.27627945
Na        9.07591629     11.14741135     31.94836998
Na        9.24456692     15.92667103      4.87539482
Na        9.16720009     16.03556442      8.77334690
Na        9.18373489     15.95727062     13.72946072
Na        8.89160538     15.82552147     18.46944809
Na        9.05910778     16.06673050     22.86671829
Na       11.49194431     18.27076340     27.66569138
Na        9.43743896     15.79141331     32.22933197
Na        9.22007942     20.28443718      4.53283405
Na        9.40032864     20.47963524      9.25321007
Na        9.01025391     20.53885269     13.85296345
Na        9.12430191     20.52700424     18.55721092
Na        8.97113895     20.68172073     23.17477989
Na        9.28093529     20.46604156     27.55055809
Na        9.19740009     20.20312309     31.89973831
Na        8.87654781     25.17235756      4.83026695
Na        8.91250229     25.10577393      9.07014370
Na        9.01445293     24.99015236     13.47101307
Na        8.95683384     25.20535278     18.53781509
Na        9.18291378     25.30319214     22.78188896
Na        9.21525383     24.88264275     27.25361443
Na        8.62860394     24.82921410     31.57571793
Na        9.24674606     29.78534126      4.35085821
Na        9.09317684     29.87855911      8.93028450
Na        8.96193504     32.16864014     16.13673592
Na        8.95908737     29.75890732     22.82391548
Na        9.14363289     29.77750587     27.55925941
Na        9.27613831     29.82640457     32.10485077
Na       13.80674362      2.30097508      4.55099297
Na       13.49855614      2.35838675      9.00583363
Na       13.33917713      2.35488987     13.67580223
Na       13.36183262      2.75254178     18.27021599
Na       13.82874775      2.26294208     22.80729675
Na       13.72378540      1.92233896     27.32272148
Na       13.49130344      2.22051454     31.75617790
Na       13.82373905      6.98314476      4.65918303
Na       13.55970097      6.76316643      9.38679028
Na       13.98460388      7.22256041     13.70760155
Na       13.51110840      7.01819324     18.16726875
Na       13.65655804      6.97212267     22.66662788
Na       13.71944714      6.99355555     27.27139854
Na       13.86263752      6.85057449     32.32058334
Na       13.91905117     11.44117451      5.22832537
Na       13.56017971     11.42329884      9.10492516
Na       13.44178104     11.62651920     13.86830425
Na       13.63558865     11.49263477     18.05613136
Na       13.81194210     11.54456902     22.70145416
Na       13.57598114     11.39892960     27.29275513
Na       13.85132980     11.28770542     32.44434357
Na       13.69428253     16.09068680      4.87870693
Na       13.73836422     16.22534943      9.33065128
Na       15.98386955     13.41437435     13.71588898
Na       13.82731438     14.07885265     20.75547218
Na       13.52591133     16.13353157     23.12001228
Na       11.51306438     17.94951820     32.36142731
Na       13.69323921     20.50803375      4.59157753
Na       13.68801785     20.67675781      9.31715870
Na       13.62917995     20.75441551     13.99941444
Na       13.88155651     20.68068123     17.98781776
Na       13.90608406     20.67442131     23.07697678
Na       16.07455063     18.17771149     27.65371895
Na       14.25789165     20.23306656     31.99561691
Na       13.31867123     24.92771721      4.61428642
Na       13.92491245     25.16619492      9.07108784
Na       14.08315659     25.41188431     14.00033188
Na       13.40571785     25.14161301     18.41077423
Na       14.26795006     25.29002380     22.88602638
Na       13.72309971     24.94632149     27.82399940
Na       13.78453732     24.87893677     31.87266731
Na       13.54820156     29.73386192      4.68330193
Na       13.23277950     27.28834724     11.53640461
Na       11.20162296     27.29582787     13.65745544
Na       14.06843090     29.72738647     18.15124130
Na       13.71666908     29.74254608     22.79180908
Na       13.55421066     31.98253632     25.08760452
Na       13.66421700     29.53724480     31.78562355
Na       18.25462914     -0.53806621      2.34481192
Na       15.97326469      0.30283102      9.08288860
Na       18.22348404      2.18549204     13.56358528
Na       18.46915436      2.28170276     18.66501045
Na       18.35572243      2.39996076     22.91853523
Na       18.03870773      2.27498603     27.45471573
Na       18.44675446      2.25931215     32.03762817
Na       18.13378906      6.47727728      4.82862425
Na       18.08869743      6.80331755      9.55963421
Na       18.01914787      6.67306137     13.59334850
Na       18.18104935      6.97673702     18.53145409
Na       18.45228958      7.06846666     22.96767998
Na       18.45730972      6.79984283     27.60800934
Na       17.92333794      6.64478302     32.10087204
Na       18.15101814     11.26997089      4.48757267
Na       18.17907524     11.47672272      9.19725990
Na       18.35640907     11.42597294     13.39603710
Na       18.24447250     11.39243031     17.94231224
Na       18.35268211     11.57463264     23.04446793
Na       18.42660332     11.18458557     27.40129280
Na       18.56938744     11.28235340     32.06940460
Na       18.34889412     15.61528492      4.55639267
Na       18.16327858     15.85237026      9.01083183
Na       18.15294647     13.83229065     11.59982395
Na       18.57174683     16.06025887     18.61948586
Na       18.38878059     16.19932938     22.88801765
Na       18.42538071     15.97704601     27.40134048
Na       18.35954666     15.82526493     31.41929626
Na       18.34095955     20.50443459      4.53852415
Na       18.53754044     20.82480621      9.37284660
Na       18.16175461     20.53293037     14.08131790
Na       18.42563057     20.74792671     18.31167030
Na       18.32725334     20.78882027     23.00845909
Na       18.77640533     20.54805374     27.50237274
Na       18.25748253     20.45865822     32.01543427
Na       18.21698761     25.10876846      4.73226786
Na       18.05435181     25.25455666      9.57346439
Na       18.66823196     27.67077065     16.16449547
Na       17.99630165     25.19482231     23.00546455
Na       16.02347183     27.61830711     27.51349640
Na       18.19546890     25.12182617     27.68826675
Na       18.13534546     29.49291039      4.87366199
Na       18.06659508     29.78349495     13.61859226
Na       16.04984665     27.12166786     18.11309814
Na       18.31644630     29.99065971     22.96292114
Na       18.13512993     27.25187874     29.73308182
Na       18.33339882     29.58324432     32.15297318
Na       22.59797859      2.33264351      4.70387363
Na       22.82614708      2.30112839      8.98578930
Na       22.88311768      2.16546869     13.71700668
Na       22.80940819      2.30167460     18.32118607
Na       22.64780617      2.41108346     27.44085121
Na       22.66397095      2.30396628     32.11574936
Na       23.17948532      6.97035122      4.45502138
Na       22.91421318      4.89007282      6.69638538
Na       23.02574730      9.30252075     11.17040920
Na       23.17197990      6.70905304     18.04557228
Na       22.72864532      4.90902710     25.12686348
Na       22.59510994      6.92277718     27.69337273
Na       22.68268013      6.73476744     31.99447441
Na       22.62028885     11.55847073      5.02938175
Na       22.92974663     11.47203064      9.28510475
Na       25.00617409      9.29183769     13.39614582
Na       22.96016693     11.36168003     18.53702736
Na       23.18293762     11.39215469     22.62302780
Na       22.89320755     11.36027336     27.14945602
Na       22.86773109     11.50322819     31.92882919
Na       22.90614891     16.07307053      4.14312172
Na       22.74824715     16.05519104      9.32772255
Na       22.94209671     15.99838448     13.85040283
Na       22.92906952     16.01359558     18.47220230
Na       23.25429153     15.82656860     22.87324142
Na       22.91143608     16.00113106     27.66816902
Na       22.61585236     15.89703751     32.17974091
Na       22.83794975     20.42759323      4.30302811
Na       22.96118355     20.57100868      9.23154449
Na       22.89706993     20.45645523     13.93600655
Na       23.02600479     20.49608612     18.37837029
Na       22.99517250     20.38358307     22.76884651
Na       23.27037239     20.70056915     26.96251106
Na       23.10784912     20.62320518     32.08715439
Na       22.47531509     29.60852432      4.25693321
Na       23.01347542     25.21059036      9.20015049
Na       23.12938309     25.23792839     13.71619987
Na       23.22256851     27.16226006     20.58928490
Na       22.56020355     25.18337059     23.03173637
Na       22.77170944     25.13635635     27.63036537
Na       22.93332291     27.33699799     34.36524582
Na       22.45647240     31.96347046      2.58427262
Na       25.28603935     32.21785736      9.00454712
Na       22.60615540     29.55163574     13.42237282
Na       23.29350853     29.66236305     17.98675537
Na       20.54395866     31.96653175     22.78735161
Na       22.36048698     29.78106689     27.81488037
Na       22.85131073     29.70712662     32.36258316
Na       27.21075249      2.25427341      4.56655025
Na       27.37242317      2.24509454      8.80390072
Na       27.27482796      2.41473174     13.55123329
Na       27.18044281      2.31472182     18.22710800
Na       27.24371719      2.24714851     22.95406723
Na       27.53403854      2.40508032     27.72528839
Na       27.27595901      2.14851665     32.28288269
Na       27.66865730      7.02039099      4.36192942
Na       27.53655624      6.69766140      9.21744251
Na       26.96286201      6.70281982     13.67148495
Na       27.60513496      6.74381256     18.01185226
Na       27.48066521      6.95984554     23.01135063
Na       27.67885399      6.63610697     27.23099518
Na       27.52805710      6.89720583     32.07086182
Na       27.40435982     11.33704567      4.65658474
Na       27.05155563     11.31252861      8.99876881
Na       27.17415237     11.44926929     13.86929989
Na       27.20947838     11.27050686     18.23391724
Na       27.91898155     11.36160851     23.01657867
Na       27.09438705     11.44375229     27.65390396
Na       27.61304092     11.24527168     31.86268616
Na       27.38017273     16.14051437      4.77402306
Na       27.55191803     16.05451965      9.31562424
Na       27.59700584     16.02905464     13.84872627
Na       27.87908363     16.06276131     18.06234169
Na       27.43471336     15.82604504     22.90787697
Na       27.74021339     15.95501900     27.26583481
Na       27.29596329     20.45884514      4.43164778
Na       27.90367889     20.54498100      9.45973969
Na       27.49896431     20.79286575     14.09890461
Na       27.41209412     22.60980034     20.47414017
Na       27.44169617     20.40213966     22.79849625
Na       27.68570709     20.49707603     27.16638184
Na       27.03249931     20.38249207     31.99383545
Na       27.64069748     25.07923698      4.89299345
Na       27.24980927     25.20822525      8.83697605
Na       27.10574532     25.28071404     13.29596424
Na       27.71460152     24.90066528     18.54460526
Na       27.43786430     25.06780434     23.62011147
Na       27.23423386     24.98758125     27.64308929
Na       27.30684853     25.09166718     32.04946136
Na       27.79261780     29.51299286      4.69444323
Na       27.03122902     29.72620964      9.31692600
Na       27.71080208     29.95463943     13.14762592
Na       27.48857117     29.65837669     17.87408257
Na       27.23186111     29.48394203     23.10806465
Na       27.44802094     29.49350357     27.70277786
Na       27.03892326     29.81781006     32.56710434
Na        0.12706763      0.36329779      2.32842970
Na       -0.18910336     -0.01702082      6.69661140
Na        0.22280100     -0.13937135     11.30273724
Na        0.04438316     -0.17956610     15.98704720
Na       -0.53218591      0.14264277     20.45747375
Na        0.19968060     -0.17797555     25.09595871
Na       -0.40317723     -0.11587894     29.82864189
Na       -0.25340125      4.56397772      2.32182217
Na        0.33287507      4.62315512      6.77875805
Na       -0.36991554      4.31197834     11.51516151
Na        0.00370585      4.89611721     15.87576866
Na       -0.09769466      4.56395149     20.34604454
Na        0.14548567      4.57706308     25.19286919
Na       -0.19547674      4.67443514     29.66840744
Na       -0.09936106      9.00778961      2.33750129
Na       -2.37962532      9.38766098      4.51119423
Na       -0.06783432      6.86949873      9.36761284
Na       -0.02193333      6.96099281     13.65566921
Na        0.00696015      8.85742855     20.49092484
Na        0.03072224      9.43674183     24.98759651
Na       -0.41933721      9.37808228     29.25745773
Na       -0.37676528     13.48570156      2.15049410
Na        0.10054290     13.62469292      6.69067717
Na        0.06546735     14.22344875     11.53203201
Na       -0.16762653     13.29546452     15.89818573
Na       -0.27866325     14.27852154     20.20078659
Na        0.29566520     16.16024590     23.12988472
Na        0.20147818     13.70341969     29.41308403
Na       -2.32624221     18.28692818      0.11453549
Na        0.26437593     18.33314896      6.52948713
Na        0.20140916     18.16441345     11.36499405
Na       -0.10809848     18.73643303     16.02320290
Na        0.08812232     18.46306610     20.29271698
Na        0.09596799     18.75335121     25.07985306
Na       -0.38672125     15.77357674     32.12557983
Na        0.10264505     22.76695251      2.30298018
Na       -0.07897034     22.67727470      6.84065342
Na        0.02292638     22.66884613     11.44267559
Na        0.41858426     22.67662430     16.07647896
Na        0.22041225     22.87337303     20.38216591
Na       -0.34049624     23.15063858     25.29334068
Na        0.49509901     22.87974930     29.81315613
Na       -0.17073616     27.07450294      2.18180776
Na        2.42367101     27.89220238      8.82018948
Na        0.12772727     27.19879723     11.36944485
Na       -2.26568794     27.69194603     13.33451748
Na        0.01249530     27.30578995     20.46699333
Na       -0.41088817     27.42168236     25.18326187
Na        0.14702003     27.85099983     29.59698105
Na        4.50309038      2.33892107     -0.32910296
Na        2.50840211      0.09966746      4.64598799
Na        4.63390207     -0.00704348     11.60583019
Na        4.31856060      0.63832140     16.26980972
Na        4.70435143      0.10264290     20.53240585
Na        4.72331953     -0.22975017     25.14615250
Na        4.23273897     -2.31435394     31.83652687
Na        4.32561493      4.53429651      2.22555947
Na        4.63376999      4.53767061      6.81149864
Na        5.05839968      4.60662365     11.29642487
Na        6.90156651      4.71787405     13.77859783
Na        9.04932308      2.74779987     18.02404022
Na        4.81581450      4.73539734     25.12860870
Na        4.43613863      4.50427485     29.40026855
Na        4.34524584      9.59141922      2.14638519
Na        4.83255053      9.22047997      6.77097225
Na        4.62362814      8.71167278     11.28532028
Na        4.62478971      9.16433144     15.83865833
Na        2.12879896      8.87118244     17.99022675
Na        4.44145727      9.03471851     25.01686287
Na        4.45414352      8.81032848     29.73174858
Na        4.77722454     13.52437878      2.01913786
Na        5.03322792     13.78405380      6.90931606
Na        4.35712576     13.39673615     11.27305031
Na        2.39035916     13.86892986     17.78613472
Na        4.78856468     14.05817604     20.35684586
Na        4.77320290     13.91180325     24.94573975
Na        4.45270014     13.55390835     29.19927788
Na        4.71711445     18.46367455      2.04809141
Na        6.80960655     18.12283707      4.91489744
Na        4.90518141     18.64688110     11.73593330
Na        4.52716923     17.79082298     15.93919373
Na        4.48346043     20.86276627     23.12147141
Na        2.35829306     17.83821297     27.59463120
Na        4.84389162     17.90530205     29.68635178
Na        4.90537119     22.87087250      2.24347568
Na        4.63699150     24.97028160      4.95679712
Na        4.76194620     22.69886398     11.50400066
Na        4.09373569     20.70260239     18.19897079
Na        4.26006126     22.59502602     20.59107208
Na        4.66820812     23.03234863     24.95816612
Na        4.52449512     23.46587181     29.52615356
Na        6.87631035     27.31690025      4.57952642
Na        4.66680670     29.54854965      4.58970976
Na        4.14908934     27.28612709     11.56357193
Na        4.34400749     29.61774254     14.03141689
Na        4.44038486     27.06788254     20.46616936
Na        4.39297581     25.26947021     27.50149345
Na        7.00836039     27.40232849     27.07879639
Na        9.03681087     -0.06370490      2.21533585
Na        8.89069843      0.10234255      6.71840572
Na       11.37478733     -0.10332744     13.71038151
Na        8.92599773     -2.08026481     18.23157310
Na        9.19033146      0.47328436     20.51137543
Na        9.13160801     -0.00777957     25.32157516
Na        8.71460056     -0.18924598     29.64223671
Na        9.70116520      4.68190479      2.35235572
Na        8.88699055      4.64563513      7.04609489
Na        9.14646435      2.16680431     13.96054459
Na        6.86193943      4.99632072     18.26860046
Na        6.95431995      4.69272184     22.67738152
Na        9.03886509      4.63769102     25.19763947
Na        9.25448132      4.54476643     29.75287247
Na        9.28679466      8.86549377      2.29712415
Na        9.27987766      8.99707127      6.75609398
Na        9.50434017      9.41632366     11.36539745
Na        9.08771420      9.16311264     16.03329277
Na        8.76978111      9.22514629     20.77302551
Na        8.97365475      9.15907478     25.09318352
Na        8.85981083      9.56133175     29.49703026
Na        9.26002979     14.00248909      2.01312327
Na        9.08928680     13.70243931      6.68806267
Na        8.73191643     13.76332474     11.39283943
Na        9.09513092     13.73941994     16.12482262
Na        9.38118839     13.42426395     20.47923470
Na        9.33691692     13.69085503     25.29954338
Na       11.58155537     12.90722466     31.77295494
Na        8.67796898     18.01589584      2.44646120
Na        9.18086624     18.29165649      6.98496628
Na        9.46910000     18.13302040     11.45219612
Na        9.16941547     18.30109024     16.08914375
Na        9.31226254     18.51593018     20.65860748
Na        9.34104538     18.06058502     25.21004105
Na        9.05974674     15.95422459     27.60595322
Na        9.19455051     23.08155632      2.39899635
Na        9.08398724     22.68162727      6.85569859
Na        9.01458359     22.48140717     11.55049419
Na        8.69958878     23.07562637     15.86745358
Na        9.33393860     22.74038315     20.56382179
Na        9.46801090     22.85988426     25.14897156
Na        9.37704086     22.67776680     29.75489044
Na        9.33120632     27.14661026      2.31834364
Na        9.47188759     27.76670265      6.80386591
Na        9.01254177     27.60795212     11.42817783
Na        9.05027580     27.60736465     15.93734646
Na        9.57462788     27.58278656     20.66164970
Na        9.03836823     27.71603584     25.05652618
Na       13.47905159      0.16289143      2.25370717
Na       13.53388119      0.21739200      6.56904173
Na       13.52925491      0.06099921     11.33070755
Na       13.73498154      0.06840950     16.14027786
Na       13.94272518      0.11211403     20.49983406
Na       11.39161301      0.06211262     23.06059074
Na       14.11738300      0.03978463     29.97493935
Na       13.63368893      4.44446945      2.49561477
Na       14.04636860      4.68961763      6.88625002
Na       13.82418346      4.31808519     11.44196701
Na       13.99181271      4.71414089     16.30806351
Na       13.82761765      4.84595537     20.55343056
Na       13.49313927      4.82734299     25.13337898
Na       13.94748592      4.96374273     29.86664391
Na       13.46274948      9.31722832      2.55127478
Na       13.65210629      9.08050728      7.09658337
Na       12.94472504      9.27755165     11.40445614
Na       13.74964428      9.18843937     15.81192875
Na       13.88744640      9.48443604     20.49564743
Na       13.61445332      9.12313843     25.04928970
Na       13.67001915      9.07799530     29.64411354
Na       13.37503433     13.64616871      2.32043171
Na       13.31050968     14.09874439      6.94243908
Na       13.62205124     13.58476067     11.23487473
Na       13.62594700     16.04768944     13.65532494
Na       15.94581890     13.59564209     18.45689392
Na       14.12431431     13.46034813     25.02158737
Na       13.98234272     15.94982243     32.12294769
Na       14.08129215     18.29938889      2.24517775
Na       13.52842522     18.58940506      6.90658045
Na       13.91247940     18.48943329     11.77919388
Na       13.86889076     18.20824814     16.25216675
Na       13.92522812     18.57910728     20.68793297
Na       13.56585217     18.19146347     25.25557518
Na       13.65143013     17.89450264     29.71660995
Na       13.90630245     22.84810638      2.38924074
Na       13.74415112     22.67514801      6.81023169
Na       13.70645428     23.26755142     11.61003208
Na       14.12980175     23.07867622     16.17371941
Na       14.12825775     22.69512367     20.71705818
Na       13.66302109     22.84815979     25.41745758
Na       14.06845379     22.53883934     29.82657242
Na       13.57314301     27.26850510      2.26279473
Na       13.45622635     27.19003677      7.05131102
Na       15.88925838     27.54837036      9.58579063
Na       13.76370430     27.58983040     15.97684574
Na       13.99709892     27.38004684     20.58778572
Na       13.70239830     27.23139954     25.11304474
Na       14.58677959     27.14086914     29.75995827
Na       15.91974068     -0.15990648      4.61754942
Na       18.38662529     -2.42389464      9.08109188
Na       17.78347397     -0.17731382     11.24820995
Na       18.41768265     -0.15403409     15.96850395
Na       17.94132614      0.24564852     20.57114983
Na       18.18712044      0.23918959     25.18801308
Na       20.43365288      0.08110125     27.65105820
Na       18.57901764      4.09375000      2.37495708
Na       18.40172195      4.35948801      6.97394228
Na       18.34203911      3.81070185     11.08474541
Na       18.36237907      4.80207253     16.11792755
Na       17.93356895      4.62787724     20.67556000
Na       18.38768768      4.52050924     25.25377083
Na       18.01123619      4.53714371     29.95529366
Na       18.12270927      9.10490608      2.23819542
Na       18.25112915      9.01057148      6.92167377
Na       18.54276848      9.26732731     11.42310715
Na       17.93113899      8.99818230     15.92976665
Na       18.20868492      9.40343189     20.72848892
Na       18.70063782      9.43211746     25.11382294
Na       18.20042229      8.93636608     29.70064926
Na       18.27481842     13.89438820      2.25616241
Na       18.24238014     13.32242203      6.87158728
Na       20.50377464     13.54945278      9.19826984
Na       18.14737320     13.62213230     16.17955589
Na       18.36307716     13.76438618     20.84750748
Na       18.97096062     14.03820133     25.24668312
Na       18.14764214     13.32366753     29.72586823
Na       18.35164452     18.15625000      2.48542929
Na       18.52158165     18.46662521      6.84478712
Na       18.41606331     18.18202209     11.39892483
Na       18.29773521     18.02155876     16.06277466
Na       18.25840187     18.61473846     20.54080963
Na       18.57719231     18.49481392     25.26802444
Na       18.12195778     18.62277031     29.78802490
Na       18.68336296     22.80013275      2.55837417
Na       18.18407631     23.17629433      6.92969418
Na       18.39094925     22.75185585     11.60502052
Na       18.28872108     23.21570206     16.20214844
Na       17.99293709     23.06414604     20.65475655
Na       20.85186958     22.52330971     27.74932480
Na       18.64834785     22.99028969     25.20747948
Na       18.63399696     24.91083336      0.14098620
Na       18.16660500     27.70745277      7.08809948
Na       18.37843323     25.11021042     13.84502220
Na       18.74528122     25.29243279     18.05295181
Na       18.31886482     27.14896774     20.76826286
Na       18.36636353     27.43817139     25.29482079
Na       20.48444176     27.13721466     31.85804176
Na       20.52534676     -0.32016444      0.13187817
Na       20.30669403     -0.36668175      4.98611021
Na       22.85930252      0.23013902     11.32644367
Na       23.12912560      0.08558428     15.91851521
Na       22.77189255     -0.01557929     20.46022034
Na       22.76905632      0.15687369     25.12263107
Na       22.74777794      0.20980094     30.00768852
Na       22.87389183      4.99292183      2.14343953
Na       25.37247467      4.73828840      4.70086193
Na       22.92623138      5.05212831     11.15377140
Na       22.49154854      4.37691927     15.58550549
Na       20.44864464      4.53025341     22.71387672
Na       23.20600891      4.35413933     20.62029266
Na       22.79669762      4.77817822     29.52140236
Na       22.52961159      9.46147537      2.23185587
Na       23.28593826      9.48663330      6.75704527
Na       25.19926453      9.02469254      9.13199615
Na       22.80344963      9.33696938     15.84717369
Na       22.50201607      8.82345200     20.53264236
Na       22.89773369      9.09012127     24.98545265
Na       23.11308098      9.25114346     29.77975845
Na       23.03310966     13.65554810      2.29217100
Na       22.62239456     14.25500965      6.89058924
Na       20.52105713     13.66550064     14.03781319
Na       22.78408051     13.71378136     16.04153824
Na       22.61339760     13.41931248     20.64012909
Na       23.08358192     13.57388783     25.26037979
Na       23.21212006     13.48642349     29.55471611
Na       23.06633949     18.29995537      2.29717851
Na       23.27763939     18.26198006      6.82742357
Na       23.05099106     18.28222275     11.44336700
Na       22.86635208     18.45397758     16.24168396
Na       22.51099205     18.29666519     20.73232460
Na       22.89714813     17.89754677     25.04839134
Na       23.02833557     18.51877594     29.74395370
Na       22.98573112     23.04593086      2.55371189
Na       22.63660049     22.65821075      6.93425989
Na       22.60104752     22.91507721     11.82925034
Na       23.30994606     22.61988449     16.14431381
Na       22.49042130     24.92311859     18.17885780
Na       22.90683746     22.93668556     25.39181519
Na       22.81419754     25.07086563     32.34452438
Na       22.53635025     25.20817757      4.62156010
Na       25.14316940     27.38203621      8.97645569
Na       22.85505486     27.47420120     11.40903187
Na       22.71969795     27.26837158     16.00538635
Na       20.57095909     27.47721863     22.90452957
Na       22.93456459     27.96361542     25.00016785
Na       22.88701630     27.30125999     29.75022697
Na       27.70603180      0.00842013      2.34380007
Na       27.14554977     -0.11742353      6.82128811
Na       27.57133675      0.21355852     11.13954639
Na       27.05118370     -0.00233224     15.80400658
Na       27.18619919     -0.48187852     20.55413246
Na       27.16049385      0.18477535     24.99973869
Na       27.33220863     -0.22655317     30.08441734
Na       27.37470436      4.45935917      2.38414240
Na       27.46303558      4.95076323      6.85414696
Na       27.70446777      4.06787443     11.29811001
Na       27.51462936      4.67061329     15.87213516
Na       27.38970566      4.70495224     20.45643044
Na       27.76879501      4.32530022     25.10841560
Na       27.53776550      4.87204313     29.84092140
Na       27.25564957      9.42935276      2.16010284
Na       27.54581642      8.76175785      6.80939817
Na       27.43330956      9.17595768     11.52184772
Na       26.89726257      8.85638905     16.12568474
Na       27.62957954      9.00930405     20.55479240
Na       27.50726318      9.36681652     25.08741188
Na       27.18409348      9.06833553     29.58454704
Na       27.35599518     13.45860004      2.37375021
Na       27.22535706     13.91861725      6.83631277
Na       27.47216606     13.76790047     11.35414696
Na       27.56460953     13.79493999     16.05800629
Na       27.62221718     13.29315186     20.57133865
Na       27.76589203     13.78712463     25.23811722
Na       27.26668167     13.59902859     29.77521324
Na       27.50416183     18.10681152      2.12449694
Na       27.59316826     18.12891006      6.85042572
Na       27.37829399     18.15227509     11.38870811
Na       27.47212791     18.06031990     16.12366486
Na       27.68693733     18.02462578     20.43761063
Na       27.15060616     18.07279396     25.20409012
Na       27.58886147     15.78480530     31.74177742
Na       27.51766777     22.36349869      2.23066211
Na       27.55457306     22.68049240      7.02016973
Na       27.17090416     22.99111938     11.49994183
Na       26.98944473     23.02913857     16.02460480
Na       25.09787560     23.01491165     18.43826294
Na       27.86170959     22.95871925     25.15093994
Na       27.31790543     22.40998459     29.88202667
Na       27.78562546     27.15238190      2.39732790
Na       27.36449051     27.57845497      7.00560570
Na       29.82942009     27.42042732      8.72625160
Na       27.38848495     26.93124962     15.78179646
Na       27.17565536     27.66789436     20.41039276
Na       27.45442009     27.42815208     25.16215897
Na       27.48169136     27.48554039     29.84270477
O         0.21538608      0.01724676      4.66156721
O         0.08414207     -0.10642648      9.04930973
O        -0.15509275      0.22245637     13.53374767
O        -0.13943109      0.17636350     18.31161308
O        -0.10942725     -0.10317460     22.73924828
O        -0.23590691      0.06770400     27.62531090
O        -0.04606572      0.16202536     32.04900742
O         0.02242162      4.63265181      4.52939463
O         0.06109419      4.51031446      9.34442139
O         0.01921687      4.68778372     13.66878700
O        -0.06368530      4.41516685     18.18511009
O        -0.11041510      4.48669815     23.08665466
O         0.07311183      4.58945704     27.47631645
O        -0.31527421      4.50386906     31.96044922
O        -0.02270556      9.20114422      4.69628954
O         0.12339391      9.04189873      9.24119854
O        -0.22902009      9.24320602     13.82484913
O         0.01192635      9.14654160     18.18929482
O        -0.04680130      9.27089977     22.80242348
O        -0.08354028      9.32152843     27.15692520
O        -0.16170119      9.43009758     31.80043602
O        -0.06888391     13.59326839      4.45410347
O        -0.20384715     13.56038284      9.22046089
O        -0.09945491     13.64673138     13.69354439
O         0.02328408     13.71486092     17.96435165
O         0.05328128     13.74455738     22.49055862
O         0.04431114     13.98821354     27.18722153
O        -0.23447330     13.51005554     31.82387543
O         0.10561518     18.32781219      4.46178150
O         0.08680675     18.33739281      8.96736336
O        -0.24157482     18.28978348     13.84843063
O         0.09950017     18.46381760     18.04276657
O         0.09447634     18.26876259     22.72477531
O         0.21058086     18.25089836     27.37103844
O        -0.02372431     18.23345184     32.09836197
O         0.15549934     22.85026741      4.46802759
O         0.15377846     22.82874680      9.16424847
O         0.03411878     22.75279999     13.76030540
O        -0.19740146     22.91365433     18.01496506
O         0.07613920     22.71957588     22.61728096
O        -0.06157067     22.82184029     27.53438187
O         0.11445110     23.06023407     32.03936386
O        -0.02014331     27.58986664      4.50116968
O         0.09080280     27.46001244      9.10571289
O        -0.05810907     27.32371140     13.46481228
O         0.01268396     27.66481209     18.06193352
O        -0.27877524     27.37764168     22.75740814
O         0.09755032     27.40056801     27.44170570
O         0.13868505     27.40175056     31.75650978
O         4.69772577     -0.38720402      4.61193562
O         4.52588940     -0.05974963      9.21595097
O         4.48538256      0.23628722     13.74519920
O         4.51984453      0.19287378     18.31438255
O         4.57304287     -0.17262256     22.66654396
O         4.41162586      0.15949674     27.31686401
O         4.37970114     -0.07113268     31.88092041
O         4.53022146      4.52436876      4.41080904
O         4.49212503      4.48336506      9.09628391
O         4.71338701      4.54291201     13.53417873
O         4.57683659      4.79173422     18.06144905
O         4.60910892      4.43402004     22.97122192
O         4.57192802      4.50591660     27.34384346
O         4.74051905      4.40680027     31.67988586
O         4.53124809      9.06883717      4.59294510
O         4.57549381      8.97401524      8.96805286
O         4.41197014      8.84769249     13.51899433
O         4.58477163      9.08301830     18.33129311
O         4.48069048      9.00224495     22.76242256
O         4.24273252      9.20426941     27.33231163
O         4.45324087      9.35389423     31.95834160
O         4.44203520     13.80704021      4.35498047
O         4.37343073     13.66125774      9.17482948
O         4.61937666     13.75022793     13.59831047
O         4.39087391     13.52476788     18.30940056
O         4.61760521     13.88430786     22.61428452
O         4.37811422     13.51942158     27.05865097
O         4.41867685     13.72476959     31.99810219
O         4.67832947     18.06587791      4.24228001
O         4.71848392     18.41327477      9.47301674
O         4.59140968     18.16989899     13.83103180
O         4.57175112     18.04510880     18.38851738
O         4.59130621     18.33960724     22.90025330
O         4.57425928     18.23215294     27.28248978
O         4.38594007     18.30384254     31.79536629
O         4.69958687     22.80304337      4.39625645
O         4.69140100     22.79891205      9.24350643
O         4.45879793     22.66304970     14.09798908
O         4.73030758     22.82225227     18.28050423
O         4.62815428     23.13504791     22.78709984
O         4.54305983     22.98277473     27.41529655
O         4.47497797     22.85655403     31.83681679
O         4.69779158     27.35483551      4.71617699
O         4.54136896     27.46001053      9.25089169
O         4.34063816     27.10790443     13.91060829
O         4.38329744     27.50853539     18.15003014
O         4.71327925     27.45792198     22.76456451
O         4.59167433     27.60032463     27.23184586
O         4.56833315     27.52050018     31.88489914
O         9.10331345     -0.13778374      4.33523893
O         8.88612366     -0.05345546      8.90110874
O         9.26220036      0.13891383     13.54219532
O         9.04252529      0.23472217     18.24644661
O         9.06499767      0.10749340     22.77812195
O         9.47198200     -0.01513378     27.50809288
O         9.12344265      0.13958754     31.98421860
O         9.28089523      4.49679756      4.59447527
O         8.93995762      4.40063524      9.33971786
O         9.31197548      4.40506935     13.57881260
O         9.08161163      4.82726145     18.31456566
O         9.17137337      4.48730755     22.83903885
O         9.27118683      4.61040258     27.33695412
O         9.05658531      4.48620796     31.99241447
O         9.28132439      9.34029961      4.51433802
O         8.97907162      9.35051155      8.98143578
O         9.26741219      8.79279041     13.52549076
O         8.91476345      9.38034153     18.37273026
O         9.10671425      8.87310028     23.05455971
O         8.98116875      9.21400261     27.38781357
O         9.10824776      9.16121960     31.89446068
O         9.12395859     13.72187519      4.48308754
O         9.24632168     13.81123829      8.93808270
O         9.17786980     13.81978798     13.54378700
O         9.58062840     13.73160934     18.21242332
O         9.18156338     13.77979946     22.87118149
O         9.42903519     13.71834278     27.49178696
O         9.44556999     13.52081776     31.97665787
O         9.17146206     18.06752968      4.51865864
O         9.31206512     18.23231697      9.22688866
O         9.29682636     18.44034386     13.80922222
O         9.20841980     18.20534897     18.59985352
O         9.31309700     18.36805725     22.94321823
O         9.28189945     18.21699524     27.48291016
O         9.27524948     17.87780762     32.03609848
O         9.07730007     22.65329170      4.71547222
O         9.06843853     22.87865257      9.50247192
O         9.04727268     22.76442909     13.75867653
O         8.93482018     22.69154358     18.45411301
O         9.14002037     22.87095642     22.72439003
O         9.31928921     22.79487801     27.62401199
O         9.18968296     22.54072762     31.98979568
O         9.01883888     27.35685539      4.62534904
O         8.79018688     27.52650452      9.12328148
O         8.89250660     27.46210289     13.60602665
O         9.37876987     27.42908096     18.34757996
O         9.14533138     27.57178688     22.84280968
O         9.26493454     27.51864052     27.24397278
O         9.09246445     27.14265060     32.07585144
O        13.63160515     -0.02791329      4.55475855
O        13.62022400      0.04141613      8.92735481
O        13.59425545      0.14167005     13.61496353
O        13.73793793      0.35002786     18.33793640
O        13.76568127     -0.05635579     22.84834671
O        13.92233181     -0.19345224     27.64733887
O        13.74624538      0.03810666     32.11206818
O        13.85615444      4.64901161      4.59560061
O        13.68361092      4.64328289      9.27414036
O        13.77945042      4.58356857     13.65844536
O        13.83522701      4.91853333     18.51208496
O        13.75477219      4.64295101     22.85500336
O        13.77241993      4.54916668     27.55966949
O        13.72642040      4.57105732     32.15959549
O        13.81805229      9.32064533      4.83502722
O        13.55532455      9.11657619      9.24989700
O        13.55354309      9.39100456     13.70941544
O        13.80257130      9.25599670     18.30226707
O        13.74405384      9.25159359     22.69111443
O        13.35251617      9.13992596     27.30237579
O        13.58533287      8.81053543     32.10526657
O        13.61865902     13.74167633      4.69808483
O        13.56910992     13.87990761      9.14560223
O        13.65301228     13.86322403     13.59909725
O        13.87082672     13.73251724     18.44084930
O        13.67030334     13.86078644     22.83805084
O        13.96233177     13.58453655     27.28781891
O        13.78805828     13.52466011     32.09589767
O        13.82394695     18.27261543      4.46205330
O        13.58633709     18.41453934      9.20777416
O        13.80446911     18.34480476     13.98270988
O        13.74894238     18.47005081     18.47309494
O        13.76627350     18.35918045     23.08184433
O        13.82477570     18.20245743     27.57502174
O        13.95892429     18.10564804     31.97666550
O        13.78772640     22.73417664      4.62963486
O        13.71571922     22.85556030      9.27360535
O        13.90310860     22.95473671     13.83397961
O        13.72964096     23.02351189     18.25436401
O        13.80669785     23.00703812     22.98072624
O        13.84876919     22.63825417     27.65660477
O        13.88189697     22.67706871     32.05347443
O        13.35823536     27.20643806      4.73524857
O        13.47955894     27.27458382      9.15721703
O        13.78536797     27.54913330     13.70302010
O        13.91403866     27.37380219     18.28140068
O        13.81718540     27.38158226     22.84507561
O        13.86046028     27.31953621     27.55131531
O        13.86403084     27.11687088     32.17456818
O        18.09394646     -0.20091312      4.71263504
O        18.16071510     -0.27605715      9.16339397
O        18.03963661     -0.11959407     13.61649132
O        18.23233223      0.10145117     18.47645760
O        18.17988014      0.17101778     22.84155846
O        18.08301544      0.07735854     27.57971001
O        18.36530304     -0.24179529     32.23488998
O        18.35627174      4.16947174      4.56882143
O        18.15308189      4.70958710      9.10879993
O        18.28232956      4.50420475     13.76108170
O        18.41426277      4.66302395     18.54517555
O        18.22373962      4.65798092     22.90881348
O        18.31451988      4.42153978     27.56730652
O        18.26528931      4.50954723     32.23321533
O        18.38921928      9.06792259      4.65063334
O        18.09882545      9.08674240      9.35496235
O        18.13383102      9.10891056     13.65392303
O        18.24433708      9.07917213     18.32568741
O        18.39738655      9.36297894     22.94828987
O        18.28558350      9.19043446     27.46600151
O        18.28428841      9.11071968     31.98729134
O        18.32157326     13.44856262      4.62855005
O        18.28300667     13.52268600      8.96714115
O        18.25902939     13.55594826     13.92964268
O        18.26407242     13.65575504     18.49474716
O        18.32487679     13.51255798     22.99184036
O        18.44860458     13.55609703     27.65918350
O        18.47556877     13.58440590     32.06310654
O        18.54453659     18.01995087      4.59155178
O        18.22570229     18.34349060      9.07790565
O        18.19967270     18.18835449     13.72916508
O        18.33506393     18.37575912     18.39779854
O        18.39276695     18.52636528     23.04513168
O        18.40213966     18.44306946     27.55096817
O        18.51272392     18.17616653     32.14665604
O        18.53884315     22.84725571      4.88649702
O        18.19405174     22.86099815      9.27448654
O        18.54447746     22.64699364     13.81998444
O        18.34510231     23.15516853     18.43653297
O        18.41068649     22.96821976     22.84128380
O        18.50560188     22.83866692     27.48050117
O        18.56146240     22.61448288     32.43231583
O        17.93721390     27.26609802      4.53075314
O        18.31736183     27.35329056      9.29329872
O        18.33378029     27.58860207     13.76751709
O        18.29611778     27.51971245     18.46646881
O        18.30561256     27.49476433     22.99318886
O        18.14337730     27.33496475     27.59513855
O        18.19807625     27.31718254     32.30084229
O        22.73497009     -0.30254570      4.81123972
O        22.87889481      0.00289809      9.18824959
O        22.90237236     -0.03127766     13.60712337
O        22.85327911      0.00994293     18.26073837
O        22.81776237     -0.08015094     22.78810501
O        22.58881760     -0.01236037     27.68362427
O        22.69502068      0.00302760     32.33920670
O        23.13335800      4.78477192      4.44516039
O        22.86981583      4.58895826      8.89278316
O        22.78109169      4.58976603     13.48563766
O        22.80716705      4.59237719     18.16937637
O        22.77368164      4.56589508     22.75025368
O        22.84133148      4.64372540     27.43877792
O        22.97625160      4.71125126     31.86878014
O        23.02924728      9.29406166      4.63332558
O        22.70326424      9.11649513      9.06752872
O        22.74076462      9.29335117     13.55988979
O        22.85601425      9.10311031     18.31486130
O        22.90553474      9.12585068     22.61749268
O        22.76984596      8.88212776     27.32105255
O        22.61357307      9.13648129     31.79857063
O        22.78793144     13.75804138      4.55239105
O        22.60685539     13.68925285      9.12869072
O        22.85079002     13.85325813     13.59774590
O        22.89676285     13.70830631     18.36883736
O        23.14439964     13.57737160     22.81978226
O        22.95462036     13.80526829     27.48049927
O        22.83487701     13.76554012     32.17775726
O        22.87464905     18.25952530      4.58061218
O        23.28372955     18.32582855      9.18956280
O        22.71042252     18.20612907     13.91522121
O        22.80460167     18.18213654     18.51274300
O        22.86498833     18.15949631     22.79994965
O        22.93005562     18.29050064     27.30468369
O        23.00819016     18.19970703     32.03403473
O        22.75397682     22.87315750      4.71560621
O        22.86533165     22.76458931      8.93087101
O        22.91213608     22.88009644     13.95805645
O        22.87610626     22.84993553     18.35445786
O        22.67582703     22.99262047     23.17609787
O        23.00737190     23.01519585     27.60043144
O        22.92848206     22.91907120     32.11671448
O        23.17706299     27.45233727      4.50422907
O        22.93833733     27.64757919      9.10645962
O        22.89748764     27.37203026     13.77758694
O        22.89303398     27.50613785     18.19663239
O        22.97272873     27.48718643     22.77794838
O        22.93931198     27.53503609     27.56041336
O        22.78162384     27.46073723     32.09700394
O        27.64790916     -0.06349778      4.66407061
O        27.39090538      0.04786965      9.05956841
O        27.40614319     -0.04739091     13.57144928
O        27.38821602     -0.03306790     18.26200294
O        27.28590965     -0.10262820     22.94648170
O        27.42837906     -0.33246425     27.82495308
O        27.45495987     -0.03991827     32.27458572
O        27.60568428      4.71847391      4.74127054
O        27.58823586      4.54373932      8.95670891
O        27.24761009      4.61209297     13.45414925
O        27.52170753      4.55255604     18.11499786
O        27.43915176      4.40836048     22.75643539
O        27.59493256      4.62162590     27.71701622
O        27.21515083      4.44495487     32.12878418
O        27.30967903      9.14971256      4.45745564
O        27.53227425      9.10820675      9.01380634
O        27.10908318      9.01623344     13.67970276
O        27.44129372      8.97424793     18.22475052
O        27.59629250      9.18115234     22.93132782
O        27.35458183      9.18690205     27.35107040
O        27.17421341      9.02303028     31.87355423
O        27.39678192     13.75848198      4.68707657
O        27.33756447     13.71749687      9.05930996
O        27.32812309     13.61653233     13.71837044
O        27.61451340     13.58979893     18.30459595
O        27.45213699     13.52046776     23.07431984
O        27.47183228     13.62045860     27.48744011
O        27.21265602     13.53964043     32.02574158
O        27.36716080     18.38045502      4.70516253
O        27.73999405     18.14179039      9.13996124
O        27.30020905     18.25143433     13.81281281
O        27.59432220     18.12116814     18.29293251
O        27.42776680     18.08988953     22.70751381
O        27.52882957     18.24861717     27.23877335
O        27.39580154     17.97198677     31.80502510
O        27.31632996     22.70721054      4.83313084
O        27.60649681     22.92821884      9.29603100
O        27.47480011     22.97648430     13.73408031
O        27.38071251     22.64317894     18.21471214
O        27.45642090     22.84791183     22.91300964
O        27.53512192     22.81474304     27.46823502
O        27.49106026     22.67267609     32.04225922
O        27.53358650     27.32851982      4.89716387
O        27.44213867     27.42162514      9.14970970
O        27.44702339     27.60812950     13.65980148
O        27.56805420     27.40043068     18.09775925
O        27.23199272     27.22848511     22.87826157
O        27.45253754     27.24068069     27.32245064
O        27.37413788     27.51597595     32.15159607
H         2.82056499      2.91471362      1.10042393
H         2.79105496      2.45312524      3.04491162
B         2.41290998      2.11871648      1.98544502
H         1.24592555      2.25263143      2.19760942
H         2.71075940      0.95268977      1.66872370
H         2.45567727      3.39795804      6.94648790
H         3.91980171      2.03908658      6.31562710
B         2.72461843      2.35434628      6.30799007
H         2.09572005      1.28938389      6.47479630
H         2.54323912      2.56458879      5.13986874
H         2.47476196      2.15367699      9.93053341
H         2.97818756      1.32004929     11.59681416
H         1.46629906      2.66715670     11.64789200
B         2.49580884      2.32148671     11.12047768
H         3.23188543      3.27512908     11.29887295
H         1.67540514      1.11324394     15.82513046
H         2.55030084      2.58396959     14.61718750
H         3.30306530      2.34212804     16.24727631
B         2.19738698      2.25625944     15.71745872
H         1.58352613      3.13364720     16.20430756
H         3.28811622      2.12283802     20.57281494
H         2.12798452      3.82753873     20.24217224
H         1.27318466      2.02187347     20.57892418
B         2.25906587      2.61628675     20.02245140
H         2.44937539      2.35262609     18.80410957
H         1.55354548      1.49729526     24.33003998
H         1.53015006      2.10437465     26.18112755
H         2.02418542      3.29191422     24.72868347
B         2.22586250      2.11391211     25.28156281
H         3.28757691      1.56711781     25.34871292
H         3.10699224      1.54552925     29.92859268
H         1.69510424      3.19201612     30.58180618
H         1.19676149      1.40739095     29.83206940
B         2.02065897      2.19148111     29.80569077
H         2.08270264      2.79507542     28.74747276
H         1.92610240      7.70904541      1.25281906
H         1.47846162      7.36461830      3.26227689
H         3.29242659      7.45058107      2.42140865
B         2.19575763      7.03752041      2.37580943
H         1.99524462      5.86888838      2.11239409
H         3.21786237      6.60947800      6.88998175
H         2.26972342      8.24267864      6.77319336
H         1.45657170      6.45776701      7.74277163
B         2.07719588      6.94353962      6.72177887
H         1.50961542      6.45798588      5.69459772
H         2.67622447      7.08811331     12.58428764
H         1.10293603      7.04050398     11.58764648
H         2.40826154      5.68525219     11.00571060
B         2.20928931      6.82983494     11.41581821
H         2.63555002      7.70405006     10.70248604
H         2.45257235      6.98626995     16.96228790
H         2.32800198      7.56819582     15.23993874
H         2.68114042      5.63374376     15.36322021
B         2.97011423      6.75323677     15.90515518
H         4.15178680      6.91922235     15.94233799
H         1.67675948      6.04216480     21.28006172
H         2.98363185      5.77335167     19.85735321
H         1.21933639      6.33666277     19.45390129
H         2.26901817      7.58894253     20.54802132
B         2.08008265      6.41176558     20.22368240
H         2.34917450      8.13727856     25.63572311
H         2.56460500      6.16161108     25.66492653
H         0.83632439      6.70129299     25.35123062
H         2.26711774      6.78372908     24.00035667
B         1.91019094      7.06601429     25.17225075
H         2.29251790      8.25578213     30.08961296
H         1.54866767      6.21927357     30.44805908
H         2.27172089      6.93604851     28.67571640
H         3.40450430      6.74433994     30.00766182
B         2.29947925      7.08523178     29.85079765
H         1.09956253     10.86482334      1.86110973
H         3.14201808     11.33654499      1.45415378
H         1.74618888     12.58323574      2.54050446
H         2.66678429     10.57871056      3.02250719
B         2.18584752     11.42261600      2.26368427
H         2.74872494     12.64193344      6.54093122
H         3.21225190     10.68303013      6.90327311
H         1.87500989     11.44762135      8.07763577
H         1.31694615     11.05620480      6.17374468
B         2.24706650     11.50393486      6.93970299
B         2.26299906     11.42814445     11.39265251
H         1.87328649     12.67839050     11.33161640
H         2.63904357     11.24957657     12.66632938
H         1.47010660     10.58449078     11.22859859
H         3.36061072     10.91469765     10.79532146
B         2.19028902     11.30474377     16.07772255
H         2.76894879     10.36793995     15.61328602
H         2.11722445     11.11073017     17.21724319
H         2.63790751     12.33352661     15.83359432
H         0.98418993     11.19789982     15.64502430
B         2.13892126     11.30462074     20.47960281
H         2.00393081     12.39031696     19.90297890
H         2.96016550     10.66336823     19.91559029
H         2.41898680     11.55790997     21.58102608
H         0.95474619     10.76206684     20.53958702
B         2.41253972     11.64452267     24.94935608
H         1.38513052     11.18170452     24.34712410
H         3.18179536     10.86988449     24.66131401
H         2.83390403     12.62071133     24.35980797
H         2.13807273     11.79003716     26.14335632
H         2.34262252     10.91498947     30.81689835
B         2.21711922     11.63443851     29.83259964
H         2.28630257     12.79156399     30.24375725
H         1.22618520     11.29569435     29.06997299
H         3.20662212     11.47764683     29.10103989
H         2.35354590     17.30522537      2.21085167
B         1.99800646     16.10591316      2.39224648
H         2.88642359     15.31956100      2.12026834
H         1.10338712     15.83958626      1.59239960
H         1.77273309     15.80613232      3.58619142
H         2.83914614     14.61666775      6.51576710
B         2.31057715     15.83120441      6.81240320
H         2.02779078     15.93363190      7.97294903
H         1.11914372     15.71980190      6.26038361
H         2.83852482     16.86595917      6.42133427
H         3.02654409     17.31963539     11.59134102
B         2.16313338     16.34788322     11.57135963
H         2.88919663     15.34851265     11.56975365
H         1.48199320     16.11609650     10.52721596
H         1.36553812     16.44736481     12.65157223
H         2.39127827     16.66471863     14.88381863
B         2.37438512     15.89051342     15.84695148
H         1.39590657     15.07246780     15.58118629
H         2.24715853     16.49946404     16.79381943
H         3.40166259     15.14012909     15.97386169
H         1.83906209     16.21768570     21.23700523
H         2.45027423     14.73313713     20.13986588
B         2.60765529     15.92971516     20.33652115
H         2.10185885     16.37148476     19.40957260
H         3.75438643     16.20326805     20.76168633
H         3.52720904     15.81825733     25.46883011
H         1.67965448     15.63360310     25.48167419
B         2.57053757     16.11307907     24.74335289
H         2.60266566     17.35093880     24.81585503
H         2.76097417     15.72499752     23.67829704
H         1.72946990     15.82652378     28.53108025
H         3.42657995     15.86529922     29.72626114
B         2.23898244     16.13506699     29.71676636
H         1.96642768     17.31444359     29.80222702
H         1.74149311     15.58125019     30.76658630
H         1.89047253     21.20745659      1.68826592
H         2.23117256     19.51656914      2.42096305
B         2.74681520     20.60384750      2.32944345
H         3.82430935     20.60641289      1.77003968
H         2.75188804     21.07403564      3.35323620
H         1.04174685     20.64144707      6.65138292
H         2.44066286     19.93040848      5.61779642
B         2.27400398     20.53371429      6.62901402
H         2.61328101     21.72507095      6.61012602
H         2.77309203     19.92129898      7.55101776
H         3.14471984     20.14941216     12.05696487
H         2.52976131     20.40880013     10.28334141
B         2.21711373     20.64768791     11.48176956
H         1.10720193     20.11621666     11.71376038
H         2.26748919     21.82161331     11.62636089
H         1.57563984     20.83996964     16.57140732
H         2.41281390     19.32445335     16.23639870
B         2.29605937     20.40212059     15.74186707
H         1.72333741     20.33507156     14.66195583
H         3.46935296     20.83101082     15.87720585
H         0.92256916     20.34133339     20.35836220
H         2.35023856     21.80435371     20.25836372
B         2.22630763     20.62550545     20.47398949
H         2.51798153     20.42290497     21.63429070
H         2.96644568     20.10698891     19.61918259
H         3.07115054     21.48200798     25.68867683
H         2.94732094     19.74314690     24.82998276
B         2.12713456     20.70672417     25.02918053
H         1.19927084     20.38393784     25.63734245
H         2.09908867     21.22876549     23.95138359
H         1.18396974     20.40294838     30.03113747
H         2.50541091     20.66839600     28.32602310
H         3.09505200     19.65636635     29.94996643
B         2.31991482     20.45637321     29.48694229
H         2.77307916     21.71584320     30.09036636
H         1.87889171     23.86219025      2.88474417
H         2.40094352     25.50614929      3.71501088
H         1.29874527     25.57259369      2.00891542
B         2.30368495     25.00117874      2.58673501
H         3.43690658     25.02561569      1.93270993
H         2.24373579     25.66921997      5.71149683
H         1.78939688     24.15683746      6.99596691
H         2.05074310     26.19181824      7.68764925
B         2.32090187     25.28827667      6.88703012
H         3.47526550     25.06305885      6.96528292
H         2.63835216     25.43719673     10.37061310
H         2.40383029     23.69359398     11.16457462
H         0.97977245     25.00455284     11.24682522
B         2.16761494     24.84376907     11.29405880
H         2.63046479     25.28100014     12.34091377
H         2.10746908     24.32009888     16.99798012
H         2.06683207     26.11165428     15.96757603
H         2.02705097     24.41699600     14.95763111
B         2.43069744     24.95188904     16.06614685
H         3.65453076     24.87618637     15.88011360
H         1.21460390     25.70217514     21.37361908
H         2.40884018     26.64106369     20.13559341
H         1.66628754     24.90778160     19.52309418
B         2.05546260     25.43264198     20.50549698
H         3.09715939     24.89064026     20.79971504
H         3.23812199     25.36542130     25.58997536
H         1.20387220     26.00472450     25.64055634
H         1.75398862     24.08002281     25.72334671
B         2.07729244     25.17582893     25.24643898
H         1.98183084     25.15108109     24.03001404
H         1.21011353     25.54362106     29.34774208
H         2.61431122     24.15693855     29.23283958
H         2.33512974     25.20699692     31.09540367
B         2.36208844     25.18551636     29.84594917
H         3.11089325     25.98360825     29.51384926
H         2.57067490     28.39684105      2.38225865
H         2.62945867     29.94863892      1.17701125
H         2.62685585     30.18637848      3.24871063
B         2.25915933     29.46683121      2.22144651
H         1.06291580     29.84048271      2.22456622
H         1.49930906     29.10566902      7.47358561
H         3.47433233     29.43819237      6.94824982
H         1.97074199     29.58743286      5.60181761
H         2.23699975     30.96214294      6.84257793
B         2.36370778     29.70451927      6.73209953
H         1.89178681     28.86040115     11.77235985
H         2.25677752     30.86969185     11.63328838
H         3.61753416     29.61144829     11.86222172
H         2.59819055     29.82784653     10.03716564
B         2.60618091     29.77901459     11.30060482
H         1.97958660     29.85416985     14.02959538
H         0.59179741     29.92415047     15.61880779
H         2.14826131     28.75619507     15.65098953
H         2.32499695     30.68764305     15.90532017
B         1.72456348     29.90921593     15.21792126
H         2.13334084     30.97072983     20.78958893
H         2.22883511     29.53180313     19.58398819
H         2.43821526     29.28595543     21.67753029
H         0.66878259     29.51713562     20.89185143
B         1.84812605     29.86840057     20.67637634
H         1.78923237     30.58254051     24.25267601
H         3.30681729     29.83940887     25.03186226
H         1.71549892     30.17269707     26.09061241
H         1.57569134     28.63249397     24.83418465
B         2.06789708     29.77962112     25.00483513
B         2.59612918     29.61700058     29.59323502
H         2.32114530     28.45785332     29.46529007
H         1.94861114     30.18285942     28.65814400
H         2.40859747     30.29347420     30.54097939
H         3.79606462     29.90798950     29.15335464
B         6.64567614      2.29489875      2.29548812
H         7.41425991      3.24208546      2.48456430
H         6.94186783      1.44287670      3.02506995
H         5.40071392      2.44206691      2.39663839
H         6.88390493      2.02752566      1.14281464
B         6.88116312      2.47816110      6.76812649
H         7.30862236      2.14102149      5.69758987
H         6.65285063      3.64442444      6.60320330
H         6.10853529      1.85684061      7.38353634
H         7.86392307      2.55737209      7.46778154
B         6.83692074      2.25040245     11.36175632
H         7.77319956      1.79564321     11.93414211
H         6.48155928      1.57352424     10.41224098
H         5.89852285      2.42786098     12.12646675
H         7.21909189      3.32051253     10.83550835
H         6.55921698      2.69703531     16.74472618
B         7.20344925      2.13862824     15.86886692
H         6.79833508      2.64221215     14.81349659
H         6.95716953      0.84547335     15.91160583
H         8.40476513      2.16804385     15.89169025
H         6.89384842      1.14718640     20.23690605
B         6.79257965      2.31434894     20.59985161
H         7.37936544      2.93862295     19.64863014
H         7.40172863      2.73373532     21.51441383
H         5.54245329      2.53575778     20.79105377
H         7.14722681      3.43252325     25.13099289
B         6.69399357      2.39391780     24.84685898
H         7.16808844      1.46975458     25.59909058
H         6.67822123      2.14350080     23.59270096
H         5.54032373      2.37777233     25.29763412
H         6.84805489      1.07075787     28.95888901
B         6.88149214      2.16495299     29.60288620
H         8.05696392      2.37279248     29.66881180
H         6.44228649      2.09327984     30.81631660
H         6.29378605      3.10168910     29.19111061
H         7.32596731      6.95672560      3.18044662
B         6.92853594      6.82558870      2.00321341
H         7.35826111      7.96296167      1.62701952
H         5.80774355      6.44155550      1.89020383
H         7.75869131      6.03603220      1.43887722
H         8.44192982      6.75433302      6.66760349
H         6.84058380      5.96015644      7.50218344
B         7.24218464      6.72696733      6.67317009
H         6.81993532      7.75009537      7.16125917
H         6.62889385      6.44753504      5.59185791
H         7.95962906      6.41576529     11.24822712
H         6.14883327      6.83562422     12.23974323
B         6.81452179      6.91299200     11.25477791
H         7.27607489      8.04681396     11.17671013
H         6.18873739      6.85869694     10.19148827
H         6.73886347      7.17187548     14.62124729
H         7.01971388      5.43329239     15.98390388
B         7.19887638      6.68836975     15.75437450
H         8.36017799      6.79010773     15.78097153
H         6.65747404      7.40768385     16.74538803
H         6.89921379      7.55497789     21.51325226
H         6.84494400      5.74263859     20.61543846
B         6.44074774      6.86190462     20.64197731
H         5.16135931      6.78544283     20.63898087
H         6.84468222      7.35203600     19.51680374
H         7.29438305      6.40593290     24.67139053
H         5.33482504      6.96777678     25.02710915
B         6.53355837      7.03512144     25.40287209
H         6.47021103      6.63840532     26.61198044
H         6.94825649      8.25009727     25.42737770
H         7.04103422      8.21854687     29.71165848
H         6.34221125      6.86410809     30.72262573
B         6.64719343      7.04931593     29.60369682
H         5.67760944      7.00864840     28.98340034
H         7.48478222      6.29482079     29.20865059
H         8.38273430     11.24456692      2.27055001
H         6.78599548     11.34275723      0.91596389
B         7.17268515     11.61937523      2.05844760
H         6.37527132     11.15622711      3.03579736
H         6.98339605     12.76084709      2.45881128
H         6.68144941     11.89475632      8.01154613
H         7.16818523     12.68288898      6.30228424
B         6.66247463     11.69906425      6.77481031
H         7.12565374     10.65942955      6.75091219
H         5.40930748     11.57552814      6.56896830
H         7.92315722     11.40410614     11.19467354
H         6.00603819     11.04778385     11.42251301
B         6.83747101     11.92240047     10.97386074
H         6.59277582     12.92529869     11.50187016
H         6.64320946     11.92207241      9.87011528
H         5.60631514     11.19500923     15.91920185
H         7.53693676     10.68796062     16.07707787
H         7.03280783     12.43969154     16.32258797
B         6.72503138     11.51502895     15.62942410
H         6.90346050     11.68368149     14.50563049
H         7.16389942     11.32978249     21.77149963
H         7.72231722     12.07557678     20.02155685
H         5.70171976     11.75556278     20.28144073
B         6.79088545     11.36166763     20.58651543
H         6.77913332     10.20642185     20.15049934
H         6.56591654     12.08689880     25.78608131
H         8.19519138     11.90733719     24.85255241
H         6.56733751     11.54313660     23.75957870
B         6.99754524     11.43313694     24.86217117
H         6.75629234     10.22007179     25.06226349
H         6.65350723     12.82754326     29.35834503
H         6.86805773     11.30086231     30.78222656
H         8.06827354     11.48069382     29.08366585
B         6.99171400     11.63270664     29.48684692
H         6.24666023     10.88672256     28.76101494
H         6.73482847     17.15800285      1.83992219
H         7.83926773     15.90709019      2.95086694
H         7.32873917     15.20666122      1.12196779
B         7.01486397     15.91797924      2.04622674
H         6.09473372     15.24742413      2.54998732
H         5.99847937     15.87173462      6.10266924
H         7.67662716     15.78174877      6.93365097
H         6.35514736     15.65840054      7.91414356
B         6.63597059     16.25205421      6.95831156
H         6.81186485     17.45380211      7.09132528
H         6.15237331     15.47407150     11.54590034
H         6.81693888     17.27167892     11.32033539
H         7.53280115     16.03430557     10.02347088
B         7.19600725     16.08912659     11.30596638
H         8.17317486     16.09431839     11.95485592
H         6.48278856     15.50346851     15.11441803
H         6.97712326     15.27797699     17.20224762
H         6.62926006     17.02660561     16.55929565
B         7.06573629     15.85790443     16.16144753
H         8.24159145     15.95516014     15.86942863
H         7.31747246     15.16992378     19.79273796
H         6.71735573     15.72916031     21.60316658
H         5.77662802     16.49777412     19.89433861
B         6.85530519     16.15494728     20.38593102
H         7.67713165     17.10763168     20.44852066
H         6.48722553     16.52584457     25.87540436
H         8.47838974     16.02426910     25.34135056
H         6.89219522     14.61193085     25.24200821
H         7.15893555     16.13139153     24.14911652
B         7.22927189     15.77324295     25.25212669
H         6.42981672     16.44384575     30.59111023
H         7.85086012     15.25162601     30.15163994
H         6.18944216     15.01278877     29.36073875
H         7.03772402     16.77182579     28.84321022
B         6.89574099     15.87681484     29.64424515
H         6.76590061     19.69287109      1.56001258
H         7.11105680     21.74087334      1.86686504
H         6.90878630     20.33936882      3.36452913
H         8.36808014     20.36092186      2.10700488
B         7.22475719     20.59754944      2.21479607
H         7.19532585     19.98785400      5.77444983
H         7.32778358     19.94480896      7.61476612
H         7.06180429     21.72309875      6.82336760
H         5.57929850     20.42617035      6.83828211
B         6.75523853     20.50425529      6.75958586
H         6.92846966     19.63688278     12.23553371
H         7.93439484     20.42597389     10.80321312
H         5.87573290     20.56868744     11.01955509
H         6.93155241     21.63203621     12.30729485
B         6.96221161     20.73390579     11.57100201
B         6.95053387     20.42912292     16.10097885
H         6.48368835     19.40786934     15.75472832
H         8.08642673     20.22188950     16.60046005
H         7.11301565     21.13681221     15.08644485
H         6.17956209     20.94486427     16.90797997
B         6.59153557     20.43192482     20.76161575
H         6.25856256     19.64665222     21.54703522
H         5.75393057     21.17521477     20.28588867
H         7.32008505     21.27006531     21.40453339
H         7.26001835     19.89829445     19.88200951
B         6.71985435     20.60990906     25.36359596
H         6.51732063     19.41660690     25.09791374
H         5.69252157     20.92525482     25.87347412
H         7.71813679     20.66020584     26.10758018
H         6.92574215     21.35567665     24.32421684
B         6.78151274     20.37223244     29.85866928
H         5.53658056     20.60105896     29.55200958
H         6.81897879     19.95291519     30.95897675
H         7.50527811     19.66520691     29.16869736
H         7.31544876     21.42375946     29.75417900
H         6.90353918     24.68409729      1.17034245
B         7.00920963     24.96772194      2.42079234
H         5.83084917     24.86053658      2.89882421
H         7.50586128     26.05797577      2.34205270
H         7.90267038     24.28211784      3.00511146
H         6.91428709     25.09775543      5.39537001
B         6.88907003     25.09507179      6.68054342
H         7.72990036     25.94002533      6.99106789
H         7.30736923     23.94352150      6.92988825
H         5.72088814     25.21421051      7.00716925
H         6.10581446     26.10914230     11.58822918
B         6.87547302     25.23359680     11.21341419
H         6.63135529     24.98467636     10.06434917
H         6.55028152     24.01413727     11.64565086
H         8.19518089     25.16980362     11.23706722
H         7.92841101     25.37674141     16.20606613
B         6.81182909     24.99162483     15.93294525
H         6.94229507     23.91319275     16.69807053
H         6.67346001     24.91266441     14.71998024
H         6.11614418     25.94119644     16.41671753
H         6.27923918     25.99617386     20.94869423
B         6.74764585     24.94969940     20.45675468
H         6.98785686     25.01490784     19.15181732
H         6.08592987     23.96675301     20.72937965
H         7.87342930     24.68219566     20.99482727
H         7.45775938     24.04251862     24.64152336
H         6.67524576     25.81850052     24.37782860
B         7.34421396     25.15052223     25.08273125
H         6.94479990     25.07192993     26.14758301
H         8.36881161     25.65037918     25.07885170
H         7.30514526     26.05842590     30.28386497
H         7.53472662     24.01740646     29.91281700
B         6.94291592     25.07196808     29.69842529
H         5.69975233     25.12263870     29.87618637
H         7.03495836     25.33774757     28.48687553
H         5.46580887     29.44203377      1.98721123
H         7.47842789     30.16184425      1.59031820
B         6.71077251     29.43792915      2.28699803
H         6.76149702     29.68446350      3.60258436
H         7.05511522     28.16641045      2.23506761
H         7.46521282     28.80302620      7.06393480
H         5.68962860     29.70197868      7.29027033
B         6.79488754     29.77781296      7.11194706
H         7.05561733     30.18160248      8.30276871
H         7.36621857     30.79370880      6.37435102
H         6.28431273     29.60620308     12.71054459
H         6.41094255     30.68812752     11.19535542
B         6.88416529     29.58463287     11.58239651
H         8.19396782     29.74222946     11.81699753
H         6.62145233     28.91094971     10.69275475
H         7.18164921     28.91525459     16.92683029
H         8.01532650     30.07567596     15.62383270
B         6.95296812     29.87481499     16.13129616
H         6.02659655     29.75133896     15.35583973
H         6.58955145     30.75459480     16.97595215
H         7.35893488     28.56295013     20.39196587
H         6.82214975     30.32490921     19.62347412
B         6.76248312     29.62831879     20.70087624
H         5.62673664     29.31242561     21.04467773
H         7.45156002     30.29427910     21.39247513
H         7.86344099     30.37130737     24.41387177
H         6.72400999     30.19172287     25.85020447
B         7.04062796     29.60609818     24.80540085
H         5.91650867     29.64712524     24.21914864
H         7.36626101     28.44527435     25.00213432
H         7.24838829     28.29098320     29.50398064
H         6.91902828     30.01895523     28.59670067
B         7.18919230     29.55686569     29.69676208
H         6.50749540     29.96284485     30.59850121
H         8.13921070     29.92773628     29.99973488
H        11.18120766      1.19664836      1.77751923
H        11.41000175      3.17135501      1.99512601
H        12.56558609      2.02632594      2.72302365
B        11.42548847      2.13476610      2.56156516
H        10.92383766      2.11352706      3.72280884
H        12.79201412      2.66920304      7.12013817
H        11.43567753      1.55367815      6.43302631
H        11.08941555      3.36500216      7.07636738
B        11.63431835      2.34288359      7.24171495
H        11.27585030      2.04894876      8.43283653
H        12.18532467      2.61564469     10.98347664
H        11.12197399      1.82190478     12.56493950
H        11.34673691      0.69662219     11.02270126
B        11.22838116      1.83855844     11.30616951
H        10.15362549      2.23213530     10.93287945
H        12.68077374      2.25536990     15.88247204
H        10.90711880      3.08929491     15.37077904
H        11.43765450      2.61841750     17.29290199
B        11.55614948      2.41915393     16.08327866
H        11.03466702      1.32509983     15.98265362
H        11.94094276      2.08176589     21.83056831
H        11.49642372      3.44139194     20.38646317
H        10.09755802      2.31412029     20.82100868
B        11.31166458      2.37189507     20.72643089
H        11.90863419      1.59908950     19.92773628
H        11.25580502      3.53578305     25.09176254
H        11.50291061      2.07824469     26.33581352
H        12.76111507      2.47973680     25.01541710
B        11.52171516      2.36049008     25.19402313
H        10.94615841      1.54435968     24.54947853
H        12.29105568      1.66042769     29.52586365
H        10.33755779      1.93412769     29.29262543
H        11.66674042      3.29335952     29.04728508
B        11.35251331      2.39646554     29.66687965
H        11.38070393      2.75816464     30.84547615
H        10.54351997      7.11120081      1.96028399
H        12.60888004      7.59832478      2.25974131
H        11.63882351      5.78556299      2.74326611
B        11.61367702      6.91842175      2.51553154
H        11.51228237      7.26018906      3.63551784
H        11.49721336      5.94432545      7.83222580
H        10.73659706      6.46648502      6.05536890
H        12.68722820      6.60543966      6.33306026
B        11.61965370      6.74417782      6.81264782
H        11.28790855      7.88246727      7.08035135
H        10.81786442      7.34351349     10.29006100
H        10.69023228      5.52238226     10.99471474
H        12.64187050      6.39786768     11.17851734
H        11.23229980      6.82570839     12.29476643
B        11.41989803      6.51812649     11.09751797
H        11.41948318      6.96676445     17.25452614
H        10.75000763      6.51918077     15.35640240
H        11.50831699      8.18980694     15.83493805
H        12.71452522      6.43660021     15.88109970
B        11.61654854      6.91525650     15.99806309
H         9.93171883      6.45863628     20.71854973
H        11.48058033      8.00687218     20.49051476
H        11.02509785      6.87736416     22.09557152
H        11.82347298      6.06035757     20.26557541
B        11.05929279      6.84193611     20.92031479
H        10.48882198      6.92611742     24.44120598
H        12.34005737      6.91561604     24.55265808
H        11.39096832      6.98170424     26.29051399
H        11.38254547      5.37090445     25.18861961
B        11.39251041      6.52950716     25.06445312
H        11.18678570      6.73747873     30.88013268
H        11.08516312      5.52713919     29.47150612
H         9.84429359      7.10380793     29.68860626
H        11.82827187      7.36521482     29.00609970
B        10.93306160      6.71653461     29.61039734
B        11.47924519     11.43167686      2.33849430
H        11.31027985     12.60829926      2.18303299
H        12.56597996     11.13079834      2.84946728
H        10.60435867     11.22152233      3.08171058
H        11.38544750     10.93872738      1.25484538
B        11.47829819     11.68960857      6.80492783
H        11.33590508     11.56437016      5.58018732
H        10.46253490     11.37820244      7.38871098
H        12.44615936     11.28190136      7.21449280
H        11.46315193     12.93841743      6.95859766
B        11.40079021     11.45648098     11.11358070
H        10.75411987     12.21969223     11.74258804
H        12.59224796     11.69905663     11.00388241
H        11.35209274     10.47433090     11.81708431
H        11.27823734     11.07386780      9.95242500
B        11.34123039     11.69508076     15.92440605
H        10.85060883     12.62402248     16.46145058
H        12.59106255     11.70085239     16.26147842
H        10.83350658     10.66361618     16.51212502
H        11.11298561     11.72250938     14.66513920
H         9.93879509     10.92274857     20.43476868
B        11.19105053     11.24426270     20.51547050
H        11.64755821     11.00052071     21.59259033
H        11.39263535     12.47873592     20.39564896
H        11.80237103     10.70716095     19.59742546
H        11.30800533     10.14141846     24.81085968
B        11.28235435     11.28388405     25.15845871
H        12.36725712     11.75724697     25.53378677
H        10.38296318     11.68984222     25.84490776
H        11.01116276     11.78141880     24.01951599
H        11.17509747     11.31221199     28.32617378
B        11.35144806     11.28231812     29.51166534
H        12.37845421     11.93205166     29.81570435
H        11.31935787     10.15424061     29.88369942
H        10.31065845     11.74030876     29.99451256
H        12.37649727     16.57934189      2.12181258
B        11.51330853     15.83342934      2.31160617
H        10.38890553     16.34098053      2.25327802
H        11.41188908     15.33831406      3.54679465
H        11.46676636     15.00987053      1.48016417
H        11.72871971     17.09005737      5.77416420
B        11.79819679     16.30826569      6.67096996
H        10.86266804     16.21401787      7.52562094
H        12.82991886     16.27721596      7.34158945
H        11.79174900     15.18870735      6.08412457
H        10.42277718     15.88124943     11.54545593
H        12.16632366     15.42264175     11.00730801
B        11.54932213     16.12915611     11.69510269
H        11.72273159     17.22475624     11.29604149
H        11.94529057     16.16548538     12.78658199
H        10.72196198     15.92551994     15.28779125
H        11.51367855     17.43474197     16.11315155
B        11.59170818     16.19306374     16.07043076
H        11.21423244     15.80740166     17.08428574
H        12.70257092     15.64392948     15.60828209
H        11.23254585     17.42012787     20.42321587
H        11.56077480     15.55276966     19.67178535
B        11.64888477     16.28127289     20.66162682
H        12.80919266     16.31587601     21.12028503
H        10.90099335     15.61686516     21.33203316
H        11.12736702     15.07274055     26.58810234
H        10.52590084     15.74619198     24.72670937
B        11.46498299     15.72080898     25.56681824
H        11.77592087     16.79353714     25.87871742
H        12.60667229     15.34043503     25.15719223
H        11.70483685     15.38891315     31.02354240
H        12.89335346     16.10855484     29.77012062
B        11.86025620     15.42253780     29.78711510
H        11.87818336     14.32815456     29.26522064
H        11.11484528     16.18656158     29.16481209
H        10.96723843     19.18031502      2.19577217
H        10.76717377     21.22009850      2.31533670
B        11.37322426     20.24670982      2.63506770
H        11.15803337     20.31735992      3.81585264
H        12.57720566     20.34706497      2.22835588
H        10.25781441     20.13823891      6.68792248
H        12.20468712     20.40317345      6.11964560
B        11.29614925     20.66444969      6.90801668
H        11.32589722     21.96399117      7.17895365
H        11.62699890     20.33505630      8.01132202
H        11.14937878     20.54071426     10.40488148
H        11.09990692     20.87613297     12.39378643
B        11.70521259     20.92170334     11.41434193
H        12.85725880     20.48738098     11.50321674
H        11.85137367     22.09515381     11.24134254
H        10.93036079     22.05995178     15.79894257
H        12.76812172     21.26964378     15.76901436
B        11.52987576     21.02812004     16.13394356
H        11.45030689     20.59525871     17.24906921
H        11.09390450     20.14263916     15.35014439
H        11.32911777     20.55137062     19.23906708
H        10.99454212     19.89985847     21.06198883
H        11.15410328     21.89770508     20.78983688
B        11.51424885     20.78916931     20.41802406
H        12.63957882     20.93875885     20.82789421
H        12.01856899     20.17541122     26.27095795
H        12.02751637     20.79243088     24.31894875
H        11.46650982     22.05391884     25.81879807
B        11.53505516     20.89424133     25.38349342
H        10.41207790     20.30742264     25.19702148
H        12.79093170     20.16506767     30.18306732
H        11.20932674     19.75226974     31.21034622
H        11.02746582     19.55680656     29.24670029
B        11.58573055     20.29242706     30.16223335
H        11.29288769     21.47851944     29.96103859
H        12.69186497     25.05701256      2.31903887
H        11.00171566     24.77460480      3.43236494
H        11.35977459     23.64658356      1.94664097
B        11.51427174     24.68315697      2.33106041
H        10.91636467     25.51194954      1.65307617
H        10.71804523     24.27269554      7.44932222
H        10.96285439     25.24316597      5.77944565
H        12.39994621     24.92671776      7.15546370
B        11.21194172     25.17373276      6.88995218
H        10.87381554     26.11348152      7.59053850
H        11.95330811     24.97242546     12.50089836
H        10.71357727     26.07709885     11.78156567
H        10.39941216     24.09093285     11.61945152
B        11.27150726     25.04459381     11.47920322
H        11.90758514     25.16587639     10.41923523
H        12.37721634     25.23908234     15.18431091
H        11.25670052     25.17947006     17.00172424
H        10.30965137     25.24440956     15.25900173
B        11.27083492     25.70085144     15.81126213
H        11.37671661     26.91548157     15.81910419
H        10.93942451     25.11702156     21.58702278
H        10.64550495     25.66129303     19.67177391
H        11.96984005     24.08030510     20.09009933
B        11.46605968     25.16553497     20.36681557
H        12.29624557     25.95671844     20.43196106
H        12.81457710     25.22232819     25.10070801
H        10.71585941     24.90145493     24.68322563
H        11.40483093     26.49877548     25.64812851
B        11.67940617     25.32387161     25.49232292
H        11.56845760     24.95262146     26.63495255
H        11.79104328     26.19663811     30.05805206
H        10.46253872     24.75643158     30.04805374
H        11.47601223     24.99700928     28.37897301
H        12.41204357     24.34179497     30.00233078
B        11.51378727     24.99062538     29.60291672
H        11.40697765     29.46702003      0.78551894
H        10.86658287     28.82884598      2.68255401
H        12.65674400     29.42121506      2.25506711
H        11.34753513     30.81620979      2.48376203
B        11.58759212     29.65408134      2.05060267
H        11.01475716     31.08183479      6.95892572
H        11.27488232     28.94933891      7.49604130
H        10.92006588     29.60214996      5.69846487
H        12.68783665     30.16179085      6.72457027
B        11.42810154     29.88826180      6.75682211
H        10.36879349     30.07412720     11.65102291
H        12.06181812     30.16033936     12.39549351
H        11.53533077     28.58381653     11.51762772
H        12.26250362     30.22918510     10.43742180
B        11.56170464     29.75911713     11.39900494
H        10.85393047     29.59341431     14.99196148
H        12.04115105     28.92200851     16.44512558
H        12.08061314     30.95833397     15.77196980
H        10.57224655     30.50600624     16.75357246
B        11.44650364     30.00309181     16.05296898
B        11.63940811     29.94225121     20.85568428
H        12.72707462     29.47370911     20.62108421
H        10.99992847     29.16141510     20.04596901
H        11.29309559     29.85811996     22.02150726
H        11.22607994     31.04590607     20.54722214
B        11.82204723     29.83056068     25.43764687
H        11.72825336     31.09924126     25.04137039
H        11.02061939     29.16950035     24.87983894
H        13.05237389     29.55358696     25.12111282
H        11.73319435     29.76738548     26.65373611
B        11.21217728     29.68474770     29.77173424
H        10.92943382     30.78126144     29.93142509
H        10.79147148     29.04258347     28.93288612
H        12.41072178     29.64780426     29.59598732
H        10.69458771     29.11993599     30.80535507
B        16.00475693      2.24678302      2.41670561
H        14.92553902      1.82168901      2.68380022
H        16.04031944      2.43237948      1.26090920
H        16.23065567      3.09456849      3.26107669
H        16.75925064      1.22842860      2.72222304
H        16.83804893      2.04160547      7.80023909
B        15.96604824      2.24145269      6.89761639
H        16.07305336      3.07665467      6.09649324
H        14.91588116      2.22621608      7.43060350
H        15.59764290      1.18294966      6.30812836
H        15.76324463      3.26510096     10.94596672
B        15.74541950      2.20337868     11.51074505
H        16.04489899      2.43545628     12.76035500
H        16.21417618      1.27240741     10.94436359
H        14.60986805      1.86785769     11.56296253
H        15.60497475      2.55538487     17.31029320
B        16.20440102      2.76687932     16.28189850
H        17.24483871      2.17016506     16.37504196
H        16.55522728      3.87938929     15.98623085
H        15.58039379      2.22318769     15.38059139
H        15.25578117      3.02315068     20.21322632
B        15.96010685      2.41490149     20.85399818
H        17.10260773      2.32951641     20.33435822
H        15.72006416      1.20217311     20.76926231
H        16.02506447      2.85857487     22.00798607
H        15.44001961      3.05036426     25.84017372
B        16.19609261      2.25551224     25.16123962
H        16.14591217      1.15334582     25.55590057
H        17.31635094      2.59004617     25.02949333
H        15.81437492      2.06342077     23.98628616
H        16.09357071      1.92839181     28.66781616
H        14.73556900      2.28977394     29.91955948
B        15.90948963      2.29133582     29.72916222
H        16.54932976      1.60741150     30.65074539
H        16.25590706      3.51671743     29.99189568
H        14.92774868      7.38028812      2.44967842
H        16.72775650      6.48482132      2.99881816
B        15.74229050      6.45023775      2.29540634
H        15.53742886      5.25536203      2.51977277
H        16.14003372      6.57729959      1.10510385
H        14.68024540      7.22124529      7.03098965
H        15.84047318      6.41996288      5.63858557
B        15.82900143      6.75037336      6.86754322
H        16.60222626      7.71585035      6.95541334
H        16.17810059      5.80347633      7.67467690
H        14.97041798      7.61656475     11.77040005
H        16.86989784      7.74669552     11.45658779
B        15.89957714      6.96695185     11.46631813
H        16.00396538      6.03939581     12.16644859
H        15.61775970      6.74085093     10.24789143
H        16.43110466      7.67945194     14.96380329
H        14.99606609      7.53053379     16.41151619
B        15.95491409      6.95443344     15.86490250
H        15.72590351      5.89157629     15.35676003
H        16.91522598      6.76850462     16.59916306
H        17.36738396      6.72806215     20.69237328
H        15.63257504      5.92637253     20.84750366
B        16.18673515      6.92610836     20.48125076
H        15.92476940      7.85513687     21.10692406
H        15.68989086      7.09045410     19.43236160
H        17.37276268      7.04245758     25.02461624
H        15.92813396      6.01536655     25.81379128
B        16.23118019      6.90670729     25.09517670
H        15.72344208      7.91363525     25.57357788
H        15.80462933      6.77739000     23.91552544
H        14.64221573      7.03244448     29.55379868
H        16.43108559      7.94316912     30.22081375
B        15.80231094      7.00038862     29.71998024
H        16.13758469      5.87866449     30.15966797
H        16.23770523      7.10372305     28.43939209
H        16.02026939     12.46099091      2.52347565
H        16.05084229     11.26356220      1.01393127
B        16.23469353     11.14892960      2.20515895
H        17.43260384     11.12322617      2.34349561
H        15.56612301     10.37406921      2.91111016
H        16.71652412     11.20118427      7.85283327
H        14.84308147     10.99253368      7.30973864
H        16.37424469     11.03194141      5.94933033
B        15.92498589     11.51023483      6.89092636
H        15.89912128     12.68779945      6.88492489
H        14.94699860     10.75679970     11.66830349
H        15.85415840     12.63447666     11.33516407
H        15.55279160     11.50742149      9.91913891
B        15.79005623     11.48361111     11.11904526
H        16.99015045     11.09989452     11.43455982
H        15.10391617     11.93772697     15.75275993
H        17.33564377     11.62067127     15.56868458
H        16.02886581     10.18231773     16.20008850
B        16.15905952     11.37464905     16.15042686
H        16.14319801     11.80718994     17.27901268
H        15.51070404     12.86950207     20.92949867
H        15.51717472     11.04368019     21.62806511
H        17.16232872     11.71963310     20.56275749
B        15.89655495     11.69925976     20.62315559
H        15.35188198     11.18720436     19.70098495
H        15.59563160     10.06350994     25.47674751
H        17.10892296     11.50516033     25.23048401
H        15.49770641     11.97536659     26.37617493
B        15.94851780     11.29289627     25.30616760
H        15.36620426     11.88445187     24.38972282
H        15.92333126     12.37725258     29.43228531
H        14.90223885     11.70644474     30.86184502
H        16.72404289     10.56841469     30.33283997
B        15.74331951     11.26097107     29.99057961
H        15.20931339     10.61038017     29.19224167
H        17.28146172     15.94931698      2.03298855
H        15.46462440     16.27945900      2.14926100
H        16.46570206     15.58041763      3.66898584
B        16.24885941     15.55751610      2.55747938
H        15.84081554     14.36246204      2.10912013
H        15.84578037     17.27731514      6.72828627
H        17.15462685     16.06925392      6.52296972
H        15.27985191     15.40530777      6.39883471
B        16.10977173     16.11147118      6.97163820
H        15.77008629     15.81829166      8.14307213
H        15.67943287     16.58815384     12.22325516
H        16.11974525     14.68533039     11.81745243
H        17.58398628     16.00884247     11.85564041
B        16.34186554     15.80093670     11.57076740
H        16.25001144     15.84200668     10.28155231
H        17.29093742     15.84958172     16.79841995
H        15.93010807     15.10523701     15.55484104
H        15.37207699     15.99859715     17.16126823
H        16.15317154     16.92104530     15.59762573
B        16.19861412     16.04200363     16.30467033
H        15.09881020     17.11356354     21.42101288
H        16.86478615     16.87947464     20.12965012
H        16.27602959     15.55284214     21.27906990
H        15.28155899     15.99782753     19.56028366
B        15.86967754     16.42851448     20.60402870
H        15.32358742     15.36696243     25.32328987
H        16.48000908     16.09547234     24.04512596
H        15.60960865     17.23426437     25.46627426
H        17.06935120     15.97563362     25.88052750
B        16.17305565     16.18797874     25.13327980
H        15.86932659     16.43072128     30.83625603
H        16.28412819     14.56478024     30.00454330
H        15.06886387     15.93111038     29.06777191
H        17.11042595     16.26620483     29.06150627
B        16.08157349     15.84486866     29.76792717
H        15.51860237     21.30904579      2.62095499
H        17.47533607     20.75280380      2.44598103
H        16.15131760     19.88653564      3.43602800
H        15.66925049     19.84287834      1.46784401
B        16.29110527     20.38076973      2.39135957
B        16.04398918     20.70205116      6.94821930
H        16.12000465     20.21970558      5.86889696
H        17.02194786     20.40315056      7.78402805
H        15.88790607     21.88406372      6.71978378
H        14.97242165     20.27056503      7.41303539
B        16.18379974     20.75090790     11.54437923
H        17.37672997     20.33655739     11.64321327
H        15.57585907     20.03898811     10.68448639
H        15.69110012     20.45975685     12.70127964
H        16.12206841     22.04430580     11.37527370
B        16.24416351     20.60589218     16.15445328
H        17.13951874     21.41245842     15.66720200
H        15.52029037     20.37391853     15.23788452
H        16.83586693     19.79194450     16.80748558
H        15.64882183     21.24533463     16.95763588
B        16.16281891     20.72623062     20.85019684
H        16.03024292     21.70747375     20.11012459
H        17.40430832     20.63768387     20.52844429
H        16.05550766     21.13686752     22.16589928
H        15.66993141     19.71857262     20.44103432
H        15.77059650     21.90254402     25.74855423
B        15.70573139     20.72287560     25.44244576
H        14.56447697     20.33852577     25.14285088
H        15.56904316     20.21006012     26.43131256
H        16.85432243     20.36550140     24.93632317
H        15.02788734     20.32400131     29.70951462
B        16.20116615     20.27778625     30.01109505
H        16.77344322     20.58905220     28.97596931
H        16.32639694     19.03549957     30.27150345
H        16.67285728     21.14461136     30.83464050
H        16.26647758     23.78126144      2.65988421
B        16.29269028     24.91118622      2.18718243
H        15.30824280     25.54595947      2.51960850
H        16.24727821     24.96095657      0.91875696
H        17.32882690     25.64624596      2.36532378
H        17.19061089     25.22701836      6.82178307
B        16.07706070     24.92156219      6.67686749
H        16.08128357     24.97141838      5.39042854
H        15.42533398     25.49984169      7.38577175
H        15.95401859     23.65318871      6.83883333
H        16.29435539     24.16094780     11.94868946
B        15.96366310     25.15566063     11.46817398
H        16.80253983     25.90080070     11.94049263
H        14.85256386     25.39460564     11.96055126
H        15.96288204     25.37356186     10.27628899
H        17.47799683     25.60065842     16.31796455
H        16.21799850     24.16831398     15.55449677
B        16.23458862     25.17559242     16.30010223
H        15.52138901     25.10837173     17.31900215
H        15.72958469     25.99102211     15.54670143
H        15.87796688     26.43522644     21.28673935
H        14.66542721     24.98000908     20.59553909
B        15.80965996     25.24860954     20.82265091
H        16.43135834     24.97041893     19.77527046
H        16.24110985     24.39447784     21.69458771
H        15.82348061     24.84705544     24.44538689
H        15.91085052     24.56049538     26.44863701
B        16.19406128     25.18901634     25.49257278
H        17.35857201     24.99912834     25.39916039
H        16.08982468     26.39619637     25.39480400
H        16.97841263     23.92936325     29.93541336
H        16.72113991     25.83438110     29.18041611
B        16.19853973     24.85729218     29.84961319
H        15.16677284     24.45513725     29.26285934
H        16.07678795     25.45164299     30.87900543
H        16.17013550     30.58365250      2.80317593
H        15.39936733     28.97300148      3.51017451
B        15.61454010     29.60862732      2.51484656
H        14.59039593     29.85627556      1.80521894
H        16.62822914     29.16716003      1.89163232
H        16.68572235     29.85507011      6.34685421
H        16.02800751     28.22893143      6.99332905
B        15.95906448     29.35612869      7.24931479
H        16.47033310     29.73308945      8.21605206
H        14.85608006     29.72818756      7.10271597
H        14.56118774     29.14426231     11.42116070
H        16.30581093     29.66201019     12.39849567
B        15.64759254     29.79236603     11.31807137
H        16.34205437     29.44659424     10.29712391
H        15.34899426     30.84611893     11.05032349
H        15.82146835     30.24328423     14.71662140
H        15.43966579     29.18415070     16.40356445
B        16.14675903     29.99902725     15.82195950
H        17.36174774     29.46562958     15.77492046
H        16.01089096     31.11831665     16.43221855
H        16.75193024     30.38577461     21.10482979
H        15.81426430     28.49759293     20.91967583
B        15.86301804     29.74552727     20.64027405
H        14.79973602     30.13218498     21.09685898
H        15.76578140     30.05406570     19.36408615
H        15.51583290     28.35939980     25.29581070
H        17.04463005     29.71681404     25.65568352
H        15.05972862     30.07486916     25.71819115
B        15.95142555     29.41549301     25.17642021
H        15.74623108     29.80121994     24.10004044
H        14.89065456     29.42865753     29.80911255
H        16.57181358     28.95651245     30.79309845
H        16.35139275     30.82061577     30.33867836
B        16.12402534     29.68926239     30.02090836
H        16.91183853     29.55421638     29.00500298
H        21.89782524      2.53413153      2.58560967
H        20.06194878      2.67350101      3.40015507
H        20.22790337      1.22108614      2.33049750
B        20.69753075      2.30518770      2.40137768
H        20.49578476      2.86466241      1.39729035
H        20.09443283      1.01705670      6.90426064
H        19.62602806      2.99271822      6.58885002
H        21.63734627      2.28322124      7.03232336
B        20.25995255      2.26204515      7.24324036
H        19.65907669      2.24295211      8.36767387
H        20.93131256      2.23256946     12.68263817
H        19.46067619      1.74496937     11.15349865
H        21.36229324      1.71923900     10.65838242
B        20.55739021      2.19805288     11.47139359
H        20.35477829      3.37288070     11.05951118
H        19.78147507      2.10385942     14.97234249
H        20.51713181      1.62647843     16.91904640
H        20.33433723      3.30455208     16.54358292
B        20.52387428      2.32214141     15.94428349
H        21.68515015      2.38187671     15.44239616
H        20.32151985      2.99939513     19.72868729
H        20.71970749      1.00663936     20.46690178
H        20.42442322      2.36259985     21.91223145
B        20.90540314      2.32213616     20.64231491
H        22.14669609      2.36779737     20.72007942
H        20.66542625      2.33580184     23.91084671
H        19.87825966      2.74306273     25.74456024
H        21.79261208      2.28814101     25.44586182
B        20.68443489      2.06613541     25.15561104
H        20.50255203      0.85542148     25.06888390
H        20.09175110      2.02009058     28.61072540
H        21.16032600      1.64811873     30.54090691
H        19.47039413      2.68325949     30.30111694
B        20.48099136      2.36538529     29.77468872
H        21.08256340      3.37018943     29.57410240
H        20.40346146      5.75339842      3.00887251
H        20.27430725      6.57612562      1.17664909
H        19.97722626      7.38095570      2.97875667
H        21.79028702      6.92750883      2.33546090
B        20.63385773      6.66516638      2.37806773
H        21.20304871      7.38081217      7.49623966
H        20.52099991      5.45024347      6.81134605
H        19.06637955      6.89483500      7.10667086
H        20.40917587      7.05973148      5.53189087
B        20.32236671      6.73117828      6.72145844
H        21.60937119      7.61498499     11.72758579
H        19.79693413      7.33074045     12.08896446
H        20.46664810      7.14037609     10.04905319
H        20.82838058      5.65800047     11.45463943
B        20.65804482      6.97803116     11.26717091
H        20.16563606      8.04061508     16.46717644
H        21.46208000      7.44023132     15.26450539
H        20.88010025      6.11643553     16.63665199
H        19.62198639      6.47915173     15.09742832
B        20.48731232      6.96175861     15.88923931
H        20.01408958      6.22776079     20.28808975
H        20.37001228      8.11217213     20.69684410
H        20.60690498      6.78924608     22.29557037
H        21.86580086      6.54136515     21.04173660
B        20.70187187      6.82226086     21.13882828
B        20.58582497      6.91001701     25.23797989
H        20.60421944      7.10451555     23.97879028
H        21.79038239      7.09473848     25.58325768
H        19.94919586      7.64195251     25.70327568
H        20.28468132      5.69574785     25.50733757
B        20.54032707      6.83397627     29.71930122
H        21.47575188      6.43434143     30.43283272
H        19.49275208      6.57455158     30.34884262
H        20.61359787      8.15987492     29.69587326
H        20.60778809      6.25905752     28.62221527
B        20.71335602     11.31557560      2.39007926
H        20.82089043     10.67638206      3.53091550
H        20.58607864     10.46285915      1.46604681
H        19.65643120     12.01005840      2.62798882
H        21.84016418     11.81229115      2.03855801
B        20.33485603     11.11468315      7.10431290
H        19.81077576     10.93438435      8.14929867
H        21.47086906     10.79787922      7.44286728
H        20.00831795     10.40674019      6.17170906
H        20.39917946     12.27580070      6.66287661
H        20.87656784     11.81003284     12.46021557
B        20.45095253     11.36293125     11.48744774
H        20.81528091     11.80606365     10.40770626
H        19.24440384     11.53142738     11.23981380
H        20.75049019     10.21298122     11.65892506
H        21.38636017     11.80088139     15.79098892
B        20.43439674     11.23179626     16.25146484
H        20.49073219     10.07689953     15.97117043
H        19.41332626     11.96258926     15.92076492
H        20.51026154     11.35913944     17.46602058
H        20.45045280     11.72021770     22.03257751
B        20.56748581     11.23773003     20.89404678
H        19.83767700     10.32388973     20.83921432
H        21.74588966     10.95067501     20.66809464
H        19.94301414     11.93036938     20.11380005
H        21.05735779     12.15501022     25.87134361
B        20.72126198     11.37515450     24.95329857
H        21.25443649     11.32477951     23.92057800
H        19.52633858     11.57830524     24.95165253
H        20.75557709     10.36542511     25.66260719
H        20.93412590     11.30605316     28.33418274
B        20.66492653     11.29871273     29.55218124
H        19.51747131     10.93909645     29.68650055
H        20.65785027     12.45127010     30.09877014
H        21.30535889     10.50519085     30.18952751
H        21.84127235     15.57838535      2.11201668
H        20.46927261     17.03145790      2.24894667
B        20.71242905     15.84266472      2.42014766
H        20.07831573     15.34001732      1.54100239
H        20.30617905     15.32090473      3.35513234
H        21.25592232     15.76476002      8.30042744
H        21.67685318     16.44032288      6.44110441
B        20.72250175     16.04184723      7.28667736
H        19.96982193     15.11323738      6.68929482
H        19.99211502     16.95767021      7.41225386
H        20.32658386     16.91677856     12.50299168
H        20.06063843     14.93919945     12.10885429
B        20.54812622     16.02032280     11.80089664
H        20.10780716     16.24667549     10.71446037
H        21.73644829     16.04283905     11.56760693
H        19.40213203     16.31289673     16.22465134
H        20.48484612     14.68697548     16.24047852
B        20.56521797     15.94195461     16.06218910
H        20.93548584     16.30504417     15.03264618
H        21.27211952     16.65148544     16.77346420
H        20.96431541     15.82281494     19.69705200
H        20.40188408     15.01718330     21.17548180
B        20.37139893     16.03660202     20.74957657
H        20.92817307     16.92047691     21.36429596
H        19.19181824     16.41653061     20.63722610
H        21.65120697     16.10544968     24.42744064
H        20.99617004     14.48076344     25.50387383
B        20.79883575     15.65200710     25.14879036
H        20.76846886     16.34573364     26.06010437
H        19.74608612     15.91640568     24.54072762
H        21.61553001     16.95509911     30.05111313
H        20.60371208     15.81174755     28.51071930
B        20.75502205     16.07153130     29.81321526
H        20.88982391     14.99592781     30.34185600
H        19.59009743     16.51352882     30.01168823
H        20.95546341     21.74271011      2.46246004
H        20.34886169     20.29037476      1.24560952
B        20.87083435     20.49345589      2.29353952
H        22.05411339     20.32003021      2.19140911
H        20.10865021     20.09881210      3.23409581
H        20.69412994     21.78462982      6.56499290
H        21.80558205     20.10709763      6.66456366
B        20.74843407     20.58478928      6.87915373
H        20.40734100     20.38800049      8.05496407
H        19.94773483     20.05273819      6.10352564
H        21.74227142     20.84361649     11.24912453
H        20.58292770     20.62461281     12.81076908
H        20.70347786     19.00111771     11.41998577
B        20.78694153     20.20454216     11.59640694
H        19.92423248     20.71427727     11.01438141
H        20.65554810     19.38229179     15.90640926
H        21.61211205     21.16433334     15.79617882
H        20.55434418     20.62803268     17.50565338
B        20.63582039     20.58247948     16.17111206
H        19.73306847     21.40786934     15.76115799
H        20.06474304     21.68973160     20.58061981
H        20.50756836     20.13760185     21.85582352
H        21.84726334     20.74664116     20.58461761
B        20.57765770     20.55495834     20.75227928
H        20.01977348     19.70122147     20.04138565
H        21.65416336     20.26689720     24.68417358
H        19.57052994     20.60437775     25.02427101
H        21.02515602     21.92152023     25.34642601
B        20.69694328     20.69898415     25.26945496
H        20.60235405     20.21913719     26.43868828
H        21.66661835     20.88704491     30.33099365
H        21.18340683     20.31638718     28.54326057
H        19.76679039     20.70477295     30.12789917
B        20.88008881     20.31039619     29.72685814
H        20.70960236     19.04248619     29.82929230
H        20.34320831     25.54660416      3.69025087
H        20.68392944     23.73005676      2.75864291
H        22.10459518     25.00360107      2.54651666
B        20.84690475     24.88921928      2.72807550
H        20.40829849     24.97939873      1.61924243
H        19.67431831     25.22187424      7.41841650
H        20.63451385     26.84536552      6.64473963
H        20.40044785     25.26870346      5.62333202
B        20.57246399     25.60470390      6.80400085
H        21.58130074     24.95862198      7.26263142
H        20.39143562     24.94698906     12.84033775
H        20.76346779     23.66337585     11.44286060
H        21.32917976     25.63731575     11.08318329
B        20.47641563     24.84127808     11.69503498
H        19.35978317     25.01796532     11.30420208
H        20.30441666     26.28014374     16.87205315
H        20.68635941     24.29981995     16.72451782
H        21.26537704     25.42807961     15.27486229
B        20.32686996     25.26124191     16.08941841
H        19.20049667     25.01962090     15.79620743
H        19.20680046     25.38256073     20.68727303
H        20.74814415     25.38724709     19.44370461
H        21.04548645     25.43838882     21.26226807
H        20.53056717     23.74179649     20.45244408
B        20.34498215     25.00924873     20.45697021
H        19.65330315     25.40507698     25.67232323
H        20.82790565     24.31898689     26.55301666
H        20.75833321     24.44956589     24.42197418
H        21.68419075     25.96533585     25.62535286
B        20.76361847     24.96935463     25.55885887
H        20.94344330     25.79146385     29.24889183
H        19.88122559     25.44414711     30.76900291
H        19.98994255     24.06789589     29.49013329
H        21.66589165     24.55502701     30.43774033
B        20.63842583     24.93539810     30.03281021
H        20.22671890     30.86133766      2.95101380
H        19.63158798     29.34686279      1.90114844
H        21.56139183     29.62979507      2.39819837
H        20.08808517     29.15781975      3.84695792
B        20.37497520     29.73274994      2.77613568
H        19.83488846     29.41841698      6.47272921
H        21.78672791     30.01927948      6.64990807
H        20.31077194     31.07064247      7.22996998
H        20.58586884     29.24459267      8.04451275
B        20.69328880     29.94993210      7.12056160
B        20.34177589     29.56770706     11.95548820
H        20.92389107     28.52228165     11.60362053
H        20.29601097     29.88437271     13.09650230
H        21.15844345     30.51857376     11.58948612
H        19.18865967     29.74198723     11.64363289
B        20.42408752     29.63939476     16.30731964
H        20.23074150     30.70955849     15.73401737
H        21.47403717     29.63741112     16.84590149
H        19.48895073     29.58243370     17.07706451
H        20.29731941     28.67457199     15.76062393
B        20.49078560     29.44430351     20.86948776
H        19.49099350     29.51561737     20.20619392
H        20.31831169     29.34951401     22.09277344
H        21.03323174     28.36577988     20.65969086
H        21.09675789     30.50579834     20.56344986
B        20.61651230     29.81598473     25.37655067
H        20.81020164     29.11728287     26.39141655
H        21.25007629     30.83108139     25.37509155
H        20.92740822     29.04163742     24.53107262
H        19.39369392     30.15422058     25.35321617
H        20.59453773     29.86235428     28.54442406
B        20.37963295     29.58482361     29.84617043
H        21.07765770     30.45955276     30.48980713
H        20.62344360     28.42204094     30.07861900
H        19.08343506     29.71615028     30.04584122
H        25.11358833      2.42316508      3.91168642
B        24.98467255      2.28778553      2.75780392
H        25.38585854      3.31571555      2.36074114
H        23.91642761      2.15362954      2.32570696
H        25.51905251      1.34095252      2.17271090
H        26.55031204      2.85040212      6.94709873
B        25.39040947      2.42477918      7.05811214
H        24.53648376      3.16025352      6.50681782
H        25.16062355      2.36041474      8.24685764
H        25.23745346      1.32893765      6.54786777
H        25.63099670      3.47136211     11.26409721
B        24.93398476      2.48988819     11.50204468
H        23.71993256      2.58427930     11.28440952
H        24.98867798      2.16119719     12.72924232
H        25.21888161      1.39387298     11.11840630
H        23.80777168      2.15709949     15.82488251
B        25.04960060      2.40074897     15.51871967
H        25.51978874      1.38843679     14.85157204
H        25.47480583      2.62090135     16.54742432
H        25.03669739      3.43064499     14.99773788
H        26.34689331      1.79430294     20.75486374
H        25.20742989      3.50001144     20.96795654
B        25.19123840      2.27040052     20.54142952
H        24.87787056      2.13555765     19.24415588
H        24.56774330      1.63098526     21.35550117
H        25.32819939      1.16114271     24.73530579
H        24.86958313      3.31233406     24.74311256
B        25.10033607      2.22168350     25.23571205
H        24.29588509      2.06641936     26.05462265
H        26.22599792      2.59760404     25.76611710
H        23.83055878      2.22012424     29.67667198
H        25.54217339      2.67027307     29.01600456
B        24.98598671      1.97014189     29.88216019
H        25.32492828      2.60515332     31.01091003
H        25.14615631      0.81193745     29.58799744
H        24.63273621      7.26257420      1.78318214
H        25.09820557      5.44497013      2.18159318
B        25.32645988      6.56104136      2.46410584
H        26.56594658      6.82585526      2.27602601
H        25.20830727      6.99083519      3.61215925
H        25.59242058      6.91763067      8.01020336
H        25.38696861      5.58653784      6.63591385
B        25.24685669      6.77707434      6.86370039
H        23.97152710      6.89596891      6.64170694
H        25.49002075      7.46342897      5.89952183
H        24.77471733      6.91485071     12.45461178
H        24.04176331      6.90846205     10.47197151
B        24.97272301      6.58103085     11.27088928
H        26.05216789      7.22097111     10.87292671
H        25.04294777      5.38917351     11.12632179
H        25.01472473      7.49307299     16.82736969
H        25.03360939      7.43411589     14.77950668
B        24.64897919      6.85943794     15.91328716
H        25.34988403      5.80330801     16.01289749
H        23.45838928      6.68306684     15.90062523
H        24.71911812      6.94813633     21.79771233
H        26.50509644      6.61261654     20.90196991
B        25.33125114      6.78476143     20.73168755
H        24.84951591      5.84505653     20.20755577
H        24.95946312      7.69329119     20.00146866
H        25.74505234      7.80999088     24.57812500
H        24.52586746      6.17589474     24.92045021
B        25.63013077      6.75476837     25.24305344
H        26.40035439      5.95088720     24.98417473
H        25.49679565      7.11892414     26.38939476
H        24.83189392      6.62471962     30.86194420
H        25.27910805      8.20130634     29.74203491
H        24.06792641      6.69648266     29.04093552
B        25.12030220      7.03067923     29.79092598
H        26.21333313      6.64662838     29.55323219
H        25.55880737     11.08408260      3.19971347
H        25.91351700     11.02577496      1.29815888
H        25.45392799     12.78149986      2.26676083
B        25.23097610     11.59584522      2.19796848
H        24.04140854     11.50393677      2.00676322
H        25.58330727     12.46613979      6.45162487
H        25.56019783     10.78868008      7.50288296
H        24.86897659     10.74006462      5.62614870
B        24.95833397     11.40083313      6.60635042
H        23.92306137     11.80725288      6.89118624
H        24.83476830     11.40142441      9.95350552
H        23.76030350     11.00361824     11.56374741
H        25.33838081     12.30115795     11.63301277
B        24.78597260     11.26851177     11.16756153
H        25.53870773     10.27397442     11.45430565
H        23.81340218     11.36365128     15.73807907
H        25.50351143     10.71167946     15.88191223
H        24.96100426     11.86118317     17.40132713
B        24.93171692     11.67043114     16.26842499
H        25.16483688     12.65876389     15.70046043
H        24.46725464     10.71160316     20.90999794
H        24.50217056     12.81355953     20.64969444
H        25.64372635     11.63351727     19.51334572
B        25.00503159     11.73147297     20.53753853
H        25.91643524     11.67768192     21.34647560
H        24.96412659     10.19127846     24.89215279
H        25.21222305     11.24820042     26.25420570
H        23.36204147     11.11167717     25.18887520
B        24.67313957     11.30710125     25.17671776
H        24.91152763     12.11085701     24.41261292
H        23.53007507     11.32087135     29.25610542
H        25.15733910     10.41739750     29.92710686
H        24.86420059     12.19019794     30.43658066
B        24.76828384     11.45853996     29.55916405
H        25.23423576     11.76720142     28.53410721
H        25.30960846     17.20114517      2.14151073
H        23.68123436     16.34935379      2.22793436
H        25.28001976     15.21821499      2.86409140
B        24.83075714     16.04713249      2.08696723
H        24.84296608     15.76990414      0.89594299
H        24.36738586     16.64621162      6.11707640
H        24.72691345     14.83034706      6.73257065
H        26.25929642     16.47874641      6.64113426
H        24.89724922     16.22729111      8.15526104
B        25.12617874     16.12221718      6.98573446
H        26.42927551     16.19604111     11.25325775
H        24.63377953     15.67268372     10.22949600
H        25.11794662     14.96200466     12.09302711
H        24.61506653     16.86618423     11.90948486
B        25.20574188     15.99141884     11.33202839
H        23.55662537     15.87780666     16.02518272
H        25.10009956     16.14638329     14.90438366
H        25.03307343     17.38463211     16.42727470
H        25.34779549     15.59788132     16.93034935
B        24.74289131     16.30321312     16.15522575
H        25.58729172     15.93610096     21.75027084
H        23.68944359     15.81817818     20.96247101
H        25.10714912     16.79641724     20.03558922
H        25.40447235     14.66700172     20.20554543
B        24.92931557     15.72004032     20.67276955
H        25.53334427     15.65663719     26.21269989
H        24.54555511     16.49252319     24.72579002
H        26.49180412     16.18692207     24.54131699
H        25.16756439     14.67613125     24.54099274
B        25.46304893     15.80379868     25.03860092
B        25.19368553     15.83641911     29.62212563
H        24.04764938     16.20980453     29.69767952
H        25.29407310     14.77349663     30.17937088
H        25.60680389     15.84351349     28.44204521
H        25.83232498     16.70248413     30.10909843
B        25.28847694     20.32034111      2.03928638
H        25.05982018     21.14863014      1.21187174
H        24.60286713     19.31111908      1.66159260
H        26.48154831     20.15631485      1.84184253
H        24.93068314     20.77555656      3.10384226
B        25.35047150     20.30129242      6.96960878
H        24.75775909     21.29490471      6.34198475
H        26.58744812     20.45036316      7.29429626
H        24.51835251     20.35959816      8.07320309
H        25.18284035     19.09274864      6.56911564
B        25.23907280     20.59382057     11.38372040
H        24.18351555     20.34330177     10.85513401
H        25.62928009     19.51859093     11.80405998
H        26.13493729     21.09313774     10.80006886
H        24.78128624     21.29093933     12.21493244
H        25.10604286     20.75700760     14.86459827
B        25.52086258     20.67019272     16.05782890
H        25.48364067     21.82349586     16.69304466
H        26.74001694     20.54263496     16.04013443
H        25.05612564     19.66391373     16.73064041
H        23.98602867     19.70332336     20.63951874
B        24.88420486     20.55007553     20.44296074
H        25.96693230     20.01705551     20.93660736
H        24.62866592     21.69793129     20.86269760
H        25.12054253     20.61569023     19.28207397
H        26.09117508     19.94448090     25.07476234
B        25.00922203     20.51828575     24.80271149
H        23.91421318     20.14885139     24.68651009
H        25.22257423     21.17871284     23.80029869
H        25.16424370     21.22814560     25.79536438
H        25.76547432     20.72478104     28.81765556
B        25.11832237     20.36363411     29.84282684
H        25.41526031     19.23057556     30.10394478
H        23.97429276     20.55480576     29.38331223
H        25.44938660     21.13978004     30.81275368
H        24.82429504     24.49395943      1.69163620
B        25.55250740     25.22323227      2.22862172
H        25.13673401     25.58822060      3.37822676
H        25.60381699     26.26334190      1.52212238
H        26.66397476     24.69022942      2.32660151
H        25.24360657     26.13653183      7.27676105
H        26.19020844     24.61684227      6.37263107
B        25.15489388     25.05583954      6.66772652
H        24.58959961     24.33862686      7.40973759
H        24.39250565     25.18491745      5.66842413
H        25.58687019     24.32011223     12.15030384
H        25.53868103     26.36348534     12.16946220
B        25.19723129     25.28437614     11.60803318
H        25.71555138     25.23089790     10.46594524
H        23.86458969     25.26981354     11.53219795
H        25.46820259     24.66432381     16.94989586
H        25.51482391     24.87218857     14.86794567
B        24.93637276     25.22661972     15.99655628
H        23.71463013     25.01771545     15.88214397
H        25.29727936     26.37632561     15.90592480
H        25.20453453     26.04827118     20.05170822
H        23.84909058     24.75769043     20.94189835
B        25.03621483     25.20730209     20.82310295
H        25.66761208     24.32953644     20.26872444
H        25.60756493     25.35108185     21.87724876
H        24.98884010     23.65105438     25.27968407
H        23.82240105     25.30405617     25.08916855
B        24.96001053     24.90670967     25.25913429
H        25.47578049     25.44003296     26.32548904
H        25.54999161     25.42939758     24.32895088
H        25.27273369     25.43600655     31.27662468
H        26.37748337     25.27275467     29.50589561
B        25.34492874     25.24077034     30.04753685
H        25.16926575     24.00744247     29.99305534
H        24.46416664     25.89845467     29.60442924
H        24.99012184     29.98015594      1.04406548
H        25.70813179     30.36693764      2.90755248
B        25.02087784     29.62648773      2.23163414
H        23.84043121     29.98039246      2.52131867
H        25.46862411     28.48704720      2.17215371
H        24.68558693     30.63160515      6.82560301
H        26.51164627     29.72701645      6.47789192
B        25.34059906     29.57824326      6.75571442
H        24.95466232     29.06809616      7.79491758
H        24.87227631     28.99547386      5.87462568
H        24.22699928     30.15428543     11.97212887
H        25.14499855     28.52541351     11.46276665
B        25.07462311     29.74114990     11.26451015
H        25.07148170     29.84034538     10.03888226
H        26.10013199     30.34054375     11.60192013
H        24.76114273     29.12797356     16.65435219
H        25.00327110     31.09960747     16.38980675
H        24.22951889     29.86811066     14.99576473
B        24.99589157     29.96932030     15.91073227
H        26.05276489     29.63813972     15.44051647
H        25.28091431     28.48117447     20.50565529
H        23.76268005     29.78825188     20.32761002
H        25.48959160     29.95078850     19.50984383
B        24.94920349     29.68701744     20.61374474
H        25.39672852     30.19873619     21.66530037
H        26.11775780     30.36784744     24.87382889
H        24.15612602     29.72657776     24.81730080
H        24.75901031     30.08605576     26.49705315
B        25.28423309     29.71992111     25.44830704
H        25.52298355     28.44348717     25.55507469
H        24.94002724     30.16211510     29.06917953
H        25.13663292     28.20706940     29.86445236
H        24.69050598     29.95086479     30.94280243
B        25.28748703     29.38092232     30.00341606
H        26.46060753     29.69487953     30.12499237
H        28.35633659      2.07735944      2.73456573
H        29.42324066      3.51708794      2.24055123
H        29.36931419      2.06437635      0.95499122
B        29.44483948      2.25481915      2.28153753
H        30.45275116      1.82379770      2.86040592
H        30.03437424      3.51171327      6.86382961
H        30.12195587      2.05226135      5.69586897
H        28.97990990      1.86735332      7.40029621
B        30.06630135      2.35643220      6.96392727
H        30.93274307      1.90155852      7.62331057
H        29.61392021      2.68592191     10.07991600
H        29.59939194      3.12114906     12.09851837
H        30.68429565      1.50652921     11.24654102
B        29.69153023      2.21847105     11.20878887
H        28.70097542      1.67942405     11.61579704
H        29.97303963      3.63994837     15.67631531
H        29.67597198      2.08680987     14.62205791
H        28.34396362      2.61875844     16.15749168
B        29.50580025      2.53783512     15.76304245
H        30.21283722      1.99334657     16.49590874
H        29.65988731      1.65638161     21.74236298
H        31.09520340      2.47541690     20.39776993
H        29.24461937      3.35152149     20.77033424
B        29.89723587      2.21644974     20.68653679
H        29.27832603      1.70193100     19.76310921
H        29.92695999      3.05146432     25.97979164
H        29.60259438      2.58690977     24.00180626
H        30.19422150      1.22992980     25.08380318
H        28.40212440      1.82908785     25.42497826
B        29.47636032      2.19965076     25.17861366
H        29.20627594      1.06448805     29.94180489
H        29.68282700      2.43198991     28.27042961
H        28.37791252      2.87072706     29.74075127
H        30.30067062      2.88588905     30.28324318
B        29.37229538      2.26675296     29.50588989
H        29.99336624      7.19009495      1.15092289
H        29.11748123      5.58107996      2.32175136
H        29.92038155      7.11806440      3.30242538
H        28.39337540      7.43167305      2.21539259
B        29.51779366      6.82254982      2.23404956
H        29.84619904      8.18135166      6.66889524
H        29.09211349      6.52652597      6.63572168
H        30.99063301      6.85171604      7.41944551
H        29.30030823      7.11136341      8.41002083
B        29.79719353      7.15914202      7.34996414
H        30.03919029      7.23924875     12.71983433
H        30.59090614      7.17753887     10.88940525
H        29.97024155      5.46837854     11.45108223
H        28.61768723      6.83679199     11.12970829
B        29.78253937      6.75105572     11.60789871
B        29.66868591      6.90601635     16.18756676
H        30.22059059      7.75081730     16.89250183
H        29.65321922      5.82931995     16.54987335
H        28.48800850      7.35834885     15.97142696
H        30.10162926      7.07334232     15.12684250
B        29.73248291      6.68016243     20.43911743
H        29.19535255      7.49812794     19.67819405
H        30.45983505      7.35778713     21.18987274
H        29.11737251      5.80090952     20.89291382
H        30.70472717      6.25603724     19.71492577
B        29.66849136      6.90744591     25.22175789
H        29.45452690      8.14268684     25.42712784
H        28.52546310      6.40856838     25.12522888
H        30.43952179      6.59202909     24.43839645
H        29.98670197      6.49121904     26.40252686
B        29.81866074      6.75033712     29.84656334
H        29.85153961      7.06820488     31.05963326
H        30.98694229      6.96386385     29.47592545
H        29.60582542      5.60634804     29.84054375
H        28.95645332      7.42300463     29.09213638
H        29.76279640     10.02121735      2.27924228
B        29.72767830     11.17103577      2.31559706
H        28.93815041     11.69345474      1.54615724
H        30.69135666     11.50760841      1.77148950
H        29.51195717     11.74416828      3.36606526
H        28.45190620     11.68601513      7.08054638
B        29.42248726     11.18647099      6.61981344
H        30.40786934     11.50868034      7.12202787
H        29.54991913     11.24569798      5.46672487
H        29.37443733      9.95044327      6.58859634
H        30.24628448     10.53664780     10.44847298
B        29.72192574     11.44106770     11.29100704
H        28.60599518     11.63109589     11.09331226
H        30.22681618     12.47881031     11.11145496
H        29.90623283     11.01528931     12.41612530
H        30.38948631     11.21937943     15.21930408
B        29.51854897     11.21647453     15.91180801
H        29.31229019     12.39119625     15.64283657
H        29.88153267     11.16485119     17.02653885
H        28.65732193     10.32003021     15.61192894
H        29.43690300     12.42323780     20.21010208
B        29.30582047     11.21552372     20.55974007
H        29.60869598     11.42171097     21.77327156
H        30.25622940     10.62930775     20.17833519
H        28.04422760     11.10802650     20.33802795
H        30.96519852     11.36114788     25.73574829
H        29.36676025     10.40398788     24.64981270
B        29.90707016     11.42451859     25.03757477
H        29.22526932     12.24510098     25.70746994
H        30.12230682     11.91901016     23.88237953
H        30.24865341     11.86147404     29.04376984
H        28.23697853     11.77198887     29.47101212
B        29.37399101     11.35313416     29.73785400
H        29.34205627     10.11311340     29.51708031
H        29.71466827     11.49980450     30.92326546
H        29.27102280     15.84210396      1.05586314
H        30.55289459     15.54882050      2.42654300
B        29.37247086     15.94342613      2.22992206
H        29.28593254     17.07468414      2.57977939
H        28.68878937     15.28182602      3.08958554
H        30.26072311     14.87051105      6.89214087
H        28.87070465     15.84912872      5.96644926
B        29.68050385     15.96356678      6.78150129
H        29.21069908     16.12861443      7.94520760
H        30.57314491     16.85365677      6.76779652
H        28.95811653     15.17669964     12.02920151
H        29.44086266     17.09669876     11.33193016
B        29.86112785     15.94301510     11.48289013
H        30.70968246     16.10959435     12.46760559
H        30.47054482     15.36857700     10.55443001
H        28.66506386     16.43867302     16.13942146
H        30.21619606     15.15588188     16.31415176
B        29.87548065     16.14027786     15.77798462
H        29.66200066     16.16904640     14.62132740
H        30.59020233     16.97883606     16.02140617
H        30.86668015     16.17645454     20.48465919
H        28.89366531     16.07479286     19.67881584
B        29.67497444     15.84894371     20.61324310
H        29.65886116     14.53259087     20.71521378
H        29.18400192     16.22753716     21.68879509
H        29.00217628     15.58423042     24.30884361
H        29.05233574     17.15342331     25.23311615
B        29.70911217     16.07773209     25.22247124
H        29.53779602     15.28634262     26.21240044
H        30.83819771     16.15819359     24.72794151
H        30.80284119     16.58004761     30.24171638
H        29.71152306     16.19836235     28.73789024
B        29.82953835     15.94069290     29.88704109
H        30.19916153     14.79671383     29.96084785
H        28.77459335     16.25882530     30.21198654
H        29.80559158     19.21522522      2.74856043
H        29.12274551     20.19704247      1.12091279
H        30.40638161     21.30883789      2.21804142
B        29.67575073     20.30194664      2.24129605
H        28.65772438     20.72784996      2.59885883
H        28.86600685     20.26003647      6.41292286
H        29.83949471     21.79670143      7.31770134
H        30.93994904     20.55974388      6.29405499
B        29.89038277     20.63915825      6.99178934
H        29.98864365     20.14014053      8.20857334
H        28.16893768     20.29905128     11.48505402
H        30.21275139     19.60509682     11.55764008
H        29.65856361     21.37073708     12.39813042
B        29.37322807     20.52480507     11.52312279
H        29.81458855     20.95923805     10.48180294
H        28.71247673     21.53328896     15.89591217
H        29.62902641     20.50209808     14.52470398
H        29.20088768     19.69323921     16.38089371
B        29.63819885     20.69122124     15.82966328
H        30.70419312     20.96671486     16.36495972
H        30.19732475     21.12826729     19.72794724
H        28.45725250     20.77136803     20.61135483
H        30.15889740     20.31592369     21.65517998
B        29.58412743     20.36148453     20.48868370
H        29.64772415     19.24859428     20.06842995
H        29.63952637     19.24401093     24.82221413
H        28.33757019     20.57728577     25.02450371
H        30.09177399     21.21794891     24.06936646
B        29.57942390     20.51493645     25.02588654
H        30.15275383     20.67170143     26.14471626
H        29.71858025     18.95902061     29.94369698
H        30.07527351     20.61947823     28.81833267
H        29.93515968     20.63987923     30.87711906
B        29.48752594     20.20391846     29.84726334
H        28.27614403     20.39620972     29.78496933
H        29.49074554     25.57470894      1.09762859
H        29.30496788     23.99003029      2.34114957
H        29.34986496     25.78178787      3.14805937
B        29.76944160     25.14711761      2.23516846
H        30.96926689     24.83460999      2.13664746
H        30.51097870     25.82397079      5.84298277
H        30.43847084     25.26918793      7.71567202
H        30.20621872     23.83914185      6.39350557
B        29.99612427     24.99218369      6.64464188
H        28.94651604     25.44749641      6.51622725
H        29.48267937     25.12752342      9.68729019
H        30.27727699     24.57758141     11.54491806
H        29.82073975     26.45487213     11.39308357
H        28.43094444     24.92055702     11.30411053
B        29.46963692     25.30613136     10.95455837
H        29.63491631     25.94977379     16.83350754
H        31.06562233     24.60482216     16.02815056
H        29.30120277     24.08643723     15.98632240
H        29.65847588     25.62194443     14.85652828
B        29.92022324     25.09153175     15.96065140
H        30.15558434     25.86562729     20.65479469
H        29.61939812     23.93955040     20.52084923
H        29.69488907     24.79759979     22.24736595
H        28.34394646     25.49576569     20.83346176
B        29.41883278     24.98234367     21.15477753
H        29.57593155     26.60505867     25.24533653
H        28.46094704     24.84715843     25.47600746
H        30.06914520     24.81538773     24.43740082
H        30.21112823     24.94795609     26.31522751
B        29.58683777     25.27794266     25.37956238
H        30.81428146     25.54835510     29.69971085
H        28.96907234     25.04319763     28.90667534
H        30.06325150     23.65310669     29.73983192
H        29.21279526     25.16201401     30.82036591
B        29.80105972     24.88762474     29.74177551
B        29.84080315     29.64034653      2.33811402
H        28.66387939     29.83098602      2.03859210
H        29.79145241     29.36790848      3.52492929
H        30.41411018     28.78700829      1.75528562
H        30.48276901     30.65423203      2.10929990
B        29.74260712     29.57886124      6.84792423
H        29.47532845     28.50737190      6.38153028
H        28.93950653     30.38977623      6.35723114
H        29.51819038     29.89180374      8.01578426
H        31.02244568     29.90245438      6.69306421
B        30.00220299     29.75434494     11.48858643
H        29.44634438     28.86548424     11.01358223
H        29.98905182     29.81065559     12.71093178
H        31.12770844     29.66705132     11.26070118
H        29.45732689     30.75152397     11.01137638
B        29.50307655     29.76990891     15.79245949
H        29.61753654     28.56314278     16.00652504
H        30.12081337     30.38774681     16.62670708
H        29.78484344     30.10533524     14.75772285
H        28.24469376     30.07239723     15.92704391
H        30.04861069     28.85862160     20.88502312
B        29.51371956     29.80539131     20.39505196
H        30.04556465     30.74634743     20.94496155
H        28.26655769     29.74260139     20.38261604
H        29.90155220     29.63793945     19.33400917
H        29.92394829     29.13020325     25.74667549
B        29.46127701     30.00266457     25.07342339
H        30.27778244     30.94610786     25.13809013
H        28.41780663     30.22452736     25.64883232
H        29.35683823     29.52016830     23.82563210
H        30.94589806     29.58759117     30.62036705
B        29.79145622     29.48667908     29.98340034
H        29.07068062     30.08114052     30.78262711
H        29.39283180     28.32597351     29.69422531
H        29.96621704     30.13136482     28.97936058
