3075

Na       -2.25734520     -0.41110802      9.19704437
Na       -0.27294165      4.13442755     11.23964691
Na        4.49179935      1.89525414     13.71400166
Na        2.14708996     -0.13506225     18.25033951
Na        2.16458702     -0.38272035     23.05125618
Na       -0.05629484     -0.19171046     29.87913322
Na        4.39434195      6.76450348     32.04533386
Na        0.15040059      6.83763790      9.49783421
Na       -2.25323772      4.69057703     13.62376690
Na        4.80727100      6.71983862     18.72836113
Na       -4.27699995     -2.37474728     23.12998772
Na        2.44140720      5.02044439     27.64870071
Na        2.34134626      4.47150517     31.72469521
Na        4.83276987     15.62952900      4.65825462
Na        0.17517197     13.66845608      6.55678988
Na        2.37400627      9.14770985     13.63575172
Na       -0.13999642      9.16884804     20.54470253
Na        2.24563169      8.99205017     22.83600235
Na        4.54408598      9.32930565     24.96471405
Na        4.79010725      6.64918947     36.66841888
Na       -4.49012470     11.30777073      9.25970936
Na       -0.22515489     13.61041260      1.95588601
Na        2.10187531     13.14481258     13.81176853
Na        2.03647876     13.42312717     18.68893623
Na        4.77968264     13.37585926     20.67396355
Na        2.44008112     13.26386261     27.30198479
Na        7.05396318     18.11330223     32.14026642
Na        0.07271685     20.53120232      4.66247511
Na        4.94094419     18.17727470      6.49326229
Na        0.32192332     17.66783333     15.92333508
Na        0.15337147     18.06637955     20.71304512
Na        4.83362865     18.00636101     25.03177834
Na        2.47753358     18.29650879     27.62170601
Na       -0.03270863     22.72163773     29.92447472
Na        0.14482208     22.92179489      2.39815116
Na        4.85138083     27.51508522     11.27397346
Na        0.12782635     22.44804001     11.25761509
Na        2.48947096     22.77031898     18.44164085
Na       -0.27495435     22.54280663     20.51930809
Na        4.99829245     22.83975792     29.57924461
Na       11.44311523     27.32987213     32.20991135
Na        4.26701975     27.57840157      2.22630668
Na        2.32742262     27.26377678      9.05801201
Na        2.47234249     27.25661469     13.31966400
Na        2.46594572     27.31346703     18.62876129
Na        2.14400721     27.07238579     22.90612984
Na        4.47116852     29.61917877     27.25958061
Na        4.74753332     27.54054070     29.48941231
Na        4.90221882      0.13314711      6.92362881
Na        9.39987469      0.16610783     11.37905502
Na        6.79172421     -0.35004434     13.63320160
Na        9.27364635     -2.33462954     18.09319305
Na        9.18779278      2.24182105     23.09965515
Na        4.59804773      2.64294124     27.29096413
Na        9.15770626     -2.46572089     31.72979736
Na        5.43524408      2.21858883      4.83354282
Na        7.06940222      4.21860218      9.13329792
Na        9.66491318      4.58619022     15.96339417
Na        4.22878647      4.71480656     20.55641937
Na        8.75682640      6.70639658     23.13167763
Na        6.84696007      4.66229153     27.53565788
Na        7.01329899      8.85943604     32.05458069
Na        7.22569323      8.60927963      4.61796331
Na        6.93158484      9.27875519      9.13963699
Na        6.86495399      9.19781971     13.68526936
Na        7.00192451      9.20500660     18.57894897
Na        7.09796000      9.40854454     23.04806709
Na        4.94013214      9.22799587     29.73586655
Na        4.70086241     11.19401169     32.13354874
Na        4.88966370      8.74882603      2.19720840
Na        4.86516571     15.83358002      9.41978455
Na        7.02645445     13.68907642     13.74575615
Na        9.49566460     11.13336182     18.41307068
Na        3.95172310     11.46609116     22.97875023
Na        7.26989412     13.85989094     27.07369041
Na        7.04371023     13.90218925     31.66732407
Na        7.03345299     18.12544441      4.44184971
Na        6.96200418     18.30155373      8.78537846
Na        5.13239336     18.15486145     11.48141098
Na        4.45825481     18.47514343     20.39313126
Na        4.62391186     15.77554607     18.52407265
Na        9.24686146     16.04723930     27.32921982
Na       11.45285130     13.57024670     32.57817078
Na        4.88781404     22.80002403      2.16077161
Na        4.95310783     25.26233292      8.99821472
Na        7.13377476     22.52938461     13.73576164
Na        8.99528217     22.78337288     20.72111130
Na        4.28076506     24.73682976     22.78620911
Na        9.09508705     27.31592369     34.35875702
Na        7.03361177     22.83265114     31.92839432
Na        9.46649933     24.97539520      9.61157513
Na        6.82443047     26.89150238     13.53283119
Na        9.16355228     27.17427063     20.62290573
Na        9.48167133     24.95364189     22.90711784
Na        9.09527493     29.52700043     27.63183975
Na        4.47348976     26.97953224     24.84880829
Na        9.04655075      4.79852343      7.02024508
Na        8.99083042     -2.60787225      9.21951962
Na       15.97891998      8.55683422     13.70135498
Na       13.66682720     -0.13577808     20.54174232
Na       13.80106354      2.36125231     27.29021454
Na       11.25593948      4.33004904     36.87050629
Na       13.62437630      4.21427011      7.07150459
Na        8.80131054      2.16291142     13.40429211
Na       13.79325104      4.48484373     20.50281334
Na       16.19701576      4.25736427     18.29271889
Na       13.40511131      2.37740755     22.19959641
Na        9.17122173      4.61196756     25.26633835
Na        9.20797634      2.31552625     32.27700424
Na       16.20893288      4.36149168      4.78280878
Na        9.24089050      9.26087093     11.34625435
Na       11.43044662      8.69810867     13.70439339
Na        9.14186287     15.99610424     18.25220680
Na       13.87350655     11.17033291     23.02641487
Na        9.43338108     11.49526310     27.30865479
Na       11.49819756      9.40707397     31.61836052
Na        6.87432003     13.74738884      4.74374628
Na        9.23927975     13.45789528     11.50782871
Na       13.83708763     13.81477547     11.37221527
Na       11.75457382     17.68134880     14.32424641
Na       15.98766232     13.31940174     22.81052399
Na        8.94864845      8.92728138     29.86250305
Na       16.19606972     17.90915298     31.83966255
Na       13.61760807     15.79361248      8.63911915
Na       11.52906227     18.49250221      9.07132816
Na        9.37813759     18.37894821     11.17665386
Na        6.97537851     18.06893921     18.21998024
Na       11.28415775     18.00732803     22.70201492
Na       13.63794804     15.70894623     27.60895920
Na       13.96087456     18.45379448     29.56697273
Na       13.68958855     20.39578056      4.48895168
Na       11.51739407     22.79178047      8.88544846
Na       14.14738178     22.49206543     11.49547577
Na        9.11612892     18.05490112     20.43663406
Na       13.92337704     22.52319717     20.53896332
Na       13.97933006     22.95804405     25.17514038
Na       13.60166645     23.17568016     34.29919434
Na        9.93148136     29.96861839      4.47210646
Na       13.84715271     27.19955063     11.21861076
Na       11.26963902     27.39156151     13.70453072
Na        8.97916985     24.96295738     18.09783173
Na       11.48500919     27.44509697     22.78380585
Na        9.21805954     24.99123764     27.69644737
Na       13.86157894     32.08832550     34.70261002
Na       18.54146004     -2.18260932     -0.12790188
Na       13.66676331     -0.16525330      7.10544252
Na       13.68443012      4.98260832     16.12487411
Na       18.82423019     -0.27301809     25.15779686
Na       13.86774921     -2.21597648     23.60431290
Na       13.50221634     -0.25264710     30.03265190
Na       16.25439644     -0.70011187     36.24112320
Na       11.59455967      9.02303696      4.54963779
Na       18.02728271      1.94486511      9.15550613
Na       11.59677792      4.58577776     13.49656773
Na       20.77580261      4.51816416     18.16185951
Na       15.85163307      4.18731070     22.63782310
Na       13.71574211      4.28759480     25.05149078
Na       18.26578903      7.08498096     32.00310135
Na       15.87179279      9.16250706      9.09753609
Na       13.39417553      8.95897579      6.80630684
Na       13.90604687      6.85172129     13.66087151
Na       13.63871574      9.26875019     20.73050308
Na       16.10173988      8.74728584     22.66493034
Na       15.96103668      8.73766232     27.15882111
Na       13.83932686     11.29676342     31.86801910
Na       13.76516533     11.24558449      4.61031151
Na       16.05492783     18.34936333      9.17763615
Na       18.20560455     15.90070820     18.41884232
Na       13.94200039     13.35172749     25.22068787
Na       18.20156670     18.46463585     24.99704933
Na       16.18895531     13.31169987     27.76202965
Na       13.64924431     15.93889427     31.80567932
Na       15.92091465     13.76276016      4.56231785
Na       18.41683578     20.63852692      9.05649567
Na       16.03472710     18.14653969     13.33194447
Na       15.80124187     18.30101585     18.39277840
Na       13.40851116     17.75114250     25.00276375
Na       15.95444489     17.90726471     26.93292236
Na       13.82473660     18.09811974     34.18955231
Na       16.12892532     27.36444664      4.27432251
Na       18.66307831     25.05824852      8.97745991
Na       16.00213051     22.67672348     13.75243187
Na       18.29344177     22.68774414     15.94230175
Na       18.19308472     25.15775299     22.75848961
Na       18.19891739     22.73398590     29.80703163
Na       20.57619286     22.43538094     31.70310974
Na       11.48162174     22.81477547      4.77630758
Na       16.19669533     27.41875458      9.16673660
Na       15.89365482     27.31128120     13.32455826
Na       16.27335167     27.24590874     17.89865685
Na       16.09118271     27.73116302     23.03314209
Na       13.77194595     29.51422310     27.65540504
Na       18.52522469     25.07506943     32.12409210
Na       18.19507027      4.56453609      2.19059801
Na       18.31531143      2.23100209      4.44766855
Na       15.99530411     -0.33834362      9.11506557
Na       18.46324730     -0.32635528     20.94960976
Na       18.34799767     -2.32644582     27.29684258
Na       20.82793617     -0.30613634     27.83877945
Na       22.70742798     -0.17563647     34.33046341
Na       22.74996948      6.81839466      4.68555117
Na       22.66845894      6.76123953      9.07552719
Na       18.47446251     -0.16240840     11.52928257
Na       23.09791374      4.43384266     15.89204121
Na       27.19330788      1.98861718     18.24299812
Na       20.38884735      4.28231144     27.45117760
Na       23.04044342      6.79435778     31.98418808
Na       22.84914017      9.25527287      2.36397982
Na       18.03485298      4.14504910     11.30844593
Na       20.62821388      9.17568302     13.36216354
Na       18.49265480     11.27686977     22.91914940
Na       22.79621506      8.60287380     20.58140182
Na       22.75864029      8.93755627     29.74866486
Na       20.75209999      8.59114742     32.24276733
Na       18.37805557     15.89135170      4.88547707
Na       17.83886147     16.01934052      9.12253952
Na       20.45586777     13.25324249      9.31209946
Na       20.41780663     18.42887688     18.26684189
Na       25.00567245     13.84860134     18.29405022
Na       18.25242424     11.22707653     27.36154556
Na       22.38072395     15.78878117     31.91172981
Na       22.94034386     18.05958557      2.24224591
Na       20.53331757     18.35069084      9.05659485
Na       20.41216660     18.17346764     13.80797100
Na       18.25713539     20.50818825     18.16519547
Na       22.70064926     15.99351597     22.94692230
Na       20.61559486     18.24741364     22.94849396
Na       20.75828743     18.41343117     32.10205841
Na       23.14654732     25.05359459      4.77083445
Na       22.96921158     24.91962051      8.76245213
Na       18.27626801     25.04957390     17.87371063
Na       22.75612450     25.27782822     18.28034592
Na       17.95698547     23.13759422     20.27653885
Na       22.99123192     20.75811386     27.31366920
Na       22.85390854     23.27669144     33.87469864
Na       20.65649796     27.12325859      4.92169952
Na       18.46742821     29.46989632      8.94531918
Na       18.37765121     32.08461761     16.08030319
Na       22.66613770     29.73296738     18.65570259
Na       22.56351662     29.47502708     23.00403404
Na       23.08878517     26.99370956     29.85651779
Na       23.05542374     27.36148262     34.62220001
Na       23.22745514     -0.44506460      7.07167244
Na       25.11169434      0.04966237      8.98567772
Na       25.26429367     -0.13947447     13.39311314
Na       23.40759850     -0.00461234     15.79049301
Na       25.37906265     -0.59293860     23.32251930
Na       25.29447365      0.29465899     27.54990387
Na       25.26931000      4.73552656     32.40731049
Na       22.76268005      4.61245203      6.75971079
Na       27.20799828      4.76404572     16.05086899
Na       22.95619965      6.67216587     17.91610336
Na       25.06977654      4.62756681     22.89292145
Na       25.50679016      5.14361811     27.21399117
Na       23.05792427      4.77921200     29.64393616
Na       22.92054176     11.35355377      9.31341171
Na       27.65411758      9.08174610      6.77284908
Na       27.32378387      6.62706280     13.43695068
Na       24.98839951      8.97832203     13.59706020
Na       27.53032494      7.01425171     22.47003555
Na       22.77424431      6.87968063     27.28332138
Na       27.58937073      4.35581923     34.45470428
Na       25.09782600     13.43957520      4.14130545
Na       22.79226685     13.64353466     11.44871521
Na       25.19246101     13.66762447      9.39552116
Na       27.16896248     11.41341400     13.54066086
Na       22.37668037     13.41023827     25.20657921
Na       23.10029221     16.14968872     27.52297211
Na       22.78407669     11.28004074     32.14535904
Na       29.36189651     17.87345123      4.30445242
Na       25.19304848     17.87505150      9.26738548
Na       25.02618027     17.48981285     13.45017910
Na       22.79402351     16.01545715     18.35445786
Na       25.32552147     18.38333702     23.22955132
Na       25.23708725     18.22760010     27.22845459
Na       23.26643944     18.43982506     29.61506844
Na       25.25102615     22.63530922      4.23338604
Na       18.18794632     24.95045662      4.54326963
Na       27.50708389     22.75258827     11.24481010
Na       18.24670792     25.24938965     13.81517696
Na       24.80761528     22.92756271     22.72540855
Na       24.99897385     23.17276001     27.88199043
Na       25.12012291     22.51526070     31.76678276
Na       25.20397758     27.64652824      4.97906160
Na       20.57002640     27.52652931     13.69395065
Na       22.91683769     29.65151405     13.69133568
Na       22.70680809     27.35395622     16.10869980
Na       25.09209442     27.49424934     23.00198936
Na       22.70302773     25.22177315     27.51827431
Na       25.52039719     26.95623207     31.94292641
Na       27.10248566     -0.25709459      6.88240480
Na       27.79841042     -2.16230702      4.52390623
Na       29.66981506      0.20605710     13.65678883
Na       29.79312325      0.09505566     18.46647453
Na       36.26579285      0.34552643     29.57583618
Na       31.65586662     -2.17843914     32.06355667
Na       29.67820549      0.06240619     32.22287750
Na       32.14561844      0.38223729      6.81240034
Na       32.03075409      6.85968161     13.79070187
Na       32.13610840      4.36447096     15.88158131
Na       29.65589142      4.48564100     18.20555115
Na       32.19771576      4.48391485     20.60288239
Na       27.66343880      4.17096138     24.95691109
Na       29.83702850      4.65214205     31.81207275
Na       25.04454422      8.99130917      5.01981306
Na       34.57102585      8.50939941      4.24253130
Na       29.68417931      9.09049225     13.37449837
Na       31.88076782      9.03416634     15.97044659
Na       29.79780197      0.23071781     22.71063423
Na       25.07731819      8.86307812     22.44425964
Na       27.51782799      9.26178837     29.70215416
Na       29.58897209     13.59929085      4.26766682
Na       32.39677048     15.63383579      8.88110352
Na       27.65693855     13.68518639     15.94417572
Na       27.31988716     14.12592220     20.53555298
Na       29.68806648     13.57241535     22.67084312
Na       27.00664139     13.36901760     29.82366562
Na       32.10762024     18.11573029     29.83635902
Na       31.98706818     18.22741890      2.16413140
Na       34.42767334     18.23979378      9.00342655
Na       27.42161179     17.93619537     11.35118675
Na       32.20988464     20.67546844     18.16510391
Na       34.42505646     18.64947891     22.99916458
Na       29.72481728     18.07549477     27.71788979
Na       29.78270340     18.58074570     32.26362991
Na       27.63578606     23.02783012      2.32847452
Na       30.02717972     22.34722137      9.44403458
Na       31.97432899     22.54191399     15.93719482
Na       27.00002861     20.69559860     17.98317719
Na       31.99884605     20.18840790     27.38655472
Na       32.23041153     22.58143234     25.14286804
Na       29.82398415     22.94214630     32.33395004
Na       32.12789536     27.62615585      6.78036356
Na       27.48680496     27.31341362     16.07915688
Na       27.14479637     25.24252701     18.21111488
Na       29.53824043     26.95129395     22.62460709
Na       29.66380692     27.08279228     27.19823647
Na       32.51046753     29.57984352     36.67380524
Na       -0.14566633      4.65250635      2.47450066
Na        2.17838430      0.11461688      9.55115032
Na        0.15824734      1.64187753     14.06338882
Na        0.08293170      1.95482886     22.98512268
Na        0.20335451      4.54253387     25.38553810
Na        0.02011124     -0.16128044     25.37659454
Na        0.08250344      2.40387797     32.20478439
Na       -2.26764917      4.34605074      4.69732714
Na        2.57371736      3.88360214      5.21531296
Na        2.27167392      4.93945312     13.09682941
Na       -4.38229704      4.33535147     20.55850792
Na       -0.21476603      6.76420403     23.15156174
Na        2.25059032      9.13076591     27.81031609
Na       -0.05907954      6.89785862     31.94187164
Na       -2.01830339      9.06426239     -0.14716212
Na       -0.04945263      8.96651077      6.71553040
Na       -0.25667933     11.37697887     13.53798485
Na       -0.38729051     11.28828812     18.17162704
Na       -0.06324352     11.50966740     23.34663010
Na        0.12128109     11.61181831     27.60284996
Na        2.43123960     13.75874138     31.74844933
Na       -0.47422349     13.62330818     11.11268425
Na       -2.29146123     13.47987556      8.54142666
Na        0.19544117     15.77234554     13.32138824
Na       -0.39073443     15.79314613     18.71430779
Na       -0.24601115     13.96731853     25.11605263
Na        0.39857915     15.99613953     27.22918892
Na       -2.33821797     13.75603580     31.74584770
Na       -4.53565836     25.05472374      4.84449148
Na       -1.98101056     17.93928146      8.66577721
Na       -0.20560513     20.08484650     14.04480839
Na       -2.15813184     18.37907600     18.07422829
Na       -2.15836310     18.21616364     22.79821777
Na        0.20135985     18.48415184     25.04938889
Na       -2.48331285     22.43893433     27.29993248
Na        2.41841841     27.13316154      4.80395603
Na        0.30019596     26.76631927     11.29457092
Na       -0.06624777     24.73942947     13.90211201
Na       -0.31365687     24.86436272     18.51958275
Na       -2.20015454     23.08041382     23.01404953
Na       -0.32322004     24.82106209     27.22936821
Na        0.48159432     27.37698364     34.20883179
Na        0.12321117     34.23904419      4.25619459
Na       -2.30598664     27.53421974     13.94964600
Na       -0.03119724     29.36815071     13.33501053
Na       -4.08032322     29.85333824     18.36149788
Na       -0.11583604     29.57140160     22.42025948
Na        2.09512115     32.08555603     27.72925949
Na        0.49264845     25.28198814     31.98160934
Na        4.82783079      9.30829906      6.76843977
Na        9.37370300      2.20221972      8.99029541
Na        4.54718351      0.05693831     16.11322021
Na        5.06805038      2.27741027     18.34904861
Na        4.49098349      2.07274604     22.88471031
Na        4.32295370      4.50154352     25.28831863
Na        2.39999056     -0.11873376     32.02579880
Na        4.63839531      2.16195583      0.20291829
Na        2.39853597      9.22041988      8.68138123
Na        4.96339178      6.74736929     13.79805565
Na       -0.34042013      6.88378906     18.31236458
Na        2.18077374      4.50974846     22.87394714
Na        7.08352995      9.15793228     26.91991806
Na        2.32806110      8.85639286     31.96960258
Na        5.12450743     13.60643578     -2.43396902
Na        2.37302685     13.43379116      8.94880390
Na        4.79983044     11.40273857     13.43342209
Na        8.96422672     13.60332298     16.20884895
Na        4.35412025      7.20345783     27.35249329
Na        9.69371223      8.86493492     25.43895340
Na        9.58650970     15.72537041     36.65553284
Na        4.38454676     13.83437347      2.15179729
Na        4.63774586     13.53550243      6.65283585
Na        4.36888409     15.76136017     13.92792320
Na        2.06344247     18.07546043     18.07195282
Na        4.71155930     16.16590881     22.36629868
Na        4.10003471     15.89044380     27.50514984
Na        0.50578612     11.21887779     31.77163315
Na        4.88403606     20.08528900      4.56092739
Na        4.71310711     20.39830017      8.75146770
Na        4.61893654     24.90280342     13.22434044
Na        4.39865303     20.18851471     18.54275894
Na        5.15765619     20.66973305     22.98278809
Na        4.42257166     22.98777771     24.89963341
Na        4.99714422     20.34200096     31.80065155
Na        2.64396214     22.41614151      4.48903465
Na        4.68328381     23.05315399      6.93564510
Na        4.62531042     26.94613457     15.84444427
Na        4.65339327     25.07905579     18.28925133
Na        2.24044514     22.83689690     22.58447838
Na        7.07074261     22.83952141     23.26399422
Na        5.04024172     29.69254875     31.86844063
Na        4.58537197     25.29146957      4.20719099
Na        7.05296183     32.24349594      9.59627438
Na        4.64647579     31.61560249     11.62088585
Na        4.45287895     29.49392319     17.90717888
Na        4.41753864     32.00249100     20.61955261
Na        9.66035080     27.29378891     25.13169861
Na        0.37519035     25.10773849     36.93183136
Na        7.06369019      4.71885872     -0.08568646
Na        9.01708221      4.56306458     11.39662933
Na        9.22215366      0.17925081     15.86529636
Na       11.38974667      0.17660870     18.06319618
Na       11.14704704      4.20213842     23.03587341
Na       11.50421810      4.54249859     27.59628677
Na        9.20634747      4.59563828     29.85124779
Na        9.69069004      9.22325897      2.28949308
Na        8.90815353      6.80645227      9.60284424
Na       13.49166298      1.99077761     14.35725784
Na        9.20834637      6.79798985     18.17337990
Na        9.08468819      4.24454403     20.62415886
Na        9.69770432      6.63121367     32.64948654
Na       11.42026615      4.47989130     32.14025879
Na        8.83312225     13.86621380      2.40377712
Na        6.72052336     13.60390568      9.39631653
Na        9.02484226      9.01016903     15.93524075
Na       13.86177731     13.45328808     20.45336723
Na        6.69948530     13.61016464     22.91829681
Na       11.66922569      9.04440594     22.81780052
Na        9.24852467     15.83463097     31.98060226
Na       11.47483540     18.48378372      4.48137093
Na        9.15328312     16.01412773      9.55765820
Na        9.03639507     15.89908886     13.65279198
Na       11.26063919     13.71528721     18.29450035
Na        8.92383289     15.93035889     22.77046204
Na       11.47351456     13.63799572     26.99649239
Na        9.29592705     18.31049728     34.19654465
Na        7.08455181     23.29423332      4.42445898
Na        9.07180882     20.55650902      8.87077808
Na        7.14132404     18.31085396     13.57536983
Na        7.13366365     22.99992752     18.07138443
Na        6.65908957     18.14235687     22.52874947
Na        9.13642788     20.30183792     27.54094124
Na        9.48978138     22.57368469     34.53850555
Na        7.17488337     31.35269356      4.23537874
Na        7.16401625     23.07116890      9.13241100
Na       11.61326885     22.60384369     13.22576141
Na       11.65493011     22.94492531     22.81664085
Na        7.03241491     27.46322632     18.35814667
Na        6.95357561     32.14680099     27.73020935
Na       11.60196018     22.50885201     31.91836166
Na        4.98711491     27.81735229      6.86556959
Na        3.88149905     29.84286499      9.07971859
Na        8.72341442     29.50629807     13.43901253
Na        9.01034260     29.61292458     22.84198380
Na       11.31570148     31.87713814     27.54371071
Na        9.22100258     32.22881699     34.44787979
Na       11.49425793      0.20654784      4.96248817
Na       13.60036469      2.24066448     10.02069950
Na       11.50257397      4.46007252      9.40321827
Na       13.53306103      2.20037150     18.00390244
Na       15.91438961      0.17401844     23.03318024
Na       15.80085850     -0.21235961     27.44637680
Na       13.93399239      2.24390030     32.45271683
Na       14.30115604      9.31085682      2.13341689
Na       11.31013012      8.88217545      9.33911991
Na       13.94608116      8.90927601     15.98383045
Na       14.13065434      6.83278942     18.46968842
Na       13.77352715      6.64592695     22.90736008
Na       13.59142399      6.73705816     27.26579285
Na       13.93023300      7.03428841     32.41075516
Na       11.44869328     13.42338276      4.41542578
Na       13.54478359     13.67949867      6.67269564
Na       13.29398155     11.18229103     13.69488335
Na       11.60898399     13.62782669     22.80385971
Na       18.39994812     13.63034248     25.27544785
Na       13.73910141     11.21790504     27.33307838
Na       16.06167412     13.63537598     31.66478729
Na       18.15879250     17.90266418      2.16237521
Na       11.38022614     13.77748871      9.36383438
Na       15.91572189     13.42996693     13.32508945
Na       14.03680611     18.52363205     16.06864548
Na       13.59709835     15.92439651     18.65179062
Na       13.69584942     20.57245064     32.21605682
Na       11.53411961     18.16762924     -0.61818510
Na       13.25509930     20.55653191      8.98985577
Na       13.71137619     20.37121582     14.05570316
Na        9.12266159     20.39606094     18.51217651
Na       13.61849117     20.40453339     22.95116043
Na       13.28567505     25.08632851     28.05772018
Na        9.48759460     22.80471611     29.94563293
Na       13.78854656     27.16908264      2.33874869
Na       13.95391083     27.83592033      6.90122986
Na       13.58373165     24.93228722     13.50327969
Na       13.48150349     27.43244171     15.74151325
Na        9.44395351     22.41146851     16.05537987
Na        9.06743622     27.33387947     29.61548996
Na       13.80163097     22.69384193     29.61783981
Na       13.60027981     29.36055946      4.37399197
Na       14.08315277     29.49528122      9.62078381
Na       13.21982288     29.57898140     13.76719570
Na       13.52517605     29.56804466     18.44009972
Na       13.66464138     27.63722801     29.84292984
Na       11.18253040     27.38414955     27.61788940
Na       13.85345554     29.82604599     32.48901749
Na       18.15535545      4.59161806      6.78234005
Na       18.60437775     -2.49367809      4.55086565
Na       15.86805248      4.52814484     13.54659081
Na       13.58434391     -0.23060434     25.02617455
Na       18.45568275     -2.54006720     23.53966904
Na       17.99833298      1.90493667     27.54965782
Na       18.44362259      2.63084626     32.07399750
Na       18.35924721      6.85525608      4.50134182
Na       17.86999893      1.90027511     13.37685394
Na       18.49451256      8.86776257     15.88736725
Na       18.53810310      6.50520086     14.01108265
Na       18.46959686      9.27012157     20.49458122
Na       18.35115623      6.74087095     27.15469170
Na       18.09447479      4.52545834     29.37812805
Na       18.05945396     11.38180923      4.59156990
Na       18.06290054      8.73258400     11.29006863
Na       18.18496323     13.51933956     11.58775997
Na       20.60007858     13.60656357     18.12060928
Na       18.82984734     13.02996349     20.63834000
Na       20.31407928      9.01276875     27.58675957
Na       18.41543198     11.23713303     31.86773109
Na       15.91538715     18.40133476      4.55971766
Na       18.24828720     18.32499313     11.30656433
Na       20.71851158     13.21135712     14.01907349
Na       17.97980118     20.61255455     22.88754082
Na       15.61268234     18.30416298     22.98141289
Na       18.45599174     16.06371880     27.38857079
Na       18.17623520     15.78617668     31.81411552
Na       18.27604485     22.82615089      6.92206383
Na       20.76264954     22.58254242      9.60742283
Na       20.85830116     22.45495987     13.74285793
Na       18.04700089     18.17979240     16.24149132
Na       15.89163399     22.81147575     22.70977020
Na       17.71072769     22.92538261     25.29900169
Na       15.86825371     22.73170662     32.02185822
Na       18.67307281     27.37102699      2.44406486
Na       22.68720818     20.35944176      9.09651566
Na       17.99286652     29.44543648     14.00510120
Na       22.84690857     24.86434937     23.09076691
Na       18.09186745     25.20615578     27.46429443
Na       11.46610260     22.73460197     27.34813309
Na       18.13580894     32.12541199      6.87012243
Na       18.31740379     34.31204987     18.28442192
Na       20.42472839     22.79012680     18.35964584
Na       18.35596275     27.74908447     20.73156548
Na       20.52515221     32.23245239     22.80648613
Na       20.42270470     32.30378342     31.69806862
Na       27.16915894      4.32899666      6.70076275
Na       20.52886009      4.22328377      8.81248093
Na       23.08228874     -0.17351004     11.37210751
Na       22.55368423      2.02326274     18.24513817
Na       22.44791985      4.76788950     25.47973251
Na       22.87600136      4.44453573     34.40440750
Na       20.50453568      8.98285675      4.40797186
Na       25.12401009      8.92614651      8.98165989
Na       22.47059059      6.41121531     13.68472862
Na       20.58331680      8.73545456     18.34957123
Na       20.73118782      4.40208673     22.81317329
Na       23.13686752      6.51388884     22.96548271
Na       25.13126183      9.16323280     31.76585197
Na       20.68717003     13.26013756      0.18876092
Na       23.18749809      2.34268498     -0.09834834
Na       23.06510162     11.26624966     13.71417427
Na       23.31077194     11.14911938     18.14067459
Na       23.37863541     11.48015785     27.36557198
Na       22.94172859      8.97184849     25.11348534
Na       20.36992073     13.72197247     36.44969940
Na       22.56945610     15.74367237      4.72887802
Na       22.55423546     15.88938332      9.36332130
Na       22.64388275     15.98235416     14.00398540
Na       18.11075592     18.67919922     20.67289352
Na       22.58846855     18.18586159     20.79378319
Na       20.80635452     13.89857960     27.64324570
Na       25.18155289     17.97463989     32.12377167
Na       22.85812569     20.63598251      4.58379364
Na       29.80643654     22.66353607      4.66327953
Na       25.34707832     22.80296135     13.99932289
Na       18.26808167     13.95969772     15.71055603
Na       18.02737617     16.14999008     22.54368782
Na       22.54083061     22.62762642     29.53622246
Na       23.03508186     20.43020821     32.04684448
Na       20.92162704     22.71874809      4.92393494
Na       20.82748222     27.56682205      9.37087250
Na       23.19284439     22.86130142     11.25116444
Na       18.24267197     20.49518585     13.97486401
Na       20.37637329     27.24994087     23.01613998
Na       20.54486847     22.82176399     27.19509697
Na       22.53542519     25.02297592     32.04946136
Na       31.90525246     31.44040298     11.41146946
Na       23.28713226     29.49194145      9.38514328
Na       20.28336906     36.04542542     14.01279640
Na       22.69850540     27.47702408     20.75061417
Na       22.74902534     27.03367615     25.24902534
Na       20.60558128     27.96528244     27.45088768
Na       25.26548958     32.13800049     32.04753876
Na       27.28891373      2.21606398      4.68107080
Na       25.06891823      4.67346096      9.04674721
Na       24.84507751      4.61556816     13.20426559
Na       27.28364754     -0.17198430     20.67580223
Na       26.93303490      2.14836693     22.74168968
Na       27.50212479      2.42600727     27.09087753
Na       27.51192284      2.35633588     31.34692192
Na       27.29371262      6.81207514      4.19912291
Na       27.44549751      9.18117428     11.33589649
Na       27.72270393      2.34689975     13.86882401
Na       29.65919495      9.25885487     18.59791756
Na       29.70578766      4.27915049     23.05594063
Na       28.06278801      6.94312477     27.18894768
Na       27.73726082      6.87655067     32.24492645
Na       32.02157593      9.04956150      2.36436343
Na       29.78418922      9.08805656      9.07101250
Na       27.20858574     15.89715576     13.74863243
Na       27.20495224     11.35624695     18.19789124
Na       27.30406189      9.62859726     20.51714897
Na       29.69110107      9.62801456     27.23847771
Na       26.92858696     11.43859386     27.34932137
Na       27.53751373     13.55846405      2.16533422
Na       27.41338158     15.78499222      8.93282700
Na       29.71057129     18.01827049     13.42947960
Na       27.36324501     16.25074005     18.08081245
Na       27.63476562     16.12537956     22.65268517
Na       27.50456810     16.10931778     27.70624161
Na       26.88488388     15.81231880      4.45148563
Na       27.34509277     18.07505989      6.63533163
Na       29.50974655     22.48889923     13.78473377
Na       25.08656693     17.99794960     18.44639778
Na       27.62023544     20.57233810     22.81526947
Na       27.07059479     20.36600685     27.52167320
Na       27.12692070     18.32713318     34.42779160
Na       27.27293968     20.50861359      4.39946127
Na       27.54920769     24.66001701      9.23359203
Na       27.64179230     22.84770775     16.08547020
Na       25.05058289     22.65990829     18.22085190
Na       27.13224792     24.94513702     22.84478188
Na       27.45135880     24.87911797     27.73182869
Na       27.70728874     25.06444740     31.90991974
Na       29.90762329     27.17523956      4.98804188
Na       25.12922478     26.65385246      9.46815205
Na       27.12432671     29.54438972     13.98345470
Na       24.87608910     31.93080521     18.08443260
Na       27.29786491     26.90917015     25.27017021
Na       27.66227150     32.05088425     29.64391327
Na       27.39916039     29.94643784     32.02803040
Na        0.18548276     -0.36816949      2.28938341
Na       -0.38259792      3.99798131      6.89661121
Na       -0.02988037     -2.70769262      9.01272297
Na       -0.03280270     -1.34202302     16.52569389
Na        0.28633583     -0.02111161     20.72782707
Na        4.28356743     -0.04186112     25.33857346
Na       -0.17532460     -4.17091227     29.74685860
Na        2.25090599      4.35108709      8.89379883
Na        0.11601825      6.60594177      4.69284582
Na       -0.06695595      1.85531914      9.29102707
Na        0.00473399      2.14706779     18.54235840
Na        0.03691091     -2.59817719     27.48808479
Na        0.16982700      7.11663771     27.40574455
Na        0.12485926      4.28665304     29.73635674
Na       -4.01187944      9.27869415      2.05610561
Na       -9.20856476      9.50209522      6.85731125
Na        0.27485818      9.28050709     11.44224834
Na       -0.08903701     13.86775112     15.92469501
Na        2.23874998      8.71137619     18.49473953
Na        0.04066889      9.30628967     25.29761124
Na       -0.28642252      9.54426956     29.72051811
Na       -0.24799894     15.73955822      4.56002522
Na        0.17833266     11.33222866      4.58880997
Na       -0.06374801     11.27195072      9.05441093
Na       -2.24471450     13.67988396     13.62616920
Na        2.36291027     13.86854458     23.12272263
Na       -0.49486214     20.70086670     22.70260620
Na       -0.05121458     16.20111656     31.97223282
Na        2.39001489     17.79781342     -0.04417486
Na        0.27983990     18.08164215      6.73249817
Na        2.36622190     18.16900635     13.68501472
Na        0.50835800     17.83398628     11.20418262
Na       -0.11310274     13.06567192     20.62553596
Na       -0.06419063     15.83962250     23.01750946
Na        0.39676902     20.58679771     32.15138245
Na        2.40317297     22.87241554     -0.01128668
Na        0.15938529     22.94477081      6.88079262
Na       -0.26570138     24.81654930      8.94932842
Na        2.43875957     22.49484062     13.42907715
Na       -2.39505482     22.93334007     18.22541428
Na        0.03164848     24.93573380     23.11256409
Na        2.45315862     22.64237213     27.94777298
Na       -2.16372228     31.86377525      4.36381340
Na       -2.34759688     27.44271088      9.44732857
Na       -4.44457865     25.07253456     13.94532299
Na        0.52352905     27.07103920     15.86731720
Na       -0.00913699     27.02821350     20.39664078
Na        0.09255328     27.71862221     25.10268211
Na       -2.07764387     27.01153755     32.33319473
Na        4.60017252      0.14298575      2.29414606
Na        2.45729780     -0.02972219      4.71930313
Na        4.36269045      6.66247177      8.78069973
Na        2.35301805     -0.34848434     13.94834614
Na        6.95862007     -0.38563645     18.34228516
Na        4.47369003     -2.41286111     22.79496193
Na        7.05425119     -0.30963886     31.83977699
Na        4.81395864      4.15883780      7.07062674
Na        4.71032333      2.20499682      9.45029545
Na        6.87966824      4.19668531     14.15221119
Na        4.22869349      4.42566156     16.00208664
Na        2.00616956      4.35794830     18.67532921
Na        4.89960480      7.01391649     23.19211388
Na        4.58372211      4.73210716     29.70085907
Na        4.96480608     11.24027729      4.28516197
Na        4.57278872     11.34407425      9.23018646
Na        4.58782339      8.88755417     11.40419388
Na        4.69356060      8.95808411     15.98818207
Na        4.91007948      9.21722507     20.74520493
Na        4.91646528     11.50605488     27.67706490
Na        4.31626987      4.21571016     34.50403976
Na        2.22307777     13.37094593      4.16654348
Na       -2.21060348      9.07441807      4.76462460
Na        4.08441114     13.61452866     11.32003212
Na        4.99422312     13.20919800     15.80915737
Na        4.33522987     11.15995216     18.25155067
Na        4.74571466     13.69077682     25.01196480
Na        5.02359962     15.71974373     32.04156876
Na        4.47987318     18.27927208      2.12936997
Na        2.35758758     17.70770073      4.44212198
Na        4.69791365     20.41768456     13.98139095
Na        4.76481915     18.00136948     15.90882683
Na        6.95454931     13.37898827     18.44861984
Na        6.92885494     18.31065750     27.15700722
Na        4.76925182     18.00201035     29.77890015
Na        4.36011267     24.87022400      0.03555779
Na        6.70785475     27.20495796      0.04333269
Na        2.48835564     22.89174271      9.01226902
Na        4.73798513     22.85195160     15.74807072
Na        4.87502098     22.64249992     20.56807518
Na        7.07458878     22.48441887     27.23633385
Na        4.39133692     20.44307137     27.21473694
Na        2.47498965     27.69948959     -0.62837219
Na        6.81826878     27.65724564      9.36632252
Na        4.67923403     22.41021919     11.25333405
Na        4.82529688     29.41671181     14.16049290
Na        4.64286661     27.42575836     20.64677429
Na        2.30137563     26.79875374     27.19635201
Na        4.97418499     25.10761833     27.47310448
Na        9.24795532      2.34647918      4.30543900
Na        9.07097340     -0.11469775      6.94129086
Na       11.30672169     -0.50954467     13.68606853
Na        9.51687431     -0.29334652     20.42897987
Na        6.71399641      4.31985760     22.70261383
Na        9.37830544      2.25868630     27.53358459
Na        9.20199966      0.17082959     29.82591629
Na       14.15659142      6.99755955      4.62731886
Na        6.96004248      4.32102489      4.37020159
Na        4.73891878      4.57452917     11.58554554
Na        9.19838047      2.14771008     18.06284332
Na        6.96905422      4.41668272     18.33378983
Na        9.14633274      0.05249306     25.32118225
Na        9.37977028      6.76064014     27.47197342
Na        9.24621010     11.45152092      4.43772078
Na        9.07989693      9.01776314      6.64915419
Na        9.23392677     11.61712837      8.77574348
Na        9.23674107      6.71034288     13.72355652
Na        9.23287106      8.70405293     20.96774101
Na        9.39817333     11.24370193     23.07483864
Na       11.51096535      8.88405609     27.99497986
Na        9.56434631     11.26489353     -0.05735261
Na        9.17943001     13.96269798      6.93835402
Na       11.50132370     13.80213070     14.04335976
Na        9.44161606     11.36073875     13.43090153
Na       16.14674759     13.67822266     18.39266777
Na        9.17876339     13.31358719     24.84223175
Na        9.15223980     13.85967731     29.63564682
Na        9.19239521     20.58749390      4.59490776
Na        9.16693401     17.73028946      6.74631453
Na        9.14803219     20.09163284     14.39807224
Na       15.67651367     22.43856812     18.39361572
Na       11.61950397     22.59842491     18.43929291
Na        9.23140144     18.36250496     25.12701225
Na        9.08897591     18.11160851     29.70116806
Na        7.06761885     27.02360153      4.73926258
Na        9.12079430     23.22358131      6.98119926
Na        9.34970856     22.50286484     11.55613613
Na        9.57820034     24.79676247     13.46126080
Na        9.43308449     20.44636345     23.06371689
Na        9.04842186     22.77885056     25.27219772
Na        9.47776890     24.96149635     32.30289459
Na        4.76011944     29.60317230      4.60088778
Na       11.35353851     27.03724289      4.27391195
Na        9.10283852     27.35046959     11.43097782
Na        9.34641933     27.01159096     16.06497765
Na        6.68650913     32.22565460     23.00806427
Na        6.90541935     26.77067566     22.78837585
Na       16.23427200      0.05374021     -0.29979298
Na       11.46000195     -0.44236580      9.01968479
Na       13.77367878     -0.06699318     11.74764442
Na       13.63948059     -0.61096573     16.31187057
Na       16.05130577      0.08174539     18.27687836
Na       11.30442429     -0.35963902     22.96218491
Na       11.48636627     -0.06490059     32.34510040
Na       13.68848896      4.26028919      2.82450175
Na       13.99251747      6.75168371      9.07030392
Na       15.94344139      4.17223358      9.08489227
Na       11.48270321      4.67322016     18.53862572
Na       18.21452904      6.84655762     18.33497047
Na       15.98795986      4.83310461     27.23147774
Na       13.90328503      4.13492441     29.90463448
Na        9.34632874      6.73500395      3.96275687
Na       16.12998581      9.01357841      4.87416506
Na       13.93490410      8.66174507     11.32499409
Na       13.88326359     11.29114437     18.39161110
Na       11.66769505      8.99323273     18.16543007
Na       13.66406441      8.84692001     25.00945282
Na       14.20548439      8.84782028     29.80043793
Na       13.29361248     13.50731850     -2.24740362
Na       15.80985355     13.10891342      9.42192936
Na       13.52769756     11.18283844      8.72523975
Na       13.89495754     16.01627541     13.54184818
Na       13.78031540     15.80963612     22.53735542
Na        9.35504723     13.42579269     20.69249153
Na       13.80464649     13.83732510     34.14353180
Na        9.43437481     20.45404625     -0.00890626
Na       13.73957825     15.91720867      4.87116814
Na       13.62726879     18.32389069     11.21926212
Na       11.68253136     18.43414116     18.00589752
Na       13.60879707     18.30766487     20.42284966
Na       11.52781487     18.00172234     27.23535728
Na       13.66311550     20.47460556     26.74308014
Na       14.05289459     18.10304070      6.85456848
Na       13.75343418     24.93280602      4.74667358
Na       13.90957260     25.00959015      8.89241409
Na       14.10433197     25.16849709     18.31324959
Na       13.94920254     25.16469955     22.67495918
Na       15.94389153     27.79602814     27.56191826
Na       15.93162537     22.40717697     27.64681244
Na        6.74142265     27.52618027     -5.03770351
Na        9.40994835     26.95601845      6.88643885
Na       11.64705086     27.07686615      8.87619305
Na       11.48524761     26.51942062     18.05784035
Na       13.70047188     23.05198860     16.18789864
Na       14.17325020     27.25829697     20.32061195
Na       13.82385731     24.97390175     31.82891846
Na       14.04893875      2.24243617      4.98621035
Na       20.78285408      0.03577304      4.92271805
Na       20.39708900      0.01553429      8.86523724
Na       20.53110886     -0.44708830     13.85001945
Na       17.92307854      2.20695019     23.02699661
Na       13.51918221     -4.94291306     25.29337692
Na       18.35970879     -0.29381698     29.71216774
Na       16.02682495      4.72300053      0.09641869
Na       20.82326889      4.63850117      4.48582602
Na       20.55567741     -0.18845740     18.21744537
Na       18.31383514      4.12120771     15.85519409
Na       18.36714935      6.65274143     22.91715622
Na       17.96956444      4.20868587     25.25559998
Na       20.80494118      4.98913765     32.08666992
Na       18.18510628      9.10865021      2.06648850
Na       17.97296143     11.17764759      9.09413815
Na       18.00801277      6.43248034      9.15975666
Na       16.39019012      9.29903507     17.88499832
Na       20.71751785      8.75653362     22.98870468
Na       18.35474396      8.71587276     24.92818832
Na       17.91967583      8.99016953     29.65707588
Na       18.38295364     13.48502064      2.37502885
Na       18.47480583     13.48753262      6.88452053
Na       18.03211021     11.06042671     13.93076324
Na       22.78819847      8.91929626     15.90923882
Na       18.51325989     11.45662785     17.79681969
Na       20.58013916     13.66480827     22.78055954
Na       18.41491890     13.62754631     29.73054886
Na       22.75204086     18.28910255      6.99307442
Na       18.62000084     18.28368187      6.81555891
Na       18.06742859     16.05555725     13.65840244
Na       13.97035980     13.23036289     15.90594578
Na       22.55791855     17.90409470     25.31645775
Na       22.59453583     22.66281700     25.18000221
Na       18.11147881     17.94661331     29.62664795
Na       18.10333061     20.33459663      4.35593843
Na       14.08059502     22.56284904      6.59672356
Na       16.27110291     22.58569145      9.05436802
Na       27.15928268     20.35735893     13.35424614
Na       25.06168556     27.62182426     18.45060730
Na       20.19181252     22.94884109     22.94475365
Na       18.60199165     31.64653397     34.37987518
Na       16.12043953     27.51699829      0.07422510
Na       18.60096931     27.45797539      6.94081593
Na       18.60626602     27.36582947     11.26565075
Na       15.86944675     31.44167519     13.98941040
Na       18.23785973     29.75899887     18.08789444
Na       18.25782013     26.91897774     25.01063728
Na       18.43238831     27.51253510     29.64707375
Na       22.94186974     -2.16823483      0.15334432
Na       22.76459122      2.35941815      9.00988770
Na       23.00287437     -4.91237545     11.52199173
Na       22.71583748      2.21111870     13.47959614
Na       23.02643394      0.13153659     21.10360336
Na       22.55946732     -0.29784179     25.33351898
Na       23.25954247     -0.11507281     29.93813705
Na       23.14473724      2.12104869      4.47299671
Na       25.22645569     -0.23746800      4.25509882
Na       22.05604362      4.41178989     11.19113827
Na       27.25030327      4.23543215     11.39839172
Na       23.19561005      4.18784904     20.38259125
Na       23.19862556      2.26423407     23.36828423
Na       23.11791420      2.45936871     27.21058655
Na       27.07367134     11.18425369      4.24559259
Na       18.62819672      8.72685337      6.87870359
Na       20.42340851      9.06238365      9.20390892
Na       25.11797333      8.62818336     18.22082329
Na       18.14970970      4.46538162     20.62596512
Na       25.17505074      8.80212498     27.39606285
Na       32.02733231     13.83309650     29.60234070
Na       20.52598953     18.54129601      4.53146887
Na       22.66150284     11.31967163      4.12091732
Na       22.98007584      8.67460537     11.33995342
Na       23.09946060     13.66537952     15.90822506
Na       22.61549568     13.52702808     20.64627647
Na       23.05068398     11.35306072     22.94208336
Na       23.18033218     13.50679684     29.67127991
Na       22.90936661     13.66877365      7.00583315
Na       23.66290092     22.59564400      7.14355183
Na       22.60379410     18.20051193     11.84966564
Na       23.07749557     18.17947960     16.35407829
Na       22.85321045     20.65275955     18.69671059
Na       18.67054749     20.70978928     27.39489174
Na       20.70956230     18.40856552     27.32577896
Na       16.07965851     22.72307396      4.05870914
Na       18.53873825     22.74839783      2.40390921
Na       23.02104187     20.56558037     14.21302986
Na       18.05764008     22.80324936     11.51929951
Na       22.57938766     23.18742561     20.59264946
Na       22.61847305     20.57134247     22.72225571
Na       18.07402611     20.30610847     32.07224655
Na       22.62303543     29.58358002      4.84538221
Na       22.98223686     27.21991730      6.94161749
Na       25.13480568     27.02071571     14.30074978
Na       20.63988304     27.36850166     18.49547005
Na       22.54460907     22.76705170     16.04708481
Na       23.33519554     29.44439316     27.58825684
Na       21.01328850     27.83334923     31.97097397
Na       27.52816963      0.15884335      2.40655327
Na       27.14678001     -2.51211882      9.33479023
Na       27.48359299      0.23145938     11.40007401
Na       27.63749123      0.06788994     15.92489815
Na       27.97684860      0.21024239     25.13369179
Na       29.67394829     -0.02074502     27.29315567
Na       25.23991203     -4.40487051     27.94427490
Na       25.20547676      4.79643822      4.79466486
Na       29.72149277      4.46731853      8.91173267
Na       27.42582703      2.12721753      8.96651077
Na       25.04574776      4.63843107     18.09923935
Na       27.22011948      6.81828880     18.33904457
Na       29.68969345      4.47657156     27.46150398
Na       27.13614082      4.56845427     29.42283440
Na       27.75987053     11.54757404      0.09563503
Na       27.16591072      6.68646288      9.11797333
Na       25.11697388     13.69940090     13.59840584
Na       27.12197685      9.02706432     15.79990005
Na       27.00863647      9.34636402     25.15044785
Na       29.62474823      9.43072224     22.96232414
Na       28.10359383     13.93663883     25.22004509
Na       24.72054100     13.88620567      0.65119267
Na       26.96630859     13.15335274      6.49920750
Na       27.78915977     13.71481705     11.23199654
Na       29.53206635     13.78887081     18.28102684
Na       25.11868668     13.72794247     22.73461151
Na       27.45565414     11.74876022     23.01318741
Na       25.06456947     13.58093834     26.83526993
Na       27.24385262     16.07743454      0.31879491
Na       24.91953659     18.66675758      4.76223946
Na       31.86777878     20.19599915      8.86591434
Na       27.50660896     18.31957626     15.91312504
Na       27.41537094     18.66939545     20.54313278
Na       27.55869293     17.52968216     24.97288513
Na       27.66536903     18.52963066     29.95439148
Na       27.59040833     20.59175682      0.29150349
Na       27.28734779     20.25256920      9.30277252
Na       27.39246368     22.37833977      7.04789782
Na       23.20020103     24.96039200     13.84533215
Na       27.64457130     22.87298965     20.65910149
Na       26.75759125     22.44988251     25.10138702
Na       27.66920280     22.25753784     30.06759453
Na       27.44207382     27.67142487      2.26379657
Na       27.32134628     27.26707840      6.90967274
Na       27.24299622     26.87413788     11.66799641
Na       29.98819923     27.36916733     17.84662056
Na       27.17230034     27.37213326     20.38541794
Na       27.66834068     29.65978813     27.44010925
Na       28.18376732     27.32637596     29.68914795
O         0.23899546     -0.04078617      4.44047880
O         0.01495764     -0.34154004      9.20899105
O        -0.01138769     -0.36935431     13.59719563
O         0.05160888     -0.04787052     18.33434296
O         0.03097820     -0.19815922     23.08154678
O         0.03424297     -0.40450865     27.68249130
O         0.02005240      0.11800980     31.91588402
O        -0.01070077      4.44607925      4.69657278
O        -0.00986152      4.06190872      9.05767727
O        -0.00882282      4.60899591     13.50685596
O        -0.08000719      4.63927412     18.37064934
O         0.00682967      4.35728598     22.79334259
O        -0.30164167      4.88968611     27.37413216
O         0.12913029      4.72283936     32.06515121
O         0.02626830      8.97725677      4.50849485
O         0.00777586      9.02276134      9.16650009
O         0.00552021      9.05687523     13.63580418
O        -0.12464678      9.27335262     18.32624054
O         0.10381246      9.21223831     23.01958084
O         0.23170981      9.35485935     27.47626305
O         0.07754571      9.12818813     32.00484467
O         0.02446572     13.64028549      4.30585241
O        -0.11505619     13.42809105      8.95400047
O        -0.03213830     13.51219463     13.38205338
O        -0.29356217     13.59001827     18.48976517
O        -0.03388621     13.60101986     22.88905907
O         0.16167885     13.85436249     27.40581322
O         0.11061452     13.70911217     31.90207481
O         0.11909179     18.18374443      4.46588707
O         0.21009357     17.99242210      8.75286293
O         0.20077628     18.04408264     13.57897282
O        -0.02908917     17.99019623     18.34751511
O         0.18839309     18.23646164     22.84160233
O         0.30095008     18.11810875     27.39309883
O        -0.06296866     18.22258759     31.97769356
O         0.31139991     22.82419205      4.59395647
O         0.25729603     22.54536629      9.08731461
O        -0.09640455     22.48992729     13.68755054
O        -0.09721403     22.75506783     18.13370132
O         0.08347104     22.85885620     22.95390511
O         0.08512066     22.63316154     27.48135185
O         0.21681462     22.86118698     32.22396088
O         0.13519414     27.50519562      4.46108770
O         0.10770448     27.11991310      9.24660492
O         0.28089601     27.16156578     13.55886650
O         0.20348309     27.01419067     18.27090263
O         0.06764328     27.40314865     22.88564682
O        -0.00334401     27.06690216     27.48056412
O         0.12591968     27.48645782     32.03810120
O         4.92052269     -0.05435373      4.55711555
O         4.67676926     -0.14326297      9.39484787
O         4.76180553     -0.35016081     14.00063133
O         4.60024691     -0.15422620     18.20680809
O         4.49389124     -0.42537126     22.90541458
O         4.64394808      0.46632758     27.55105591
O         4.87141037      0.00170980     31.89817429
O         4.69034529      4.44862938      4.71334982
O         4.64886808      4.57699490      9.21121979
O         4.38061714      4.36763859     13.82536316
O         4.62470388      4.60726309     18.23345375
O         4.67348289      4.61636877     22.83658409
O         4.74558449      4.80525684     27.45334435
O         4.54996347      4.46489048     32.10747910
O         4.86140680      8.95229912      4.41013622
O         4.50304604      9.07769775      8.99600315
O         4.68732882      9.03724480     13.61965466
O         4.72364044      9.05269051     18.55520630
O         4.70146275      9.22840500     22.91600227
O         4.60491276      9.36930943     27.47385406
O         4.86248112      8.94352341     32.05267334
O         4.51467466     13.69114399      4.32788754
O         4.57033873     13.63924026      8.99540329
O         4.64381504     13.53687859     13.76298428
O         4.66290379     13.66013622     18.17806816
O         4.50482178     13.62390041     22.79390144
O         4.71639681     13.78555679     27.28934097
O         4.79036760     13.69330120     31.74763298
O         4.66924047     17.78093719      4.55047703
O         4.83818865     17.91862488      9.17524624
O         4.71465445     18.13137436     13.79416847
O         4.26548672     17.98858452     18.21703148
O         4.56974268     18.41556549     22.68572807
O         4.79647112     18.08398247     27.39486313
O         4.86943674     17.87377357     31.91813850
O         4.79171515     22.70864677      4.30964231
O         4.78366852     22.72464180      9.10785198
O         4.63182211     22.48921776     13.55685043
O         4.62163830     22.82401848     18.15773392
O         4.82950592     22.87436295     22.79489899
O         4.71940231     22.63339233     27.12352371
O         4.46644306     22.56717491     31.68324852
O         4.75556850     27.30341530      4.57158375
O         4.57328176     27.53738213      8.94297791
O         4.68809938     27.02575493     13.59509659
O         4.76459360     27.25809288     18.27123833
O         4.51928139     27.30766106     22.68516731
O         4.44703531     27.35430527     27.56619835
O         4.58800173     27.48234367     31.74892998
O         9.44155121      0.01723219      4.69481039
O         9.16922951     -0.10942684      9.10962486
O         9.27374363     -0.13476963     13.59003544
O         9.21896076     -0.17577606     18.02135277
O         9.13065529      0.04722858     23.00387573
O         9.13666344      0.19164152     27.68127441
O         9.11193466     -0.09981938     32.01853561
O         9.11429596      4.37121010      4.79530811
O         9.09818363      4.47986460      9.26310253
O         9.19935894      4.51874685     13.96455956
O         9.29143333      4.37075663     18.23960304
O         8.89841175      4.51535320     23.06382942
O         9.08763504      4.63661861     27.39295578
O         9.18838310      4.55259657     31.92179871
O         9.44811344      9.06925392      4.51110411
O         9.17612267      9.16087627      8.96677685
O         9.30613136      9.12767506     13.58493137
O         9.25059414      8.92644310     18.59580612
O         9.36321068      9.20953560     23.19292450
O         9.04804230      9.04867744     27.64773560
O         9.31718445      9.12602043     32.14221191
O         9.29230213     13.58417988      4.61161947
O         9.19564915     13.94266987      9.09983444
O         9.31468868     13.56557846     14.03406429
O         9.17434502     13.35510063     18.41841125
O         9.39588642     13.44037819     22.81978607
O         9.31468582     13.63006115     27.09766388
O         9.00834751     13.59272099     32.04298782
O         9.29219532     18.28449059      4.63329458
O         9.21726036     18.18721008      9.11973667
O         9.28979206     18.11201859     13.42706299
O         9.42665863     18.31452751     18.35440636
O         9.04220486     18.10835266     22.70056915
O         9.21408081     18.20623207     27.34181786
O         9.36849689     18.12899208     31.89470291
O         9.25022602     22.70104218      4.67712259
O         9.40964127     22.82854080      9.30199242
O         9.44057560     22.64863396     13.68829346
O         9.13285446     22.61105728     18.37262344
O         9.04851532     22.70771408     23.09665489
O         9.18818665     22.58273888     27.57691193
O         9.33571720     22.80759621     32.10892487
O         9.21634388     27.62342262      4.87253857
O         9.19425201     27.21714211      9.18051815
O         9.07764912     27.05824471     13.59981060
O         9.08922005     27.12436867     18.43281364
O         9.33747864     27.37782860     22.69916725
O         9.00936699     27.24752808     27.16290665
O         9.39415932     27.21230125     32.02936172
O        13.89758492      0.04273406      4.93149424
O        13.77688694     -0.07122031      9.49253368
O        13.63067245     -0.26796341     13.89870930
O        13.57092667     -0.17138581     18.35480690
O        13.46658993     -0.04047174     22.97928238
O        13.72622967     -0.15382230     27.23729324
O        13.83309269      0.12049089     32.21283340
O        13.78972435      4.56353235      4.83665514
O        13.83871078      4.65543509      9.22215366
O        13.73464584      4.32983446     14.03245449
O        13.82069492      4.57351065     18.36916351
O        13.78504181      4.39446783     22.80707359
O        13.82382965      4.71447372     27.32504654
O        13.81788635      4.64229918     32.25882339
O        13.80342102      9.05751705      4.38977623
O        13.72850323      8.90224361      9.07186508
O        13.58429146      8.74512291     13.74728489
O        14.02587414      9.01768398     18.33337593
O        13.89583778      9.23789215     22.95191574
O        13.75398540      8.87268734     27.72066116
O        13.76099682      9.21334171     32.05374908
O        13.70141983     13.65059757      4.53783894
O        13.72390938     13.67479610      9.18161201
O        13.73275852     13.50269413     13.58737278
O        13.73967648     13.57305813     18.32659340
O        13.72949409     13.50379467     22.89408684
O        13.67772293     13.50115871     27.60925865
O        13.71258163     13.73707485     31.91658401
O        13.80231857     18.09485435      4.40710974
O        13.59384632     18.37768745      8.96307659
O        13.86981297     18.14429092     13.70763493
O        13.91250038     18.13125610     18.27475929
O        13.51738834     18.10713959     22.79613113
O        13.74467754     18.24928474     27.24405861
O        13.80953979     18.17354202     31.75958252
O        14.00129700     22.71978378      4.37153530
O        13.79445648     22.64159393      9.37093925
O        13.67287827     22.61773491     13.63597393
O        13.70910454     23.17543983     18.44146156
O        13.78613567     22.98168945     22.85857010
O        13.76707268     22.71923637     27.33001137
O        13.72140408     22.86638832     31.79419518
O        13.84468365     27.32927895      4.52327967
O        13.83717155     27.40572739      9.15465450
O        13.69832325     27.21516800     13.59211159
O        13.76830959     27.20060349     18.05019188
O        13.92838669     27.46599579     23.13411713
O        13.44884491     27.28968430     27.75899696
O        13.78649902     27.40313530     31.91183853
O        18.38369179     -0.31186157      4.63497639
O        18.24358177     -0.07465795      9.03973389
O        18.11761475     -0.33691081     13.73380280
O        18.11845398      0.04813303     18.36284637
O        18.29134750     -0.24997948     23.07422447
O        18.46561241     -0.09718282     27.58173943
O        18.29541016     -0.03917635     31.94968605
O        18.26366806      4.48085546      4.45022583
O        18.16917992      4.28765297      8.98009205
O        18.00797081      4.20667171     13.74917412
O        18.38555145      4.57353020     18.12860298
O        18.36612129      4.26624060     22.99903297
O        18.18952560      4.38759232     27.29756355
O        18.25006485      4.66381741     32.01075363
O        18.30983925      9.15135956      4.50238752
O        18.19715881      8.89124298      9.13924313
O        18.35904312      8.93813705     13.59335423
O        18.44478035      9.00137901     18.09985352
O        18.48108673      8.90638733     22.78600311
O        18.24042892      8.80004120     27.52048874
O        18.62252998      9.18204212     31.98146439
O        18.09773827     13.73757744      4.61580753
O        18.23918343     13.43887329      9.23579788
O        18.34135818     13.27006721     13.67358017
O        18.53063965     13.67514038     18.38220978
O        18.07216644     13.36914349     22.81007767
O        18.69449997     13.63021278     27.60464096
O        18.25032806     13.42115688     32.11298370
O        18.30245209     18.19409943      4.53731489
O        18.33868790     18.29207993      9.05630684
O        18.17622757     18.31637001     13.83884048
O        18.13274193     18.31594467     18.53629875
O        18.18185043     18.39761543     22.75870132
O        18.30617905     18.39435387     27.35623932
O        18.41419029     18.03254890     32.00809479
O        18.47962952     22.57839584      4.69931793
O        18.49997520     22.84211349      9.32675266
O        18.57049179     22.68341255     13.81548309
O        17.99159050     22.67194748     18.23020744
O        18.07166672     23.10096550     22.63372231
O        18.04022026     22.75125313     27.44059181
O        18.28008842     22.73874664     32.09148407
O        18.50127602     27.43890953      4.55403423
O        18.63948822     27.38274002      9.12823963
O        18.28785896     27.36578751     13.51025963
O        18.48623466     27.17624664     18.50456429
O        18.25101089     27.52358055     22.98044205
O        18.27798271     27.55110550     27.25162506
O        18.40712738     27.53420258     32.21088028
O        23.05639648     -0.22725409      4.55966759
O        22.92966270     -0.21384785      9.16247463
O        23.15514565     -0.29920214     13.52950001
O        22.72749138     -0.05514264     18.28873825
O        22.95549965     -0.11290497     23.25833893
O        23.06166458     -0.23172309     27.73223305
O        22.88836670     -0.00074430     32.17263412
O        23.13429642      4.65740633      4.58426285
O        22.83765030      4.58161640      9.07470894
O        22.61092949      4.23588896     13.54731274
O        22.93427658      4.45959425     18.06341362
O        22.91002846      4.44308472     22.82228661
O        22.82906723      4.46953678     27.52956581
O        22.98982048      4.44914150     31.98225594
O        22.76658630      8.95605183      4.78662443
O        22.75472069      9.06976223      9.04874611
O        22.69401550      8.71998692     13.54279613
O        22.74633598      8.95710278     18.29019928
O        23.03374863      8.67502499     22.77062988
O        23.08040047      9.16107845     27.34056282
O        23.08036613      8.97661781     32.12696075
O        22.93950844     13.38125229      4.81717300
O        22.96447372     13.56562519      9.31168461
O        22.87817383     13.65433311     13.59368896
O        22.62626457     13.77208710     18.14912796
O        22.71832466     13.67198372     22.90735054
O        22.89003372     13.85004997     27.19567108
O        22.95293427     13.54005527     31.73432541
O        22.70557594     18.34668732      4.69559288
O        22.76112747     18.19201851      9.27889538
O        22.79579163     18.24856949     14.02885628
O        22.71580887     18.16029930     18.48594666
O        22.80640221     18.12619972     23.10580444
O        22.80185890     18.46585464     27.46755981
O        22.94427299     18.14026642     31.94071198
O        23.05354309     22.88723755      4.64396667
O        22.73279762     22.64976692      9.03152275
O        23.16655922     22.44810295     13.61207485
O        22.65961266     22.74028587     18.28716087
O        22.61563873     22.78680038     22.91663361
O        22.70676613     23.03530884     27.38967896
O        22.76347351     22.77788544     31.61846161
O        22.94939613     27.26924515      4.60372400
O        23.09924698     27.28748322      9.38662052
O        22.85162544     27.20554543     13.87326908
O        22.94752312     27.51946640     18.29538536
O        22.92278481     27.30861092     22.95769691
O        22.76379013     27.38494301     27.66403198
O        23.08796692     27.31921005     32.14759827
O        27.40455246     -0.14320724      4.72361898
O        27.38822937      0.00017606      9.09817600
O        27.62105751      0.14201592     13.64180946
O        27.41775322     -0.20430195     18.34392548
O        27.54821396     -0.08435795     22.97571564
O        27.49308777     -0.15559743     27.45293045
O        27.45831490      0.33181113     32.06194305
O        27.33045387      4.50152922      4.70437241
O        27.30802536      4.47605848      9.08437252
O        27.52821922      4.52980185     13.63596249
O        27.30827904      4.20723963     18.26568031
O        27.40312767      4.36101961     22.81312561
O        27.54558563      4.70621347     27.09276581
O        27.54353333      4.70263672     32.30650330
O        27.56553459      9.00922871      4.49838638
O        27.50730705      9.00092983      9.17597580
O        27.43750763      9.03948307     13.43208218
O        27.20792961      9.23321152     18.40885544
O        27.40556145      9.38017845     22.73115158
O        27.46273804      9.15455723     27.36862564
O        27.75576019      9.22338009     31.93437958
O        27.22180939     13.58011150      4.29871464
O        27.48850250     13.40539169      9.02733707
O        27.25114059     13.73466587     13.51344299
O        27.31478500     14.10994816     18.34593010
O        27.52246666     13.90668201     22.94005585
O        27.29278374     13.78257847     27.55327225
O        27.59508705     13.72551346     32.02462769
O        27.16680717     18.16628647      4.65090561
O        27.46027374     18.08721161      9.08482075
O        27.44938660     18.01747704     13.44952488
O        27.22738838     18.30632782     18.25497246
O        27.51940918     18.46137428     22.82641602
O        27.29154396     18.19253731     27.75541115
O        27.37851906     18.29013252     32.22586823
O        27.52122879     22.80094528      4.58017731
O        27.85637283     22.50115967      9.17083931
O        27.40091896     22.75117111     13.69737339
O        27.51969719     23.03853607     18.39502144
O        27.25074196     22.72116661     22.88400841
O        27.24962997     22.54430771     27.72684479
O        27.47303200     22.86134338     32.18249512
O        27.39664841     27.45367241      4.45531034
O        27.36169052     27.10014534      9.14258957
O        27.34614182     27.36650467     13.93677807
O        27.34498024     27.32180595     18.17034721
O        27.42333984     27.05109596     22.85844803
O        27.54260063     27.47131920     27.49692726
O        27.61789131     27.31324768     31.87710190
H         2.33090043      0.96222472      2.34555984
H         1.27123117      2.66656733      1.85693741
B         2.33485270      2.19530010      2.31941223
H         2.73130751      2.57375455      3.36903000
H         3.13355398      2.70606470      1.58056045
H         3.31172633      2.85519552      7.61267471
H         3.27548456      1.99713314      6.11657715
B         2.58623123      2.02067852      7.06564045
H         2.40781856      0.84479660      7.29343176
H         1.44155180      2.37748051      6.63219118
H         2.81912661      1.31811571     11.84307384
H         1.58611906      2.92680621     11.65678787
H         2.36933589      2.21165466      9.93263531
B         2.60324621      2.36716270     11.22804356
H         3.37361288      3.10222268     11.50047779
H         2.71452451      1.57885110     14.85788441
H         1.12853897      2.20280361     15.58104801
H         2.79879594      2.91917014     16.45207977
B         2.31964898      1.89554763     15.90121841
H         2.37015820      0.90269786     16.67658615
H         2.37974477      3.55319142     20.97016335
H         2.78416348      1.69064987     21.54986382
H         2.62030196      2.00556612     19.47253227
B         2.31791592      2.41215611     20.64993286
H         1.11033845      2.27813959     20.86413002
H         2.33758545      2.37870598     23.70424461
H         3.51347256      1.87716210     24.88581467
H         1.61371005      1.66057086     25.41182709
B         2.38934994      2.40448189     25.01081085
H         2.21534467      3.40943837     25.68950462
H         1.22676671      1.75450528     29.70994186
H         2.01888037      3.54972124     30.08060265
H         3.33499217      2.34430265     29.46218300
B         2.28592825      2.30605578     30.07151031
H         2.21796370      1.97998273     31.17462540
H         1.80663633      7.05975151      1.75081611
H         2.17960668      6.48287058      3.58698940
H         3.77363038      6.27796412      2.41068864
B         2.56396961      6.38587761      2.50146627
H         1.99283683      5.21609974      2.22180414
H         3.35370421      5.70913410      6.42105103
H         3.33941460      7.65803957      6.85468864
H         1.92933130      6.76428509      7.86680746
B         2.54985595      6.66281748      6.77979755
H         1.59388709      7.11491442      6.06483603
H         1.15391827      6.80370522     11.44327831
H         2.72938538      6.97640324     12.21683884
H         2.91496301      7.63975382     10.52074051
B         2.35223770      6.86506319     11.16219807
H         2.66747189      5.70251846     10.83333302
H         2.25950050      6.17191982     17.01523399
H         0.75036579      6.99791050     16.05136490
H         2.43306017      6.58739042     15.23297882
B         1.96246576      7.07556200     16.18996429
H         2.41455674      8.14678669     16.61583710
H         1.05555010      7.13126755     20.43455315
H         2.19464254      6.70270348     22.12318230
H         2.11605453      5.65525484     20.63239861
H         2.98101997      7.45882463     20.49617958
B         2.16526699      6.74725580     20.97500420
H         2.05877471      7.16789150     26.35592651
H         3.72280955      7.45491695     25.66705894
H         2.77570724      5.95438766     24.84549141
H         2.06466651      7.84792614     24.47296333
B         2.60234880      7.05881023     25.28609657
H         2.69365191      6.96610022     28.89714813
H         0.94804144      6.51363611     29.56349182
H         2.60058236      6.56603098     30.94845200
H         1.76352489      8.20196342     29.94314575
B         2.05099154      7.03010368     29.91115952
H         3.66501975     11.26370716      2.67372322
H         2.43744230     10.97967243      0.95426637
H         2.03903389     10.14320183      2.70183539
H         1.79905105     12.09454441      2.60895991
B         2.48066092     11.18991947      2.17189217
H         3.64058518     11.56349468      6.70100594
H         1.95746624     12.24867249      6.01760530
H         2.13723612     10.12305450      6.82376289
H         2.26509762     11.47779083      8.17879486
B         2.44086337     11.31459522      6.92251873
B         2.07418585     11.37148571     11.31127548
H         1.05978930     11.70673656     11.25223160
H         2.35656190     10.31460762     10.88847542
H         2.93607235     12.04824066     10.67226887
H         2.57206988     11.35496807     12.40852261
B         2.07952380     11.33639431     15.89006329
H         0.88832581     11.57732296     15.90525723
H         2.62122679     12.53771305     15.86304665
H         2.44162154     10.86931038     16.87789154
H         2.79650688     10.90902519     15.00364685
B         2.21600103     11.17394924     20.80248451
H         1.92403126     11.06298637     19.60139847
H         1.41212881     10.55686474     21.48784637
H         3.38379192     10.89054012     20.90030479
H         1.99887395     12.25983334     21.17298126
B         2.27467632     11.57048035     25.10445023
H         2.73833275     10.86089134     26.01712608
H         1.23781633     11.98512554     25.51595688
H         3.01088881     12.51340389     24.88243866
H         2.05146337     10.93050385     24.09188461
H         1.93061614     10.36556816     29.86833954
B         2.66973710     11.31971359     29.67746925
H         3.77902055     11.14363766     30.14576721
H         2.16970325     12.43516254     30.23940468
H         2.69429493     11.51697159     28.32457352
H         1.15970051     16.42593765      2.31537557
B         2.31391335     15.86347389      1.89380097
H         3.13079119     16.58872032      2.48423266
H         2.47903299     15.81463623      0.62243587
H         2.18697596     14.74232578      2.22174191
H         2.38791704     16.60239601      6.34187460
B         1.95627320     15.52882195      6.53979158
H         2.55006528     14.92826843      7.47137356
H         2.22597003     15.00000572      5.35855103
H         0.77462661     15.77544308      6.46305752
H         2.55957532     17.15780449     11.53513622
B         2.71232510     15.93045044     11.61695194
H         3.82286787     15.81365204     11.45534992
H         2.02224445     15.27607155     10.69130421
H         2.44124722     15.47914219     12.63229561
H         2.17028165     14.71255684     16.79898071
B         2.19843721     15.45783806     15.90661526
H         2.85965991     16.63097954     15.90445328
H         1.06828606     15.62619591     15.54545307
H         2.64210820     15.01042938     14.97812366
H         3.37176108     15.48844624     21.09750175
H         1.65390134     15.06043625     20.03125954
B         2.26545429     15.88748169     20.74355507
H         1.64918900     16.36946869     21.60252953
H         2.64331555     16.84362984     20.00375366
H         2.24430728     17.04925728     25.84140396
H         1.16004825     15.62303162     24.80730247
B         2.33326697     15.99164677     25.25360107
H         3.39655447     16.21084023     24.40666962
H         2.75433850     14.95976639     25.73353577
H         2.54304028     14.35255051     29.67641258
H         3.73234200     15.91018677     29.42924309
B         2.52032924     15.61723709     29.64175987
H         1.86497056     16.15483475     28.89408112
H         2.11114764     15.98046589     30.69014931
H         3.47059870     20.67251587      2.53673387
H         1.32921684     20.62263870      2.07620931
B         2.51771712     20.09199333      1.94961691
H         2.65146947     20.10680962      0.69099176
H         2.46761584     18.94228745      2.27414560
H         3.14862347     21.30373764      6.85853910
H         2.57744837     20.17244530      5.29325819
B         2.44320178     20.30359268      6.44984865
H         2.45317197     19.25087166      7.00310087
H         1.28084719     20.64263344      6.57793045
H         2.03385067     21.59504890     11.33661175
H         2.67869544     20.32111168      9.83583355
B         2.47706771     20.37816811     11.08129787
H         3.54858661     20.22660828     11.58235741
H         2.09749436     19.28907394     11.59028053
H         2.21739054     20.61061287     14.55070591
H         3.13230228     20.66844368     16.35045242
B         2.19154024     20.32827759     15.70381546
H         1.20908856     20.78232574     16.12239647
H         2.18082809     19.07127190     15.76662445
H         1.81994343     19.34594345     20.15919113
H         3.30465269     20.42522240     20.55274200
B         2.19886041     20.46588707     20.12588120
H         2.25959802     20.80708885     18.99180984
H         1.44542110     21.39803505     20.59243965
H         2.04988503     20.07617950     25.74682617
H         3.77077293     20.37253189     24.94917297
B         2.58702278     20.63200760     24.90292549
H         2.19608474     20.51149368     23.74267960
H         2.54421163     21.92032242     24.92935944
H         1.63395190     21.15277481     30.08775139
H         2.33300471     20.05027580     28.70916367
H         2.63419151     19.24297714     30.44100189
B         2.55691814     20.35310745     29.83633423
H         3.65111947     20.57289124     29.69748116
H         3.78731346     24.75867081      1.83604455
H         2.58047938     25.12145424      3.36379766
H         1.94112802     23.93688202      1.82099926
B         2.64104581     24.93196678      2.14991665
H         2.19945073     25.83124733      1.31374717
H         2.02306938     23.66345406      6.76379871
H         3.28204656     25.03612137      7.53111744
H         1.45009947     25.71495628      7.14441204
B         2.33829021     24.89857483      6.83748865
H         2.92549682     25.33735275      5.92754078
H         3.36643505     24.21364021     10.61102676
H         2.12458420     25.53091240     10.25995731
H         2.86505580     25.76944542     12.01262379
B         2.56182408     25.00288391     11.14921093
H         1.70361769     24.28746986     11.57398796
H         2.67092276     24.75021553     14.43673325
H         2.95384884     25.64679718     16.41716576
H         3.08160472     23.88976288     16.09453392
B         2.44873762     24.70387268     15.68021679
H         1.26873219     24.65546227     16.03166008
H         1.13493073     24.52893448     20.63412476
H         3.01259065     23.93578529     20.66067314
H         2.57768226     25.87338829     20.97155762
B         2.21434903     24.78239250     20.36746597
H         2.20528865     24.97126579     19.22547722
H         1.83245623     24.30645561     25.67542076
H         3.72665405     24.85597229     25.04732132
H         2.29727554     26.37418175     24.99276161
B         2.47334647     25.09644508     24.88219070
H         2.06077075     24.75464249     23.85275650
H         0.84972245     24.55758476     29.30659294
H         1.76916337     26.10111427     29.93885231
H         2.73967028     25.13282394     28.68507195
B         2.02039814     24.96370888     29.59439850
H         2.63739538     24.22026253     30.42343712
H         2.55581284     28.96888542      2.99079370
H         3.47844744     29.76644897      1.69734597
H         2.69906402     30.94724274      2.94420624
B         2.52894187     29.87878227      2.31117392
H         1.55723548     29.65195084      1.56506681
H         2.32867885     30.00050163      5.59456158
H         2.63346124     28.30969048      6.63584042
H         2.91112399     30.31459427      7.29660559
H         1.09076846     29.67892838      7.22940063
B         2.21366334     29.47457314      6.68365240
H         1.23533583     29.13941765     11.41788673
H         2.26035023     31.00388718     11.88757992
H         3.11805916     29.46383667     12.04455280
H         2.18467760     29.93988800     10.20359135
B         2.08348632     29.89140701     11.45361614
H         2.82529902     30.73491287     15.67312050
H         1.72154224     29.24754906     14.80026340
H         3.65674424     28.95125580     15.72869682
H         1.96090233     29.19044495     16.78601837
B         2.57063365     29.50603294     15.72958565
H         1.19623137     29.57249451     19.54674339
H         2.49265742     28.39212608     20.54631042
H         2.92591858     30.38314629     20.46049881
H         1.51524377     29.91683769     21.44259453
B         2.04690623     29.56588173     20.39840317
H         3.52799034     30.12864876     24.81598091
H         2.52406573     29.78012848     26.62593079
H         1.42282140     29.79805946     25.26423836
H         2.65879536     28.21732521     25.26936913
B         2.65407586     29.54977417     25.44422913
B         2.14415288     29.87516975     29.62258911
H         2.95217609     30.41613388     30.31555367
H         1.00757122     29.76305771     30.22496605
H         2.15791512     30.18745995     28.49536705
H         2.68827081     28.75679207     29.59092522
B         6.72494459      2.19070387      2.29511857
H         7.41061831      3.24489689      1.90142155
H         7.25097084      2.13575673      3.53957534
H         5.74281216      2.59287071      2.52210975
H         6.88282537      1.14745557      1.80730259
B         6.93505764      2.13535666      6.74334764
H         5.67103910      2.19794011      7.01702404
H         7.33971214      1.40527761      5.88449526
H         7.35079288      3.23562264      6.49830389
H         7.46352434      1.88204896      7.81908417
B         6.98086357      2.21920419     11.43700314
H         8.20896435      2.40264583     11.43301392
H         6.46336603      2.62306309     12.49213028
H         6.46065712      2.83023238     10.57202816
H         6.54004717      1.08456171     11.39450264
H         7.99476480      2.89339089     16.36922073
B         6.88198280      2.45147824     16.11774635
H         7.19798708      1.71039641     15.20392132
H         6.00934505      3.19299030     15.97642326
H         6.68137169      1.72125900     17.05564690
H         6.90706491      1.57776213     19.23283005
B         6.86101437      2.14677119     20.40276909
H         7.08447838      3.31206965     20.20794296
H         7.48132515      1.53455186     21.15115356
H         5.77437687      2.10303426     20.80716133
H         7.77119780      2.37248015     24.52308273
B         6.81548786      2.23830605     25.28805733
H         5.80402565      2.77770853     24.95221329
H         7.04688501      2.73065352     26.39350128
H         6.45920086      1.08677876     25.66772652
H         8.14149094      2.73143959     29.62537956
B         6.94323730      2.50217795     29.61022949
H         6.67924309      2.38461781     28.45251083
H         6.15820217      3.03451014     30.40764427
H         6.98497391      1.34260547     30.13390923
H         5.87953711      6.89943647      1.85230362
B         6.97835922      7.31282616      2.35941029
H         7.39990902      8.44968796      1.93800974
H         7.62728167      6.26001310      1.92230713
H         6.95293999      7.01150179      3.51181817
H         5.79685259      6.19209719      6.88687563
H         7.73490381      6.23533535      5.93746614
B         6.91797543      6.84216166      6.76933384
H         6.86186361      8.12670708      6.63282871
H         7.50460386      6.93349648      7.79939079
H         8.27506447      6.63624525     11.65120506
H         6.91864443      5.61953020     12.52385139
B         7.14755678      6.45553255     11.66213989
H         6.71282864      7.31274462     12.40214348
H         6.64318848      6.22652197     10.57152748
H         6.80190897      7.73694897     15.28416348
H         7.81349754      6.39199257     16.32782936
B         6.79109287      6.87734985     16.09774971
H         5.92168331      7.28700256     16.97694778
H         6.20351839      5.79511547     15.57110214
H         7.76726103      6.00980949     20.96719360
H         7.15997648      7.97129297     21.46593475
B         6.86448860      6.96761656     20.80241776
H         6.59707832      7.21602583     19.67938423
H         5.88035393      6.52951527     21.21630096
H         6.66820621      5.57595205     24.83966255
H         5.77685261      7.28478718     25.05854988
B         6.94744539      6.64001465     25.36530304
H         6.85596323      6.69760942     26.62454414
H         7.77047396      7.33928633     24.95850945
H         6.98313522      5.69023991     29.58329391
H         7.55329084      7.09126043     30.83220863
B         6.72489643      6.84705448     29.96180916
H         6.68811989      7.61857367     28.98726845
H         5.52645969      6.86015940     30.23513222
H         6.94567394     12.13692093      3.28323770
H         7.21397495     12.14609814      1.34613121
B         7.03378916     11.37830257      2.34146690
H         8.01115799     10.48191547      2.52887154
H         5.99355221     10.72111607      2.02077913
H         8.20822811     11.65091419      6.34411430
H         7.19441366     11.93266869      7.73632717
B         7.01677656     11.38937950      6.68352413
H         6.26185942     11.91215801      5.80885839
H         7.12176323     10.05855560      6.78869820
H         7.37011385     11.35381031      9.91831303
H         7.29811096     12.58633232     11.52696419
B         6.81566238     11.55523682     11.07614708
H         5.59752703     11.56855011     11.09798050
H         7.22997332     10.53565598     11.63586807
H         6.82508183      9.93531609     15.89797401
H         5.75200224     11.31399822     15.02113438
H         7.70886278     11.75685978     15.46527100
B         6.62988806     11.17515755     15.86132908
H         6.28376961     11.47998905     16.99062347
H         7.97366619     11.52154160     20.42947769
H         6.31494379     10.90814877     19.90754318
H         6.68781662     12.92258930     20.51822853
B         6.84960032     11.64414883     20.78856468
H         6.81563187     11.31964016     21.90641022
H         7.02654457     12.78321075     25.17190361
H         5.98583412     11.08209896     25.67726707
H         7.87505388     11.06798744     25.20890617
B         6.88727236     11.58620262     25.01116753
H         6.66488266     11.52096462     23.78972435
H         7.91249084     11.26565170     30.65869713
H         7.82251215     12.47931099     28.73619652
H         6.33259583     11.64756393     29.74828529
B         7.38351107     11.55398273     29.53000832
H         7.60690546     10.45617485     28.86618996
H         5.62728357     16.42187119      2.35897374
H         7.03953171     16.04160690      3.52269149
H         7.56466532     16.86062050      1.83361709
B         6.75722647     16.06752396      2.29569173
H         6.79473734     14.95085335      1.74017012
H         5.41579247     16.25032806      7.30872583
H         7.00436020     15.74101543      8.24283028
H         7.24623203     16.44075775      6.25254440
B         6.53739643     15.83273602      7.10256910
H         6.38760567     14.74317074      6.60590315
H         8.00031662     15.09755802     11.80192947
H         7.05067539     16.83339691     10.82685471
H         6.58329296     16.11781120     12.73894310
B         6.91445684     15.74915409     11.64148235
H         6.01459980     15.24056435     11.17821312
H         7.01132774     17.04447365     16.23526955
H         6.78790712     15.43296337     15.17466831
H         5.41888142     15.97603607     16.46389580
B         6.59387636     15.97486687     16.25426865
H         7.16470146     15.35717583     17.21241570
H         7.73677969     16.24221992     19.94903374
H         5.84884119     15.57079315     20.03374290
H         6.66984463     17.20425797     20.88833427
B         6.77683353     15.94182682     20.75407219
H         7.25887203     15.33502865     21.67770195
H         6.35042524     15.34777737     23.94029808
H         6.41559649     16.48518372     25.68431664
H         7.98100901     15.37924957     25.11507797
H         7.43770361     17.05206871     24.12244415
B         6.99798679     16.03035164     24.76743317
H         6.24751616     16.34120941     30.48723030
H         6.62783718     14.98794079     29.12372589
H         7.50828123     16.75669098     29.04686928
H         8.10239410     15.74601650     30.43154144
B         7.06496382     15.87545490     29.83253479
H         6.89292192     20.42444229      0.64999944
H         8.21926403     20.02241516      1.98315716
H         6.87488413     21.40996552      2.63034391
H         6.38257790     19.42613411      2.39002824
B         7.02622461     20.34722137      1.89393580
H         7.18751955     19.58136177      6.78399038
H         5.72711325     20.66898727      6.70254946
H         7.23234558     21.56270027      7.16895342
H         6.95411205     21.00943184      5.28372812
B         6.76720428     20.67028427      6.43698597
H         7.12446070     20.57076645     10.12390327
H         6.30149603     20.74221420     11.90083694
H         7.20384264     19.03898430     11.23873615
H         8.43215466     20.44959259     11.83294392
B         7.28544855     20.19694138     11.30380058
B         6.67998600     20.22454834     15.96001148
H         7.73828363     20.82386398     16.25115967
H         6.02254963     20.83425522     15.27460670
H         7.14889383     19.34571838     15.40684319
H         6.25570345     19.73901176     16.98646927
B         7.01686192     20.49944687     20.67423058
H         7.88853502     19.71518898     20.24547577
H         5.97992611     20.10577774     20.19790459
H         7.10655355     20.46199417     21.86120605
H         7.08805418     21.68102074     20.32974243
B         6.92592144     20.58062553     25.04821396
H         7.86928892     20.22131920     25.72276688
H         6.59844065     21.67845917     25.25580597
H         7.14354086     20.42534447     23.89118385
H         5.93705940     20.07756042     25.47277832
B         7.19179630     20.48440933     29.78689766
H         6.53457975     20.08044052     28.82908440
H         8.46532249     20.33526993     29.60743141
H         7.00728321     21.62381935     30.08480072
H         6.76189804     19.88251686     30.78561783
H         6.66356564     25.26241875      3.28962779
B         6.89667654     25.19400024      2.20091438
H         8.08561611     25.31585884      1.92390037
H         6.22431803     26.06153488      1.55279469
H         6.56801939     24.12501526      1.89092529
H         7.37986755     24.46251678      7.70577908
B         7.13204336     25.35116196      6.86432695
H         7.97515965     25.61060333      6.26775646
H         6.73317099     26.55779076      7.29382563
H         6.23550558     24.92424011      6.05757666
H         5.90548420     25.14088058     11.47537899
B         6.88836479     24.50889015     11.29456615
H         7.37084150     25.03536224     12.25157642
H         7.50037146     24.73449326     10.28314495
H         6.85069513     23.31510925     11.54505825
H         6.55986500     25.50628090     16.61578178
B         7.28893328     24.84209824     15.84103775
H         6.99315834     23.67737579     15.89811897
H         8.48497677     24.69315910     15.92300510
H         7.03942728     25.30776024     14.66980553
H         7.40440226     24.03096390     20.49373055
B         7.15148640     25.18422318     20.71706772
H         5.96619940     25.20822334     21.15483093
H         6.90352774     25.77202415     19.68088531
H         7.89126062     25.98000908     21.34268761
H         5.90398073     24.38077354     25.01733398
H         7.20344210     24.60886383     26.28012466
B         6.89724731     25.00510979     25.13433266
H         7.78093052     24.65625381     24.40947533
H         6.64577341     26.30150795     25.03006172
H         6.96795607     24.73966599     31.09740829
H         7.26463842     26.12460136     29.82916451
B         6.68240309     25.05138016     30.03292084
H         7.06146097     24.10973740     29.22426033
H         5.53484488     25.40538979     29.82431793
H         8.47601223     29.92010307      2.59569359
H         6.57679653     30.50370789      2.32239151
B         7.50733852     29.49558640      2.05223703
H         7.42412710     29.45925140      0.79779893
H         6.88261414     28.46341133      2.45598507
H         7.35505438     30.21311569      8.20057106
H         7.16077280     28.53479958      7.07640362
B         7.10343599     29.76747704      7.07187033
H         5.74628544     30.07461739      6.80136490
H         7.58604527     30.42346954      6.24505520
H         5.99623156     29.36544418     10.52339077
H         7.45276976     30.48650169     11.20064449
B         6.80839968     29.52086639     11.42385292
H         6.23880434     29.49018097     12.44626617
H         7.67418575     28.74193573     11.53420448
H         7.37425137     30.31539917     15.36786461
H         6.91242123     30.11341667     17.15049553
B         7.12693596     29.55242729     16.17848206
H         6.20760155     28.90483093     15.84899712
H         8.06445312     28.90735054     16.37645340
H         5.85199547     29.77095795     19.73606491
H         7.66768646     30.24357986     20.03402901
B         6.68292761     29.77399445     20.52198792
H         6.57111311     30.52114105     21.41032219
H         7.01334476     28.65911865     21.02128983
H         8.42900181     29.67338181     24.99432373
H         7.21203423     28.04069328     24.56223488
B         7.13336658     29.29765701     24.96195412
H         6.35652685     29.55039978     25.86409950
H         6.61147833     29.80867958     23.91357613
H         7.04645395     29.94407082     28.08543968
H         7.49041796     28.84764862     29.61494637
B         6.98957014     29.93824768     29.24469757
H         7.56839037     30.83588600     29.61364937
H         5.77526283     30.09822083     29.48612022
H        12.55284977      2.75506687      2.98947477
H        10.78413200      3.25540113      2.37415576
H        11.39400482      1.36993277      3.11775970
B        11.55015087      2.37243390      2.37062526
H        11.78206635      1.88725650      1.30742037
H        12.78162193      1.87556112      7.48851109
H        11.13681984      1.18009830      7.60590076
H        11.30969238      2.10707426      5.99540186
B        11.65665531      2.16292167      7.18496227
H        11.48457241      3.26658821      7.64262009
H        11.36479092      3.67246866     11.20104885
H        11.14961910      1.91612613     10.30722713
H        10.15939808      2.57116246     11.86971474
B        11.12815857      2.57028484     11.37359238
H        11.81406689      2.04334450     12.12601376
H         9.93261051      1.92091298     15.99836731
H        11.30117321      2.36237741     17.31905174
H        11.52017212      3.03634548     15.48139572
B        11.05245590      2.14692712     16.24607277
H        11.69449329      1.12259293     15.69426823
H        11.85614872      2.82951832     19.98982430
H        11.45042515      1.43802714     21.63640022
H        10.72105217      1.25366843     19.73005486
B        11.03934574      2.07496953     20.51596642
H        10.06702423      2.63906336     21.03772354
H        10.79869652      1.11269522     25.09686279
H        11.81169510      2.29709530     24.04372787
H        11.96520710      2.58269572     25.92860794
B        11.11446190      2.39151669     25.14369202
H        10.23928547      3.09989667     25.22816277
H        13.01941395      2.09950185     29.27676201
H        11.83982372      0.91064721     29.55352592
H        11.47017956      2.33501649     28.00127983
B        11.81582069      2.07917428     29.18374825
H        11.27929592      2.77401423     30.05550766
H        11.51634884      6.81203032      0.72053552
H        11.41063404      8.05913353      2.24194336
H        12.76702213      6.61577034      2.49221015
B        11.64857101      6.80409718      2.03457236
H        10.79148006      6.12761402      2.49717450
H         9.89748383      7.22199869      6.74890995
H        11.09256363      5.62957811      7.16421080
H        11.81887722      7.73077774      7.54607725
B        11.16221905      6.86004400      6.74585867
H        11.44443417      6.94506168      5.62243700
H        12.41621399      6.58653164     11.10172558
H        11.48810863      8.10887623     11.70001888
H        10.65333748      6.78372669     10.59622192
H        10.98149490      6.49356651     12.58317566
B        11.40878296      6.99027872     11.47647667
H        12.56025600      7.16788101     16.59728241
H        11.16158581      5.94286680     16.91316605
H        10.74155140      7.61031723     16.53933144
H        11.44568729      6.63609791     14.76439190
B        11.47705078      6.83799648     16.02028656
H        10.77390957      7.08427382     20.94085884
H        12.76594734      7.22059250     21.13226128
H        11.79119968      5.38732386     21.04150391
H        11.82171249      6.82794142     19.41343880
B        11.86892891      6.57440472     20.56451225
H        11.24904919      7.92384624     24.58212090
H        12.41234970      6.08472300     24.75483131
H        11.66500187      7.24949598     26.35283089
H        10.44147491      6.17632627     25.05228043
B        11.40419006      6.88838959     25.19696999
H        11.30290031      6.46945524     28.53888702
H        12.17022038      7.45022631     29.76755142
H        10.51181126      6.94649792     30.25702286
H        11.84046745      5.37831736     30.12953377
B        11.47871017      6.52353144     29.73039627
B        11.50864410     11.59828186      2.30072618
H        11.09551811     10.87988758      3.14982581
H        10.88255882     12.71401787      2.57236552
H        12.84462929     11.60043430      2.46621943
H        11.30295944     11.44434166      1.07207334
B        11.41450024     11.52681541      6.70109415
H        11.57787228     11.29241943      5.40708113
H        11.45143414     10.35705948      7.21151400
H        12.07763767     12.15493965      7.61873531
H        10.27803230     12.14765835      6.59196186
B        11.44878578     11.52412128     11.57643318
H        10.47559738     11.25183868     10.84468079
H        12.36908340     10.76481247     11.21101379
H        11.94269562     12.65784836     11.60167694
H        11.18678379     11.30078316     12.77465534
B        10.82313633     11.12955284     16.06720924
H        11.29022598     11.21517372     14.87328053
H        11.53925037     11.65664291     16.99973297
H         9.62218857     11.40299225     16.11523819
H        10.80131626      9.93154621     16.39744759
H        11.68320560     10.48565769     21.42218971
B        11.72780037     11.56169796     20.76924324
H        12.92500591     11.62813091     21.15563011
H        10.86294460     12.33750439     21.24134636
H        11.66938496     11.27201653     19.60430717
H        11.55626678      9.89850521     25.39313889
B        11.57811451     11.21490955     25.11780739
H        12.53645325     11.75787640     25.49782372
H        10.50201511     11.61457253     25.49969101
H        11.69859505     11.10258102     23.88186073
H        12.09029770     11.97481441     30.78477478
B        11.54279613     11.44860554     29.81246567
H        12.16095257     11.81307793     28.85226250
H        10.35657310     11.93095589     29.53494263
H        11.58230782     10.19885540     29.82156181
H        11.13620567     16.99567413      2.93096852
B        11.56113148     15.91986942      2.41318583
H        11.86111450     15.22916508      3.36127782
H        12.51446724     16.35447502      1.88368499
H        10.67285728     15.49524212      1.61653507
H        12.56619263     16.29422379      6.74051857
B        11.37582397     15.99641037      6.78205347
H        10.81981373     17.00029564      6.25527191
H        11.04890156     15.90212345      7.94876003
H        11.18944645     15.02519989      6.12380362
H        11.23730183     14.75519276     11.24298859
H        11.23903465     15.78655434     12.90523529
B        11.75974560     15.80805111     11.74395943
H        13.04227066     15.78868866     11.37324619
H        11.48698616     16.73535728     11.00697803
H        10.99873066     17.06228828     15.96376514
H        11.86493111     16.04014397     17.42483521
B        11.56675816     16.01555061     16.15944862
H        10.77674294     15.04983902     16.04454231
H        12.53772259     15.93086147     15.46859169
H        12.34778881     15.32911396     19.92545128
H        10.61858654     15.86725330     20.53755188
B        11.80850220     15.94149303     20.82472229
H        11.73360252     15.33120728     21.80693817
H        12.25711823     17.04934883     20.89204216
H        10.84165287     15.33165169     24.99171829
H        12.73138809     15.60324001     25.57403946
B        11.66023254     15.95728683     25.72716904
H        11.41635990     17.10590935     25.30660820
H        11.30957127     15.81711483     26.80778503
H        11.75632095     16.86314964     29.73607635
H        11.66719723     15.20325375     30.72861099
B        11.99644279     15.73466301     29.68183517
H        11.51228905     15.12536240     28.80192757
H        13.18476772     15.77001858     29.59463120
H        10.63981342     21.01670647      1.77089405
H        11.81408978     21.16693306      3.35226750
B        11.74777126     20.55144882      2.38548183
H        11.89974689     19.38779640      2.33977461
H        12.54989910     21.27844048      1.85529935
H        10.98743248     20.44448280      5.50928783
H        11.04536247     21.41169548      7.11487818
B        11.44935894     20.42130852      6.62774944
H        10.82844639     19.44887733      6.90530729
H        12.66492081     20.26944160      6.71398115
H        13.00766468     20.59772873     11.05858040
H        11.14182186     20.88325119     10.40778732
B        11.82766819     20.41102982     11.31443405
H        11.25223064     19.23997879     11.30226612
H        11.33505726     20.59795380     12.53497505
H        12.16017532     21.53050995     15.63648605
H        12.74952221     20.35101509     16.95517731
B        11.87466908     20.45091057     16.22244453
H        10.76744366     20.48581123     16.69749451
H        11.91339874     19.49454498     15.39848232
H        11.22283936     21.27123642     20.06485367
H        11.51683903     20.65984154     21.98785210
H        12.90569973     20.11313820     20.45799065
B        11.74390602     20.42617798     20.84449387
H        11.07376862     19.51888275     20.70002174
H        11.29332924     20.40917778     26.53318024
H        11.86744785     20.87670708     24.59698105
H         9.89991951     20.96056557     25.32788658
B        10.94249630     20.32790756     25.38811111
H        10.82998180     19.17115402     25.10879707
H        11.99206638     19.90924835     28.50328827
H        11.12236977     21.58907127     29.48446655
H        12.46601677     20.61887932     30.46475601
B        11.62993336     20.46125412     29.62839127
H        10.76042557     19.84351158     30.22302628
H        11.51734543     26.49796104      2.09384513
H        12.25036812     25.11297035      3.07481289
H        11.90507221     24.78124237      1.26260829
B        11.34937668     25.26449203      2.22720480
H        10.44293404     24.81039810      2.95527005
H        10.86175823     24.94604683      5.63762712
H        12.38283062     24.21873474      6.78758097
H        10.74594402     25.53786087      7.57582712
B        11.52855110     25.16548157      6.62795973
H        12.10356522     26.16533470      6.24346447
H        11.91169930     23.90746307     11.05059719
H        10.85272408     25.57297134     11.73263741
H        12.00338650     25.62989235      9.99163723
B        11.79967022     25.10810280     11.10379505
H        12.70170689     25.36161041     11.92126560
H        11.36780071     24.53076744     14.74378777
H        10.99997520     26.08360291     15.94573879
H        12.63169289     25.14367867     16.38062286
B        11.49595261     24.92575645     15.98678017
H        10.86023331     24.09548187     16.76173401
H        10.89069366     23.74103737     20.47731209
H        10.92376804     25.74637032     20.10789299
H        12.77283859     24.97466660     20.12717628
B        11.62839603     24.78772545     20.51072693
H        11.76494884     24.96354866     21.71531677
H        12.57949066     24.50374985     25.08580971
H        10.99014950     25.68575668     24.72294617
H        11.69496250     25.24114037     26.52962112
B        11.57379913     24.87752342     25.41390419
H        10.86035728     23.85025215     25.49007416
H        12.12326717     26.19615364     29.58129692
H        10.87707901     25.21070480     30.75284576
H        11.05393410     24.54355812     28.71688461
H        12.41958237     24.43100929     29.98860550
B        11.45410252     25.23567200     29.67969131
H        11.71793556     30.05454063      1.29243350
H        11.39311886     30.48990250      2.99302316
H        11.02112198     28.65200806      2.40648150
H        12.85866070     29.16574860      2.48319674
B        11.80730534     29.59116936      2.33834934
H        11.32770348     29.74463272      8.32919598
H        11.91659832     28.65496063      6.90016079
H        10.19221115     29.56943703      6.78594685
H        12.16327572     30.58041763      6.63749361
B        11.34577847     29.66890144      7.05457687
H        12.38160992     30.03463936     11.81218147
H        10.93149471     30.80663109     11.63056564
H        11.50309944     29.35277367     10.25820923
H        10.84538174     28.79541397     12.09716797
B        11.35157299     29.71564674     11.43590355
H        10.37992573     28.68002892     16.64097977
H        12.16863251     28.75592041     15.70929909
H        10.56550503     29.61811638     14.86952591
H        11.46170139     30.32690239     16.53271675
B        11.16000748     29.32453156     15.93037224
B        11.69926834     29.16983604     20.41227341
H        11.83942318     30.38003922     20.04410934
H        10.90419579     28.70932961     19.59836388
H        12.85327435     29.10970688     20.24133682
H        11.45024395     28.90257645     21.45165062
B        11.19003868     29.43097496     25.54702950
H        10.93321514     29.22499275     24.34672546
H        10.57288551     30.14213181     26.37064362
H        11.31927204     28.33320618     25.95473099
H        12.36483192     29.82656097     25.61309814
B        11.31608009     29.59886932     29.79329491
H        12.01996326     29.51128578     28.81765175
H        12.26987171     29.32982445     30.54480934
H        10.80240345     30.76141357     30.02928925
H        10.45418549     28.86144257     29.69895363
B        16.34132004      2.15026569      2.34294486
H        15.75030136      1.54732180      3.23983741
H        17.52106857      2.45349646      2.58677673
H        16.23530197      1.56455994      1.36568201
H        15.87142754      3.27596569      2.07176018
H        15.97710896      1.33214164      6.11147261
B        16.20894432      2.32258439      6.86876917
H        17.36276817      2.63134575      6.81413746
H        15.90501499      1.88989627      8.08977509
H        15.79502392      3.46346164      6.76412249
H        16.34322929      3.14661646     11.90839195
B        16.01430893      2.05887198     11.41951656
H        17.15034103      1.55476606     11.30195332
H        15.74965668      2.14474988     10.25233078
H        15.37245846      1.41391075     12.06698227
H        15.89618969      2.12528086     17.44204903
B        15.87325382      1.90429676     16.26107407
H        15.19967651      0.93597430     15.71787739
H        16.99215126      2.04758668     15.91339493
H        15.21594524      2.90005684     15.81560230
H        15.83602905      2.33661509     21.84777260
B        15.96566582      2.07019067     20.70601082
H        15.42704964      1.06112587     20.28214073
H        17.16223335      1.78333080     20.51394653
H        15.83754635      3.00346899     19.94077682
H        16.21093559      2.62241507     24.30027008
B        15.75626373      2.16338038     25.36504555
H        16.58093071      1.23915756     25.46528816
H        14.55520630      1.97979474     25.21846771
H        15.89527035      3.08102512     26.18252754
H        16.15337944      2.63005042     30.99289322
H        15.75967026      2.94013047     29.10273552
B        16.29459953      2.12948680     29.85772896
H        17.48569870      2.05514359     29.63076591
H        15.90245152      0.94644374     29.49700546
H        17.32317352      7.26839161      2.18444896
H        16.06542969      7.71733475      3.48191071
B        16.21731758      6.97376823      2.55632472
H        15.59242535      7.28237200      1.56265140
H        16.02183342      5.93949175      3.06509137
H        15.09351635      7.27612782      6.50781298
H        15.80769062      5.48690557      6.90313244
B        16.11371040      6.63563156      6.72561455
H        16.96112823      6.42618561      5.80880594
H        16.79414749      7.19473648      7.59748602
H        16.33985138      7.40824747     10.87714767
H        16.79676628      6.38933754     12.65314960
B        16.15857887      6.39762402     11.61889458
H        14.96790504      6.13182259     11.53528500
H        16.59632874      5.66549158     10.71482754
H        15.38115406      7.03469515     14.95370388
H        15.24433804      6.26990223     16.81840706
B        16.03787613      6.36448526     15.96349621
H        16.15117264      5.26393700     15.57418442
H        17.05668640      7.04672289     16.24920464
H        16.69832611      5.62754488     20.49335670
H        17.03517914      7.58557272     20.98345566
B        16.34013557      6.77055979     20.25652885
H        16.24145508      7.14723206     19.14229393
H        15.17473412      7.18880272     20.82947159
H        15.75983620      6.69468307     26.22285080
H        17.37841606      6.80255938     25.16985512
B        16.07596397      6.73431110     24.98287201
H        15.61042309      5.70618773     24.35163879
H        15.58147812      7.70187426     24.45124245
H        15.97201824      5.21381855     29.51296043
H        15.45955276      7.15259790     29.11484146
B        16.22440147      6.42293453     29.67275429
H        15.92779636      6.61645126     31.07112503
H        17.24937248      6.97000742     29.54074478
H        16.67483330     10.78602695      2.30910945
H        16.10020256     11.58816433      3.69702768
B        15.96058178     11.67387199      2.55193448
H        16.40858459     12.64021397      1.98458314
H        15.00065136     11.32446289      1.95916414
H        17.41648674     11.07644844      6.57025194
H        15.56009960     10.72906017      6.48464823
H        15.97078037     12.78731346      6.81674910
B        16.34341240     11.55466938      6.96996784
H        16.11038780     11.24440002      8.27115440
H        15.50209332     11.17693329     10.08572292
H        15.18500900     11.82331562     11.63439369
H        17.12771225     11.07520866     11.28503895
B        15.88268280     10.92564392     11.25013161
H        15.56521511      9.74454689     11.40513802
H        15.50214672     11.40193081     17.10287285
H        15.33713341     10.99091434     15.21580505
H        17.03332710     10.46407413     16.14540672
B        16.18348122     11.30267239     16.14279556
H        16.75913811     12.39053631     16.17576408
H        15.12331581     11.69125080     20.27888870
H        15.92245579     10.02805138     20.86876106
H        16.60061264     11.96184731     21.38996506
B        16.17911148     11.20934296     20.52929878
H        16.89961052     11.25301838     19.56117249
H        16.49459457      9.95325947     25.52396965
H        17.65806770     11.53494072     25.06168938
H        15.94298077     11.74140930     26.27112770
B        16.38462448     11.16372013     25.35581017
H        15.72417831     11.36489677     24.38842583
H        15.77383709     10.14161301     30.56728745
H        15.68454075     11.08436203     28.65870857
H        17.29523468     11.41788197     29.84603500
B        16.08365440     11.06077862     29.82973862
H        15.27320957     11.91893482     30.00739670
H        16.41775894     15.47701263      3.18644881
H        16.02795029     16.97518730      2.16795158
H        14.55289268     15.85868835      2.63123345
B        15.70783806     15.81159496      2.28453565
H        15.78036118     15.16382980      1.23271394
H        16.12703514     15.64646244      5.57216740
H        15.96729755     17.30642891      6.47034025
H        17.20747948     15.49449730      7.17228365
B        16.23323059     16.02735901      6.77514410
H        15.27090073     15.44901276      7.25294256
H        16.32476997     16.24590874     12.50097466
H        16.11593628     14.49542713     11.28458691
H        16.37619972     16.44265175     10.63400269
B        15.86968899     15.70817471     11.43668938
H        14.70729637     15.71997929     11.40235138
H        16.73768616     15.35967445     16.60301971
H        15.48935032     15.19349384     14.75437641
H        14.85127926     15.92796898     16.27924919
H        16.45767784     16.90454674     15.42578506
B        15.92982006     15.86079979     15.81895638
H        16.11587524     16.70571709     21.15535927
H        16.48752022     14.77404594     20.72297287
H        14.79544163     15.50793743     20.27535057
H        16.03753281     16.26070404     19.34122658
B        15.88496685     15.76287365     20.40672874
H        16.61606216     16.89551163     24.72487450
H        14.84046936     15.95886230     25.29044914
H        16.61980820     15.19119835     24.55272865
H        16.41959953     15.63494110     26.36645699
B        16.06036758     15.85248184     25.25417137
H        16.58223152     16.63450050     28.42648697
H        15.92495537     14.81168842     29.15214348
H        17.73427773     15.83250141     29.51529503
H        15.91003036     16.37134933     30.36711502
B        16.38755226     15.91131115     29.34104919
H        15.22555256     21.18864632      1.93411279
H        17.30655670     20.96835136      2.15605068
H        15.69143200     20.73053932      3.58701491
H        15.96526146     19.39867020      2.02376533
B        16.13224792     20.52561951      2.38910913
B        16.46056175     20.65810966      7.05776167
H        16.23768806     21.73140335      6.76555538
H        17.48656464     20.52086639      6.79370928
H        16.38636017     20.59610558      8.33659649
H        15.76743126     20.15890694      6.24753952
B        16.40475655     20.25856781     11.62085438
H        15.83934593     21.12723732     11.03299141
H        15.97152615     19.27101135     11.12733269
H        17.59625435     20.42599487     11.82904243
H        15.87100887     20.49955559     12.62197399
B        16.02378654     20.52635002     15.92870808
H        16.82556915     20.95413589     16.76615143
H        16.29046822     21.04134750     14.91073322
H        15.83891201     19.30482864     16.09902191
H        15.00549412     20.94121933     16.32621384
B        16.00108528     20.33177757     21.06363106
H        17.07203484     20.63440895     20.78656769
H        15.70226765     19.23071861     20.64279556
H        15.53285599     20.47834778     22.14182281
H        15.45725727     21.22180748     20.27519608
H        16.76147652     20.77508163     24.42114830
B        15.90641880     20.56367302     25.32335663
H        16.09305382     21.27757072     26.21427917
H        15.68442535     19.42917252     25.59860039
H        14.75303268     20.82094574     24.74845886
H        15.32964706     19.78732300     30.77835274
B        15.86642170     20.35869598     29.80124664
H        16.35905075     21.30087471     30.31853104
H        14.86724091     20.61779594     29.01561165
H        16.62466240     19.61486816     29.41866493
H        16.94305611     24.16241646      2.30760193
B        15.99118519     24.87060738      2.17529058
H        15.43181515     24.37222862      1.24341226
H        16.61411285     25.89120674      2.00847912
H        15.16611576     24.94037628      3.07905698
H        16.88259697     24.64307213      6.12488985
B        16.05929565     25.31274605      6.65080500
H        14.83699989     25.16780281      6.66518164
H        16.57988739     26.49292946      6.48827791
H        16.31374550     25.05703354      7.89998960
H        15.06111908     24.97452354     10.74420738
B        16.17868233     24.91264343     11.21356964
H        16.15302658     24.24491310     12.18694592
H        16.47540092     26.08904839     11.47348118
H        16.84754372     24.44792747     10.36640072
H        15.86152840     25.20186806     14.54060078
H        15.86267471     23.55906487     15.53233719
B        15.97539330     24.78764534     15.64138412
H        17.17999458     25.23982811     15.92730999
H        15.09752560     25.11011314     16.44280624
H        16.02320671     25.89388847     21.80363083
H        17.34403419     25.28544617     20.50860023
B        16.11639595     25.37378693     20.71657372
H        15.63550472     24.25220680     20.66026306
H        15.73966980     26.15742874     19.97438049
H        15.65345669     25.75003815     25.93799782
H        17.11498451     25.12261581     24.73977280
B        15.96215916     25.00689697     25.03744125
H        15.86374855     23.75815010     25.37231827
H        15.13821316     25.43835258     24.24491119
H        15.57524586     26.83208656     29.99800110
H        15.29382992     24.78874397     30.21750259
B        16.09360313     25.75943565     29.68805122
H        15.93937969     25.82039833     28.43536186
H        17.21404648     25.77696419     30.09311104
H        16.78605080     29.44139862      2.93731546
H        15.46464634     30.75043678      2.13113260
B        15.80304432     29.59577560      2.32868695
H        15.68898869     28.82846832      1.41013372
H        15.12459373     29.08449364      3.08981371
H        16.08097839     28.85463715      7.41849566
H        16.48719597     30.89667320      6.82068300
B        16.50372887     29.65890884      6.61313343
H        17.60255432     29.15967941      6.57996464
H        16.03688049     29.45782280      5.48136044
H        16.67947388     29.13194656     12.23038292
H        16.01320648     29.19552803     10.37103271
B        15.83135891     29.68058777     11.47751427
H        14.76595306     29.32832718     11.69087219
H        16.00208664     30.83759308     11.31606102
H        16.77342987     29.00687981     16.01234818
H        15.82796574     29.94921875     17.79815483
B        15.83747482     29.82820892     16.48672295
H        16.19989586     31.00148010     15.94302464
H        14.80796051     29.60105896     15.99655628
H        16.89010239     29.08719254     19.84845161
H        16.76532173     30.42652321     21.34270096
B        16.20799255     29.60900497     20.63839912
H        15.25520706     30.38528824     20.08838844
H        15.64543056     28.92386818     21.46007729
H        15.76234055     29.70863342     23.97578049
H        16.70088577     30.90997314     25.55354309
H        16.90974236     28.97618484     25.73853302
B        16.14972496     29.83878899     25.21817017
H        15.06454849     29.65699959     25.81464577
H        17.04604149     29.51226997     29.19147682
H        15.75542355     30.73263168     29.20410347
H        16.20707893     29.58470154     31.03005600
B        16.02277756     29.58873558     29.75488663
H        15.22187138     28.92411041     29.25276566
H        19.66239357      1.58926642      2.06359529
H        21.45185471      1.85231483      1.43371522
H        20.96784210      2.01584315      3.53489542
B        20.59819794      2.30411768      2.31167078
H        20.45643616      3.50169015      2.04506373
H        21.30699348      1.61073315      5.85365963
H        19.80991364      2.78482032      6.33992910
H        21.43505478      2.95682168      7.27216530
B        20.76093102      2.19417167      6.75551367
H        20.15138435      1.26477432      7.36181974
H        19.86765099      2.43419242     10.71073532
H        20.34501076      1.87607300     12.64689159
H        21.87267494      2.07470179     11.40564823
B        20.64726067      1.87336898     11.46638966
H        20.67237473      0.65746981     11.21753120
H        21.02296638      1.46009338     16.67139244
H        20.60921860      3.48336244     16.37768555
H        19.27150536      1.98826253     16.18278885
B        20.37103653      2.27171206     16.04325676
H        20.53338814      1.92662084     14.81005764
H        19.84913063      2.56270480     20.12579346
H        20.84751892      0.60647988     20.58275604
H        20.39862442      2.11115646     22.03051758
B        20.58639145      1.86745572     20.83047867
H        21.63552475      2.34220362     20.74890327
H        20.33077049      3.58855963     25.07283783
H        20.25992775      2.36575389     26.74576187
H        21.53545761      1.93313062     25.12180519
B        20.45094872      2.37659431     25.56345940
H        19.51959801      1.75397539     25.06123734
H        19.97895050      1.12173879     29.18550491
H        20.63302612      2.40376544     30.87366867
H        20.70998001      3.06562996     29.00752258
B        20.79902840      2.10535455     29.74713516
H        21.97335243      1.91977072     29.50689888
H        21.15348625      8.11540031      2.19973516
H        20.48097610      6.83045959      3.53933334
H        19.55094719      7.11532402      1.51473081
H        21.29173851      6.11447668      1.89185643
B        20.49724960      7.10682535      2.27992010
H        19.84922218      5.99181080      7.23063564
H        20.44624329      6.84660816      5.50525665
H        20.73602676      7.86092281      7.50061941
H        21.53965378      6.14107704      6.87868547
B        20.52713394      6.83653879      6.73688030
H        19.94364929      5.65186024     11.93452740
H        20.07516861      7.63377428     11.61231804
H        21.73164368      6.53755617     11.59882355
H        20.42299271      6.33894157      9.98539829
B        20.53235626      6.55455542     11.20948315
H        22.01584816      6.81616163     15.81780529
H        20.16078377      6.13847542     15.44668865
H        20.51000023      6.71389627     17.20874977
H        20.50660133      7.98366833     15.41971874
B        20.84864998      6.92895985     16.06182861
H        19.69847488      6.37611341     19.76140594
H        20.54986382      8.15903282     20.79737282
H        21.06090927      6.24293137     21.28417015
H        21.59778214      6.62505007     19.53188515
B        20.70163536      6.88977289     20.32125854
B        21.03233337      6.93890524     25.13258553
H        20.92532730      6.08269310     26.00137901
H        20.67201614      8.10400677     25.47730637
H        22.16773415      6.95108557     24.64163017
H        20.25407410      6.46466064     24.22240067
B        20.51125908      6.57147169     29.89807510
H        21.74582100      6.65294313     29.54702568
H        19.84683609      7.15163469     29.23347473
H        20.31534386      5.41044331     29.98172379
H        20.14136887      6.75436497     31.02936172
B        20.43137550     11.23365402      2.48172092
H        20.57717896     11.07811832      3.60864711
H        21.28919792     11.78644657      1.65018833
H        19.96669006     10.18595505      2.04060483
H        19.72739410     12.23689651      2.52163267
B        20.26500893     11.42324734      6.89993477
H        19.04798889     11.31072807      6.91026258
H        20.90582657     11.43819523      7.97097301
H        20.93455696     10.72072983      6.11268139
H        20.63168907     12.47894764      6.43593407
H        20.40311432     11.30679989     12.75215626
B        20.96849823     11.14205360     11.56004429
H        20.98157883     10.04245090     10.93360329
H        22.21635628     11.39595604     11.66328621
H        20.25158691     11.67025280     10.80715847
H        20.21230125     10.44890118     16.88344765
B        20.62169838     11.25401878     16.00572395
H        20.15591431     11.12550735     14.95113277
H        21.90038681     11.38447857     16.02099419
H        20.29671860     12.33294106     16.25071526
H        20.77065086     10.73283386     22.19443703
B        20.79184914     11.28968430     21.16259766
H        19.85335732     10.99173546     20.43917656
H        21.89780998     11.27245140     20.33052254
H        20.74489212     12.57808018     21.15359116
H        20.11701584     10.47317982     24.68133736
B        20.62967300     11.31007671     25.53115463
H        21.82608986     11.35969257     24.92983437
H        20.51944160     10.95425320     26.59937859
H        20.21996689     12.56903934     25.32001877
H        20.77549934     11.47282124     30.97029877
B        20.48907280     11.25284672     29.62994957
H        21.37776947     10.78234673     29.12732124
H        20.57715034     12.38802719     29.23686981
H        19.39548302     10.78058147     29.53050995
H        20.11026192     16.36788750      3.33173990
H        21.26859474     17.11119843      1.93438339
B        20.92863655     16.06491280      2.52449083
H        22.01750565     15.44672298      2.91664219
H        20.41048622     15.23644352      1.61229312
H        20.97904778     14.76299000      6.34556627
H        20.58333969     15.76498222      8.05745602
B        21.12360764     15.98481560      6.99817657
H        22.23581886     16.32392883      7.04838419
H        20.54332924     16.91910934      6.48766899
H        20.14963150     15.36383724     10.36004543
H        19.33775330     15.89019585     12.05461025
B        20.39213181     15.55794716     11.57083035
H        20.68098068     14.63064384     12.30241871
H        21.25864983     16.33618736     11.65656281
H        20.52795792     14.49577999     16.03269196
H        21.39726257     16.11446953     16.13317108
B        20.40822029     15.60521793     15.55940723
H        20.44148064     15.47973347     14.36311340
H        19.43021011     16.22539330     15.95891666
H        20.17309761     16.27147102     21.79782677
H        20.10474586     16.44447899     19.83169365
B        20.52936935     15.82711124     20.69986534
H        21.73487473     15.82333946     20.34693336
H        20.10422897     14.68933296     20.77086258
H        20.47849846     16.53327751     24.13509369
H        20.45525932     15.22624111     25.71096230
B        19.92655945     16.12829208     25.07795906
H        19.88285637     17.23792839     25.83501816
H        18.54642105     16.03618813     24.71926117
H        20.30048370     16.49381065     30.66806984
H        19.89920235     14.84748840     29.49880600
B        20.69409752     15.86205864     29.67300415
H        20.63782501     16.38624001     28.63067818
H        21.87614632     15.60584164     29.69002533
H        21.15522957     19.46833420      2.76620960
H        20.73360062     21.47688293      3.10685420
B        20.65790367     20.38570786      2.24762630
H        21.00457954     20.72487068      1.17260230
H        19.43933868     20.26288795      2.21580172
H        20.40221596     20.77732468      5.59125662
H        21.10801697     19.40824699      6.79088163
B        20.65996361     20.43617630      6.68776226
H        21.39868164     21.40373039      7.04526711
H        19.61614037     20.44820976      7.34866714
H        21.87376595     20.01627922     11.18515301
H        20.46142197     20.09562683     10.13495541
H        19.69182014     20.73685265     11.97496510
B        20.72100449     20.11458778     11.32163239
H        20.49564934     18.89006424     11.60168076
H        20.09996796     21.35322762     16.47911263
H        21.78558159     20.25222588     16.30789566
H        20.45729828     20.71096039     14.72733688
B        20.65861320     20.38650131     15.96245766
H        19.97002983     19.40743256     15.90524292
H        20.19549942     20.65944099     19.34031677
H        19.49700546     20.68760300     21.30878258
H        21.43364525     21.36189079     20.75680542
B        20.47506523     20.64548683     20.56364441
H        20.84990311     19.51967812     20.73559380
H        20.16114616     21.37389946     24.08708954
H        20.19697571     21.72319603     25.79541969
H        21.60256386     20.43212318     24.81827164
B        20.52288818     20.87850380     25.01008797
H        19.85673714     19.92197037     25.14562988
H        19.76239777     19.46010780     29.80964851
H        20.51703072     20.74124718     28.31621361
H        21.77594376     20.25042915     29.96554375
B        20.55404091     20.49423409     29.59350777
H        19.92884064     21.51296425     30.18427086
H        20.76733208     24.71492195      3.49557900
H        21.27770996     24.73652077      1.69563019
H        20.64584160     26.33574486      2.68672204
B        20.43617249     25.19617271      2.48002672
H        19.25927353     25.06692696      2.27063847
H        20.34335709     26.16842079      7.57271242
H        21.45584679     25.33644295      6.22381878
H        19.78028488     24.54053116      6.37967777
B        20.74619865     25.08061790      7.12495184
H        21.21171570     24.29492760      7.92313623
H        20.82444763     24.43259048     10.68453789
H        21.59752083     25.27011871     12.29179573
H        19.58413696     25.38749886     12.06656361
B        20.61116982     25.29028893     11.47021103
H        20.73767853     26.26406288     10.87309647
H        20.58965874     23.83950424     16.32225800
H        19.71935081     25.45918655     15.49952602
H        21.19324303     24.57723808     14.77494717
B        20.80078506     24.93521690     15.86641407
H        21.67248535     25.40868950     16.43998718
H        19.45903206     24.78943443     19.85318947
H        20.33027267     24.84890938     21.53059006
H        21.45677948     24.62542343     19.87798500
H        20.72847557     26.30815697     20.10045624
B        20.55825996     25.15121841     20.40302467
H        20.29039955     26.03690529     24.61084366
H        21.79950333     25.21196747     25.64517593
H        20.10255623     25.17766190     26.45819473
H        20.07352829     23.97188187     25.02426910
B        20.60075951     25.13085365     25.43234634
H        21.90634346     24.74239731     29.44352150
H        20.43244171     26.30404663     29.31361961
H        20.07775879     24.28765488     28.85895729
H        20.33116913     24.98567009     30.73703003
B        20.72912788     25.16132355     29.55539703
H        19.90752029     29.02873802      1.57013106
H        20.23307037     30.11767006      3.18050790
H        21.67599678     29.02073097      2.50564003
H        20.88532639     30.60434532      1.44909000
B        20.76868057     29.70246696      2.28494549
H        21.15059853     30.88151932      6.95386457
H        20.18569374     29.29376221      5.85844755
H        21.65306473     28.89378738      7.13871336
H        19.91683006     29.45207596      7.72210503
B        20.66958618     29.62467194      6.86609411
B        20.35988808     29.60588837     11.65633774
H        20.72906494     30.78558159     11.68463230
H        21.56218910     29.11016273     11.85247993
H        19.80711174     29.22480583     12.59089279
H        20.04912186     29.36953545     10.56604004
B        20.69199753     30.16019058     16.27985954
H        21.67089844     29.58624840     15.77756596
H        20.71854401     31.28145981     15.78940201
H        19.72230911     29.66412163     16.13812447
H        21.17329597     29.96308708     17.35613441
B        20.60704803     29.45198631     20.87990761
H        19.97522926     29.93193436     21.76938057
H        20.54538727     28.17978668     20.94188118
H        20.17695808     29.88614273     19.84452438
H        21.83493042     29.68256187     21.06449890
B        20.68027496     29.73376083     25.17807388
H        19.47609329     29.72680855     25.23169136
H        21.30075264     29.96333122     26.24460220
H        21.17251968     28.60151482     24.84632301
H        20.94734383     30.47771263     24.27769661
H        21.76277924     30.29428864     29.24601936
B        20.97655869     29.64260674     29.96627808
H        20.53379822     30.06101227     30.99949074
H        21.52434349     28.48309326     30.11865234
H        19.79371071     29.49237633     29.34681702
H        24.68397713      3.41009188      2.59470057
B        24.74978638      2.25067353      2.35804987
H        23.53280258      1.82378554      2.32140923
H        25.49716568      1.59149241      3.03267860
H        25.20696259      1.93020701      1.13376439
H        25.96542168      2.41387796      7.68597698
B        25.04793167      2.05293298      7.04730177
H        25.01540947      0.78402323      6.89534473
H        25.20638084      2.49407411      5.90764523
H        24.13681984      2.77168036      7.46439695
H        23.88073921      2.51109743     11.33336639
B        25.00562286      2.17806888     11.18251801
H        24.97485733      0.85697573     11.00558090
H        25.68994904      2.48118687     12.20599365
H        25.46760941      2.64390063     10.20442486
H        24.77972984      2.40060806     14.89091301
B        25.24987411      2.01336122     16.03021431
H        24.63410378      2.55642700     17.04708099
H        26.23111153      2.57944822     15.77106762
H        25.39460182      0.76545173     16.27886581
H        25.33060837      3.41837740     20.15187645
H        24.54826355      1.98169959     19.43933487
B        25.19694519      2.20039940     20.37377357
H        26.25917435      1.66795123     20.45347214
H        24.53446770      2.09455132     21.44966507
H        26.14431953      2.02839780     25.17603493
H        24.09697914      1.93055248     25.17476082
B        25.11338043      2.51766038     25.53801727
H        24.99947739      2.61791778     26.81529045
H        25.05272102      3.72123528     24.96476364
H        26.69539833      2.05377269     29.15492058
H        24.70541573      2.59624338     28.89095688
B        25.57206154      2.37410808     29.63323975
H        25.18911362      1.33080184     30.12225151
H        25.78607941      3.28533411     30.30191803
H        25.46538925      5.46214056      2.91827202
H        24.47397232      6.30608368      1.47810686
B        25.32237816      6.61934137      2.27006721
H        24.69140816      7.33069611      3.20639539
H        26.24961090      7.50142813      1.89393616
H        25.51823997      5.79164028      6.63949013
H        25.46455765      6.96509886      8.15287685
B        25.09160423      6.85741282      7.05105686
H        25.93307877      7.53040171      6.34406710
H        23.96832085      7.13532972      6.58692217
H        25.37508392      7.59403753     11.96925926
H        26.20648003      6.13160133     10.91973209
B        25.19376564      6.71513033     11.15426636
H        24.34525490      5.95646048     11.57097340
H        24.74283600      7.11957979      9.97960949
H        25.38711929      6.70256948     17.02099228
H        23.85135269      6.62104034     15.73710060
B        24.99757576      6.51158571     15.77972507
H        25.47854233      7.38526773     15.18849468
H        25.45046616      5.39142942     15.35733414
H        26.03007126      7.33506680     20.86196709
H        24.26749802      6.33896065     21.29365921
B        25.33600807      6.42835808     20.64647484
H        25.20325089      6.75861692     19.46254730
H        25.83848572      5.30486202     20.88747025
H        26.22707558      6.99010277     26.31730270
H        26.12224770      6.04073286     24.55873108
B        25.52196503      6.88277483     25.25996399
H        24.43963242      6.58719301     25.49771118
H        25.35826683      7.90274286     24.62125397
H        24.70823097      7.41069651     30.27560616
H        25.00214577      6.73246765     28.54817390
H        25.27832222      5.48067474     30.16480064
B        25.43337822      6.58895254     29.76679802
H        26.60863113      6.85224819     29.84826088
H        25.14452744     11.27511501      3.62595224
H        23.87869644     11.38533974      2.06900811
H        25.64618492     10.43444729      2.01164174
B        25.05135155     11.36178589      2.49469590
H        25.72117615     12.34673500      2.02276874
H        24.97110367     11.90101814      8.14569378
H        26.50729752     10.88283634      7.26156521
H        25.02681923     11.88183117      6.23551273
B        25.31721687     11.23314953      7.17603445
H        24.64761543     10.16997433      7.06565428
H        25.97620010     10.75340557     10.79642105
H        24.56818962     12.24993420     10.71468353
H        25.24616432     11.59547520     12.57864189
B        24.96160126     11.25584507     11.43340206
H        24.04960442     10.45481873     11.37168694
H        25.48691559     12.27592278     14.83625889
H        25.54681015     12.03915119     16.67953873
H        25.09592438     10.36394978     15.52773571
B        25.07361221     11.55668449     15.72747231
H        23.91881180     11.96603012     15.83559704
H        24.38930511     12.62062263     19.70164871
H        23.99651527     11.06573105     20.74957275
H        25.74018478     12.01415253     21.31146622
B        24.94005966     11.67724228     20.43057442
H        25.73026657     11.09235191     19.71795464
H        25.46644020     10.64784050     26.07199287
H        24.41270638     11.95404720     24.93821907
H        25.42423058     10.44784260     24.07964134
B        25.41386604     11.23587132     25.01108170
H        26.33690453     11.94279766     24.89585304
H        26.28246307     11.02282238     29.33680725
H        24.65959549     10.00954723     29.46763802
H        25.09269333     12.21224213     29.19503021
B        25.15887260     11.13717270     29.73744392
H        25.31265831     11.25613403     30.91577530
H        24.47696114     15.96293926      1.49805200
H        24.84590912     15.48534584      3.52551103
H        25.35598755     17.44085312      2.73298717
B        25.16068840     16.12341690      2.53427672
H        26.38297272     16.01074409      2.24562740
H        26.16436195     15.97753525      6.22794771
H        24.41738510     16.16143990      5.97714472
H        24.91232681     14.25472927      6.42249107
H        24.96384811     15.84258556      7.86683846
B        25.24055672     15.42765331      6.70064831
H        23.66168594     15.83651924     11.50331306
H        25.58443642     15.70101452     11.91001797
H        25.35910797     15.55301189     10.30850315
H        24.83431816     17.36767006     11.17807388
B        24.79064369     16.08147812     11.20048714
H        26.15487862     15.79578590     16.48092270
H        25.16716385     15.66063881     15.07780838
H        24.30635071     15.50149059     16.90005875
H        25.26548195     17.17957878     16.17482758
B        25.12326241     16.03388596     16.10306931
H        26.30784988     16.46957779     20.39293671
H        25.19249344     14.78085423     20.83583069
H        25.16635895     16.08411980     22.09187317
H        24.16606522     16.10100937     20.38746262
B        25.21799660     15.94979954     20.85243034
H        25.91596794     15.56107044     25.76335716
H        25.59280586     15.44719791     23.97071266
H        24.12589073     15.53111458     25.44290924
H        25.29479027     17.18423080     25.03518486
B        25.15109062     15.99376202     24.86892891
B        25.02731323     15.93886185     30.14145088
H        25.64924240     15.50459862     29.20249748
H        25.63161659     16.87352562     30.43457794
H        23.85556793     15.95725060     29.83493805
H        25.20920944     15.02467155     31.12330818
B        25.26909256     20.67569923      2.45887995
H        25.45118332     19.63739014      1.79039586
H        24.54915237     21.33635902      1.78705943
H        24.71952820     20.43298149      3.53653407
H        26.30133629     21.41524696      2.71303630
B        25.23705482     20.49014664      6.73938084
H        23.98428917     20.37502670      6.84762383
H        25.65589333     19.44040871      7.25865793
H        25.66656685     20.67926216      5.51871777
H        25.68054581     21.41708946      7.34126472
B        25.16618729     20.64991951     11.41832447
H        25.29343796     19.48792267     11.42668056
H        25.87835884     21.39897919     12.22581482
H        25.70012283     21.08250618     10.31864452
H        23.93995667     20.78742599     11.35168839
H        25.05316734     19.40941048     15.12735653
B        25.19901276     20.39645386     15.87072563
H        26.42173767     20.44756889     16.06644058
H        24.58594513     20.35079002     17.05411720
H        24.77638817     21.43857574     15.39728928
H        24.38608742     21.74118805     20.68471718
B        25.09342575     20.77847099     20.33349991
H        26.26600647     20.96730042     20.82704544
H        25.30950165     20.70065880     19.16142845
H        24.47899628     19.83714867     20.76753807
H        24.56849861     21.72795868     25.54295921
B        24.83981895     20.64185143     25.12860107
H        24.00343895     19.74306297     25.19097328
H        26.10069084     20.25342751     25.48972893
H        25.03036690     20.86517334     23.88164139
H        24.16255569     19.95297623     30.27836037
B        24.80793571     20.78574371     29.66821671
H        25.90257835     20.84277725     30.29046822
H        24.41703415     21.87067986     29.37484741
H        25.06679344     19.86029625     28.67290497
H        25.31958771     23.83586502      2.29333234
B        24.82955551     24.96885490      2.52630663
H        23.68947983     24.90531349      2.20076966
H        25.32973099     25.77678871      1.71223128
H        24.96211052     25.44084930      3.70897341
H        24.88274574     24.49637413      5.92712736
H        25.19422531     24.27757072      8.03686333
B        25.27390099     24.97410965      7.01870155
H        26.38019180     24.68315697      6.73873663
H        25.14788055     26.17844200      7.33822870
H        25.23855209     23.71270752     11.10465813
H        26.13992882     25.36281395     11.56188393
B        25.05509377     24.83502197     11.57401562
H        24.21812057     25.61805344     11.00559139
H        24.61186218     24.93062019     12.62550640
H        25.79793358     24.41035080     14.94706821
H        25.09980774     24.06080055     16.62301064
B        25.27818871     24.93308258     15.99235344
H        26.06488419     25.66996956     16.37278557
H        24.19861603     25.47153664     15.68059063
H        23.76713562     25.25293732     19.98649216
H        25.75028038     25.83809662     19.76368141
B        24.85478210     25.23488808     20.46427155
H        24.90059280     25.56249809     21.69816780
H        25.21891594     24.10508728     20.70946312
H        26.56233788     24.76209068     25.03977585
H        24.79820824     24.02872276     24.72484970
B        25.40401268     24.95923424     25.32277298
H        25.36067581     24.88012505     26.52539825
H        25.04149246     26.04588699     24.77905273
H        24.09175873     24.92527199     29.30722046
H        25.58997536     26.20177078     29.76194191
B        25.08101273     25.08989334     30.06960487
H        24.56400490     25.25551987     31.18315887
H        25.87581062     24.22745705     30.08275795
H        25.25112534     28.97064209      1.30495405
H        26.09138489     30.63449097      2.40677881
B        25.33639336     29.54206467      2.32387829
H        24.31168556     30.03939247      2.78109264
H        25.75328445     28.78376961      3.21338511
H        24.76980782     30.50649452      6.32548428
H        24.79146576     28.67731857      6.47298479
B        25.18236542     29.67676163      7.08569527
H        26.51225281     29.65524673      7.07756901
H        24.78256989     29.81116676      8.18894005
H        26.99100494     29.18728065     11.84542847
H        25.49264908     28.22341347     11.07658291
B        25.68833351     29.36837387     11.68694019
H        25.04501915     29.44114494     12.77566051
H        25.47346878     30.22328377     10.89863491
H        24.25448799     29.69118690     15.84321880
H        25.89214516     28.51874733     16.16937065
H        24.99909592     29.74814606     17.61567879
B        25.35147285     29.50234604     16.36382103
H        25.84591484     30.54266548     16.03213882
H        23.90156174     29.75590324     20.77818489
H        25.58446884     29.22190094     19.81958389
H        25.77308083     29.61608696     21.79134369
B        25.13506317     29.90253258     20.80193710
H        25.28872681     31.11329651     20.45239639
H        26.46223068     29.88909149     25.36577606
H        24.89139748     29.04754257     26.20677757
H        24.62011147     29.26376724     24.36102676
B        25.29575348     29.66699600     25.26546478
H        24.83336830     30.85204506     25.43328857
H        24.87833977     29.30957413     30.33209991
H        25.42803001     31.24333191     29.88687515
H        25.38523865     29.80068970     28.48249817
B        25.54037285     30.04203987     29.69705963
H        26.80571175     29.77274704     29.81764030
H        29.47102928      2.51719570      3.88569760
H        30.05782127      3.54877639      2.34500432
H        28.39851761      2.29497004      2.17944288
B        29.52804375      2.41396070      2.67641687
H        30.28622246      1.42628121      2.49276519
H        28.28983688      1.89283359      6.88676691
H        29.95141220      2.29888582      8.06675148
H        30.16103172      2.53259754      6.18548393
B        29.60820389      1.87327337      7.00136995
H        29.80025673      0.69757885      6.65039110
H        29.93341827      1.37420201     12.13850117
H        28.21771240      2.18701887     11.39102936
H        29.84123421      2.01451302     10.11598396
B        29.40906143      2.37195373     11.32799149
H        29.55774689      3.58938599     11.53365326
H        29.19044685      1.39927530     16.66935158
H        29.55121422      1.96114469     14.86318111
H        31.07684517      1.18770039     16.14773750
B        30.09309387      1.85481203     16.00899696
H        30.50315094      2.95360374     16.24695015
H        29.97020912      1.95808673     19.36680222
H        30.60046005      1.45755208     21.16728020
H        28.85621834      1.78421640     20.83115005
B        29.99412346      2.19075513     20.51564026
H        30.33279228      3.32276487     20.60537338
H        29.08753204      1.84553683     25.48934746
H        31.08101654      2.11454868     25.03978539
H        29.65242386      2.19925380     23.69993401
H        30.12642288      3.50023007     25.23588371
B        29.98318100      2.40279317     24.85339737
H        29.78442764      2.14442277     31.06463051
H        29.73998451      3.73046565     29.97752762
H        30.92832184      2.16480470     29.27150154
H        29.00063324      1.79004502     29.27266312
B        29.90652084      2.53242254     29.86898994
H        30.94104767      6.87598753      2.67180967
H        29.64483833      7.88014936      1.61371791
H        29.57521057      6.00735140      1.45596218
H        29.26198196      6.87110424      3.27412677
B        29.90517616      6.87679863      2.16284418
H        29.31481361      5.84206057      7.54001474
H        30.89260674      6.57721901      6.81007481
H        29.71096039      6.60714293      5.36645174
H        29.33899879      7.71547699      7.06667566
B        29.63556290      6.64211416      6.68668890
H        28.82300949      6.47321177     12.00772858
H        29.85001183      8.35640621     11.39931965
H        30.71744347      6.63095951     12.20729637
H        30.03517914      6.67947531     10.19970512
B        29.90449715      7.02519560     11.37601566
B        29.31503868      6.66976166     15.70115376
H        29.97309303      7.45147419     16.36945152
H        29.53925323      7.01509333     14.48794842
H        29.50391769      5.51291513     15.87389088
H        28.04594231      6.74386597     15.74688625
B        29.63674927      6.99251699     20.44556808
H        29.24092293      7.01755571     19.15449524
H        30.73103142      6.45841122     20.39023972
H        29.64220619      8.05881596     20.91704941
H        28.79940224      6.29293013     21.02694511
B        29.78344917      7.22016668     24.82993317
H        29.98168373      6.73950148     23.70000458
H        29.08942604      8.27740574     24.90129662
H        29.50949287      6.25079060     25.55978012
H        30.84097099      7.39080000     25.23472404
B        29.73018646      6.79673052     29.55401421
H        28.88145638      6.14238644     28.96609116
H        30.94625473      6.46785498     29.58345413
H        29.59949303      7.99844503     29.47849464
H        29.14578819      6.77406073     30.58776283
H        31.23921394     11.37069511      2.42434764
B        30.11307716     11.50893879      1.89744389
H        29.26811409     10.88659763      2.66830420
H        29.92632866     11.10060692      0.78662825
H        30.03414726     12.73040962      1.80861604
H        29.67498016     12.63864231      6.46582556
B        29.85569572     11.31329346      6.64836884
H        29.39906502     10.92938137      7.75947952
H        30.95038033     10.83212376      6.54855061
H        29.10489273     10.79755878      5.89329433
H        29.62425995     10.23069191     11.43693829
B        29.57493210     11.41808796     11.24965858
H        29.86236572     11.70214367     10.07762623
H        30.26102448     12.10862541     12.01121140
H        28.41182899     11.52260208     11.61669922
H        30.06515121     10.99337578     16.70782280
B        29.40569878     11.43920612     15.98837090
H        29.36901093     10.84532738     14.87416077
H        29.70683861     12.47991085     15.65066433
H        28.29448318     11.22535515     16.38156891
H        28.06566048     11.50595188     20.79479980
B        29.21810341     11.43488979     20.34859657
H        29.76280785     10.33765984     20.73562813
H        29.57067490     12.45839882     20.65230560
H        29.06339455     11.31570435     19.18177414
H        31.01712799     11.27599812     25.82102776
H        29.64332581     12.54376411     24.61748123
B        29.88204193     11.56393719     25.36306000
H        29.79030609     10.81100941     24.45245552
H        29.04277611     11.44892502     26.19878578
H        30.67575836     11.25554466     30.39581871
H        29.66757202     12.87699127     29.72273827
B        29.65806580     11.71330547     29.70685959
H        30.03265953     11.52024174     28.58971786
H        28.71691322     11.07312107     30.10575676
H        29.96418571     17.12265587      1.95497572
H        28.62137222     16.35471725      3.24466157
B        29.40663338     16.09721947      2.29332495
H        28.97715569     15.42267132      1.34935558
H        30.17696762     15.36970901      2.93255091
H        29.74715614     17.34983063      6.69690847
H        28.52303123     15.53613186      6.83877563
B        29.63632965     16.11070061      7.00639153
H        30.32845497     15.53322220      6.24933481
H        30.07093239     15.53686428      8.00694752
H        28.87993813     16.70960045     10.52291775
H        30.60344887     16.30507469     11.62793541
B        29.60961342     15.75804329     10.96265125
H        29.10822868     15.56808281     11.98197460
H        29.90603256     14.87125397     10.17979050
H        29.33673286     14.82776546     15.93621731
H        28.73436356     16.46867561     15.97997570
B        29.68851852     15.84597874     15.59569836
H        30.66869545     15.92553520     16.47613335
H        29.92271614     16.21408081     14.47588253
H        29.59185028     15.74183178     19.60429192
H        29.04481506     16.25394249     21.42943001
B        29.84266853     16.49683762     20.54963684
H        30.70892334     16.02200890     21.25735092
H        29.85324860     17.79792023     20.38454628
H        29.54100990     17.30182266     25.67220497
H        29.71408272     16.11022758     24.22529984
B        29.87928581     16.19733238     25.43831444
H        31.00849342     15.99128723     25.51735878
H        29.26978874     15.34895992     26.21706390
H        31.00265312     15.60905933     29.67567253
H        29.63028908     16.61697578     28.97719002
B        29.84792519     15.60781574     29.49856567
H        29.42278671     14.63286877     28.94866562
H        29.53208923     15.73075294     30.70788002
H        29.55162621     22.03831100      2.66577673
H        30.59763718     20.41950798      2.96440148
H        30.03451729     20.72156334      0.97985607
B        29.80345154     20.89935112      2.24588490
H        28.85429573     20.04052353      2.35042048
H        30.29617500     19.46250343      7.19226837
H        30.15613174     21.35956383      6.86311769
H        28.51479340     20.30158615      7.07241678
B        29.75022316     20.27974892      6.44654226
H        29.70608139     20.21304131      5.23301077
H        29.93867493     20.51826096     10.41820049
H        31.62675858     19.77829361     11.15700817
H        29.76683426     18.88213730     11.41542816
B        30.41732597     19.80605125     11.36751175
H        30.35452461     20.52425766     12.35526943
H        28.54023743     20.15480995     16.07366562
H        30.05765152     18.85313606     15.74889469
H        30.59184074     20.87156105     15.77839375
B        29.66910172     20.08579254     15.62387466
H        29.17194748     20.40976334     14.53349495
H        29.57387352     21.58195305     20.94448090
H        30.68586731     20.14017677     20.18646622
H        28.63661766     20.20754242     19.76424217
B        29.53017426     20.33978844     20.53440285
H        29.39884758     19.59130669     21.59733200
H        28.74096107     20.23739624     25.62988472
H        30.38807106     19.45159912     24.45619774
H        30.60279465     21.13540268     25.62596321
B        29.87299347     20.47981071     24.92650986
H        29.57455635     21.21130943     23.94157982
H        29.86904907     21.05405617     30.51084137
H        30.06722069     20.77420807     28.48237228
H        29.80270958     19.13921165     29.79018593
B        30.19283295     20.31235695     29.68303871
H        31.39165497     20.18907547     29.96300507
H        30.22993279     24.46536827      3.62823439
H        29.20471764     24.51782990      1.76568735
H        31.27014923     24.84370041      1.95206773
B        30.09577560     25.12146759      2.54511404
H        29.62925148     26.28507423      2.72801280
H        29.65529633     25.12085342      5.54426575
H        30.03152847     25.58094978      7.46246099
H        30.84347725     24.02157021      7.01849365
B        29.80729294     24.61328888      6.75762606
H        28.88696861     23.97696304      7.29220629
H        30.91521645     24.80466652     11.80129814
H        29.05234718     24.28748703     12.06457710
H        29.61390305     26.16924286     11.62456322
H        29.79941177     24.79916954     10.19306755
B        29.84772873     24.94396019     11.36682224
H        29.70203781     23.86894035     15.51538849
H        29.47697639     25.22141075     16.86993408
H        31.41087151     25.06481552     16.00769234
H        29.78315735     25.75221634     14.96842480
B        30.10577011     25.03254509     15.85178185
H        30.77993774     25.40280151     20.80999565
H        29.26184654     24.34779358     21.52561188
H        29.18342590     26.19092751     20.53326225
H        29.50671577     24.74924278     19.43472099
B        29.57265472     25.08964348     20.56638336
H        30.58515358     25.72837639     25.47498131
H        28.67386627     25.44196701     26.00985146
H        28.92872238     25.31090355     24.18089676
H        29.70007706     23.83621216     25.59462547
B        29.56063461     25.12077141     25.28673935
H        30.62176704     25.65531158     30.52272987
H        30.17731094     24.70643425     28.78686714
H        30.00369263     23.57421303     30.37562752
H        28.63020134     25.13911247     29.89246941
B        29.80537796     24.83674431     30.02965546
B        29.66324997     29.86039734      2.19836736
H        29.95350838     31.04567337      1.87071013
H        30.09272575     28.89735413      1.53035617
H        30.20107651     29.93250084      3.32397580
H        28.45946312     29.88571358      2.23886347
B        29.98682976     29.57565308      6.83037710
H        29.88454437     29.60438156      7.93200922
H        29.50245476     30.69176674      6.41065693
H        31.21965790     29.63537407      6.39913702
H        29.11244583     28.70909119      6.56409836
B        30.01142693     29.33197975     11.35272026
H        29.80158997     30.30867767     10.74494839
H        29.18267059     28.62135696     11.06891727
H        31.17188263     28.82327080     11.31234169
H        29.88567734     29.38324738     12.51249123
B        29.37166595     29.81394196     15.78938580
H        30.22260666     29.35360336     16.53267670
H        29.48021126     29.72569656     14.55541134
H        28.46475792     29.36941528     16.20038795
H        29.59423065     31.08123016     16.04815674
H        28.03038597     29.68677330     20.97712708
B        29.22093201     29.82726860     20.91993713
H        29.76160049     29.94927597     22.02326012
H        29.45261192     30.75148010     20.18051720
H        29.72162437     28.91555214     20.38987541
H        28.55391502     29.33987427     25.10100555
B        29.64727974     29.05192375     25.16477966
H        29.78449440     27.91464233     25.01472092
H        30.25714302     29.27957344     26.08776474
H        30.01981354     29.50970840     24.13713837
H        29.29969597     28.83559036     28.53788376
B        29.51045990     29.58624077     29.57059288
H        29.03833580     30.57830811     29.98355103
H        30.64980316     30.01879501     29.19745827
H        29.74907875     28.86222839     30.60195732
