3075

Na        4.36452675      6.84880447      4.61958456
Na        0.34832188     -2.02138686      8.78272152
Na        4.77736378      1.99851954     18.58248329
Na        0.14116660     -0.37587610     20.75841141
Na        4.80644703     -4.42799997     25.10877800
Na        4.45298862      4.62095118     29.58361244
Na       -0.10629645     -0.38109425     29.69239807
Na        2.22317743      9.38085747      8.96970844
Na        4.52292347      4.77370739     11.09487820
Na       -4.26098108      7.10760927     13.43198967
Na        4.64517879     -0.35547668     24.89193344
Na       -0.09387419      4.63291550     29.38532829
Na        5.04638004      2.38132763     31.62068176
Na        9.08426094      6.89560652      9.26845264
Na       -4.62294292     13.46474552     15.86002350
Na        4.29809761      6.79237700     13.87969303
Na        4.44789505      9.15149593     20.53474045
Na        2.46519089     13.39567184     22.87415504
Na        9.43430901     11.37466431     32.07678604
Na        4.28094673     11.59544373     32.37627411
Na        4.09651852     18.17097664      2.28849506
Na        4.77045727     11.48141098      4.67742538
Na        2.24146986     18.24522781     13.76526165
Na       -2.15551233     13.52554321     13.76493549
Na        4.34395981     15.86171818     22.85863686
Na        3.96938801     22.99825287     34.29138947
Na        0.06554787      9.07878685     29.55035591
Na        0.09787066     16.13234138      4.64755487
Na        3.93194556     15.96434689      4.85746050
Na        4.54604101     20.46981812     13.37282276
Na       -0.02800663     16.17355537     18.04308891
Na        2.18980622     18.01393318     27.32591057
Na        0.09992084     20.84189034     26.94723320
Na       -4.67537403     15.93276024     27.19907570
Na        9.17647076     14.03036213     11.65414047
Na        2.61033750     22.43272018      9.27110958
Na        8.33791637     18.73357582     15.84971714
Na        2.19420171     22.90280342     17.75514412
Na        2.51133537     27.54522705     22.70822716
Na       -0.02029483     25.40657234     27.23581886
Na        2.38419795     22.56130981     31.93674278
Na        4.26937342     18.28718758     11.16820526
Na        6.73967266     27.19282150      3.96680713
Na        4.97099161     27.37608337     11.29999542
Na        4.78750801     29.69592285     18.22069168
Na        4.75481415     29.68041992     22.46599388
Na        0.09505481     29.63902092     27.46870422
Na       -0.21021016     27.36095238     34.10157776
Na        9.05520535     -0.27295241      2.28047180
Na        2.30795097      0.76458138      8.94397545
Na       11.48174763      0.19315428      8.84414291
Na       13.49782562      7.11417580     18.22103500
Na       -2.37502599     -4.88143349     22.46957207
Na        4.26881599     -0.21487640     29.28739929
Na        6.85543776      4.60576677     27.29162598
Na        5.18771076      4.80712461      2.15083456
Na       11.37006187      4.92689514     18.57334900
Na        9.49190712      2.37918043     18.39317131
Na        3.97885180      6.91415739     22.49111366
Na        9.41106224      6.99599266     22.99930382
Na        6.77012491      8.84339142     27.60422516
Na        7.01669502      4.39885998     32.14189911
Na        9.15100765     11.60398006      9.67491341
Na        4.00971508     13.87435436      2.17458081
Na        6.63378096     13.91188049      9.16205215
Na        4.41694880      8.68510628     16.02822876
Na       11.42573643      9.09941769     23.33646011
Na        9.10099697     13.77912998     29.63694382
Na        0.17424741      6.97257996     31.64424896
Na        9.41630745     17.83753014      6.76662445
Na        4.63587856      9.17132854     11.19596481
Na       11.19917965      9.49969578     13.53044987
Na        6.80116034     13.67354774     18.21972466
Na        8.81228065      9.08864689     25.21498680
Na        8.91944504     13.95088005     20.45814896
Na       -4.56291199     13.20936394     34.42865372
Na        0.01923847     18.51390839      2.15461636
Na        6.95018959     13.87302589     13.59840679
Na        8.91846275     20.39383316     13.60029888
Na        8.89976597     18.53769875     20.25600624
Na        8.57528782     22.58794785     24.89047241
Na       -0.02330771     20.67310715     32.01467896
Na        4.61354828     13.78156471     29.75209236
Na        6.75750160     22.93933296      0.01243871
Na       18.20270538     18.14525986      2.33892059
Na        6.62744045     23.05194855     18.19778061
Na        9.57179928     23.12787056     20.80339241
Na        9.30503273     27.39988327     15.78465462
Na        4.73838568     22.99401855     29.46181870
Na        2.24340034     27.69437218     31.79911613
Na       -2.79411983     27.51009750     13.52202892
Na        8.96531963     31.84520531     20.46890831
Na        0.41630590     27.57047844     20.39529228
Na        7.07441044     36.52207184     22.80895996
Na        9.26159096     24.67489624     27.44541168
Na        9.24362659     27.02184677     29.25872993
Na       13.20974731     -5.12893629      6.64653397
Na       18.28191185     -4.81220484     15.87848377
Na        8.99530888      0.33978993     15.89760494
Na        4.45171595     -0.01652244     20.30498695
Na       13.47365475      0.18564737     25.07836342
Na        8.83180618      2.03056502     31.66108131
Na       13.14939213      8.67570877      2.10646367
Na        9.13702488      6.99119759     13.42506123
Na       17.87533188      2.01972461      9.20384121
Na       20.71818542      4.85068274     22.82352066
Na       13.71837807      4.65786171     20.57522774
Na       13.61254787      6.72090864     27.94768333
Na        9.32761860     -2.38255835     36.11768341
Na        8.93495083      6.92894316      4.36158514
Na       13.62297344      9.37958813      6.81446743
Na       13.53879070     18.20973206     15.99722195
Na       13.82327557      6.75078773     13.90142727
Na       23.16380882      4.35099173     29.50346375
Na       14.16036797      9.05136776     30.02716827
Na        9.35847473      6.79478455     31.97443962
Na       13.49363613     16.21103096      5.22937965
Na       13.90419102     20.61191559      9.37508297
Na        9.31005478      9.21979713     15.84682274
Na       13.30214691      6.65128231     22.92809105
Na       16.08382225     13.34420109     23.03115082
Na        9.28504086     11.17582130     27.75349236
Na       11.25214291     18.05985260     31.99087334
Na       11.24792957     13.85099506      0.21027863
Na        4.56141329     18.21303177     15.89522457
Na        6.58066273     26.74901581      8.54904366
Na        9.25245953     20.89383888     18.13579941
Na       13.42086315     20.33221054     22.68152428
Na       13.82199669     22.97224236     29.60778999
Na        8.96236420     15.86087799     31.87400055
Na       11.32515812     22.67942238     -0.45992881
Na       11.52161026     22.82591820     18.13915253
Na        6.66755199     23.11004639     13.70809460
Na       13.88383007     25.22592354     22.53511238
Na       22.88415337     22.90493393     20.68521309
Na        9.25562954     20.47943687     27.53638458
Na        9.14418030     17.88442230     29.66077614
Na       11.14407635     27.97701836      9.42352295
Na        9.19552517     32.20046616     11.33919716
Na       11.10754585     22.78101158     13.62958431
Na       16.02633476     37.22959518     18.07064247
Na       13.76991844     22.54253960     24.93963432
Na       -0.01203835     27.36756706     24.65612221
Na       13.78011322     27.58379745     33.86454010
Na       16.12652779     -0.17540812      0.37299204
Na       15.88836479      4.63976765     14.11000252
Na        9.16049099      2.47525454     13.76410866
Na       18.44478035      4.42993402     25.20349312
Na       16.28524780      0.34974489     22.76963043
Na       27.06611061     -2.28080916     17.87402153
Na       18.28376198      1.99401152     27.50580788
Na       22.84018898     -0.10048926      2.17602944
Na        8.76847935      9.41431141      6.83478260
Na       18.63168526      6.81541061      9.24725151
Na       13.51790714      2.56637049     18.27967072
Na       17.74791145      4.50077915     20.81425285
Na       18.32801628      4.40251780     34.41105270
Na       22.47607040      0.46623471     29.48951721
Na       16.09967804      9.07599449     13.24199104
Na       18.40353012     11.50420380      4.76337814
Na       13.74364567      2.08181977     22.91950989
Na       17.74242592      6.47229719     13.25678825
Na       22.91358757      6.92718649     22.47997475
Na       15.81508160      9.33504486     27.38269806
Na       16.04428101      8.92995930     32.42748260
Na       11.54833412      8.83803654     -0.56404471
Na       18.42181778     11.39772797     13.90502357
Na       18.33029366      6.83022928     18.69998169
Na       18.73409462     18.52375984     16.33942413
Na       13.44219303      4.56333113     29.76697731
Na       22.98698425     11.48203087     22.81856537
Na       13.07292652     15.74184513     27.74890327
Na       18.10781670     13.96799374      2.24315119
Na       18.48569489     15.98627853     13.95356941
Na       13.66189098     16.09079742      9.06121159
Na       17.85904121     22.71483803     11.59991360
Na       14.02878857     16.01601410     17.97934532
Na       11.22704983     17.91172028     26.68278122
Na       17.99115753     18.09885406     25.26565170
Na       11.46782398     31.55497360     -5.00252676
Na        8.73434734     27.15304565     11.21170712
Na       16.01244545     23.18214226      9.13283062
Na       13.95517921     29.74177742     22.95055008
Na       15.89306927     22.71485138     22.56630135
Na       13.82488060     15.93223572     22.81326675
Na       18.03397942     23.06193542     29.55993271
Na       15.82350254     26.91681480      4.70254707
Na       16.03570175     27.73346901     13.75492096
Na       13.51424599     25.07217407      8.83082485
Na       18.64626694     29.77282333     13.91096878
Na       12.94370365     27.38682175     25.01444626
Na        6.69502449     22.69328308     27.18928337
Na       13.55754662     26.90049171     29.50411415
Na       16.24858284      0.07130372      4.33025742
Na       24.86545944     -4.84961987      4.28652334
Na       22.68536568     -0.12435588     15.92210007
Na       25.19621849     -4.50207758     18.51426888
Na       22.74131966      9.17839527     25.00968361
Na       25.17815018      4.56964684     27.08580780
Na       20.50967407      0.15429257     31.76543045
Na       20.59114456      4.50832796      4.33765554
Na       20.17974854     -4.50467157      8.97338295
Na       22.99384880      6.47619247     13.93092155
Na       23.06447029     11.49687099     18.24810791
Na       25.03152275      9.54305649     27.15347290
Na       20.33190346     -0.18739825     27.25028419
Na       13.62219906      6.63012743     32.00580215
Na       25.08906364     13.09176826      0.03789550
Na       22.57700920     14.16102982     11.69135475
Na       18.46205521      9.18326855     11.40047741
Na       25.08709145      9.47178459     18.44272041
Na       18.34096718     11.59778500     27.20867729
Na       20.32225609     13.68764973     36.81418610
Na       20.76380348      8.97931862     31.90481758
Na       17.96761703      8.85240459      6.86865616
Na       20.19643974     17.82046700      4.51021433
Na       27.20513153     18.18015671     11.35731602
Na       15.94594383     18.67659187     22.55220222
Na       22.91367531     17.80701828     20.57729721
Na       22.97205353     18.33843231     29.90771103
Na       29.58599281     13.36760044     41.37955856
Na       13.32660770     18.48786736      2.37771344
Na       18.57644844     16.13167000      9.60190010
Na       27.93174362     16.14336967     17.94990158
Na       20.65810585     18.57095337     18.66597748
Na       25.23404884     13.88073349     22.39381790
Na       15.71052170     18.25706291     27.68288803
Na       18.15846634     15.98485279     31.56666946
Na       17.91179848     22.73312187      6.93631458
Na       20.36895180     22.57097816      8.91907501
Na       13.97543716     27.56803322     11.31189919
Na       22.40694809     18.50075531     16.15353203
Na       22.84874725     22.79517174     25.01626587
Na       22.67055702     25.15646553     31.99773979
Na       20.27651215     27.16347313     36.31529999
Na       18.01678658     17.49792862      6.82860231
Na       27.34527969     19.14875793     15.80071831
Na       22.28078842     29.78651619      8.63622093
Na       20.60824013     23.38800240     13.51417923
Na       17.78108978     27.19607735     24.93204498
Na       27.14944649     31.74078178     25.12507629
Na       17.98980904     29.54803658     27.16485977
Na       15.96621132      4.44041920      4.58494949
Na       27.28290367      2.05665135      4.72990561
Na       25.35803032      4.78853655     13.35867882
Na       27.15725136      0.10780865     15.92615414
Na       22.79717827     -0.06975016     24.88027382
Na       27.69948959     -4.28992987     24.80011177
Na       29.72028160      0.20662080     31.95635414
Na       20.65666199      4.42118168     18.64755249
Na       29.54782104      9.10505581     18.62495613
Na       27.78387260      2.05960822     18.22183609
Na       22.94284248      6.82323790     17.98094940
Na       15.84545135      4.16070604     23.04306412
Na       31.80767441      2.01752257     27.74651527
Na       24.84813309      4.53328562      4.40290737
Na       27.77306938      2.01598740      0.30275533
Na       22.59322166     16.22199059     13.95145893
Na       24.99786758      9.13450146     23.17585564
Na       20.60848236      8.70612621     27.59095764
Na       27.36912918      6.93143511     22.55919266
Na       25.07053375      9.27032089     32.11385727
Na       27.14859581     16.06721878      4.57662153
Na       22.52701759     20.64133453      4.24219036
Na       18.16827774     18.17760086     20.43601036
Na       24.87954330     18.01285172     22.93969345
Na       31.85976791     13.96299934     29.77175331
Na       27.37761497      6.79604959     27.38899040
Na       17.81982422     13.65220833     29.72421265
Na       25.01488876     13.91224766      9.21796894
Na       18.56435204     20.39046097      9.08556175
Na       25.10606575     18.24428940     18.03870010
Na       18.00682259     13.44660378     25.08781242
Na       22.55644608     16.13720703     18.14044952
Na       22.78988457     18.31465340     25.22632980
Na       24.59044266     18.55809021     36.50105667
Na       29.45387268     18.54496002      9.31249046
Na       25.19414330     22.69112587      9.32645035
Na       25.32610321     22.47942734     13.52068615
Na       29.85927391     27.09115219     17.77259064
Na       22.95606232     27.43910408     20.65946770
Na       24.93659973     31.67587090     18.18173027
Na       27.45583916     24.98736382     22.82513237
Na       22.67995262     29.57057762     -0.22095837
Na       22.46398544     22.89279556     11.27616978
Na       22.74186707     18.13308716     11.70887375
Na       27.30995941     36.28726578     15.69278336
Na       27.33536911     20.45911598     22.98413849
Na       25.18352509     23.04530334     27.15200424
Na       27.49158287     27.64566422     29.38422775
Na       27.39635658      2.23210931     -4.60693407
Na       27.45371628      0.05384898     11.05186272
Na       29.75769806      0.23886877     13.55275917
Na       32.21848679      2.54990339     18.07070351
Na       27.08776855      3.86323071     20.47969246
Na       37.13675308     -6.58241510     27.20053101
Na       27.60056686     -7.07585001     31.67168427
Na       27.39790154     11.59893417      4.79128551
Na       29.60110092      8.94575691      4.38563299
Na       31.83000183      2.57177615      8.73862171
Na       31.79250717      6.73344469     13.46644020
Na       34.38794327      9.50725937     23.13953209
Na       32.02009583      6.94657326     27.40107536
Na       27.72254753      0.29176229     29.64703941
Na       25.37343025      9.15307236      9.06004810
Na       29.90160370      8.67345428      9.08962345
Na       34.05385208      9.26263046     18.23568535
Na       27.80585861      2.58839917     13.57349014
Na       31.90897179      9.07423973     25.03104973
Na       33.96873856      9.23345661     27.37472725
Na       26.84092712      6.73200655     36.54958725
Na       29.50920677     13.76357365      4.40168047
Na       27.36900520     11.37945652      8.98127937
Na       27.23849678     14.07510281     20.32433510
Na       27.48261070     15.97990417     13.88294983
Na       31.94220734     15.98828602     23.12738991
Na       27.38685226     11.28390503     31.23174858
Na       27.07202721     11.50140572     27.67175484
Na       36.52731323     22.86888123      6.60608339
Na       22.26737404     18.21397591      6.84378147
Na       29.88741684     23.13394737     13.96015549
Na       31.67589951     20.57559013     13.27433968
Na       27.31016922     15.82828236     23.10299110
Na       27.21833992     13.97695160     29.88058662
Na       31.41138649     16.01756477     31.88588524
Na       29.55233192     23.09814835      9.14313889
Na       29.35682678     23.12998390      4.16382456
Na       25.03104210     27.11515236     13.57498455
Na       27.69384384     23.46990395     20.64773941
Na       29.88688469     23.26894188     22.70847702
Na       29.67327690     27.52131462     27.02750587
Na       31.96773338     22.76988029     29.62494087
Na       29.62917519     27.65837669      0.08912805
Na       31.67363548     29.64024925     13.54996872
Na       32.36016846     20.66059685     17.75485611
Na       24.95059967     26.87889671     22.85408211
Na       32.21216583     31.93395233     25.07203674
Na       22.58471489     22.78661346     29.37121391
Na       -0.29672813      4.81227827      2.23032761
Na       -6.98691130      0.60199857      8.81784534
Na        0.11251872      9.56382370     15.82168674
Na       -2.26796174      4.79517365      9.25048161
Na       -4.22556973      4.36704302     29.45851517
Na       -2.38050127      0.23135386     22.69753647
Na       -0.46842632     -2.13420677     36.58984756
Na       -0.34875712     11.33321953      9.15465832
Na       -0.10263858      8.83318520      6.73290443
Na        0.04744339     13.95972538     11.22811604
Na       -6.73955965      4.09423780     17.99721718
Na        4.90117598      9.40170383     25.22829819
Na        4.40743923      5.14172983     24.86123276
Na       -1.99490738      4.84552288     31.52840996
Na        2.19126439     13.25208759      8.92817783
Na        4.07346725     15.68966579      8.98478031
Na       -4.30047989      9.32884693     11.45900822
Na        0.06524340     13.81744671     15.96054649
Na        2.47888207     14.11061859     18.92440605
Na       -0.12888519     11.73270798     23.26200294
Na       -2.43412066     13.32660866     32.22611618
Na       -0.24634531     13.83172035      2.16968393
Na        4.07068491     18.74953079      6.74261141
Na       -2.17085385      9.26164150     14.04061222
Na       -2.40980077     17.65120506     13.51669884
Na       -2.38886714     13.57376289     27.71897316
Na       -0.32076508     16.05014038     27.18333817
Na       -0.03022411     18.06718826     29.71476173
Na       -0.20447610     27.08275223      6.80526304
Na        0.05940536     25.48344612      9.20575619
Na       -4.44741201     15.90321255      8.76779556
Na       -1.99952435     13.34286118     18.00342178
Na        4.60793686     22.57574081     15.90049839
Na       -2.40931201     18.64238358     27.70417976
Na       -2.28584194     18.36433601     31.90966225
Na        4.53737164     25.24288368      4.42539310
Na        2.06935835     22.71129608      4.47798252
Na        9.07783794     29.61396217     13.46967888
Na       -0.24048370     20.55327415     22.30972481
Na        4.17852068     20.82382965     27.26907158
Na       -6.55970573     22.74404907     22.91438103
Na        4.69123268     15.83751297     31.96850014
Na        0.03365301     34.23058319      4.55088806
Na        9.17448711     25.12754250      8.77386665
Na        2.31618357     27.23312759     13.07586193
Na        4.51582766     27.31305313     15.90032101
Na        0.04595940     25.31745911     22.14145279
Na       -4.76896715     29.61668015     22.50041962
Na      -13.96698093     20.39964676     27.84189224
Na        0.45539546      2.29561496     -0.16421895
Na        6.92318869      4.34540892      8.88137341
Na        6.77883816     -0.10627442      8.93857002
Na       -0.18869486      4.63923788     20.51154709
Na        9.41839409     -0.08083192     29.36153030
Na       11.35343838      4.55938530     27.23758316
Na        2.34060049      4.43350458     31.88688469
Na        4.52429438      3.99714160      6.73980331
Na        4.51443338     -0.00060980     15.63693810
Na        0.30064648      9.05910873     11.27513981
Na       -2.31775928      4.35550785     18.34540367
Na        2.20888424      4.41588831     22.74934769
Na        9.11765480      4.62402534     34.18049622
Na        4.10541153      8.98390675     29.63420105
Na        9.27881908     13.95350266      6.89582777
Na       11.28964424     13.78228855      9.00564384
Na        4.55011797     12.84739494     11.13235378
Na        5.31324434      7.00550222     19.14803505
Na        6.90197039     13.76241398     22.60954475
Na       -4.96058607     16.02936363     31.95297050
Na       -0.37544653     11.69132996     36.57712173
Na        4.41584158      8.93430233      6.75357008
Na       -0.29423627     18.46965599      6.79970598
Na        2.31743908     14.05890656     13.62158489
Na        4.78554153     15.83245850     17.76477242
Na       11.49878120     18.42099762     18.07475662
Na        6.85225058     19.06435776     22.74720955
Na        2.35225391      9.20521259     32.44407654
Na        2.21835423     18.04228973      9.25787163
Na       11.45232487     17.87738037      9.05037594
Na        6.56169319     18.20786667     18.23937035
Na        2.30624485     23.28600693     22.42093277
Na        4.47985411     18.53041077     24.88969612
Na        6.74796772     18.47202301     27.23749161
Na        2.17656016     18.19774437     31.71660042
Na        1.89223945     18.55403328      4.44242096
Na       11.49818516     27.34642792      4.45898724
Na        7.07730389     32.07833481     13.76428795
Na        2.21259618     27.18782234     18.02370644
Na       11.49049854     23.16813850     22.91691208
Na        4.49133635     18.36515427     29.48135567
Na        9.49425220     27.18818855     33.78246307
Na        4.06539822     31.37721252      6.68970346
Na        4.41516876     27.59004593      1.90301275
Na        4.69732046     31.71359634     11.56427765
Na       -0.43282655     29.70854187     17.83427238
Na        2.07304287     32.22893906     22.46408844
Na        4.61981773     34.19594574     26.74644089
Na        2.08583617     27.30454254     36.77412796
Na        9.16244221     -7.20356417      4.16152287
Na       14.05567169     -0.16484535     15.82575512
Na        7.21057415      9.66145802     17.98224831
Na       16.15976143      4.57728004      8.99140739
Na       11.36281490     -0.05728481     23.14061928
Na        9.36686325      2.16990829     27.44607925
Na       14.01850224     -2.25889826     31.50626373
Na        6.66442871      8.57264709      9.06014347
Na        7.05526447      8.96513653      4.83880234
Na        8.84726143      6.68034744     18.11634064
Na        9.79824638      4.67229319     15.83177090
Na        9.22450447      4.41523743     20.78133392
Na        9.19710732      6.82617664     27.21504593
Na        6.92377663      4.70032120     36.85579681
Na        8.95489502     13.60755730      2.50864458
Na        6.90652752      4.73385525     13.73163128
Na        9.03225517     17.98374176     11.67615795
Na        4.43393373     13.58522892     15.91339779
Na        8.90064144      9.15315342     29.55474091
Na       13.20635796     11.27281570     27.40264320
Na       -0.04022736     18.11544418     25.20222282
Na        9.12051487     17.90191460      2.60633063
Na       11.25775814     22.78178596      8.93150806
Na       18.55704308     13.73778248     16.04870796
Na        4.83623981     13.57432461     20.52265358
Na        9.00129032     15.86994267     14.36812019
Na        2.07821560     14.10940647     31.99008560
Na       11.48866653     13.32227325     36.71591949
Na        9.19613838     15.94027996      4.89399242
Na       16.30508995     22.88469124     17.72621727
Na       13.31118202     13.37583256      6.85606337
Na        9.21669865     22.70956230     16.15609550
Na       17.99702454     22.53365707     24.98918724
Na       11.49389839     17.93573570     22.54297638
Na        2.01471615     23.00463104     27.33472061
Na        6.72926617     22.75095177      4.00988245
Na        6.77880192     23.20310402      8.54501343
Na        9.23268414     24.96574974     13.44605923
Na        4.22223854     27.62135124     20.40576172
Na        9.39920712     20.71687508     22.61769676
Na        8.91901112     27.12074852     20.20147133
Na       18.59606171     31.79460526     34.17974472
Na        4.17733526     27.04611969     -2.31629729
Na        8.87228489     29.50765228      9.05346680
Na        6.71583605     27.35198593     18.08964157
Na        8.76456070     25.05470848     23.11099052
Na        4.01820993     29.70051956     27.10076523
Na       14.13751125     33.98594284     32.14471436
Na        8.88843250     -0.05391514      6.23354816
Na       13.54116917      7.03175163      8.77946758
Na       11.43952370      4.53961325     13.33823395
Na       13.32691383      2.14784336     13.63305473
Na       13.56497288      0.04475336     20.62448883
Na       27.37730789      8.59260941     29.78604126
Na       17.91735268      4.29836178     29.70292282
Na       13.77449608      3.67456913      6.76877642
Na        9.37907124      4.77979040      6.90723467
Na       11.28058624      9.62295628     18.24194145
Na        4.53025150     11.20185089     13.73994827
Na       13.77338409      9.18617725     25.34295464
Na        9.12802792     11.42905903     22.79151535
Na        9.21877003      2.63213587     36.05221939
Na       13.76401138      9.05388927     11.55472469
Na       23.04491043      8.88920784      2.51250672
Na       13.69424915     11.39759159     13.49896145
Na        4.52752066     18.08500862     20.43586159
Na        8.67935848     12.95317841     16.09088326
Na       13.46819401     13.15499115     25.15453720
Na        7.04590702     13.44629860     36.82114029
Na        9.28732967     22.64309120      2.15263557
Na       16.03546906     13.46038437     14.13976479
Na       13.62936211     14.02391338     11.48125362
Na       13.58547497     20.50156593     13.17055035
Na       17.99980354     15.86483097     22.69773293
Na       11.18283367     13.72008038     27.19892120
Na       13.54842567     18.59698486      6.87117290
Na       18.66020012     11.44905949      9.21853733
Na       16.15949440     18.46521950     18.21708870
Na       13.42065525     15.88905239     13.52636051
Na       20.31193352     27.35000038     27.26102829
Na       22.87933540     24.98065758     27.36794853
Na       13.67360115     20.41357994     31.76409340
Na       13.41046810     23.02129936     11.31834030
Na       13.86638260     20.41411400      4.63043404
Na       15.70287228     18.26297569     13.59749222
Na       13.86514664     27.49352646     15.63745213
Na        6.61909056     22.54674721     22.23957253
Na       15.70176029     22.40167427     27.36901855
Na       14.04880142     22.39523125     34.15841293
Na       20.67594528     32.35209274      4.57591772
Na       13.93666935     25.03414726     13.51801682
Na       11.28972816     31.71689606     18.15801811
Na       11.29547787     27.21470261     27.39880180
Na       15.64100361     27.14894295     26.84478569
Na       11.28642750     27.36613655     22.50384903
Na        8.87290859     29.53260231     26.77048683
Na       13.66252518      4.41954660      2.50055647
Na       11.31277084     -0.00200488     13.55149651
Na       18.23501968     -2.22181845      8.98208523
Na       22.73686790      2.14784932     18.27801895
Na       18.09626007     -4.56470346     34.09194565
Na       11.30587673      4.10410833     32.40514755
Na       18.94455719      8.92268658     34.26629639
Na       18.13227844      6.98592615      4.80111980
Na       15.82145500     -0.05296946      8.69642925
Na       16.37554932      9.09113693      9.29756165
Na       29.49596214      4.62296915     22.57539368
Na       23.31220436      4.60087729     24.82651520
Na       22.89010811      6.94017696     26.95192528
Na       18.37503433      9.10505104     20.53318596
Na       15.91161060     14.12930679      0.35988843
Na       22.99896431      8.57600880     11.62596703
Na       16.08535767     -0.02423807     18.81724548
Na       13.77144623     13.59804344     20.63065147
Na       15.68978119      9.40249443     18.25256538
Na       17.47692680     18.11381149     29.88169670
Na       22.89182663     11.16769791     36.79293442
Na       15.96264458     18.41456413      9.25658035
Na       11.11233807     22.41507721      4.73077917
Na       18.38215256     22.60676193     20.42514229
Na       18.27474213     11.38481712     22.64943123
Na       22.70684433     13.89151096     29.59672356
Na       13.52967358     15.82190990     31.85384369
Na       17.79506111     11.33422852     32.41693115
Na       17.75871468     15.82365036      4.28799629
Na       13.50003910     24.93201256      4.15644264
Na       23.00881577     20.72737312     13.33253670
Na       13.85231209     20.55978775     18.31070900
Na       20.46552086     23.01983643     18.46061134
Na       15.45498371     13.81693077     27.45871925
Na       22.33013535     17.73064423     34.40896606
Na       22.80388832     25.18425941      9.01928997
Na       17.87404442     27.16312599      6.71771383
Na       18.02388191     32.01579285     11.52891827
Na       13.83589745     27.49173927     20.30632591
Na       16.04815102     27.50855827     22.65467262
Na       20.38435173     22.80595589     31.63259888
Na       13.57691860     31.69543266      2.15309882
Na       18.05956078     32.16245651     15.91388798
Na       20.45002937     32.08637238     18.33298874
Na       18.29426956     29.72015762     23.26279259
Na       20.43344879     22.68694878     22.93417549
Na       18.58465004     29.49019814     36.31930542
Na       18.00944519     -0.01346374     -2.20535231
Na       22.78393173      2.04774284     13.68273830
Na       22.95084381      3.88878942      6.73063087
Na       20.53464890     -4.43551445     23.00789452
Na       25.39271545     -0.29570442     31.48547173
Na       22.57622528      0.21484381     38.73914719
Na       27.85372543      4.51795483      2.29358149
Na       23.00645256      4.00163174     11.36332035
Na       34.36276245     -0.30802488     17.82273674
Na       23.02487946     13.61132526     20.22141457
Na       29.53907585      4.52169275     26.92049026
Na       18.42948341      2.07474923     22.53921318
Na       27.65407372     -0.41096851     38.74916077
Na       23.10352898     11.67848492     13.50653934
Na       22.70061302     15.88677025      8.90177441
Na       22.25740814      0.06371436     11.47351265
Na       18.00126648     16.04661751     18.20873833
Na       29.96184158      8.85665035     22.57879639
Na       23.09721375      9.02708721     29.66559410
Na       22.39310837      6.89249468     36.62851334
Na       11.33324146     18.38915825      4.19276857
Na       22.88794327     27.28668976      6.80716562
Na       27.23813629     13.90957451      6.80069733
Na       18.50754547      8.59140968     15.68619347
Na       24.95354080     13.60102654     27.02564621
Na       27.25045776      6.65052605     32.33988953
Na       24.87925720     18.32262039     32.21457291
Na       22.57142067     27.75777626      1.96920311
Na       15.69234753     27.23970795      8.87501812
Na       27.36558151     25.05569267     13.26359940
Na       18.60529518     22.90509224     15.99893093
Na       20.23163795     18.40318108     22.77878189
Na       20.38856125     18.35078621     32.11499405
Na       17.82227325     25.05269814     27.38315582
Na       27.17604637     25.11817741      4.14162779
Na       29.44066048     27.84905243      8.95992851
Na       17.81388092     25.17913246     13.69389915
Na       22.64374352     25.15938568     18.38281059
Na       22.55685997     25.11202049     22.54703140
Na       24.74483109     27.49275780     26.97175217
Na       22.92919350     22.58204460     38.95063019
Na       24.77489471     22.79879761      4.31959820
Na       27.22233200     34.00441742      8.43191814
Na       23.44828987     29.59306717     13.61033058
Na       18.17745209     31.64389992     20.61872482
Na       22.66702652     29.52083206     27.10733032
Na       27.30689812     32.04675674     20.39593124
Na       13.78925610     32.13206863     29.59352112
Na       22.71655273     -2.36076999      4.81806278
Na       31.86924934      4.57438135     25.05046844
Na       23.26775932     -4.39355850     15.89927197
Na       31.84136772      0.60504919     15.86039829
Na       31.47819328      2.32754064     23.08228302
Na       25.35312271     -0.31801766     27.44309235
Na       29.55264854     -4.51314354     36.49222946
Na       27.89921761      9.21387768      6.82162809
Na       22.87870979      4.38233042      2.19106674
Na       31.98782158     11.58182144     13.40051651
Na       38.78591156      0.20350611     18.15379715
Na       32.21472549      9.60997868     20.68394852
Na       29.98714256     13.93931103     23.04596138
Na       22.98826790      2.18477941     31.92310715
Na       22.94163132     13.66851234      2.05593324
Na       27.35722160     20.27233696      4.05426168
Na       27.62961960     11.69555378     18.65539169
Na       27.74313545      9.27599335     16.11143112
Na       27.59079742      9.16420460     25.29240417
Na       31.55010414     11.62259579     31.69208717
Na       22.65324211      6.58605289     31.73072815
Na       29.51470757      8.82854080      0.16785651
Na       26.96638680     14.13488674     11.42654133
Na       22.56893730     13.45654869     15.85230923
Na       24.93810081     13.95153236     13.52438259
Na       29.87218666     18.39335632     22.53564453
Na       24.99070930     17.90219307     27.23319817
Na       29.57336044     22.71859169     -0.12339736
Na       27.47758484     20.49184608      8.98011303
Na       27.47746086     22.48788834     11.54039478
Na       27.92738152     20.56350899     13.56476498
Na       27.60626030     20.79482841     18.04508209
Na       27.23538971     20.57106209     26.91994476
Na       27.37063599     20.43810844     31.71857262
Na       27.11877823     22.66258430     -2.25476885
Na       27.39276314     22.94189453      6.57638025
Na       31.73119736     27.59875107     11.38986969
Na       18.53095627     25.08596611     18.03404617
Na       27.62333298     25.22845840     27.38933563
Na       22.71658516     27.32296944     29.60987282
Na       27.10388947     22.92106247     33.95960236
Na       31.99551582     32.01004028      2.02860928
Na       22.67641068     27.52266121     11.14862442
Na       27.26605797     30.08887482     13.14916611
Na       34.25128937     32.36129761     13.44864750
Na       27.27335739     24.99271011     17.85099220
Na       20.69721222     36.66956711     27.20353508
Na       27.29200745     29.63731575     36.51992416
Na       -4.79624224     -0.74280989      2.11186290
Na        4.94645405      1.91100001      9.26853848
Na        0.24634923     -0.01409637     11.13073921
Na        0.03748153     -7.22268248     17.36715508
Na        0.26109546      2.67655969     12.52842617
Na       -2.33086324     -0.03133547     18.19872665
Na        0.00424347     -2.27113938     31.89337540
Na        2.08526278      4.34665728      9.21230030
Na        2.53699255      4.35530329      4.20171070
Na        0.72427386      6.96098042      9.53260326
Na       -0.24505015      4.73409128     15.95230484
Na        4.42467499      2.21385169     22.84336662
Na        0.20569642      6.84833622     22.95981407
Na       -4.38947392     -2.35193157     27.25272369
Na        4.87265921      9.26429462      2.38063645
Na       -2.28023100      4.49357748      4.65256548
Na        4.54425955      4.25267029     20.48671532
Na       -6.62012577      9.51797581     13.63170052
Na        0.07675487      6.88013411     18.02508545
Na        0.30464420     13.75897408     25.30299568
Na        2.33852506      9.13724709     36.22311020
Na       -9.22567844     10.96641159      0.15837465
Na       -0.16128068     15.76303291      8.91925240
Na        0.08341265     15.82247162     13.46754265
Na        2.82133746     18.69289589     18.01766014
Na        0.04490415     11.54783630     17.98575783
Na        0.45891199     18.18095398     20.44249535
Na       -0.45189062      7.02516603     36.43876266
Na       -0.45275807     20.70298386      4.47926903
Na       -4.70061541     11.47170067     13.50220299
Na       -0.25930172     20.52865028      8.55024242
Na       -0.10738482     18.37133408     11.22062874
Na        0.01462794     23.13735008     20.19174194
Na       -7.18849802     14.26024628     17.78755188
Na        2.20208454     13.57427597     27.52803040
Na       -0.15756723     23.35761070      2.01455641
Na       -0.29194611     25.09663391      4.36174917
Na        4.24726295     29.82222176     13.80620670
Na        0.20620352     25.19661140     13.61590481
Na       -4.38761330     22.85701752     15.72642422
Na        4.49533844     22.68382835     20.25327873
Na        4.06185484     23.56271553     24.76795387
Na       -2.20549107     22.98927116     -4.71644258
Na       -4.89269686     29.51849747      8.94403267
Na       -4.69964790     25.14977074      8.97268391
Na        0.31663916     27.49003792     15.79890347
Na       -4.36926460     27.51185989     20.30155563
Na        0.09217391     23.24098015     24.90665436
Na        0.15601386     25.00783539     31.77575493
Na        4.71371841     -1.95077753     -0.17179370
Na        4.49700117     -2.55808020      9.04666042
Na        3.61146116     -6.79827499      9.14551449
Na        2.64657640      4.67627001     18.00148582
Na        6.89837265     -4.48394918     22.37405205
Na        2.33238649     -0.07383569     31.56740379
Na        4.29288292      0.20363449     33.97671890
Na        2.02715540      9.13526440     13.58974361
Na        6.64713860     -0.36975518      4.45800447
Na        2.29122591      4.90998507     13.34954739
Na        6.86650658      4.58152342     18.25661850
Na        4.82229471      4.54824066     16.05410767
Na        2.25359583      0.20765232     27.03655624
Na        2.12847185      4.43570471     27.14569855
Na        0.03144673      5.31453896      6.72456217
Na        4.91515350     11.55396938      8.57745266
Na        4.76602173      6.47242355      8.95398235
Na        4.30566549     11.35736084     18.54055977
Na        4.49592447     11.33588505     27.90880394
Na        4.21652269      6.65765762     27.54672623
Na        6.92833948     13.53210449     27.17980576
Na        2.17784214     13.60184288      4.33843565
Na        4.21618748     13.91499901      6.73378134
Na        6.46509886     18.02438545      8.97850227
Na        4.35856247     15.85756493     13.25086308
Na        0.19326828     18.46509552     15.81215382
Na       11.51657867      8.94595051     27.60325813
Na       -0.39038786     11.41548538     26.96760941
Na       -0.15455793     22.71404266     11.26057816
Na        5.03481483     22.86357689     11.13068104
Na        6.27265596     18.37464523      4.68032646
Na        4.64971161     25.24251366     22.49358940
Na        2.47975039     18.47851372     22.80563164
Na        8.35177326     16.06529808     22.74769020
Na        8.67620087     20.32209587     31.97609711
Na        4.18760777     20.63612366      4.47823858
Na        2.36904836     31.79878044      4.09458971
Na        2.26180077     22.61741066     13.53073597
Na        4.14842415     25.31564903     13.60068417
Na        6.95788288     32.06642914     27.22478676
Na        8.82125759     26.69667435     24.87633324
Na        6.75972700     17.94585991     32.18627548
Na        6.69270134     27.41238213     -0.16419399
Na       11.46143627     27.21285057     13.50932884
Na        4.50869703     25.38383675     18.06365585
Na        9.09385777     25.30331802     17.75487900
Na        9.30198479     29.45825768     22.68274879
Na        8.81905460     31.98444176     24.73921394
Na        4.96881723     20.29903412     31.61499977
Na       13.67210197      2.27576661      4.06673908
Na       14.07820892      0.13331936      6.74687290
Na       14.31966305      4.74781132     11.27123833
Na       13.31970406     -2.21045876     17.93953514
Na        8.88520336      4.36126184     25.13939476
Na        6.69859600     -0.14258865     22.58670807
Na        8.79835796     -2.56339836     31.34151268
Na       11.78780937     -0.33010203      4.76006842
Na        9.27138042      2.30044222      9.07775116
Na        8.75095749      4.50819683     11.47750950
Na       13.89374733      8.61684799     20.76433182
Na        7.04940081      8.89033318     22.53811646
Na       11.48848438      3.88198590     22.83016396
Na       13.36046886      4.82017374     24.82214546
Na        4.48106194      2.21607447      4.44184923
Na        8.89987659      9.31915188     11.26061726
Na       15.96614933     13.86182213      9.51785946
Na       13.29007721      9.23175144     16.06898117
Na        9.45508766      8.93054104     20.29320908
Na        4.40112257     13.71722412     25.17996788
Na        4.59657383      6.75087118     31.61773300
Na        8.86914539     15.90429306      9.16370583
Na        6.78504992     13.33195114      0.18570681
Na       11.49301243      8.70160389      4.33803415
Na       13.64839458     13.46324921     15.95836639
Na        4.86372805     11.24265385     22.76292992
Na        9.50846672     14.26354218     25.14945221
Na       13.93778610     14.09009361     34.45638275
Na        6.63123751      9.35923481     -0.12991221
Na       13.18308830     18.35672760     11.32656479
Na        9.07710743     20.50264740      8.74129772
Na       11.18539429     18.41498947     14.13017559
Na       13.64522743     18.15526581     20.44184875
Na        4.65837717     16.24190903     27.22105598
Na        9.26980019     18.22624779     24.82500458
Na        8.74032116     24.98726654     -0.15051705
Na       11.32469940     31.64742661     -0.07439080
Na       13.85636330     11.33078098      9.41369247
Na        8.90041161     22.81266594     11.27809715
Na        9.41853333     16.20960808     18.09922409
Na       11.44405842     22.29943085     26.88104630
Na        4.34335041     24.95228577     31.86992264
Na        8.69940472     22.24514198     -2.31678081
Na        6.97120476     31.84153557     -0.68755734
Na        4.64266205     27.18756676      6.60746431
Na        4.81220627     34.32054901     13.35382271
Na       11.54638958     27.46259689     17.97222137
Na        6.43160725     28.07811737     27.55389214
Na        9.41471863      4.25437593     -2.34707689
Na       13.71428204      2.15321302      9.57733536
Na        8.55599308     11.36286926     13.22766495
Na       13.35733795     -0.38827044     11.08284473
Na        9.24390221      2.15192342     22.86945534
Na       18.86702728      0.26115048     24.97678375
Na       16.08444595     -0.27832904     27.20985031
Na       11.41400242      4.77022362      4.95012951
Na       11.50074005      4.49084711      9.22647476
Na       18.21881294     11.51565075     17.98519897
Na       13.57401466      4.45993376     16.02702904
Na       17.93570328      2.15377092     17.95813370
Na       16.02475166      8.94318962     23.02596092
Na       15.86882496      4.76446438     31.92186546
Na        8.73302650      9.01587677      2.17163467
Na       13.75085735     11.29752254      4.53769588
Na       11.31729412      9.36619473      9.10485649
Na       18.74514961      4.50346661      6.89541149
Na       13.73457623     11.59971809     18.78255653
Na       13.26220036     11.33379078     22.44090843
Na        9.59803486     11.25497723     36.72124100
Na       15.83151817     13.82594013      4.82318735
Na       20.68594170      9.11459637      8.97933006
Na       17.99202347     18.17686081     11.47810078
Na       17.97371101     20.62498474     18.11780930
Na       18.40912437     13.47186184     20.62532043
Na       13.51575470     18.00842667     29.90268707
Na        8.70873165     15.91190338     27.42444420
Na        8.57746124     22.53067780      6.67432976
Na        6.50652361     18.04689217     13.39289188
Na       17.91612434     20.62633705     14.03212070
Na       11.26613522     13.94189930     13.88614464
Na       11.41933060     13.39584446     18.03706169
Na       15.65977192     18.08700562     32.54151154
Na       13.18045044     20.31999397     27.59871864
Na       18.39762878     25.13404465      9.46753216
Na       15.87713909     22.40893936      4.75622082
Na       13.68930912     22.60477257      6.85592699
Na       13.54737091     23.12279701     20.20544434
Na        9.18409538     29.55929184     17.96400833
Na       17.90703201     24.85767746     22.16785240
Na       13.66587543     25.11893463     32.06829834
Na       11.41507149     27.21592331     -0.38792276
Na        6.92078209     27.13188744     13.76731682
Na       15.92880249     31.63991165     13.71803665
Na       13.71910000     29.64716148     13.64215565
Na       15.99792862     27.04309845     31.81712914
Na       13.77875710     29.50727654     27.55714798
Na       13.35447216     25.08846474     26.98478317
Na       18.74119186     -2.54025531     -0.49218860
Na       20.30110359     -0.16471338      8.95626163
Na       20.39959526      4.80576038      9.52598381
Na       20.51972580      4.75079250     13.53250885
Na       20.51935768      9.62755394     22.82993507
Na       23.28867149     -2.74916840     22.55323601
Na       15.81247807      4.17449951     27.16117859
Na       24.76072884     -4.49114752      8.95163345
Na       18.27892113      9.52350044     -2.30467486
Na       18.46349907      2.23524547      4.82787275
Na       18.23729706      6.65881729     23.21183777
Na       18.44910622      6.80438948     27.59186935
Na       13.64778423      2.18905950     27.57411385
Na       13.39345551     11.47104168     32.63588333
Na       17.90817833      6.89658594     -0.28352502
Na       20.60496712     13.96955395      9.34478378
Na       22.16978645      2.29342008      8.97037220
Na       18.27975464      4.73326778     16.04006386
Na       26.81315613      9.46072865     20.83813667
Na       22.96478653      4.43045521     20.33035851
Na       18.11853409      2.35144258     31.95165634
Na       13.66384125     13.46088123     -2.24790621
Na       22.75536537     13.62316132      7.02690268
Na       17.94526863     13.91515732     11.47859478
Na       20.44295502     13.51455021     13.27264023
Na       22.55772972     11.44691086     27.17509842
Na       11.29304600     14.12107182     22.59033775
Na       22.68679047     15.91441154     27.21662521
Na       16.21436882     23.44404221     -0.17427672
Na       18.26737022     20.18519783      4.77709770
Na       22.81974030      9.22614288     20.53368187
Na       22.95984077     20.57275009     22.74564743
Na       15.92132092     13.56474686     18.31107712
Na       15.57114029     18.08764076     36.36754227
Na       17.81894112     15.89652061     27.61458397
Na       18.02202415     24.81616402      4.12776756
Na        8.75641727     20.29696083      4.44936705
Na        8.91806507     27.13367081      6.53844881
Na       22.98983383     25.07764816     13.64495659
Na       16.04007721     27.37553978     18.27832985
Na       18.57567406     20.51290703     23.39505005
Na       17.77463341     20.33957863     31.66989517
Na       14.56985950     29.73126984      4.67722893
Na       14.08186436     29.73539734      8.83418369
Na       18.36450768     27.06951332     11.79644108
Na       18.61241341     27.57797432     20.59380913
Na       18.29601479     29.58041954     18.15078354
Na       17.89333916     27.51859665     29.57267952
Na       20.49617767     22.79413033     27.01955986
Na       36.74345016     -2.57201362      4.32007456
Na       24.90173721      0.70990145      4.53317499
Na       18.57285500     -0.10933001      6.76657534
Na       22.39144325     -2.34295225     18.15333557
Na       25.07527733      0.18908320     13.24173164
Na       20.65142632     -0.08873464     22.73570824
Na       25.08830261      8.79277992     36.85564804
Na       16.33704185      9.15654945      4.21190834
Na       22.72957420      6.61983728      9.39526367
Na       18.59399986      2.53301597     13.47450733
Na       22.94139481      9.37672329     15.98101234
Na       22.94599724      2.27047634     27.00809860
Na       22.74481392     -0.33318120     20.47255898
Na       27.69154167     -2.52819276     31.88620949
Na       23.06864738      8.90238762      7.11469126
Na       20.74385452      8.97130871      4.72489691
Na       27.37692070      6.96465302      9.09964752
Na       20.49573898     13.72457981     18.40698814
Na       20.69868851      9.33960819     17.68143463
Na       25.14663124      4.82774544     22.36208725
Na       25.15180016      4.44787025     32.25491333
Na       18.20020866     13.69505978      7.18921375
Na       13.89167023      6.86046791      4.84518337
Na       25.26432419     18.42439079     13.79830647
Na       13.81195164     18.73282814     24.82133865
Na       18.36804008      9.14193439     25.22224236
Na       20.29872513     13.65502453     23.49540710
Na       20.14836693     14.02262020     27.32274818
Na       27.03385162     27.23334503      6.58953857
Na       20.17429733     22.60618591      4.66317415
Na       22.84183311     20.63352394      9.32305145
Na       20.46247482     18.54490471     13.58883476
Na       27.65959549     22.95971489     25.01171684
Na       22.16455650     15.78671360     23.21009254
Na       22.40270996     20.51150513     31.92230415
Na       18.22551346     22.24019241      1.76705039
Na       22.56367874     15.75249672      4.42552662
Na       20.71267891     18.53525352      9.66553879
Na       14.00804234     23.14172554     15.41304779
Na       23.15703583     22.86999321     16.18969727
Na       22.73904037     20.43360710     27.34278297
Na       22.18587494     23.25824547     34.36330414
Na       22.52318001     27.00909615     -6.89377117
Na       26.76904106     27.34250641      1.96353686
Na       22.56358910     25.10660362      4.48084497
Na       13.42718983     25.08484840     17.75943756
Na       27.29665756     18.31968689     20.60864258
Na       22.60095787     20.82985115     18.41273689
Na       24.75216293     22.81163406     31.62950706
Na       27.18304634     -4.70773220     11.16534424
Na       34.21524811     -4.20571375      9.16674709
Na       29.77678871     -0.32324195      9.28885651
Na       22.63650703      4.56157351     15.77086163
Na       26.87818336      2.09252262     22.91252327
Na       27.27056503      4.37598419     24.89869118
Na       31.84083557      0.09313597     38.64491272
Na       27.72548676      4.40275002      6.69048786
Na       27.01862717      9.54974461      2.52508259
Na       25.10078812      4.57747984      8.79552460
Na       24.83732224     -0.05883940     22.56698227
Na       27.35788918      6.78871489     18.31233406
Na       29.75322342     -0.03190542     26.90666962
Na       20.33436966      4.43039894     32.03786469
Na       31.70083809     13.94571781      6.65019655
Na       24.77327156     13.89230442      4.58038998
Na       27.23006439      4.30426264     11.35463810
Na       38.97565079      9.19416809     13.78008747
Na       29.83618927      4.63977623     13.37764931
Na       31.98925781      9.51416016     34.28945541
Na       20.54453659     13.43251133     32.11671448
Na       29.72735023      9.26053905     -4.71050310
Na       22.97076988     15.88723278     -0.18480551
Na       20.88673210      9.08728695     13.68734360
Na       22.91515160     11.29720783      9.92101574
Na       27.09843254     13.78162861     25.06381416
Na       32.15328979     13.41142845     20.68524551
Na       26.88541031     18.18060493     34.29273224
Na       20.63378143     17.95286942     -4.19429445
Na       29.39550209     17.83648109      4.72034550
Na       27.08392715     18.64777184      6.67430162
Na       24.98049736     18.29496384      8.72173595
Na       25.21976089     23.04947472     18.55713844
Na       27.43151855     11.48067284     23.19397163
Na       27.19582367     18.28151512     29.59903717
Na       20.35460854     26.87770081     -0.36228174
Na       32.26172638     23.21925545      7.03090620
Na       20.60031509     27.57034302     13.85255814
Na       27.42281532     27.41952896     15.61734200
Na       29.90142059     18.12742615     18.24056053
Na       27.95848656     18.18833733     24.97563934
Na       31.75969887     29.83683014     23.11798859
Na       25.03301811     27.18853569     -0.69449520
Na       29.55095291     32.33774185      4.14844227
Na       20.48900986     31.83059692     13.50987720
Na       29.71754074     22.60193062     18.29834366
Na       20.60902214     27.19571495     18.07229233
Na       34.33772659     27.13488579     26.84258461
Na       31.88725853     27.42225647     29.61612892
O        -0.11301640      0.06239662      4.26997137
O         0.14263292      0.27970073      8.81308365
O         0.15385020      0.27545953     13.43319893
O        -0.00287180     -0.19868846     18.13016129
O        -0.17786491      0.23825526     22.97999001
O        -0.00855365     -0.00513315     27.34125900
O         0.01604197      0.15165789     31.69761086
O         0.02741354      4.68261623      4.59135723
O        -0.21441917      4.77835512      8.71193218
O         0.08141284      4.49187422     13.63461876
O         0.43452793      4.68358994     18.43009567
O        -0.05760115      4.45755386     22.74119186
O        -0.01860990      4.51950026     27.16419983
O         0.13324189      4.76807308     31.57803345
O        -0.21350124      9.18090916      4.46296453
O         0.04965265      9.14904976      9.09108829
O        -0.12355307      8.70499039     13.43383503
O        -0.19042511      9.17609406     18.01581955
O         0.16598628      9.40907001     22.82361221
O        -0.14786381      9.27507210     27.28994942
O         0.03251912      9.16112041     31.83290291
O        -0.07783766     13.70255184      4.31898832
O        -0.23494090     13.53328609      9.09524059
O         0.03460308     13.77989101     13.55480480
O         0.20953840     13.76119709     18.40185165
O         0.37106040     13.96737766     23.06732559
O        -0.13712433     13.52539539     27.46415710
O        -0.03564509     13.79512691     32.06989670
O        -0.25849971     18.31672096      4.54414845
O         0.01243556     18.25156975      8.84059238
O        -0.33744708     18.21125603     13.50127602
O         0.36480734     18.29162598     17.79277420
O         0.31203282     18.17720795     22.81830025
O         0.07285281     18.32627106     27.45786476
O        -0.13122681     18.49126434     31.78741074
O        -0.43688217     22.84808731      4.36623621
O        -0.00151852     22.65300179      9.11770725
O         0.21897447     22.69968414     13.42223454
O         0.09052946     22.76029015     18.22855377
O        -0.03427080     23.06787872     22.45051193
O        -0.09502921     23.22738647     27.19049835
O        -0.25415397     22.91112709     31.94019508
O        -0.11965831     27.25727463      4.51978445
O         0.02355659     27.61809158      9.14933205
O        -0.13552985     27.54785728     13.55512619
O         0.09354463     27.54145622     18.10120964
O        -0.04926841     27.51414871     22.61933136
O        -0.08625607     27.64355278     27.06481171
O        -0.10949257     27.39575768     31.99371147
O         4.51258183     -0.08143626      4.48651409
O         4.31808519     -0.12135548      9.17875957
O         4.60686731      0.13314155     13.50399208
O         4.68601608     -0.12489664     18.19612694
O         4.47473526      0.03712892     22.61894989
O         4.45473194     -0.18175896     26.91071892
O         4.68071222      0.02753172     31.71035385
O         4.61953735      4.38286448      4.52572680
O         4.67533684      4.21696854      8.95631981
O         4.76085711      4.51443958     13.62036896
O         4.95012856      4.66398907     18.29736900
O         4.36360312      4.88666248     22.57578087
O         4.55592632      4.56696558     27.18770218
O         4.65481043      4.60702229     31.94654083
O         4.89972734      9.19325924      4.48888540
O         4.56525946      9.09271049      9.03743458
O         4.66446209      9.10706902     13.62104225
O         4.54923964      8.80243778     18.33491707
O         4.45734119      9.16901398     23.12924194
O         4.62333536      9.05852604     27.44634247
O         4.42145586      8.98045731     31.92986488
O         4.26089048     13.49173641      4.57169199
O         4.61802340     13.52322197      8.99936962
O         4.76476526     13.57740879     13.49054527
O         4.47690582     13.55244827     18.39205933
O         4.67455006     13.54767799     22.69795227
O         4.80754852     13.78676224     27.49436188
O         4.29662085     13.71108532     32.06569672
O         4.00965023     18.15815735      4.42595196
O         4.29588127     18.16709328      8.91070938
O         4.35128260     18.08345604     13.49301815
O         4.57949257     17.82775307     18.16321754
O         4.74948263     17.97025490     22.87486839
O         4.35411930     18.52651024     27.27177429
O         4.32916737     18.04728889     31.70389748
O         4.40573454     23.20846176      4.38479948
O         4.55907536     23.30937004      8.94340706
O         4.42900133     22.78585815     13.37225914
O         4.31079102     23.27712250     18.16177559
O         4.44004488     23.20602798     22.58226585
O         4.43508911     23.09247780     27.22147942
O         4.43189096     22.61015701     31.75516129
O         4.34886074     27.36359787      4.39408445
O         4.50333023     27.27878380      9.22801399
O         4.59346104     27.62965393     13.57523727
O         4.56777048     27.53950500     18.03471947
O         4.54595852     27.36415482     22.67202377
O         4.43167639     27.60432053     27.22085381
O         4.44092941     27.43597031     31.79954720
O         9.12267494      0.49226159      4.13740015
O         9.26297283     -0.24358024      8.94354057
O         9.26756096      0.09858829     13.81408596
O         9.06104469      0.22413422     18.12363052
O         9.05685425      0.00361870     22.55872726
O         9.17104149     -0.27582955     27.07571220
O         9.14244938     -0.13912934     31.50621033
O         8.99618340      4.70970249      4.55167294
O         9.03664112      4.63593340      9.24497890
O         9.13663769      4.53508759     13.83488941
O         9.08117104      4.52427197     18.23478699
O         9.25623035      4.53271532     23.09126282
O         9.06991959      4.41579056     27.44190407
O         9.20252037      4.55005169     31.91245270
O         9.33729362      8.80660820      4.76758194
O         8.73186207      9.36063766      9.13084126
O         9.18005276      9.23707771     13.69762325
O         9.19281483      8.99980831     18.24272156
O         9.19105625      9.19535255     22.95770073
O         9.21114826      9.03262234     27.29429054
O         9.26468182      9.14094257     31.81247711
O         9.35225582     13.55943108      4.77971888
O         9.05426788     13.66190243      9.19006824
O         8.87622643     13.44633007     13.98257446
O         8.99642372     14.12843418     18.00842667
O         9.18484879     13.96919346     23.06319427
O         9.17424297     13.70337772     27.36491203
O         9.18729115     13.69643879     32.01601028
O         9.07240295     18.12627411      4.69327974
O         9.07281017     18.07257652      8.96263599
O         9.12624550     17.98793030     13.82965660
O         8.84486008     18.63699341     18.07094765
O         9.26923275     18.29252625     22.52227402
O         8.86108780     18.13142395     26.98413467
O         9.00509167     18.19412994     32.01037598
O         8.96040249     22.61515999      4.53041649
O         9.11867809     22.79961014      8.75211239
O         9.05988979     22.80323982     13.61789322
O         9.14408207     22.91556168     18.21804428
O         9.03403473     22.93836975     22.83458710
O         8.86461449     22.63128281     27.51943970
O         8.91244030     22.74536133     32.03208160
O         9.30815887     27.23608208      4.31773424
O         9.03750229     27.43769646      9.04898548
O         9.26104259     27.31362343     13.44115829
O         9.11351013     27.38452148     17.87487030
O         8.92886829     27.34111214     22.81063652
O         9.21461582     27.23212814     27.03813934
O         8.81835270     27.25572205     31.43815994
O        14.04999447      0.02895069      4.26744604
O        13.72665691     -0.02998792      8.81315708
O        13.66952515     -0.18837202     13.51699734
O        13.41348648     -0.01124197     18.47436333
O        13.70969105     -0.08633081     23.00660133
O        13.67218304     -0.05682071     27.40538788
O        13.93325043     -0.13082506     31.85377693
O        13.78566837      4.45404387      4.60097551
O        13.81342602      4.48954678      9.06435013
O        13.78035355      4.57401991     13.67148590
O        13.57845688      4.92591619     18.17562485
O        13.71283913      4.26382208     22.76931763
O        13.64333057      4.36991930     27.70302582
O        13.64715481      4.50941849     32.15741730
O        13.71296501      8.98114586      4.15082455
O        13.55785847      9.36110878      9.16129684
O        13.80281258      9.12200165     13.64144611
O        13.57717228      9.19811344     18.24681473
O        13.81263828      9.01849270     23.05005646
O        13.62953377      8.95448208     27.60072327
O        13.54018974      8.77135181     32.04432297
O        13.49612808     13.75749493      4.84004831
O        13.86484718     13.75770760      9.22575569
O        13.63470459     13.78046989     13.65077114
O        13.83734226     13.75213242     18.17985916
O        13.59836769     13.56430244     22.86423302
O        13.36726856     13.60778713     27.47336960
O        13.47313881     13.71562195     32.01441574
O        13.41361904     18.40628052      4.74413300
O        13.81160927     18.33875275      9.08052826
O        13.42725563     18.28474617     13.47641945
O        13.89944267     18.09272957     18.18108368
O        13.75514317     18.19457054     22.53953362
O        13.51754093     18.04460716     27.54805946
O        13.27000618     17.94749451     32.11578369
O        13.65091801     22.64412689      4.48187065
O        13.58975697     22.79071999      9.00871754
O        13.30918884     22.98556519     13.45780659
O        13.81797218     22.87416077     17.86234856
O        13.45301437     22.95301056     22.61822701
O        13.58490086     22.71721840     27.18313980
O        13.65462685     22.77477074     31.92711449
O        13.70152187     27.08845711      4.38406229
O        13.50165176     27.43524361      8.90009594
O        13.80753517     27.08551979     13.69448185
O        13.82516956     27.36738968     17.96220779
O        13.56319427     27.45258713     22.42020226
O        13.51771164     27.41239548     27.32479668
O        13.76846409     27.33489609     31.64111328
O        18.51569557     -0.01360740      4.49501467
O        18.16421509     -0.00880302      9.06926441
O        18.30780792      0.12891181     13.77238750
O        18.03783607      0.10195609     18.26015663
O        18.32906532     -0.05368549     22.72309303
O        18.13490295     -0.23410948     27.12215424
O        18.36282158      0.07229170     31.95881844
O        18.15571404      4.46316576      4.55281591
O        18.10791588      4.60225821      9.00540829
O        18.23954582      4.54434395     13.78240681
O        18.05294418      4.49690628     18.14097977
O        18.10592461      4.56355190     23.04234886
O        18.16911507      4.40442133     27.49944305
O        18.06101990      4.69185925     32.01826859
O        18.22049141      9.17795753      4.80008554
O        18.50958824      9.18280411      9.33770561
O        18.60652161      9.07314777     13.61709881
O        18.24697685      9.00775719     18.21833420
O        18.46183395      8.95270252     22.95877647
O        18.23514175      9.10155582     27.45672035
O        18.40121269      9.00204468     32.25459671
O        18.05976486     13.70901489      4.93555927
O        18.45348740     13.59842777      9.45771503
O        18.30794334     13.74117374     13.64787102
O        18.32593918     13.68673992     18.42801285
O        18.29790306     13.62721920     22.91375160
O        17.93741417     13.65886116     27.49733734
O        18.04901505     13.75238037     32.05105209
O        17.89733505     17.91098022      4.42322016
O        18.30697823     18.13362122      9.38999844
O        18.44135094     18.05945778     14.25293255
O        18.32448578     18.27116394     18.30017662
O        18.08838272     18.32805824     22.75287437
O        17.97194672     18.18214226     27.57461739
O        18.02631378     18.09222221     32.15763092
O        18.00527954     22.38793945      4.60128689
O        18.05823708     22.75304794      9.20188046
O        18.30793571     22.67389870     13.67665005
O        18.28166580     22.97517014     18.13706017
O        18.24947166     22.73233604     22.96313477
O        17.79704666     22.56587791     27.42960548
O        18.18708420     22.37258339     31.57182693
O        18.00937462     27.16334343      4.51278973
O        17.88473701     27.33781815      9.08584595
O        18.26076508     27.53587151     13.79576969
O        18.38231277     27.25190735     18.16590118
O        18.17673302     27.44611549     22.90498161
O        17.95307732     27.41041946     27.35393143
O        18.26712036     27.43948174     31.74549294
O        22.81508827     -0.23509879      4.39667940
O        22.34735489     -0.00029509      9.01591969
O        22.85768509     -0.34938744     13.49838829
O        22.62764549     -0.02923680     18.20053673
O        22.81282616     -0.46824118     22.62223053
O        22.48893547     -0.08646391     27.37397194
O        22.92775154     -0.19741648     31.82581329
O        22.88991547      4.75814056      4.69545078
O        22.97053528      4.43073750      9.06729412
O        22.91932487      4.33126259     13.65785885
O        22.86915016      4.43181849     18.12756538
O        23.07959175      4.71050310     22.68485260
O        22.99349976      4.48869514     27.05339813
O        22.83285141      4.37056971     31.96086502
O        23.06120300      8.90135574      4.72167397
O        23.02973557      8.96985340      9.40089703
O        23.17517281      9.44101143     13.61328506
O        22.79144287      9.29844761     18.16901588
O        22.82469749      9.21670723     22.79228020
O        22.87383842      9.11170959     27.37413788
O        22.85167122      8.89806175     31.84591103
O        22.68928337     13.39997387      4.46701050
O        22.65596771     13.80464840      9.41170692
O        22.67848206     13.91778946     13.68404579
O        22.63193130     13.70216465     18.03175354
O        23.02605438     13.91010571     22.54532051
O        22.33715820     13.73182011     27.19230080
O        22.65410423     13.32906723     31.90603638
O        22.56082726     17.85943222      4.54088736
O        22.80736351     18.23839760      9.53133392
O        22.80567169     18.58246040     13.72443962
O        22.82807732     18.38996696     18.24608803
O        22.53595352     18.25809669     22.94696999
O        22.81241417     18.11616516     27.44901848
O        22.68986893     18.18910217     32.32510376
O        22.44055367     22.94070816      4.60866594
O        22.91798401     22.74138260      9.12505913
O        23.20907211     22.85991669     13.71585751
O        22.69518280     22.99498749     18.49492836
O        23.02695656     22.66069984     22.81384850
O        22.66320229     22.71323204     27.32684708
O        22.50723839     23.01898193     31.76872063
O        22.35068512     27.36835861      4.30146646
O        22.29492569     27.18824005      8.95253372
O        22.90841866     27.43651772     13.46259403
O        22.72378349     27.34390259     18.19028473
O        22.84331512     27.33230972     22.78063774
O        22.55541229     27.17535782     27.24417686
O        22.79127312     27.35468674     31.81670380
O        27.40966797     -0.02559942      4.45065212
O        27.54367638     -0.06399590      9.02116299
O        27.44429779      0.27101466     13.58017635
O        27.53709984     -0.01477670     18.11239815
O        27.08610153     -0.04623278     22.69673157
O        27.43598366     -0.13363317     27.22745132
O        27.65085030     -0.22702226     31.79763412
O        27.19397354      4.54131889      4.50028419
O        27.46888733      4.73799753      9.13564301
O        27.69692612      4.76856756     13.54200745
O        27.33748817      4.64471102     18.27892113
O        27.13813210      4.59605408     22.62773132
O        27.30115891      4.67998028     27.07691765
O        27.53849030      4.57397890     31.96443176
O        27.32854652      9.03420734      4.61746264
O        27.59036255      9.27102757      8.87454700
O        27.76302338      9.44110775     13.79890442
O        27.35159111      9.32463360     18.16921616
O        27.64982224      9.22115898     22.79488754
O        27.25209999      9.18741131     27.61498833
O        27.39522552      9.00614357     32.04977036
O        27.28595734     13.74259853      4.63038301
O        27.27925873     13.87200356      9.27843094
O        27.57143021     13.82628536     13.64003563
O        27.41493797     13.69314766     18.05438995
O        27.79013824     13.91777992     22.84346962
O        27.31200027     13.83130932     27.47984695
O        27.38127327     13.53713036     31.92811394
O        26.96944237     18.17837906      4.39385319
O        27.13737869     17.99425316      8.81121826
O        27.46889687     18.51605797     13.55668831
O        27.54296494     18.46421623     18.04429626
O        27.60567284     18.08260727     22.69439125
O        27.31713676     18.38023376     27.12888145
O        27.23363113     18.35936546     32.09452438
O        27.11880875     23.02634430      4.46933270
O        27.43531227     22.88576508      9.06949615
O        27.53265381     22.82334900     13.64649010
O        27.54940605     22.91885567     18.49988174
O        27.71393204     22.90027237     22.91887093
O        27.45850372     22.77708244     27.26030731
O        27.15104485     22.71112251     31.90140915
O        27.21309090     27.33165169      4.33520842
O        27.12312317     27.40665436      8.93168831
O        27.03955650     27.28967285     13.26463985
O        27.32061005     27.39853859     17.99232101
O        27.22114563     27.33809471     22.62136841
O        27.70146561     27.42642784     27.26151657
O        27.30377769     27.34461784     31.77290726
H         2.00224686      0.87408012      1.94336903
H         2.74482036      2.32781649      2.88969994
B         2.16623116      2.07823730      1.84536970
H         2.77597976      2.41528082      0.97336590
H         1.15969503      2.60488105      1.76326764
H         2.09728956      2.34363222      5.14006281
H         1.74131715      2.15794778      7.19309044
B         2.40542364      1.89626563      6.15053272
H         2.34525466      0.66086417      6.09684038
H         3.47319221      2.30213642      6.59433985
H         3.64615512      2.33370781     11.17519379
H         2.43903637      2.52620387     12.81621170
H         1.63299763      1.89133978     11.14502335
B         2.53182960      2.62967420     11.62836742
H         2.50039577      3.88960361     11.43126106
H         2.65095973      2.66540265     14.93753815
H         2.35390925      1.04790330     15.81910801
H         1.26282191      3.10980630     16.08513260
B         2.23626375      2.35589194     15.99844646
H         3.10208488      2.78883934     16.69143867
H         1.31066549      2.36551785     20.76114464
H         2.36815619      1.61879790     19.11715889
H         3.41032028      2.20619226     20.82004547
B         2.48786163      2.18897009     20.16632652
H         2.51884794      3.47778249     19.95730591
H         2.97074461      3.18021679     24.18463135
H         2.27744532      2.79495311     25.98971748
H         2.62827539      1.15198207     24.67510414
B         2.30639744      2.44847298     24.89270592
H         1.19620979      2.50243592     24.52207184
H         3.03563237      2.64690638     28.74197006
H         2.59196234      2.23382282     30.80233574
H         2.12835431      0.99088985     29.48051453
B         2.30987692      2.14727759     29.62672615
H         1.14579403      2.66912246     29.57783699
H         2.36816359      7.02635670      0.90182114
H         0.55601978      7.15884542      2.43057108
H         2.31248450      7.95424986      2.63795495
B         1.85010779      6.94799805      2.13543200
H         2.34337068      6.00683689      2.69195342
H         2.74971747      7.03232574      7.82192373
H         2.12679029      5.91051960      6.53671741
H         2.46773243      7.89454651      6.18085146
B         2.04375935      7.07966805      6.89218950
H         1.04121399      7.25113249      7.43168354
H         3.38910937      7.45754385     12.18281078
H         1.66775346      6.56253815     11.64955807
H         3.32791901      6.49759817     10.25816250
B         2.70151496      7.19075727     11.13131714
H         2.40522075      8.16080761     10.66715813
H         1.82215095      6.23054171     16.77356720
H         3.69979453      6.42668676     16.38057327
H         2.54702735      7.94246912     15.58994007
B         2.59294868      6.69720221     15.91206551
H         2.39624596      6.13376093     14.88322926
H         1.34154844      6.28875923     21.12697601
H         2.45358777      8.28957558     21.12408638
H         2.88923216      7.01231813     19.70089722
H         1.08534634      7.89125156     19.77631950
B         1.94725525      7.20820284     20.47852707
H         2.08534050      6.55142736     23.90734482
H         0.76131845      6.85730028     25.52718735
H         2.71968985      6.86486626     25.76410866
H         2.05906773      8.20338821     24.71771812
B         1.82317722      7.16268778     25.01274109
H         2.11437988      6.87735224     27.91339493
H         2.85432506      7.16490555     30.00971794
H         1.10176158      7.17469358     29.41570854
H         2.01404214      5.34361267     29.28928375
B         2.15249825      6.60088062     29.13912964
H         2.63217163     12.39473820      1.76500762
H         1.26013935     11.26692009      1.50104284
H         2.96112132     10.33852863      2.24043036
H         1.95319498     11.49970341      3.39864898
B         2.15541625     11.31685925      2.18941545
H         2.83858085     10.49945259      7.69478035
H         1.67849624     10.74122524      5.89686203
H         1.42466497     11.91929626      7.31661272
H         2.91614366     12.21665096      6.26446915
B         2.37192822     11.35560131      6.88171911
B         2.14645910     11.34678459     11.50035000
H         3.16792154     10.98224449     10.88949013
H         1.83667958     10.88842106     12.48021317
H         2.64265823     12.42307949     11.74442768
H         1.22891986     11.69971848     10.75818253
B         2.23109794     11.27614689     15.90420628
H         3.25688362     11.61844349     15.40864944
H         2.33340573     10.11409760     16.29261398
H         1.82365966     12.01356602     16.67124939
H         1.38715792     11.05243206     14.99043751
B         2.50747347     11.43882751     20.87611580
H         2.49827671     12.71889210     20.72847557
H         3.63648057     10.91134834     20.99148941
H         1.87606359     11.01748371     21.75134277
H         2.13411403     11.19289875     19.69188499
B         2.08375692     11.24401569     25.53585434
H         0.98412633     11.57017708     25.04270363
H         2.01679206     10.06285572     25.20186806
H         3.10596633     11.63557720     25.18038940
H         1.99161696     11.44918251     26.75259781
H         2.56434560     10.52664566     30.73905754
B         2.18624043     11.27156162     29.86574173
H         2.18580246     10.68496609     28.85215569
H         3.18353295     11.91716957     29.60520172
H         1.23004138     12.09186935     29.80739784
H         2.04565001     15.26124096      1.81812418
B         2.37640166     16.24943161      2.49194360
H         2.03675079     17.18123627      1.87458146
H         3.56951213     16.06354904      2.57644081
H         1.99393785     16.24358559      3.65713239
H         2.51634598     16.54237175      6.49666071
B         1.78927910     15.76852989      7.14635897
H         2.16410446     16.31829834      8.21842384
H         2.25100541     14.71268463      7.24201107
H         0.62934309     16.16683388      6.87479591
H         2.59833336     15.94815826     12.37531948
B         2.14832139     15.81993675     11.20857906
H         2.98112202     16.52106094     10.95592022
H         1.01491034     16.28081894     11.24539089
H         2.58321643     14.85811424     10.70666027
H         0.81562155     15.82907009     15.52543068
B         2.07199049     15.69112682     16.03237724
H         2.12659645     16.30733299     17.16673660
H         2.70210385     16.20531464     14.98955822
H         2.17473984     14.52999306     16.15077591
H         3.42268538     16.12104607     20.12958145
H         2.48927665     16.56867409     21.64682007
B         2.40541625     16.49321175     20.41621780
H         2.52376270     17.53521347     20.01306534
H         1.50726902     15.81373978     20.07311821
H         2.60909820     15.16753960     24.76708031
H         1.88072002     15.37330151     26.51283073
B         1.87011039     15.85803795     25.40865898
H         2.64418721     16.90175629     25.57281876
H         0.80017924     16.21305275     25.03445816
H         1.75765705     16.31559372     31.05199814
H         0.84136754     16.01500130     29.32210350
B         1.87928343     15.97500610     29.85829353
H         2.55311489     16.62978172     29.15607452
H         2.34089255     14.78123665     29.88851738
H         1.75377309     20.47340965      3.09736729
H         2.03655696     21.99444008      2.04355216
B         2.44219303     20.87920952      2.06747818
H         3.74857998     20.58775902      2.01785111
H         1.85450220     20.29624557      1.14427304
H         0.96127367     21.39733315      6.76461077
H         2.07529378     20.47398376      5.35695267
B         1.98838055     20.69407463      6.69549990
H         3.00782871     21.17728233      6.82973289
H         1.86030447     19.78862572      7.43632126
H         1.99407661     19.23105049     11.63814640
H         1.65187240     20.92440224     10.77174664
B         2.45123816     20.28462219     11.39845753
H         2.41832161     20.93348694     12.45635414
H         3.64634180     20.55429459     11.06400967
H         3.47438216     20.13128090     15.11404133
H         1.37378144     20.60638428     14.91156292
B         2.54477334     20.66461372     15.70445538
H         2.09690475     20.17298317     16.70468521
H         2.80814719     21.73345757     15.92967796
H         0.78614306     20.83777237     20.06119156
H         1.98068988     20.67020226     21.85846901
B         1.86098385     20.70763969     20.60661888
H         2.40607691     19.85693359     20.05820847
H         2.41284752     21.70698166     20.52693176
H         1.44169450     21.58345032     25.60918808
H         3.14196301     21.90336609     24.96323395
B         2.29231668     21.15673637     25.08361816
H         2.65881658     20.14162445     25.55428314
H         2.34994483     21.12181473     23.89678955
H         1.54816902     19.87582207     30.48511505
H         3.21580338     21.20952034     30.40817261
H         1.40227187     21.16715622     29.20163345
B         2.33776879     20.51586151     29.77672958
H         2.75844049     19.83521080     28.84050369
H         3.19168782     25.90552902      2.43590736
H         1.84956181     25.18976784      0.96400428
H         1.14265335     25.86341286      2.81757474
B         2.06376314     25.24587631      2.29554677
H         2.19265175     24.12365341      2.75582290
H         2.80858636     23.83624458      7.43474722
H         1.75455618     24.53585625      5.61164379
H         3.40703154     25.53769302      6.48228598
B         2.40712452     24.82329559      6.79237127
H         1.51885188     25.39227295      7.57555914
H         2.43004870     24.71285629     10.42831993
H         3.00033593     25.54644775     11.94665527
H         1.12889123     25.46987152     12.06620121
B         2.02017879     25.65311241     11.22984314
H         2.37461305     26.73511505     10.96945477
H         1.33236277     24.30722427     15.64561367
H         3.42610526     24.61575699     15.95861244
H         1.99971163     25.74177551     16.92166519
B         2.30671024     25.06334305     15.84058380
H         2.35033774     26.06869507     14.90329552
H         2.58074045     25.02606201     21.56068993
H         1.05127978     25.25856972     20.48184395
H         2.85780811     24.82888222     19.62129974
B         2.28602767     25.38552856     20.50109863
H         2.41744375     26.64460945     20.44229317
H         3.01064610     24.71960831     23.88267708
H         2.30606151     24.69218636     25.78133202
H         1.12265456     25.50185966     24.42138100
B         2.39568806     25.25269699     24.76820946
H         2.93914413     26.32807541     24.87242317
H         3.42390895     24.68366814     29.83024406
H         1.55614579     24.01834297     30.04149437
H         2.17964172     24.99365044     28.33582687
B         2.27578115     24.89291191     29.53042603
H         2.24234414     26.04680252     29.98839951
H         3.02771568     29.90709686      3.11520553
H         2.96034908     30.14561462      0.95308918
H         1.38349092     30.20657730      1.91346514
B         2.53203487     29.73365974      1.99139357
H         2.42232513     28.54518700      1.81589341
H         2.82714581     29.91018486      7.45239830
H         2.56621718     29.40696335      5.54407358
H         1.53331137     28.43879890      7.16260004
H         1.33575249     30.28221512      6.30118561
B         2.10480642     29.42810631      6.68481541
H         1.30695581     30.24053001     12.14701366
H         1.71898663     29.73556519     10.24660969
H         1.90553367     31.73369408     10.72336388
H         3.22403646     30.29074097     11.66400909
B         2.01722169     30.54221535     11.17479706
H         1.55573225     30.35470963     14.31356144
H         2.37030602     28.71953011     15.15243340
H         2.96614242     30.42336464     15.95727062
H         1.03813386     30.00461578     16.24989319
B         1.97026813     29.86462784     15.38781452
H         3.56597614     30.00811386     20.36232758
H         1.67351878     30.60980606     19.79905319
H         2.04232550     28.92738342     20.67944908
H         2.37764859     30.53316498     21.82391739
B         2.34358621     30.14416313     20.57315636
H         1.83266008     28.98812485     23.92864227
H         1.65205634     30.39790344     25.45034027
H         3.33290124     29.15347672     25.30254936
H         3.15034175     30.50825119     23.93894577
B         2.44007587     29.83554077     24.63435936
B         2.30954170     29.77081871     29.37322235
H         2.09868574     30.68267250     28.66440392
H         3.31446362     29.94905281     30.13585091
H         1.30890572     29.54910660     29.97965622
H         2.44210386     28.76379013     28.53640366
B         6.64567327      2.29658103      2.06280971
H         7.05459452      1.98727465      0.98952764
H         7.17548943      3.35203815      2.52436876
H         5.47920847      2.45580554      2.01288605
H         6.99901295      1.52838135      2.90996623
B         6.49892092      1.88948083      6.99086428
H         7.71034956      2.33647609      6.84514618
H         6.46328926      2.10967016      5.81472349
H         6.94375896      0.71516603      7.30217600
H         5.88467979      2.81217432      7.66788769
B         6.70767593      2.55651832     10.87145519
H         7.68276930      2.20525074     11.61804771
H         5.60103178      2.07812953     11.12406635
H         6.49185181      3.77054143     11.16877365
H         6.96801615      2.28990197      9.61524105
H         6.98717833      2.56008720     14.58886337
B         6.68227053      2.02267456     15.70179081
H         7.45417690      2.28476548     16.54534531
H         6.86256599      0.87996799     15.41888905
H         5.44500208      2.18275189     15.88353539
H         6.77404881      1.09671569     20.58306313
B         7.04869604      2.20787024     20.76108932
H         8.28671169      1.96902859     21.05813599
H         6.38514328      2.61311316     21.68606186
H         6.83021879      2.82077694     19.77904510
H         6.86697626      0.58953458     24.59293175
B         6.72003365      1.76158726     25.01041031
H         7.19107723      2.54303789     24.16277504
H         7.25180769      1.97722006     26.07103157
H         5.67709541      2.08858061     25.06429672
H         6.20048380      0.87612867     29.58025360
B         6.72618103      2.12062788     29.32986259
H         6.71272135      2.74543166     30.33683777
H         6.10178328      2.74139380     28.53977776
H         7.92170525      2.08608294     29.21175385
H         8.07141590      6.63677740      1.58042634
B         7.06035328      6.83702135      2.13800621
H         6.25750732      6.73292875      1.29875124
H         6.82529259      7.90484285      2.89654517
H         7.00405407      5.90126133      2.95520258
H         6.93339586      6.31634617      8.02805328
H         6.72576427      7.77947855      6.88193750
B         6.73875809      6.61214590      6.90172100
H         7.63427401      6.25205326      6.16404915
H         5.67054987      6.34274006      6.33713531
H         6.89214468      8.43756676     11.21109962
H         7.26831198      6.63501549     12.45454884
B         6.77428389      7.18427277     11.42547989
H         5.59451962      7.04627132     11.32980633
H         7.41670275      6.43971491     10.68933582
H         7.78108978      7.50130177     16.72043419
H         6.57969284      6.00318098     16.02480507
B         6.57094240      7.23745680     16.10557365
H         5.64642715      7.49522829     16.83197975
H         6.55982208      7.65011168     14.86147785
H         8.06727409      6.46573448     21.32448006
H         7.41842270      6.45659828     19.64239883
B         7.06096745      6.15982962     20.69385338
H         7.08369398      4.93494177     20.57823372
H         6.02730799      6.31573534     21.24176216
H         8.00944901      6.96528769     25.40052032
H         6.20224810      7.55141068     24.42599106
B         7.10026503      6.57362747     24.67633438
H         7.45967865      6.32139397     23.53272820
H         6.62996960      5.46388865     25.02491379
H         6.21658611      7.51149893     29.62405777
H         6.36591673      5.55990934     29.69090652
B         6.91063643      6.63196230     29.89172363
H         7.90032673      6.78585386     29.14403152
H         7.24034166      6.70841169     30.96448517
H         7.08295012     11.51650906      1.31700981
H         5.45561218     12.10106468      2.51299095
B         6.56493473     11.36845779      2.49334264
H         6.76031828     10.15437031      2.97360063
H         7.42509127     11.99290752      3.09589124
H         6.88947105     11.09117699      5.37005329
H         5.70835257     11.66438389      6.82771397
B         6.84770679     11.49852848      6.59877300
H         7.23998356     10.69290829      7.40463543
H         7.32598972     12.58730412      6.96215868
H         7.01153421     12.50280666     11.40135956
H         5.55261135     10.87648296     11.51419067
B         6.57209730     11.39277077     10.99876595
H         6.85273838     11.34397697      9.69870090
H         7.15939379     10.51154995     11.48023129
H         7.18334007     10.95977402     16.15925789
H         6.92839050     11.53157425     14.38089561
H         6.09223223     12.63090515     16.07831764
B         6.55618668     11.60102749     15.62263680
H         5.56324005     10.93057728     15.65520573
H         6.46919441     12.31532001     20.50368500
H         6.57761526     11.13281250     21.92091560
H         8.11858273     11.81815624     20.97005653
B         7.08998394     11.35041237     20.88388634
H         7.22950935     10.56666470     19.89834595
H         7.29651928     10.58016109     25.97681427
H         7.44475842     10.95383930     24.12674332
H         7.18658590     12.59442806     25.12294388
B         6.87316418     11.35798073     25.07407761
H         5.65693426     11.34345150     25.03236389
H         6.77242994     12.26000309     30.06961060
H         6.03038502     10.42658138     29.91201210
H         7.85836935     11.00047112     29.04512215
B         6.76451540     11.23015213     29.42542458
H         6.39988089     11.45237446     28.44935608
H         7.83638859     16.08658409      3.07298279
H         6.86594200     15.26203251      1.31375802
H         6.26343060     16.82629204      2.54104519
B         6.76322556     15.72820187      2.42140985
H         6.26296711     14.93587494      3.17470431
H         6.23974419     17.19203377      6.90898275
H         5.89767790     15.75838661      5.51001310
H         6.04296207     15.30139828      7.39716339
B         6.39879990     16.09043884      6.56304836
H         7.69571781     15.99879169      6.42857838
H         6.66372728     16.27331734     12.29477406
H         5.34725237     16.41750717     10.63887691
H         6.34927368     14.67882919     11.31653023
B         6.28399706     15.93052292     11.11556530
H         7.30747557     16.19041634     10.56819153
H         6.60710716     15.86630440     14.50020599
H         6.84912348     17.20007324     15.80116940
H         6.81033564     15.07264996     16.16342163
B         6.33232641     16.05093193     15.64794350
H         5.16389179     16.21065331     15.68081665
H         6.08040810     16.04997826     21.36594391
H         6.40373325     16.26011276     19.40576172
H         7.02358007     14.51370335     20.53269196
B         6.87223911     15.72770405     20.36365318
H         7.95526361     16.10661888     20.46095467
H         7.01158905     14.32748222     24.67933083
H         5.44088125     15.78890896     24.93737030
H         6.84964848     16.05977440     26.07958794
H         7.17419338     16.58834839     24.44729996
B         6.64111757     15.63202572     24.79158783
H         5.29783630     16.30366135     29.85266304
H         7.19641209     16.88865089     30.22454262
H         6.88203621     14.99381447     30.60420609
H         6.91399765     15.90988636     28.63409805
B         6.59479475     15.94050694     29.87739372
H         6.40937042     19.95799828      3.07148123
H         7.43160295     21.42583084      1.94540477
H         7.68896055     19.41997147      1.92656374
H         6.07448483     20.02229881      1.35176229
B         6.89917707     20.27551270      1.97952020
H         5.39687014     20.49053955      7.22389650
H         7.32972336     20.89294624      7.55325842
H         7.33804989     19.74522591      6.07083464
H         6.64956999     21.73473549      5.88925838
B         6.71310663     20.70838737      6.60617208
H         8.02877140     20.12732124     11.27292919
H         6.20052862     19.81655312     10.84774017
H         6.52486897     21.21131897     12.27429104
H         7.15506077     21.46699905     10.25202274
B         7.03851414     20.71255684     11.21563721
B         6.47845030     20.51148415     16.14203072
H         6.10953236     21.31403160     15.29736423
H         7.65691853     20.70300293     16.36967278
H         5.98266411     20.77708244     17.24517059
H         6.49039602     19.48875427     15.66931152
B         6.86385918     20.70181084     20.38040924
H         6.43410683     19.78299141     19.86567116
H         7.42769909     21.43331909     19.62093544
H         5.96333265     21.30306244     20.77253342
H         7.79599905     20.52332115     21.26671600
B         6.53999758     20.72264671     25.18277359
H         5.45788050     21.30860329     25.15909386
H         7.29975843     21.35299492     26.00064850
H         6.48290110     19.51399994     25.71211052
H         6.82659769     20.92185211     24.03781319
B         6.46361685     20.33821869     29.61923027
H         6.51984692     19.28009224     30.20444870
H         6.92489624     21.32535744     30.09380341
H         6.80507565     20.17853165     28.50304031
H         5.30763054     20.66479111     29.35016060
H         6.99513149     26.24427223      2.10474515
B         6.50924301     25.11446762      2.03061938
H         6.63876772     24.93358421      0.86710888
H         5.35894585     25.11554909      2.38436294
H         7.00778532     24.26775742      2.74879146
H         6.77413845     24.79161263      7.34111071
B         6.80535555     24.98230362      6.22236538
H         5.83351040     24.56040955      5.64365530
H         7.68358135     24.34842682      5.67844009
H         6.83360767     26.21412849      5.94030380
H         6.36619806     24.84544945     10.44989204
B         7.32644320     25.16775322     11.38353634
H         6.88701534     26.31199265     11.62854385
H         8.27325535     25.20198250     10.80377865
H         7.31233788     24.49046707     12.16709137
H         7.52918911     25.62912178     15.36705780
B         6.61176920     25.09115028     16.06065369
H         5.78716087     25.35752869     15.14495373
H         6.37673855     25.40666580     17.18277359
H         6.72424126     23.74889183     15.99804688
H         7.09460306     26.16859627     20.74117661
B         7.13923740     25.12622070     20.12634850
H         8.11411858     25.00811195     19.43217468
H         6.26833248     24.71788979     19.52176857
H         7.19688082     24.35163307     21.03839874
H         5.31638098     25.11325264     25.10266685
H         7.04003096     24.23871613     25.07583809
B         6.53965759     25.32713890     24.95038223
H         6.73322296     25.91190338     23.97578621
H         6.95299911     26.06219292     25.80823135
H         5.57345963     25.62301636     29.23721504
H         6.73750830     24.13160133     29.05532074
B         6.73010921     25.25614929     29.31541252
H         7.50208187     25.86295509     28.49076462
H         7.18755245     25.28177834     30.39311600
H         6.13288116     30.52548409      1.27559102
H         5.86260509     28.98188210      2.58510947
B         6.72822380     29.75180626      2.11214709
H         7.62034988     29.19567299      1.52601826
H         7.18783617     30.54602051      2.75840235
H         6.65803289     29.55949974      5.11357117
H         6.89234161     30.66725922      6.73947573
B         6.99814081     29.43230820      6.37529802
H         6.32538939     28.79890823      7.18088722
H         8.09679890     29.24993896      6.72962904
H         7.82953739     30.55824471     11.96771812
H         6.31200361     29.09247208     12.15225410
B         7.08272552     29.66601372     11.40966797
H         6.41375732     30.15175056     10.47298717
H         7.94125652     28.95237350     10.90116215
H         5.53916645     29.48690605     16.40374374
H         7.31381416     28.39003944     15.83841705
B         6.54650784     29.42252922     15.68176651
H         6.27174616     29.46577644     14.41355228
H         7.21599817     30.50737190     15.73975372
H         7.38961077     30.56406975     19.30499840
H         6.53788280     30.36217308     20.98880577
B         7.09424353     29.74897575     20.09631729
H         6.40061998     28.83331490     19.57382965
H         8.30892754     29.47262764     20.29930305
H         8.19020271     28.96583748     24.94890785
H         6.15775299     29.33513832     24.51053238
B         7.25252914     29.76910019     24.86194801
H         7.32564592     30.40428543     25.82878876
H         7.66941595     30.50642395     23.88682747
H         5.59488869     29.39093399     29.28367805
H         6.41125774     31.13499451     29.11309624
B         6.65701580     30.01130104     29.26730537
H         6.95740080     29.79826927     30.39045906
H         7.50210762     29.46557236     28.66701889
H        11.52355289      0.93124402      3.01705647
H        11.01970863      1.71886885      1.18856978
H        12.83416271      1.80104148      2.06122518
B        11.65574169      1.91624105      2.26891351
H        11.39369297      3.03916812      2.83858585
H        12.10527039      1.61803544      6.93321323
H        11.26275730      3.41848135      6.80658197
H        10.10878277      2.13509512      6.38798332
B        11.30454350      2.36789131      6.49689245
H        11.77258110      2.47161508      5.24885464
H        11.19296646      2.17402935      9.85285187
H        12.04464912      3.37648940     11.33257389
H        12.00369835      1.56013334     11.56877136
B        11.43483925      2.39350414     11.09633636
H        10.35287952      2.44733477     11.57111549
H        13.26108837      2.54736161     16.21073914
H        11.29394245      2.52935481     16.67524910
H        11.99048042      1.01708353     15.94977665
B        12.13404083      2.23596406     15.90116024
H        11.77397060      2.20326352     14.75710869
H        12.07875347      2.17433214     21.49980927
H        10.43384838      1.49766898     20.96804047
H        11.56466293      2.06588936     19.41155052
B        11.23795700      2.40417218     20.61438560
H        10.87696648      3.59159875     20.71258545
H        11.59915638      2.64242840     26.35714149
H        10.57361126      3.10377765     24.50560760
H        10.13253212      1.61661053     25.54479980
B        11.10581017      2.26987386     25.29310989
H        11.81497955      1.29512155     25.07121849
H        11.18559742      1.00604141     29.92263222
H        10.70629406      2.85285044     30.19598389
H        11.61193085      1.88626099     28.40675354
B        11.46749783      2.06070423     29.60046959
H        12.52420712      2.16656828     30.03005981
H        11.19587040      6.57533836      0.76017153
H        11.38961887      5.35054159      2.09889507
H        10.59074402      7.09035254      2.45672059
B        11.45153904      6.49322462      1.87725186
H        12.62131596      6.50192785      2.09775543
H        12.45048141      6.11364746      7.17384768
H        10.97909164      6.72117996      8.21087360
H        10.63573933      6.28190184      5.96010017
B        11.42947674      6.78900528      6.97011614
H        11.34157372      7.95543385      6.54561472
H        10.79760838      6.88392019     12.25144196
H        11.05201912      6.87215424     10.25378036
H        11.50034809      8.66818619     11.37114525
H        12.58422470      7.03899670     11.66251183
B        11.48748112      7.37037182     11.23241425
H        11.55273438      5.46977997     16.24646759
H        12.29497623      7.17286587     15.53119659
H        10.23909760      7.04423714     15.56055164
H        11.65584469      7.35805655     17.19072342
B        11.41854382      6.75727320     16.18275642
H        11.61304665      7.69117785     21.27108574
H        11.93121147      6.39586353     19.71059799
H        11.35356045      5.72547722     21.49012756
H        10.04529858      6.79834795     20.58942604
B        11.41583633      6.67436028     20.73034286
H        11.75000095      5.50322962     25.12641525
H        11.46864319      7.08691120     26.30049133
H        12.86241722      7.09633732     24.88022232
H        10.86892128      7.20348501     24.62108803
B        11.73330498      6.66801500     25.23346710
H        11.28225803      6.41489315     28.32727242
H        12.07886314      8.02900696     29.32091904
H        10.28647041      7.35221386     29.89710808
H        11.88427830      6.18377495     30.36246872
B        11.32637882      6.96601915     29.50429535
B        10.98154068     11.12861824      2.36810374
H        11.78866196     11.97678661      2.24013686
H        11.07472134     10.14914036      1.66342568
H        11.43224239     10.53748417      3.35924602
H         9.76186943     11.50358009      2.37776208
B        11.11265850     11.72256279      6.89293051
H        11.64705563     11.32470226      5.78644371
H        10.10907269     11.19496918      6.94850779
H        11.87338161     11.22533703      7.65199280
H        11.16251945     12.88562679      6.89131975
B        11.43859100     11.74357319     11.76576805
H        11.58516121     12.82523346     12.09450912
H        11.67144489     11.57959652     10.59914875
H        11.97073364     10.86751652     12.18229103
H        10.09076881     11.51223087     11.66030884
B        11.16718292     11.43911171     16.20885658
H        11.52885818     10.37860203     15.90460968
H        10.02614021     11.57724285     17.00593948
H        12.12097740     11.90743732     16.74817085
H        10.97134590     12.21072865     15.21967220
H        10.61317921     11.67663574     21.59152222
B        11.22396660     11.25026894     20.64559555
H        11.97190285     12.13144016     20.39683723
H        10.52281857     10.92975616     19.71349335
H        12.06545639     10.32421207     20.89001083
H        11.73919106     10.90040970     24.49202347
B        11.17514515     11.42243958     25.37059212
H        11.75350189     12.56922817     25.27058029
H        11.81183434     10.77852726     26.30906296
H         9.96421623     11.24700832     25.40177155
H        12.08133698     10.80480766     29.01567650
B        11.28503513     11.30462074     29.92459106
H        11.03638172     12.50381184     29.81221581
H        11.73060989     11.09303379     31.11538887
H        10.24088669     10.74558830     30.00552750
H        11.62954712     15.20897293      1.87848234
B        11.37490273     16.12271881      2.51010919
H        11.51547623     17.06570435      1.84276366
H        11.99578571     16.15343857      3.65824866
H        10.19869328     16.20697975      2.56038022
H        12.15523720     17.01199341      7.32282066
B        11.53062820     15.95444870      7.24468374
H        11.17617798     15.95024109      6.04947662
H        10.59507656     16.05448341      8.04199696
H        12.40195465     15.27357388      7.45831156
H         9.84074306     15.86264038     11.60304928
H        11.44873714     14.68175697     11.35280228
B        11.00771046     15.83435345     11.49580956
H        11.55984402     16.55110168     10.63312912
H        11.51675892     16.23909950     12.61202526
H        12.16044712     16.03379822     17.32293129
H        11.07921314     15.14592838     15.87661266
B        11.56106567     16.16353989     16.25340080
H        10.49461269     16.72544289     16.59719276
H        12.25398827     16.67880058     15.35633945
H        11.12183571     16.03651428     21.35627174
H        11.30151081     14.80828857     19.90150833
B        11.74608421     15.87948990     20.41435242
H        11.51683140     16.76496696     19.50504494
H        13.11929989     15.90803432     20.54492569
H        12.66820526     17.04526520     25.01622581
H        12.60964584     15.27382469     24.32514572
B        11.89574528     16.13096046     24.74046707
H        11.18659687     15.79087543     25.81504440
H        10.91102791     16.14875221     23.94028854
H        10.61749935     15.78698635     31.00575447
H        10.68128395     16.20575333     28.85385513
B        11.17096424     15.69871426     29.78339386
H        12.30461979     16.22935867     30.05062294
H        11.56804371     14.54952335     29.63163376
H        12.20020962     20.57372093      2.43413234
H        10.56574440     20.44534874      2.87885833
B        11.11032963     20.56105232      1.90699303
H        11.21941757     21.71744537      1.55309391
H        10.83962536     19.88896942      0.92752188
H        11.52531433     20.15994072      8.18638706
H        10.49723911     21.63118935      7.10961485
B        11.13692951     20.58838272      7.02087545
H        12.16851139     21.19384766      6.56901598
H        10.75605774     19.71470261      6.18855906
H        10.85920525     19.38934708     11.29627800
H        10.55628586     21.22794342     10.60857010
B        11.30645561     20.54026794     11.39556313
H        11.18825722     21.09642220     12.45130825
H        12.29113388     20.33325005     10.72062492
H        10.54388523     20.91263390     15.62807846
H        12.28704453     20.28206635     15.50440216
B        11.26775742     20.21644783     16.21701431
H        11.45004845     20.53679848     17.44664955
H        11.10917950     19.01535034     16.27467918
H        10.24426365     20.89253807     20.31433487
H        11.56243992     20.18334770     21.82237625
H        12.04406166     21.73440552     20.82610893
B        11.49054337     20.74139977     20.68045425
H        12.25923824     20.22098923     19.82684517
H        11.31583023     20.22852707     26.17307091
H        11.42397308     19.62155151     24.32133102
H        11.74826622     21.74418640     24.74868584
B        11.16733265     20.56611443     24.96928787
H         9.85572052     20.80756187     25.11195755
H        12.00196838     20.82290077     29.81443977
H        11.39636326     18.81727600     30.09067917
H        11.04342175     20.17513657     28.39947319
B        11.14035416     20.00560379     29.61898422
H        10.09880829     20.28906441     30.15931892
H        11.07952690     23.62602425      2.76108551
H         9.90307617     24.94860268      1.65661657
H        11.89002705     24.61437988      1.25919867
B        11.16216087     24.75964355      2.23737836
H        11.29184151     25.61437416      3.15410757
H        11.76170921     24.56036568      5.75364733
H         9.93788815     24.85974693      6.59008980
H        11.29945087     26.14160347      7.29141903
B        11.12174606     25.11705399      6.68862963
H        11.49836159     24.23340607      7.25810146
H        11.37618542     23.55290985     11.05678082
H        12.74815941     24.90150261     10.97272110
H        10.71884346     25.51932907     11.43691635
B        11.52683258     24.77327347     10.82438374
H        11.02699757     24.86614418      9.70933151
H        11.66459656     25.18207932     16.93543625
H         9.82691574     24.94443512     15.75939274
H        10.98452759     23.49596024     15.99881649
B        11.07023525     24.74488068     15.75257492
H        11.59818363     25.25164604     14.92175293
H        11.72119713     25.19506073     21.88858986
H        11.17674732     25.76161575     19.93025589
H        11.62225437     23.84664536     20.46295929
B        11.93471241     24.98854637     20.69613838
H        13.14059639     25.24868965     20.21226501
H         9.79970646     24.96684647     25.52022171
H        11.22096634     23.62452507     25.22056198
H        11.26690769     25.01898766     26.59750938
B        11.02019882     24.72342682     25.38858604
H        11.67322159     25.43086815     24.54022789
H        12.28785515     24.79574966     28.85347939
H        11.75108337     24.73805046     30.63622475
H        11.52414322     26.30912399     29.79446983
H        10.34235954     25.03961945     29.07238770
B        11.40857506     25.19531822     29.48054886
H        10.06676674     29.26863480      1.98549199
H        11.81217480     28.49871635      2.19740319
H        11.89132404     30.11109352      0.98554492
H        11.45963478     30.47927475      2.93142724
B        11.32779408     29.53388405      1.99232471
H        11.15760708     31.10012627      7.17458773
H        11.13806915     29.31189919      6.15603590
H        12.98190212     29.88745689      6.84342813
H        11.68506050     29.40976906      8.10194969
B        11.78068256     30.00561142      6.96931553
H        12.52114010     29.60105324     11.25069046
H        10.75971603     30.49392509     11.29096985
H        10.87951756     28.51808739     11.12445641
H        11.47705555     29.39582253     12.79528427
B        11.41314411     29.53584480     11.61167812
H        11.62498665     28.15485573     16.13763428
H        12.64286041     29.64392090     15.68820763
H        10.93422985     29.95540047     15.06019974
H        11.47162437     29.79335403     17.23600769
B        11.41895199     29.38784981     16.04723358
B        11.72451210     29.51853371     20.58404922
H        11.50068474     30.60516167     20.93826294
H        12.93335629     29.43714905     20.57955360
H        11.11809540     28.74640083     21.32776451
H        11.16413021     29.01189232     19.47826195
B        11.41031456     29.55055618     24.96843338
H        11.80834293     29.16354752     25.98393822
H        12.17796230     30.54628372     24.95046425
H        11.59813595     28.72378922     24.09920883
H        10.32178497     30.02763939     25.04823685
B        11.05479240     29.77989006     29.85805893
H        11.03215981     29.13352013     31.12475586
H         9.92209911     29.91265869     29.44242096
H        11.83220100     30.74295235     29.81953239
H        11.81719112     28.97514915     29.04143524
B        16.11893463      2.40970302      1.92284369
H        17.18010139      2.98186779      2.03426909
H        15.76392269      1.61343968      2.85478830
H        15.41567802      3.41578960      1.81389225
H        16.28291130      1.90005267      0.83109254
H        15.49036598      2.62125540      7.70483160
B        16.24419212      2.09435678      6.91141129
H        16.44359779      0.76134479      6.95618153
H        17.33909225      2.68508458      6.71101332
H        15.53079128      2.03037190      5.80288696
H        14.91532516      2.82454491     11.47335434
B        16.05117798      2.68519616     11.19733238
H        15.99274731      2.53792453     10.01785278
H        16.47891617      1.60089731     11.77657223
H        16.64538383      3.60757947     11.26450825
H        15.39150238      3.70101857     15.68129635
B        15.82212353      2.59506917     15.99021912
H        17.03831100      2.62434554     16.24282074
H        15.25648212      1.72557282     15.34257126
H        15.37397671      2.16151929     17.01340866
H        17.21830940      2.36095595     20.68066406
B        16.01833344      2.30529761     20.83121681
H        15.34900188      1.55588126     20.04302788
H        15.81133652      3.41036034     20.29776382
H        15.68710232      2.17519999     22.01212311
H        17.52914429      1.69045496     24.72528648
B        16.40132523      2.09224367     25.13035393
H        15.54436874      1.37384045     24.76189613
H        15.66305733      3.19132590     24.97617340
H        16.31876564      1.86355090     26.32643890
H        15.62853050      2.03647923     30.83274269
H        15.79078484      3.61653399     29.54026604
B        16.07108116      2.35828900     29.76500511
H        17.24434853      2.10874987     29.61826324
H        15.52600861      1.86755514     28.86242676
H        15.68514061      5.70660877      2.51204157
H        15.80805683      6.58383465      0.87124336
B        16.02326012      6.81348801      2.11062241
H        15.23304176      7.64655399      2.61383867
H        17.22998238      6.96325541      2.27861166
H        15.01672173      5.95192432      6.87766123
H        16.61140823      6.85260010      7.43927193
B        15.63406754      7.00603580      6.95301771
H        15.97844124      7.36013699      5.79962349
H        15.04234600      7.97506809      7.52898788
H        15.98392105      7.92817736     11.42278004
H        15.36013699      6.36992598     12.41763306
B        15.77313805      6.64902687     11.37023163
H        15.00023460      6.71019554     10.44048405
H        16.82937431      6.22328234     10.82797050
H        16.94466019      6.31526661     16.65156555
H        16.05943298      8.00172710     16.04318237
B        16.14394569      6.74549198     15.91698837
H        16.34012604      6.71257067     14.73615456
H        14.91917038      6.52571249     16.07065582
H        15.48093891      5.86502934     20.68787193
H        17.23476982      6.71693420     20.41711235
B        16.05231285      6.92121124     20.41833687
H        15.63107395      7.35801268     19.49886513
H        15.91134453      7.70179653     21.35249710
H        15.72414494      5.36250591     24.88172150
H        14.73803234      6.85517597     25.55742455
B        15.70730686      6.69053364     24.99845123
H        16.52023125      7.38097382     25.70363235
H        15.78176498      7.03608370     23.84054375
H        15.99882984      7.30168581     28.64058495
H        16.16736221      8.25699997     30.49633026
B        15.89298725      7.17253828     29.96043396
H        14.81297302      6.58079529     29.80096245
H        16.61484909      6.16238642     30.15875435
H        15.43948078     12.36023903      1.51723206
H        15.71261692     12.18417358      3.58989859
B        15.41530132     11.66997528      2.53876972
H        14.25562191     11.56515884      2.59701824
H        15.83622932     10.55855846      2.45819068
H        16.35905457     10.96078396      5.64706373
H        16.46327019     11.59492683      7.49145746
H        15.81170273      9.62347984      7.01614809
B        15.83967113     10.89414787      6.74952650
H        14.68447304     11.22288513      6.53108931
H        15.87842560     12.46448803     11.16555405
H        15.91869831     10.50219536     11.38337421
H        16.68308067     11.84261799     12.68446255
B        16.66647148     11.54897785     11.51918697
H        17.76936913     11.36791039     11.18730545
H        14.45641804     11.20188618     15.97373772
H        16.22634888     11.89560986     16.53762436
H        15.72424412     11.63747120     14.58642387
B        15.67666435     11.14294338     15.79041958
H        16.11296654      9.97046852     15.99474335
H        15.60107613     10.50098705     19.95370102
H        14.57932568     11.76774693     21.18777466
H        16.25389481     12.18063641     20.04197884
B        15.68396378     11.48275089     20.75149536
H        16.39380646     11.18576336     21.59641838
H        14.84776974     11.08134937     24.45533752
H        16.44788361     10.05960846     24.86784363
H        15.34183598     11.37242222     26.39547348
B        15.73155785     11.02595901     25.21734238
H        16.64958572     11.80294323     24.90188789
H        16.85476112     11.46742535     30.03082657
H        15.17730904     11.16851425     28.96135902
H        15.39983559     12.89816666     29.78490257
B        15.68008423     11.75574589     29.89825249
H        15.49306202     11.38164520     31.08031845
H        15.98542786     14.74223709      2.53423953
H        14.84695911     16.10884476      1.55659282
H        16.91900063     16.12201881      1.38786912
B        15.97307396     15.87128544      2.08371401
H        16.07756042     16.60107040      3.01321054
H        16.03160477     16.26240730      6.21120071
H        16.25028229     14.94724178      7.78198099
H        14.49664783     15.63875389      7.28855658
B        15.58218575     15.94239330      7.32004547
H        15.69707966     16.82673264      8.15233994
H        16.62183952     15.76496315     10.73381138
H        17.35410690     15.80684948     12.53115845
H        15.37168789     15.46408844     12.21567631
B        16.33346367     16.02619553     11.89818478
H        15.93158913     17.21576500     11.85950089
H        16.81149483     17.02198410     15.59179306
H        16.38582230     15.07882500     16.26640129
H        15.09745693     16.83889580     16.63552856
H        15.17073059     16.05349731     15.05381775
B        16.00600052     16.21340752     15.96406078
H        15.96724606     16.33071136     19.39042473
H        15.99909401     14.58107758     20.10285759
H        17.53713989     16.08032227     20.33322716
H        15.69355202     16.34390450     21.34163475
B        16.31857681     15.74083138     20.37406921
H        14.91756725     15.47656918     24.93654633
H        16.21972656     16.50476837     25.99163818
H        17.02291870     15.14932823     24.80375671
H        16.32988548     16.80286407     23.92117882
B        16.06839943     15.99342632     24.88777161
H        16.09822655     15.58885479     29.39067650
H        15.78917503     16.01318932     31.41199684
H        15.34689331     17.36960220     30.03800011
H        14.22618866     15.67868710     29.99608040
B        15.34045315     16.12899780     30.19809723
H        14.35929489     20.31951523      2.10904050
H        15.81787300     20.69618225      3.49936438
H        15.79551220     18.77504921      2.60402060
H        16.45446777     20.66089630      1.63474607
B        15.62479591     20.03266525      2.40421104
B        16.04918098     20.48404503      6.99136448
H        15.57266235     21.70503616      6.59788322
H        16.98942184     20.26584625      6.39916277
H        16.35666084     20.71071625      8.09105015
H        15.19491768     19.69184303      7.03136063
B        16.13761330     20.40366936     11.24100018
H        15.46286774     19.43432236     10.89743805
H        15.52851868     20.71436882     12.30875206
H        17.31386948     20.32647133     11.49089336
H        16.06571007     21.16455078     10.27594948
B        15.77983570     20.10507584     16.10056305
H        16.24778748     20.81874657     17.03669739
H        14.63083076     19.98100090     16.22478867
H        16.21230316     20.58959770     15.12684155
H        16.38071251     19.03254890     16.20423698
B        15.94184494     20.54606438     20.33559799
H        15.07200909     19.72961235     20.14170265
H        15.86099148     21.62350845     19.71593857
H        16.01185226     20.82225990     21.64445686
H        17.05394363     20.11807060     19.78804779
H        15.54399490     20.53075790     26.18873596
B        15.86745548     20.64925575     24.86053658
H        16.99705124     20.27011299     24.78596115
H        15.77754593     21.79802513     24.58205986
H        14.94095707     20.23724747     24.31833839
H        15.75959587     21.64797020     29.49859619
B        15.85778332     20.53159332     29.70940208
H        16.96343231     20.12351036     29.66752434
H        15.04413795     20.01860428     29.08948898
H        15.38273525     20.18350220     30.81948662
H        16.02805328     25.08179092      1.21848381
B        15.63010693     24.63844299      2.31572294
H        15.90814495     25.62523651      3.14469123
H        16.19150925     23.59752655      2.54433894
H        14.42674160     24.61766624      2.10092783
H        16.81336594     24.36147118      7.48267603
B        15.68905926     24.70134354      6.85962152
H        16.55991936     25.25040436      6.24274206
H        15.44430733     25.57224083      7.58757067
H        15.02721405     24.01487160      6.25243664
H        17.08845139     24.79486275     10.90407753
B        16.17373848     25.35391426     11.32737541
H        15.29107475     25.20526314     10.63030720
H        16.18170738     26.66597557     11.38811302
H        15.77872658     24.91027260     12.43893909
H        16.13635635     24.01854897     15.19949818
H        16.71045113     25.97061157     15.46711445
B        16.08871460     24.98674774     15.86329746
H        14.84461975     25.16731071     15.56572628
H        16.25204659     24.78873825     17.07914543
H        15.37801933     25.22296524     19.39122772
H        16.99520493     25.93199921     20.04239273
B        16.19446754     24.99888611     20.18842506
H        15.65549755     25.01134872     21.42867661
H        16.47318077     23.77083588     20.06144905
H        17.24922752     25.18447876     24.91098785
H        15.66108894     24.59462166     26.03156281
B        16.00023842     25.07811356     24.99450684
H        15.14939594     26.06914520     25.04516602
H        15.33135700     24.46259880     24.05180740
H        14.77252483     25.12597847     30.00995636
H        15.98731422     23.54699326     29.21083641
B        15.92310143     24.74468231     29.51638794
H        15.75034046     25.38983917     28.46220398
H        17.03192520     25.03680801     29.99691772
H        14.98119164     30.32286644      2.29674053
H        17.16409492     29.99415016      1.99861538
B        16.02878380     29.55522346      2.26135445
H        16.25678062     29.03999519      3.37074780
H        15.78860855     28.41257668      1.83978081
H        15.77422142     28.71389389      6.39943314
H        15.95664692     29.85327339      8.14299011
B        16.26520538     29.69315147      6.96743584
H        17.51931763     29.51007652      6.91532469
H        15.98672962     30.72979927      6.35088778
H        16.21575546     29.43922424     10.66641045
H        15.82720470     31.22911263     11.44951248
B        15.84284782     30.11947441     11.58341789
H        14.64214420     30.07789993     11.62699032
H        16.64755630     30.07258797     12.54776669
H        16.38433838     30.59290123     16.85762596
H        16.37150574     29.63962173     14.94623089
B        15.73886681     29.78136444     16.01310158
H        15.57531071     28.69108009     16.50519943
H        14.55180836     29.84876633     16.05591011
H        15.70991898     28.92809677     19.52783966
H        16.40898323     29.35824966     21.44704247
B        16.03384399     29.73574066     20.27341843
H        17.14364624     30.08189392     19.74698448
H        15.13288116     30.56474113     20.32516861
H        16.12814903     29.74726295     26.08355713
H        14.42709732     29.72571754     25.05499458
H        15.66275978     28.22624016     25.09418297
B        15.59213924     29.40247726     24.96358299
H        16.01340103     29.87460518     23.90710831
H        15.67797565     28.45091820     29.12611771
H        17.08173561     29.99446297     29.20365334
H        16.02352524     29.60321426     30.68715477
B        16.03599548     29.51355362     29.60087967
H        15.33256912     30.45781708     29.16270065
H        20.13006020      2.40464711      0.87232018
H        20.80891037      3.40580702      2.37108183
H        21.70269012      1.61650884      2.05729842
B        20.55414009      2.19146776      1.93938172
H        19.91536140      1.47262692      2.59016132
H        19.76974106      2.22138023      6.95123768
H        21.75849152      1.91287684      6.73636293
H        20.85695648      3.75609899      6.72929955
B        20.81649208      2.51396108      6.48173475
H        20.47536278      2.53661823      5.33527327
H        19.69791603      3.08740139     10.95316982
H        20.60713005      2.64376807     12.51432323
H        21.52606583      2.39945841     11.08852577
B        20.29484940      2.20734286     11.40370464
H        19.67969704      1.30807245     10.95907021
H        20.69736481      1.36959279     14.91941071
H        20.35739517      3.21597481     15.42069721
H        21.94955635      2.31612611     16.10511398
B        20.77777672      2.12763333     15.92352486
H        20.24893951      1.92116523     16.91744232
H        21.61332512      2.66433716     20.14388084
H        20.53051186      1.05428243     20.78551483
H        19.70435715      2.41510367     19.60173607
B        20.48712158      2.21289420     20.46916008
H        20.07963181      2.87645984     21.36578560
H        20.81189156      3.62560487     25.04118347
H        21.49616241      1.78511095     24.41105080
H        19.67630768      2.20235801     24.30718040
B        20.64574242      2.36534119     24.99213409
H        20.54756546      1.95736587     26.16393280
H        21.27853394      2.39542723     30.04343414
H        19.82741928      3.28007436     30.13731575
H        19.66026497      1.27620828     29.83583450
B        20.21750450      2.32552385     29.65105438
H        20.29944992      2.52453947     28.35396385
H        21.83764839      7.22190571      1.51915479
H        20.41308594      7.47370052      2.89742017
H        19.84745979      7.32189512      1.02492559
H        20.61437225      5.68950272      2.08852744
B        20.69909477      6.92015839      1.80931520
H        20.14135170      6.43401670      7.39723110
H        20.30272484      8.43238163      6.89595652
H        21.75384903      7.00133419      7.37837362
H        20.54216194      6.98770237      5.63185310
B        20.83952713      7.35445499      6.78450060
H        19.65084648      6.50953627     11.80950546
H        21.62437630      6.25335979     12.20704937
H        21.08784866      6.90870762     10.42548370
H        20.82814026      8.08550167     11.75878906
B        20.82872200      6.90806389     11.59976387
H        20.84592819      7.27578449     14.84849548
H        20.33540726      7.42013264     16.73703766
H        20.26560783      5.61067724     15.72758484
H        22.22917557      6.44115067     16.03695297
B        20.92565918      6.54605246     15.98775673
H        20.79651260      6.92592621     19.22928047
H        19.85173225      6.07305431     20.50003052
H        21.58808517      6.34939098     20.95002556
H        20.48885345      7.91758919     21.05036926
B        20.69835281      6.92917967     20.40560532
B        20.58083534      6.69070101     25.10429192
H        20.76427460      7.44367313     24.16348839
H        21.40810776      5.70597219     25.09415436
H        20.38530159      7.35906458     26.12582970
H        19.44304466      6.38373280     24.80143738
B        20.43839073      6.50842476     29.61453819
H        19.27550316      7.01481819     29.89753342
H        20.50156212      5.35213661     29.69521141
H        21.01219559      7.04218769     28.64748001
H        21.15357208      6.84933710     30.46570778
B        20.50642395     11.10158443      2.29973006
H        21.11294556      9.93020153      2.35290003
H        20.47808647     11.23719025      1.03381622
H        19.38475418     11.20746231      2.75942326
H        21.21340752     11.91130733      2.80812168
B        20.72856522     11.63694668      6.60550165
H        19.48011208     11.35956192      6.96114779
H        21.03297615     12.82515430      6.46476126
H        21.59218788     11.19331074      7.26044607
H        20.82731628     11.12850094      5.44790316
H        21.80377769     11.63312244     11.56068707
B        20.57174492     11.50067806     11.37340927
H        20.18481636     11.29583740     12.46556091
H        20.36813736     10.71517372     10.47475529
H        20.26733780     12.60466957     10.92390060
H        19.29650116     11.53251553     15.93139648
B        20.48254204     11.40920162     15.68272591
H        21.05587006     10.16445637     15.60690308
H        20.84004593     12.08337593     16.74204063
H        20.92686272     12.06540871     14.75732613
H        19.94814873     11.88883018     19.42963409
B        20.45865250     11.38751411     20.38600731
H        21.65715981     11.41479015     20.25709152
H        20.21205330     10.25287914     20.73534393
H        20.13898277     12.10125065     21.45572281
H        19.18525314     11.55285454     25.11602020
B        20.38235283     11.33456898     25.08901405
H        20.65360451     11.68952179     23.86849213
H        20.66230965     10.08090687     25.46830559
H        20.86614990     12.15163231     25.88347816
H        20.57655334     10.50832748     30.13601112
B        20.32003975     11.72222996     29.59897232
H        19.67740440     11.43809795     28.48294067
H        21.32804108     12.32077408     29.23744774
H        19.48432541     12.33987427     30.27774239
H        20.45633125     16.36719322      1.15498412
H        20.30721092     14.31210613      2.14926481
B        20.49026299     15.55937576      2.14765167
H        21.53644562     15.63586044      2.56024814
H        19.43547630     15.92921543      2.76030898
H        19.66123581     16.31558609      6.01103735
H        21.36291122     15.44023991      6.82252121
B        20.26828384     16.01961517      7.03426552
H        20.30243111     17.12245560      7.62581730
H        19.49189758     15.26382351      7.65218067
H        20.64812088     16.29911804     10.09893608
H        19.84371758     17.14071465     11.83078289
B        20.46392059     16.16047859     11.42398643
H        20.01160240     15.11103439     11.81761551
H        21.51310539     16.53700256     11.66881371
H        20.94116402     15.45113850     16.96340752
H        20.83837891     16.94281578     15.64339828
B        20.56867790     15.85066986     15.88068676
H        20.88351822     15.02944374     15.09548092
H        19.30218506     15.79502678     15.87420464
H        19.83478737     15.33726692     20.93537140
H        20.19750214     17.43839455     20.53777122
B        20.51906395     16.22860527     20.28903770
H        21.61935997     16.16195107     20.51071739
H        20.24114227     15.69324684     19.16332436
H        20.59914398     17.48439217     25.57494736
H        21.33342171     15.80248451     25.20166779
B        20.36183357     16.38386154     25.25424576
H        19.70539474     15.75122833     26.09796333
H        20.00822449     16.29928398     24.19994545
H        20.73813057     16.55299568     30.45139313
H        18.99469757     16.64130592     29.25929642
B        19.99546242     15.94709969     29.55832291
H        20.63472748     16.06019402     28.34232521
H        20.20486450     14.74145031     29.68322372
H        21.58963394     19.66046333      2.20503211
H        19.96294403     20.02918816      1.17453408
B        20.39528847     20.12444496      2.23385549
H        19.58165932     19.68576622      3.00700045
H        20.84490776     21.22971916      2.37180018
H        19.42616081     21.44430923      6.38819361
H        19.68973923     19.38384438      6.71931696
B        20.18901443     20.51729774      6.69955015
H        21.25932693     20.57733727      6.15936804
H        20.68777657     20.69447136      7.77640343
H        20.19116020     21.62773705     11.82788849
H        20.61040306     20.50609016     10.18876648
H        20.07460976     19.57581329     11.85187435
B        20.68794060     20.56554985     11.48244095
H        21.92365074     20.30257225     11.63567162
H        20.79369736     22.35115433     16.38323212
H        19.40686607     20.91123581     15.94947815
H        21.01164246     20.65331268     17.08757210
B        20.55261230     21.11738396     16.08422279
H        21.12590027     20.92312813     14.96002769
H        20.57079697     20.24696922     21.58197594
H        19.63527107     20.22695732     19.77808380
H        21.57925415     20.28080368     19.86354637
B        20.60420990     20.74838448     20.42709541
H        20.41244888     21.90210915     20.51140404
H        20.05607986     20.17114639     26.52243233
H        19.88175201     19.68844032     24.46299744
H        21.44043350     19.99965286     25.00698280
B        20.27920914     20.42184448     25.30381584
H        20.29396248     21.51460457     24.82994270
H        20.60664940     20.49351311     28.46377563
H        21.94230080     20.50942802     29.74146461
H        20.50188637     18.98429108     29.59770966
B        20.71662903     20.24762917     29.63698959
H        19.98131180     20.89856911     30.36616516
H        20.01994133     24.60994339      3.30657029
H        21.79646873     25.14563560      2.84335375
H        20.58851814     26.05866051      1.89202213
B        20.67365074     25.05405426      2.40626597
H        20.24248314     24.40104103      1.41711092
H        19.04054832     24.27987671      6.99133062
H        20.30666733     25.46207237      6.11708593
H        21.13768196     23.89711380      7.02891970
B        20.19700623     24.66533852      7.10796785
H        20.24434280     25.20948601      8.26840878
H        19.54924011     24.56996727     11.96133709
H        20.79890060     24.41051102     10.38356972
H        21.66629791     25.09072304     11.71869564
B        20.50931740     25.09896278     11.25554943
H        20.20893860     26.16090393     11.04850006
H        19.18005562     25.35933685     15.79632664
H        20.60760307     26.74801636     15.88236141
H        20.79815102     24.86728096     14.92348003
B        20.42907715     25.48276520     15.87308311
H        20.83137321     25.01532364     17.06110001
H        19.82841873     25.38583374     19.53249931
H        20.04656029     23.69909859     20.60390854
H        21.35672951     24.91435623     20.43230629
H        19.88035202     25.29297638     21.67234421
B        20.07537079     24.93744659     20.57814026
H        21.45552635     25.03443909     25.52933884
H        19.70819283     25.87106133     24.66849136
H        20.61240959     24.44464302     23.78745842
H        19.64715576     24.46541405     25.63290405
B        20.35531998     24.98617554     24.88154411
H        19.49697113     25.38776016     29.00059509
H        20.34496689     24.92845154     30.91198921
H        20.64709282     23.85147858     29.32956886
H        21.35847855     25.51811409     29.25470352
B        20.35052490     24.93361473     29.65469360
H        19.24757767     29.33896255      2.43270063
H        20.58333015     30.68306160      1.73451924
H        21.24960136     29.54161835      3.23932028
H        20.37641907     28.72353745      1.42093134
B        20.47119141     29.55881310      2.30340195
H        20.48331642     29.25947380      5.59157181
H        20.26888084     29.59043694      7.69204378
H        22.01473427     30.07715416      6.67056751
H        20.46674728     30.99435425      6.32579947
B        20.85413742     29.96145248      6.62061977
B        20.50901413     29.53347206     11.82859325
H        19.91130829     30.46493721     11.40855503
H        19.85075378     28.57779312     11.72427368
H        21.52565002     29.52933693     11.19976044
H        20.95446396     29.72383690     12.92281437
B        20.44946098     29.89362144     15.96429348
H        19.90847778     31.01334953     15.82593632
H        20.27915573     30.24023056     17.06991005
H        19.63322639     28.95198250     15.91753197
H        21.52291679     29.36652184     15.75909519
B        20.22711563     29.72361183     20.30967712
H        21.34759521     29.29566383     20.79161263
H        20.39805222     30.89322281     20.26710129
H        20.19049835     29.03269386     19.22515297
H        19.43187332     29.45763779     21.08307457
B        20.21870804     29.41506577     25.18676949
H        20.69570351     28.59275055     25.68916702
H        18.93531799     29.54651451     25.09573555
H        20.81237984     30.30337143     25.63630486
H        20.79895592     29.54448509     24.08470154
H        21.01080704     30.38676643     30.38683128
B        20.60850334     29.79497910     29.37791634
H        21.35730553     30.31092644     28.53485680
H        19.55585289     30.27216721     29.18063927
H        20.92676544     28.64824677     29.47768021
H        25.17396355      1.70252538      1.23242998
B        25.47238159      2.35037041      2.23764181
H        26.13420105      3.35515237      1.79376674
H        26.32850838      1.64028442      2.83951068
H        24.42671204      2.55691719      2.91441417
H        25.27478790      2.60437131      7.95943165
B        25.13257027      2.13798213      6.84748936
H        23.95693779      1.96282983      6.75849962
H        25.86940193      1.19302320      6.60296679
H        25.46219063      2.91756797      5.82773161
H        25.86554146      1.65519488     10.63347626
B        25.19944954      2.16955781     11.52700424
H        25.21045685      3.29529810     11.31298161
H        25.76444435      1.86583626     12.59510136
H        24.05256081      1.70887113     11.19414997
H        26.05558014      2.21114802     15.51684189
B        24.95352554      1.77995324     15.83434296
H        25.38351250      1.31850839     16.99987984
H        24.77135468      0.95267111     14.99780273
H        24.27377892      2.81468320     15.92336273
H        25.69917488      1.85704339     19.04370117
H        24.50033951      2.72429347     20.47181892
B        25.31614113      1.93586040     20.21231079
H        24.87642670      0.86827886     20.56171036
H        26.23393250      1.98359489     20.91781807
H        26.18023109      1.70255494     24.56417656
H        24.77313995      1.23351932     25.79006577
B        25.04661560      2.13417125     24.84880829
H        25.28012657      3.15054369     25.59609413
H        24.36272430      1.91836011     23.97041130
H        25.47731590      2.72179890     28.47736549
H        24.64124680      1.05198443     28.80396652
B        25.17526817      2.04062295     29.40978050
H        26.31639290      1.90134537     29.92807007
H        24.53672981      2.54716039     30.30658340
H        25.76507187      5.99913979      2.30991030
H        23.96632767      5.81145239      1.85313356
B        24.75039291      6.52224588      2.29680705
H        24.40178108      6.75891495      3.44125652
H        24.84043312      7.62741137      1.62976396
H        24.53747559      5.84539795      7.14015388
H        26.40175247      6.43694067      6.89715958
B        25.27813721      6.75595617      6.82360554
H        24.86911201      6.58836174      5.61072588
H        24.83386612      7.91068459      7.03156281
H        24.98229218      6.75883722     10.58004856
H        25.19888878      7.02956009     12.42691326
B        25.81937981      7.02779531     11.34917545
H        26.76629066      6.35691595     11.34766674
H        25.98696709      8.17162609     11.08875275
H        24.35657883      5.87968779     15.12379837
H        24.42556953      7.64848900     16.12480545
B        24.92327690      6.62409019     15.81943989
H        25.64925385      6.09937000     16.76464081
H        25.63798523      7.25997019     14.91006279
H        26.14785957      7.43744946     19.95877647
H        24.34464836      6.60855341     20.56941605
B        25.23310852      7.41676426     20.52667618
H        25.43946075      7.60855770     21.85937500
H        24.91504097      8.67460823     20.36680984
H        25.36414337      5.79305553     24.89632225
H        25.09617996      7.10557604     26.33761978
B        25.13619041      7.00684881     25.14505577
H        25.80143547      7.93958616     24.66125488
H        24.03188133      7.01273870     24.58854485
H        23.89355659      6.25669956     30.15625763
H        25.17727470      7.97479153     29.76498985
H        25.20832062      6.45326328     28.83664513
B        25.02100563      6.80299520     29.93408394
H        25.81421852      6.65297794     30.71421242
H        25.14256859     11.01357841      3.50364137
H        24.09734917     11.37407494      2.03635049
H        26.09972572     11.21431065      1.86321020
B        25.11940384     11.55358219      2.42140508
H        25.21224785     12.73690796      2.44682026
H        24.16547203     10.98738003      7.39608812
H        24.67298698     12.04649830      5.68681335
H        26.16388893     11.51050186      7.10174751
B        25.00657654     11.81684971      6.88496828
H        25.14617157     12.82928944      7.35635185
H        25.08733368     12.23403168     12.68063736
H        24.59242058     10.67628384     11.66952610
H        26.09134865     11.70601940     11.02240467
B        24.99851418     11.79583836     11.59505653
H        24.36082077     12.72312069     11.01892757
H        25.04528427     10.66539383     16.25057793
H        24.17528534     12.05125141     15.55972099
H        25.98150635     11.72876263     15.01687813
B        25.22385025     11.77066231     15.90606499
H        25.64474678     12.49599075     16.85807419
H        25.43545151     11.31245232     21.46991730
H        26.56760216     11.63102627     19.96706390
H        25.18474960     12.98887730     20.52096939
B        25.44976425     11.76043224     20.42349815
H        24.62737465     11.15813255     19.82595062
H        25.45645332     11.50370502     25.89710808
H        24.69400597     10.14016628     24.68849373
H        25.15440369     12.12774658     24.01731873
B        24.62268066     11.32811832     24.92290497
H        23.51980209     11.90176964     25.22466469
H        24.56913185     10.92659760     28.66562843
H        25.69285011     10.55492306     29.90845680
H        24.38933372     12.13344288     30.47430229
B        25.09449005     11.63881016     29.61130142
H        25.85384178     12.67994499     29.29435730
H        26.47341537     15.65670586      2.41985059
H        25.14588737     15.51807976      0.97695917
H        24.69231033     16.56284904      2.74959731
B        25.20490265     15.69949913      2.18741965
H        24.96465683     14.66550636      2.78161597
H        23.89699554     15.50807858      5.89702940
H        25.26286507     16.98182106      6.28409719
H        24.54600143     16.01284981      7.89558601
H        25.76621246     15.08110905      6.67127752
B        24.80400658     15.84575081      6.69568920
H        25.06974983     17.01850319     12.28475857
H        26.44878960     15.71454811     11.31754875
H        24.61908913     15.13724041     12.04909039
H        24.57822227     16.10623741     10.40081692
B        25.19443130     16.02152634     11.47500896
H        24.10028458     17.25304222     15.84048462
H        24.92021370     16.34386063     17.29443550
H        23.60732269     15.46476173     15.75878716
H        25.60790253     15.77775860     15.72380447
B        24.51320457     16.15061378     16.20494080
H        25.03621292     17.22931480     20.29180336
H        26.76802826     16.14099121     19.92956734
H        25.66160393     15.95379543     21.55516624
H        25.15971375     14.90233040     19.89340591
B        25.60792160     16.08879089     20.30283928
H        23.48784637     16.16790199     24.53901100
H        25.03100777     17.22037315     24.75802994
H        24.66053391     15.78824711     26.21588516
H        25.42538834     15.48102379     24.25478935
B        24.61780167     16.03509903     24.84093285
B        24.84542465     16.10015488     29.75815582
H        23.61792564     15.95419312     29.44189644
H        25.09589577     16.97119522     30.39867210
H        25.00608826     14.99834919     30.10934258
H        25.54667282     16.10609818     28.84202576
B        24.46575928     20.68428612      2.54233289
H        23.50543022     21.04847527      2.01964760
H        24.83704948     19.50453949      2.35739732
H        25.57910347     21.24560738      2.17510366
H        24.49686813     21.00739479      3.79352307
B        24.47084045     20.52293396      7.12766838
H        25.15137672     21.43301582      6.68584299
H        23.24326515     20.34162903      6.92027712
H        24.97427177     19.64223289      6.31543636
H        24.61604691     20.59087753      8.33251476
B        25.31047249     20.57444000     11.78942966
H        24.32118416     20.09218979     12.20732784
H        24.92597961     21.70354652     11.37985897
H        26.07750130     20.25115967     12.67868805
H        25.82832336     20.00833702     10.88286972
H        26.47148132     20.70914078     15.26920605
B        25.39556503     20.79469109     15.73687744
H        24.94753647     20.04718018     16.67053223
H        24.59123421     20.59743309     14.91634083
H        25.32304001     21.81572533     16.32496071
H        25.94265556     19.69177246     19.54989624
B        25.38586617     20.33981895     20.38040733
H        26.03581619     20.95534134     21.32219505
H        24.23422432     20.00522614     20.90362167
H        24.94586563     21.35115242     19.86528015
H        24.88698006     20.49876022     26.08479500
B        25.16400528     20.93643379     24.96915054
H        24.12488556     21.40243149     24.44194984
H        25.49469376     20.03652763     24.32102203
H        26.06651688     21.70959663     25.07616615
H        24.62904549     21.89015198     29.46409225
B        24.93844414     20.78607178     29.67794037
H        24.37732315     19.97048569     28.91642952
H        24.37212372     20.62581062     30.72931480
H        26.02713394     20.40226364     30.11757851
H        25.16901016     24.88345528      3.19360948
B        24.79463959     24.91984367      2.08051467
H        24.07643127     25.87273026      2.16938090
H        24.19664383     24.05961990      1.66960049
H        25.60869789     24.61008453      1.25148487
H        25.73033333     25.43936729      5.99973774
H        24.80995750     26.69799805      6.94948578
B        24.76216316     25.42659950      6.80162001
H        23.64512825     24.94769478      6.24036503
H        24.97020721     24.75183105      7.96017265
H        25.11267662     26.51965904     11.30729389
H        24.25080872     24.64337349     12.01386356
B        25.05184174     25.22597504     11.11720371
H        24.54141998     25.10960579      9.87303925
H        26.18114471     24.87014771     10.88334656
H        25.49659157     25.94549751     17.10013771
H        23.77484322     24.93931198     16.25854683
B        25.04062080     25.13816643     16.43994141
H        25.37522316     25.78342819     15.33043194
H        25.55576324     23.91372681     16.33399773
H        24.34501648     24.68729019     21.42244911
H        25.92677498     26.07241249     21.11548424
B        25.28508759     25.14060974     20.76696968
H        26.00356293     24.19205666     20.31455994
H        24.63631439     25.48477554     19.67745590
H        23.83266830     25.44791222     24.54154015
H        24.91214943     25.12532806     26.24769974
B        25.02031708     25.32151413     24.98722839
H        25.86129951     24.69876289     24.31295967
H        25.64556313     26.43764496     24.96320343
H        25.77301216     26.20999527     29.32603645
H        24.10048676     24.88326836     29.31128120
B        25.32321930     25.01608086     29.41415024
H        25.94388008     24.25180244     28.66576958
H        25.41974068     24.67496490     30.53712082
H        25.73238564     29.85920334      2.79495502
H        25.83558273     29.21253777      1.12825012
B        25.05667305     29.63882637      1.91233528
H        24.28937912     28.82759094      2.47512341
H        24.69477272     30.67526436      1.51840556
H        25.55022621     30.51525688      7.57201242
H        25.33883667     30.11747742      5.62866640
B        25.22902107     29.68781853      6.75350380
H        25.89635277     28.66847420      6.97947645
H        24.04563141     29.47155571      7.08752346
H        25.63871193     30.99877930     11.36818218
H        25.64371872     29.00020027     11.71932220
B        25.06848717     29.91355324     11.19160938
H        23.84810066     29.93348885     11.60230160
H        25.08491707     29.70057869      9.85450745
H        24.12602806     30.15375900     15.54541683
H        25.87261009     30.55761337     16.59172058
H        25.73223686     29.92966270     14.58638763
B        25.27168465     29.80703545     15.80076122
H        25.16486740     28.61558914     16.33586884
H        25.62313843     29.91087151     19.17474937
H        23.82152557     29.40256691     19.76102066
H        24.93338966     30.27373886     21.08029556
B        24.96415329     29.55274773     20.09225082
H        25.52301025     28.55900192     20.38417435
H        24.66236877     30.81609535     25.28838348
H        23.83408546     28.94994164     24.97239304
H        25.60229301     29.13488388     25.88450432
B        24.86563683     29.50048828     25.07735825
H        25.17936325     29.56623650     23.90464973
H        25.57851791     29.72175217     28.21875954
H        25.76354599     29.44396591     30.21286964
H        24.45469284     28.43204880     29.35651588
B        24.99500465     29.48106384     29.28107071
H        24.25626373     30.47123909     29.53651619
H        29.13399315      1.60466278      2.45755363
H        31.18717003      2.23680162      2.44327259
H        29.65448189      3.30579901      3.00822973
B        29.94742966      2.47843671      2.14691472
H        29.61338043      3.02234244      1.08130932
H        28.96434784      3.06746244      6.18267679
H        30.78303337      2.64550924      6.66088533
H        29.52480698      1.25473380      6.57721710
B        29.69019127      2.53068399      6.87917089
H        29.46360016      3.02170944      7.94159412
H        29.75572968      2.57829762     12.27695560
H        29.18880844      1.18880701     11.01951504
H        30.51592827      2.68400264     10.54931450
B        29.62559319      2.26831818     11.18568325
H        28.71382332      2.95899224     10.77435875
H        28.91889763      3.02909613     16.76045609
H        29.46382523      1.14423358     16.05233002
H        30.84093666      2.52124166     16.34488297
B        29.71185112      2.31757092     15.98633099
H        29.80078697      2.67377687     14.76778984
H        30.00933647      3.15465093     20.49530792
H        29.55500221      2.16160464     18.73344040
H        29.42663956      1.28681481     20.53082275
B        30.04828453      2.13365078     19.84170151
H        31.17592812      1.57119095     19.91192818
H        28.96119499      2.00939059     23.73831749
H        30.59515762      2.08424830     25.27106285
H        29.57820129      3.60837460     25.03914642
H        28.80310249      1.61125326     25.67970848
B        29.45046997      2.39260745     24.97717857
H        28.62946892      2.24129963     29.95851898
H        29.93993759      3.24019718     28.72310066
H        30.55040169      2.16506386     30.22694778
H        29.86168098      1.14117801     28.78593826
B        29.71079636      2.19990945     29.36897087
H        29.90772629      5.72215557      2.76523018
H        30.14329910      6.71292925      1.12848341
H        28.62336922      6.96787691      2.44499183
H        30.26002884      7.74413776      2.83086801
B        29.73774719      6.82342243      2.21252275
H        29.40583611      8.29981327      6.43612623
H        29.91499138      6.65421295      7.61783600
H        28.22136116      6.86456823      6.86120129
H        29.81349564      6.59073257      5.77077961
B        29.37265396      7.15202427      6.70655727
H        31.00903511      6.84625912     11.17218018
H        29.02049255      5.58008623     11.43942356
H        29.45799637      7.49455929     12.01424694
H        29.30612373      7.05147076     10.02325726
B        29.71185112      6.77778292     11.12241745
B        29.86621475      6.41157961     16.04035378
H        29.61110306      7.24708414     15.08791733
H        29.53854179      5.36865759     15.45600319
H        31.14522934      6.67896128     16.04779243
H        29.31628799      6.58297062     17.04660606
B        29.64548874      6.87807560     20.94551849
H        30.78455544      7.20422173     20.60599899
H        29.55904770      6.81783819     22.21535110
H        29.16815567      7.99063492     20.81596947
H        28.98703766      5.93172836     20.15351105
B        29.76749802      6.83125591     25.30322266
H        29.61093140      7.91367483     24.68252373
H        30.39582825      7.22290134     26.27041054
H        28.61471176      6.34003115     25.48014641
H        30.45973587      6.05107069     24.52939224
B        29.82901382      6.64513493     29.53330612
H        29.74375725      7.47382450     28.64346695
H        29.16730499      6.85940742     30.58730888
H        29.40615654      5.83804512     28.80718803
H        31.04927063      6.70346355     29.85870361
H        28.74056435     11.13695049      1.66882861
B        29.65122604     11.67813969      2.29105973
H        30.54467773     11.40504074      1.49307239
H        29.76157951     11.08288288      3.56195498
H        29.50075340     13.00432014      2.52201271
H        29.29773331     10.87028313      5.77215385
B        29.81923866     11.34923363      6.65188789
H        29.00681114     11.10314560      7.66220093
H        29.93177605     12.56186390      6.61458015
H        30.84305000     10.83036900      6.98799515
H        30.21649170     10.13555145     12.10779667
B        29.86666489     11.12572861     11.31334019
H        30.52392578     12.07074356     11.23322296
H        28.98740768     11.51854515     11.89367294
H        29.38734245     10.65867233     10.23641109
H        30.71723557     11.62892818     14.95430660
B        29.85646248     11.56217957     15.82736397
H        28.93164825     11.15797234     15.30422115
H        29.61813736     12.77726078     16.20196724
H        30.48251152     10.98766136     16.72382736
H        28.70928574     10.92447186     20.80920792
B        29.75437737     11.60531139     20.43989944
H        30.12135124     11.24818993     19.26215553
H        30.48110771     11.12155724     21.18065834
H        29.43279839     12.63643551     20.48499107
H        30.10980988     11.82013702     24.42794609
H        29.74692535      9.82480431     25.26964760
B        29.54101562     11.11137962     25.34174538
H        29.71415138     11.57668018     26.39016914
H        28.40599823     11.57321739     25.14570427
H        30.42827034     11.02378845     28.70007896
H        28.50799942     11.74742889     29.10542488
B        29.57469940     11.30653858     29.59139824
H        29.48020744     10.38896942     30.31044197
H        30.05501366     12.36304569     30.07756424
H        28.36412048     16.81159019      2.27194452
H        29.41198158     15.03179550      2.57836008
B        29.51453018     16.23116875      2.09862924
H        29.47508240     15.96457291      0.77862668
H        30.52103615     16.88418388      2.18693376
H        28.59278870     16.25338745      6.41346884
H        30.74792862     16.27426338      6.75446463
B        29.72137260     15.75584221      6.80003929
H        29.55924988     16.05892754      8.04514790
H        29.53799629     14.60050106      6.45589733
H        30.26211929     15.68048191     12.14081287
H        29.77345085     15.27667332     10.36429214
B        30.03075027     16.13444328     11.01954746
H        29.28401947     17.06177521     10.98214436
H        31.07662010     16.58835411     10.67897415
H        29.87769318     14.76217365     16.00946236
H        28.35816383     15.85051537     15.79949093
B        29.68026352     15.88052750     15.82091999
H        30.16446495     16.70627785     16.62222290
H        29.89999199     15.99266815     14.67592144
H        30.32386017     15.15648937     21.03221130
H        30.76684189     16.32795715     19.63356590
B        29.92519569     15.89658737     20.15795326
H        28.99957275     15.30995274     19.50934792
H        29.37606049     16.87409401     20.83287239
H        29.86483765     16.72651672     25.81990242
H        29.71874428     16.03184128     23.88530350
B        29.55525208     15.79143524     25.13213348
H        30.28326225     14.89734173     25.35671425
H        28.47462273     15.56133842     25.40487099
H        29.16676521     17.00894928     30.51259422
H        29.54102898     15.14992428     30.40385056
B        29.12770271     16.19001579     29.66984177
H        28.09931374     15.88263512     29.27582741
H        30.03893280     16.30202675     28.69535637
H        30.55602837     21.33708382      2.75891447
H        28.91230202     21.55590630      1.94062865
H        29.26857376     19.82864952      2.93654227
B        29.62475204     20.69831085      2.20500731
H        30.11440659     20.07084846      1.26210058
H        29.25219345     21.20415878      7.77185869
H        29.26539421     20.70460320      5.71979856
H        29.69431114     19.30357933      7.09383965
B        29.69387627     20.46305084      6.86149645
H        30.88414955     20.89396667      6.49085712
H        29.45022202     21.01151466      9.96858025
H        29.46726418     21.51551056     11.96413708
H        29.72472382     19.71011162     11.48184109
B        29.26305771     20.62770462     11.08336258
H        28.12059402     20.58742142     11.00838757
H        29.99491119     19.71852303     16.69350815
H        29.01452637     21.27790451     16.19119453
H        29.41436195     19.75419617     15.05782413
B        29.83531189     20.44794273     15.85501575
H        30.58555031     21.11731148     15.30872822
H        30.51618004     20.43997383     19.98619843
H        28.46664810     20.89092445     20.06359863
H        29.77574539     22.19677544     20.66294861
B        29.61336708     20.89709091     20.49673271
H        29.51622200     20.60769653     21.67399788
H        28.53545380     20.63166618     24.74078178
H        29.62156296     22.13725281     24.99619865
H        30.76403618     20.60217285     24.48733139
B        29.75246048     20.94672012     25.30415154
H        29.81492805     20.59730911     26.40749931
H        30.69889259     20.45141792     29.16940117
H        29.71008682     20.57436180     30.81497574
H        28.86362076     20.09633446     29.26045799
B        29.67205620     20.83051682     29.60231590
H        29.51637840     21.87009239     29.32425117
H        30.08392715     26.07910538      1.45546997
H        29.30769157     24.16440773      1.26682258
H        28.37605858     25.81383324      2.37505794
B        29.33111572     25.22809410      1.90697145
H        29.93453217     24.80516243      3.02546453
H        29.16496849     25.44569588      6.23849440
H        29.51501656     24.07198334      7.42190599
H        30.04709816     25.70012474      8.08904839
B        29.90969849     25.11321068      7.10427761
H        31.00733757     25.20016098      6.67812920
H        29.72829819     26.12516975     12.27009201
H        30.95540619     25.08689690     11.25080109
H        29.11741638     24.31349754     11.74662399
H        29.23476982     25.96154785     10.39366055
B        29.69256973     25.33053207     11.39765549
H        30.09536743     25.38302422     14.46743965
H        29.37692070     26.47291183     15.75382710
H        28.15645409     24.75779915     15.46085644
H        30.09479523     24.95046997     16.60479736
B        29.41662216     25.30193138     15.61594677
H        28.61760521     25.11867714     20.50151253
H        29.44460678     25.48121071     18.97683334
H        30.24369431     26.47309494     20.43178749
H        30.45241737     24.43918610     20.44749451
B        29.70586777     25.35144043     20.14309692
H        30.83231354     25.06340790     24.59369278
H        29.78596115     24.98680115     26.07115746
H        29.29217720     26.51551437     24.70173264
H        29.04564857     24.65767479     24.13464165
B        29.64084625     25.34911537     24.91116905
H        29.59796143     26.19081497     29.23447990
H        29.35421562     24.28125191     29.26129150
H        31.26950455     25.15116692     29.61966515
H        29.89566231     25.26397324     30.85815430
B        29.93240356     25.19480896     29.70082283
B        29.59006691     29.87025833      2.14136100
H        29.66629219     29.59862518      3.30464649
H        30.22799301     29.20969009      1.48201478
H        28.48654938     29.46502686      2.09781647
H        29.57194710     31.11791039      1.96481252
B        29.67247200     29.39571571      6.70538759
H        30.20619011     29.80774689      7.75827646
H        29.62527275     30.21832657      5.78742647
H        30.59588814     28.64238930      6.33034992
H        28.65114403     28.80954742      6.89671326
B        29.25509071     29.67041016     11.51801777
H        29.59844971     28.56687164     11.85217381
H        29.93148041     30.37155724     10.80550575
H        28.28352547     29.29999352     10.81814766
H        29.01270676     30.28109550     12.44013119
B        30.08028030     29.40048027     15.66560364
H        30.98522377     30.14910126     15.27264690
H        30.36331367     28.39476013     15.17581081
H        29.81503296     29.30467796     16.75890160
H        29.08733368     29.73591423     14.91898060
H        29.87299347     31.03025818     20.26201820
B        29.54204941     29.88200378     20.38437843
H        30.23165703     29.14809036     21.00315094
H        29.88806152     29.70588112     19.13672447
H        28.47579002     29.47638130     20.47922134
H        30.08095169     29.28613663     24.02999496
B        29.34949112     29.90991211     24.90555000
H        29.33607483     29.26013756     25.91579056
H        28.14691925     30.01705170     24.49206543
H        29.75496101     30.99382019     24.92933655
H        30.01417351     28.58903885     30.08403587
B        29.42435837     29.56485176     29.56042862
H        28.30069923     29.76185799     30.03897858
H        29.48708725     29.40590668     28.25013733
H        30.08995056     30.48064613     30.03873444
