3075

Na       -6.58799696      0.45799729      4.68362617
Na        5.08512211      1.95751822      9.30442047
Na        0.15839857      1.99682999     18.29826164
Na        8.65277004      6.77853012     14.39482880
Na       -0.26629120     -2.52283382     22.07419968
Na        6.79847097     -0.26105797     27.36558342
Na       -0.10022175      2.16922617     32.28023529
Na       -0.09073272      1.86813390      8.88194275
Na        4.42303991      0.15485190     11.59364891
Na        2.27856302     -0.25396708     22.42773819
Na       -2.58513117     -4.66044140     22.69096565
Na        4.81694174      6.70988798     36.49944687
Na       -4.55617666      2.08967400     32.12542725
Na       -2.10498548      9.08896160      4.43496275
Na        2.16726565      9.08940411     13.80407333
Na        0.43441623     11.01958752      8.95892525
Na       -0.21581547      6.87767363     13.92812920
Na        4.68171978     13.12294292     29.89922523
Na        1.95341694      4.59348392     22.99062347
Na        0.44262218      9.20102310     34.23186874
Na       -6.79440165      9.04125309      4.39444399
Na        6.92874718     18.12882614      9.46352673
Na        2.14580393     13.95784283     13.82557106
Na       -0.42025661     11.38470650     22.51793289
Na        2.20646930     13.43375778     18.50402832
Na        6.87800550     13.70591545     27.40763664
Na        0.09912635     13.77567673     29.35192871
Na        4.56282568     25.04799652      9.17414474
Na        9.33935356     15.80004120      9.08634663
Na        4.42156267     24.88382530     13.12685680
Na       -4.61623144     20.28586006     13.69768810
Na        2.56310320     17.53062248     23.11074066
Na        4.87910223     15.63882065     22.68751335
Na        4.59104204     22.50182152     34.40523911
Na        0.14051379     25.00426102      4.06779242
Na        2.56401134     18.00398445      9.14876175
Na       -2.28203416     22.66633034     18.41729164
Na        4.51075459     24.74015617     18.56292725
Na        4.99708939     24.72760582     26.97186279
Na        4.90211535     22.56558418     29.83720589
Na        2.30271125     13.23606873     31.91632271
Na       -0.01049685     31.74393272      6.77929449
Na        4.46744871     29.19576263     13.36706161
Na        7.07917833     31.96598244      9.31686687
Na        4.55316782     29.35596657     22.89666367
Na        6.86722040     27.18857193     23.07570648
Na        2.41562843     27.45522881     27.27723503
Na        0.21283080     25.08539200     31.78746605
Na        7.04125166     -0.25341466      4.44202089
Na       13.64116955      0.00979726     15.94222832
Na        6.74538660      4.02145100     13.62893105
Na       11.62831688     -4.56321526     18.62360191
Na        4.58554029      2.32760382     22.83592415
Na        9.25850582      4.51925230     25.32067871
Na        2.27242208     -0.30709904     27.17901230
Na        9.24834633     -0.49256632     -2.35440969
Na        9.02713394      4.52966309      7.16241312
Na       13.36435223      4.44329977     11.35924149
Na       -2.04559827      4.30487442     18.22824478
Na        6.96499300      4.39289999     22.77474976
Na       11.59078312     -0.50283831     27.64706802
Na        4.76729965      4.80067587     34.65735245
Na        9.58515644     11.54525566      0.30521837
Na       15.92024422      4.05313253      8.55739021
Na        9.14685535     13.49616051     15.83747005
Na        6.77014065      8.98326874     18.21524429
Na        8.81782913     11.20402431     23.01586342
Na       11.27325821      8.84215832     27.18488121
Na        9.17668533      6.79341173     36.15999222
Na        9.07326698     13.85078430      2.36636615
Na        0.29274723     20.38663292      9.36140728
Na        6.98640871     13.23692131     13.84935760
Na        7.22279024     13.43005466     22.47466850
Na        6.72261143     13.56047726     18.16232681
Na       11.38445950      8.47675800     31.98524666
Na        4.65088606     13.12636375     34.30821228
Na        4.93864012     16.11935043      4.45859480
Na        9.06734371     25.19819450      9.59855652
Na        4.51407290     17.95284271     11.59102154
Na        6.88043499     18.14630508     18.14332962
Na        4.28430462     20.04505348     23.08263397
Na        2.47970629     22.93313217     32.46195221
Na        4.37051344     13.37456608     24.89552879
Na        4.96422529     20.30361176     13.73710155
Na        9.40362644     22.31032562     16.35575676
Na        6.97583771     22.94348145     13.84061527
Na        4.97131300     22.32140541     25.06584549
Na        4.58836460     24.74257278     23.11755562
Na        4.42529345     20.58361626     31.69281960
Na        7.00375938     22.70255470     32.33146667
Na        2.42965388     31.67902565     13.79371452
Na        4.60697699     27.02575302      6.75808620
Na        0.06034710     24.81815720     23.05537415
Na        9.72091007     27.57926178     16.08385277
Na        9.22991562     20.17551041     27.49414825
Na        7.08914948     26.92827415     27.37923241
Na       11.30394554     -0.25650126      4.04159021
Na        9.47118759      2.28084254      9.38610268
Na        9.07926178      4.49112749     11.78118801
Na        9.23632050      1.76184988     13.43962955
Na       13.90066242      2.16701269     27.31270981
Na       18.30585289      6.71031094     31.76378250
Na       11.51275730      3.93079138      4.51476192
Na       14.00475407      6.81372929      9.19862556
Na        9.06184578      6.39267302     18.25572968
Na        4.95127869     -2.79401779     18.25105095
Na        6.79725742      4.37614822     18.40246201
Na        6.51004028      8.80093002     22.24362755
Na        8.96667862      6.72703123     31.99431610
Na        8.91222191      9.10577869      6.61337852
Na        9.23618603      9.33897305     11.35221291
Na        9.94071198      6.79042006      9.23228550
Na        9.42778301      8.56020069     16.24280739
Na       11.46440125     12.87325096     22.85847092
Na       15.84994316     13.56650925     31.87659454
Na       11.35471249      4.54117918     32.02385712
Na       17.99189758     13.76120853     -2.28452802
Na        9.63773632     20.30749321      9.07228851
Na        9.14764881     15.78846455     18.46207237
Na       17.93932533     18.09770966     20.63197517
Na       14.30277443     11.10170078     22.95722771
Na       11.51026249     13.54349804     31.87875748
Na        4.85095501     11.53405476     32.11699295
Na        9.04193115     18.28203773     -2.17068100
Na       11.46555805     18.28843117      9.21723938
Na       13.89716816     15.71311188     13.65535927
Na       11.78033733     17.74828529     18.48204231
Na        4.57773924     17.85904121     20.58848190
Na       11.49722672     17.99897194     27.37133598
Na        6.69571733     17.77155685     27.51985168
Na        6.89551401     22.58959770      4.50213432
Na       13.64096737     24.84673119      4.82012558
Na       13.53923798     22.78352165     11.37976646
Na        9.14813805     20.06887627     18.73238945
Na       16.15245056     22.98132324     22.92675209
Na       13.76027966     29.41145515     23.14575958
Na       18.55916595     24.96297264     32.38111115
Na        9.17701817     24.69242477      4.74033546
Na       13.56797695     20.23373413      4.91089773
Na       11.27427864     36.91613007     13.91790867
Na        9.03881550     22.93152809     25.35861397
Na        6.52570486     36.42749786     27.18825912
Na        8.75088787     29.21104431     26.90357590
Na        5.05859852     25.10543060     32.06319809
Na       14.20043468      2.12853694     -0.21547803
Na       13.89138603      2.09182501      4.61550951
Na       17.80489922      2.22311234     13.62341404
Na       13.55009651     -0.81749028     20.65142441
Na       15.83829784     -0.58877200     22.87682533
Na       20.54644394     -9.61637688     27.38287354
Na       14.36015797     -2.27261615     32.11247635
Na       13.55855370      6.71795177      4.58797598
Na       20.69279099      3.96771145      9.49520397
Na       13.86103535      4.00624418     16.00788689
Na       22.42489243      4.40068197     24.78347969
Na       20.49086761      4.06263781     27.27536392
Na       15.97784615      4.63862896     27.09837723
Na       20.84375381      9.19012833     32.08027267
Na       16.12592697      9.08510494      4.47435379
Na       15.79120636     13.85372066      9.17865372
Na       18.45269203     14.10606575      6.89271784
Na       22.84578705      9.06408310     16.04755592
Na       17.96887970     11.20935917     27.45123482
Na       11.60544491     13.42367554     27.19027328
Na       18.18672943     11.07352543     31.38690948
Na       13.73798180     15.62081528     -0.00739592
Na       13.40844727      6.65638304     13.74689960
Na       13.58085155      8.73764610     15.76256084
Na       13.60213184     20.24126244     22.94533920
Na       13.31722069     16.02086830     27.70799446
Na       20.48007965     13.80963707     22.61853409
Na       15.81155491      9.40435219     31.84823227
Na       18.33972549     23.06415367      2.27504945
Na       15.90885830     22.84429932      8.19311047
Na       11.33729172     18.09744453     13.83191109
Na       13.63035297     18.29798508     16.17907906
Na       22.46875572     22.84379578     25.15021133
Na       14.08618736     18.12824249     20.33594322
Na       18.50271797     16.29381371     36.06725693
Na       13.99631596     27.40204430      2.51463580
Na       13.80441475     27.87717247     11.23161983
Na       17.86159897     22.81781578     11.21064568
Na       18.47732735     22.76743889     20.70065689
Na       18.80963707     20.52261734     18.16061401
Na       13.32166100     24.82814407     27.41866112
Na       20.58412933     22.86436081     32.04592514
Na       16.52087975     27.25090408      4.44999313
Na       18.29001999     29.42752075      9.19731236
Na       16.05231476     26.98559189     13.58969212
Na       15.64504147     27.59702873     23.07565498
Na       20.57630539     31.73126221     27.23516273
Na        7.24628258     27.01177406     32.07135010
Na       18.40063477     31.92789078     34.12914276
Na       22.62797928     -0.05177041      6.50868082
Na       23.07246971      6.53265429      9.42347813
Na       18.06897545      2.21258593      9.57127857
Na       20.39277840     -4.68734121     22.81930161
Na       13.32083511      2.14797735     13.88986588
Na       23.23169327     -2.53339815     27.20856094
Na       25.25379944     -0.22366592     32.03850555
Na       20.71984863      4.21965647      3.89611506
Na       20.81734657      8.90022945      8.51787376
Na       17.68026161     11.34740829      8.86995792
Na       15.82689095      4.49702406     13.73090267
Na       23.04015541      2.12835693     17.93678665
Na       22.46292877      6.73285580     31.53846550
Na       18.16326332      4.09210587     29.17447853
Na       20.59733772      9.03160286      4.65787363
Na       13.94023132      8.66833305      6.74037886
Na       18.46246910     13.77232265     15.60754108
Na       17.80420494      6.68442059     18.02839661
Na       20.49884033      8.65809727     23.10513306
Na       25.13893509      8.78543568     31.62699699
Na       20.40236282      8.82438469     27.58900070
Na       23.17811775     13.53706741      6.96290874
Na       18.34203148     11.54125309      4.26646137
Na       22.50417137     11.17297649     13.26233196
Na       20.23165703     13.10708427     17.92164612
Na       22.87049103     13.25699806     24.45988655
Na       22.94052124     13.62371826     29.67641640
Na       22.77351952     15.64473438     36.54504013
Na       20.64819527     22.59923744      8.93916798
Na       20.47655106     18.12686157      9.33904648
Na       23.08793068     20.43979836     13.77498531
Na       13.05897045     13.29236794     20.27146530
Na       22.94377518     18.31864548     25.10316277
Na       18.15493011     26.91444397     29.58426285
Na       13.91901112     20.38142776     32.31507111
Na       25.37949562     22.63602448      4.16900301
Na       18.29561043     21.78189659      6.36997223
Na       17.87959862     27.41494560     15.84928989
Na       15.97629070     22.85132027     13.65197563
Na       22.57900429     20.55132675     27.47635841
Na       16.03800201     22.48616219     27.33010292
Na       23.29699516     24.83759880     36.56109619
Na       23.24654198     29.38603020      4.85466957
Na       16.07545662     27.24058533      9.44063663
Na       22.72781181     24.87916946     13.97670937
Na       16.10902786     27.18218994     18.51888466
Na       19.08630943     26.93217659     20.30760002
Na       15.86855698     26.53770638     27.20934486
Na       23.12914658     27.26879692     34.28211975
Na       27.51109314      2.35587668      4.31891584
Na       20.68737411     -5.09043503      8.98709106
Na       20.55521774      0.06218744     13.55382347
Na       27.33754730     -0.05841871     16.02838135
Na       22.80149651      0.44185537     20.22035027
Na       36.60435104      2.10391092     28.00307655
Na       22.87307739     -2.51888943     32.15315247
Na       27.74854469      6.85275888     14.02547169
Na       27.23108101     -2.47699690     18.46187019
Na       22.83657837      4.40403461     20.39134216
Na       25.11186600      4.42875290     13.93375397
Na       23.14497948      2.30428910     22.45898628
Na       27.52112961      4.48843908     34.35571289
Na       29.67047882      8.75500202      9.73300648
Na       24.87614250      9.14268589      8.89682961
Na       24.74699974      8.97303009     17.96265030
Na       29.78647614      4.54981327     22.69929314
Na       27.35921669      9.15490627     24.92013931
Na       22.94492722     11.27419472     27.17418289
Na       29.70247650      4.40462160     31.87998581
Na       25.15613937     14.04942703      9.68136597
Na       31.68870926      9.58089066     16.04194450
Na       27.30631638     13.29307079     11.33570480
Na       18.50672150     11.00213432     22.98188782
Na       23.03256226     13.90012646     20.37620735
Na       17.96425629     20.42650223     27.46169472
Na       18.36395836     20.36208725     31.81596947
Na       20.30481339     18.21240997     -0.55126667
Na       18.20877075     18.05553818      6.96069145
Na       24.91275787     18.07301903     14.04998398
Na       25.11368942     18.05949020     23.13058281
Na       27.40518570     18.22680092     20.37207985
Na       25.30484581     17.96720695     27.48291206
Na       27.24250031     15.49709892     31.41337204
Na       18.64577484     27.39587593      6.56137848
Na       18.38579750     15.77596188      9.37572861
Na       26.86250687     17.76481438     11.35531139
Na       27.22963524     27.31797409     15.67918491
Na       23.30544090     18.03687668     20.73538780
Na       23.28623962     27.13165474     29.56838226
Na       23.21365166     22.82459831     29.56564903
Na       27.46741486     29.50475883     -0.31399459
Na       23.57972717     29.53823471      9.03820705
Na       27.49923325     29.50957489     13.30742455
Na       25.38991737     32.22825241     13.88426304
Na       22.68431282     29.64624596     22.89104080
Na       20.81839561     27.28621292     27.26247025
Na       27.10927391     22.66235352     29.48739243
Na       34.44625854      0.05480936      9.05036259
Na       27.36525726      4.08239794     11.44495296
Na       34.38508606     -5.05912399     14.03968906
Na       29.65903473     -0.96542269     17.83724594
Na       26.87829590     -2.37185931     22.50667000
Na       25.13008499      8.95811749     27.45124054
Na       29.30931854     -0.51219720     32.69207382
Na       32.07381058      4.38912535      2.41458058
Na       31.74792480      4.46488714     11.21929741
Na       32.01074219      4.22442818     16.13551521
Na       32.14389038      1.86379600     13.25015163
Na       27.53032112      4.10671377     24.95611000
Na       25.05203438      4.20559120     27.13132668
Na       31.89900780      4.67698669     29.86199760
Na       32.28748703      6.44623184      4.64849806
Na       27.15406799     11.34449673      8.73079777
Na       27.69873238      1.95186269     14.23574543
Na       31.80405617      6.56126308     17.90963364
Na       27.64494514     13.71435452     20.29058266
Na       36.04755020      4.29973936     25.27144051
Na       31.63368225     11.21499062     27.15130043
Na       34.51630402     13.36436558      4.68605185
Na       28.07835388     15.59529209      9.47896957
Na       27.66685677     20.28622055     17.78270531
Na       32.43115997     17.70771790     20.36289787
Na       27.01701355     11.20268059     18.40639877
Na       22.06206322     15.81120777     27.42879295
Na       36.55986023     18.42741394     34.03306961
Na       29.90093422     17.71467400     -0.06186510
Na       34.22986603     18.28572655     13.68419361
Na       34.29090500     22.14788818     18.13451004
Na       29.57996368     22.53761864     22.86012459
Na       27.08747101     15.33445549     23.11576462
Na       29.79997635     18.15088081     27.26543808
Na       27.58760834     20.18582344     36.18772888
Na       34.14731216     18.43725014      4.47059488
Na       27.42422295     22.32335472      2.27477789
Na       34.27733231     22.82808495      8.49248505
Na       32.27110291     24.43348885     18.12201881
Na       31.94501877     26.93776894     20.66099930
Na       25.33160019     22.70368004     27.03745842
Na       31.67728996     20.40420914     36.31093216
Na       32.20628357     27.12279129      1.90418732
Na       25.25824356     31.91650581      8.87732983
Na       27.66999626     34.06124115      8.61384010
Na       27.18979454     27.78112984     24.97435951
Na       32.06443787     25.23218918     27.17185211
Na       25.41695786     27.30038834     36.55167007
Na        7.03427839      9.24398327      9.26604843
Na        4.52923203      8.88062286      2.07148147
Na        4.89652014     -0.51396942     16.22615433
Na       -0.04127571      1.96331513     22.82729912
Na        4.66908169     -0.00987623     20.57081604
Na        2.09250283      3.98721552     27.74792862
Na        2.23312426      4.55890608     32.45730209
Na        0.52536261     15.97670555      4.45881701
Na        2.54694319      4.15059376      4.76276255
Na       -2.14025426      9.53436947     13.68705559
Na       -6.93978786      4.58139515     18.52869225
Na       -4.73596478     -0.08012422     29.62780380
Na       -2.20410037      8.89447594     27.25595856
Na        0.29810768      9.12407970     29.40703392
Na        0.21633108     13.61522198      2.14672232
Na       -0.35389951     13.56401920     11.65522003
Na        4.64566422     11.11086845      9.19919682
Na       -0.21780232     11.26292515     18.85879517
Na       -0.32629067     13.23911858     24.77896500
Na       -2.06212616     13.93852234     22.66731834
Na        0.13167034     11.21810055     31.78429031
Na       -1.93285143     13.79476070      4.56877518
Na       -0.26327929     17.96058273     16.01385307
Na       -0.03659643     15.84731102     13.94822216
Na       -0.13478240     12.88068581     16.13181496
Na       -4.25942373     13.57431412     29.28487778
Na        0.17941311     17.90996742     24.89872169
Na       -4.74680662     15.71464348     27.15263557
Na       -4.23727226     18.23472404      7.10423613
Na        0.10476208     20.35567093     13.58768749
Na        4.21764231     22.50302505     11.28537941
Na       -2.09880948     22.56465149     13.56210041
Na        0.43526989     20.20626640     22.46544266
Na        2.36656547     22.88937569     27.31300735
Na       -0.04259313     22.67474174     29.52037430
Na       -0.01867990     29.26666451      4.52357340
Na       -0.02698911     27.19881058      6.91774797
Na        0.49486512     29.38895988     13.47421551
Na        0.02355168     22.74126244     20.44983482
Na        5.17797709     27.33440399     20.73246193
Na       -2.47916150     22.70806503     31.66938019
Na        4.62080050     20.12812805     27.48291779
Na        0.13381477     31.18022728      2.12541747
Na       -0.07080822     26.82287979     11.45799255
Na        0.17492694     22.74802208     11.07717991
Na       -0.31489143     36.27788925     25.18176651
Na       -4.29716158     34.02640152     22.63317490
Na       -6.52218390     32.22875595     27.28937149
Na       -0.53744400     32.30533600     29.73880959
Na        4.55045795      4.59555960      7.20693064
Na        4.53129005     -2.41241074      9.14641476
Na        9.06004620     -0.42179102     11.59498405
Na        1.91508865      8.41342735     18.30541229
Na        6.68896580     -0.39387324     23.13737297
Na        5.01784086      8.92099190     29.46819687
Na        4.62677574     -2.63385463     31.86455917
Na       -0.11303696      9.12914562      7.07247257
Na        0.54827553      1.96215010      4.11253071
Na        4.28603220      6.42104530     13.92441750
Na        4.10140419      4.27421522     20.73046112
Na        4.34131384      9.11549759     20.38402557
Na        4.32253122     -0.45307741     24.97000504
Na        7.04240704     13.89166069     36.31596756
Na        4.84626770     11.12694931      4.92533207
Na        4.38633823      6.71460533      9.63688469
Na        4.60316610     15.98047829     14.02944183
Na        2.11166358     14.01247501     23.40598106
Na       -0.28216067      8.74400139     20.54172516
Na       -0.06376319     15.87626648     27.23949623
Na        9.45211411      8.98011398     34.22678375
Na        4.63108873     24.86780548      4.73855257
Na        2.19842720     13.34983158      9.42282200
Na        4.78162718     15.73318958      9.22087193
Na        2.29469419     13.42252827     27.28587532
Na        4.51174784     13.14179325     20.46111107
Na        9.19655323     15.95439434     28.00082588
Na        0.15471341     16.00835800     31.54409599
Na       -1.18033218     22.90371513      6.19865751
Na        2.13081861     22.83995247      5.01440668
Na        4.46748257     22.71167564     15.76940918
Na        2.29179120     17.91437149     18.34275818
Na        2.52477527     18.20237541     27.01106071
Na        4.61070347     15.45923805     27.40527344
Na        4.96568823     17.80856323     25.05191422
Na        9.10886574     29.21490860      4.91620207
Na        2.33062744     26.92851830      9.52264786
Na        6.89943600     27.45409012     13.73809910
Na        4.55883503     20.18136406     18.31053543
Na        7.16350698     13.64921856     31.88433456
Na        5.04137754     27.47323036     29.58793449
Na        6.64423084     21.99194145     27.56515884
Na        2.60978961     31.66769791      4.88470173
Na        2.38309693     36.10468292      9.09681129
Na        4.45558310     26.29687119     15.95539379
Na        9.06805038     36.01476288     20.73487854
Na        9.07677078     26.36179352     25.25880051
Na        4.51427031     27.21973419     25.35754967
Na        4.68497562     27.18114662     34.05579376
Na        9.36426544     -0.24337737      2.17035866
Na        9.46991634     -0.24473801      6.75118828
Na        4.68023252      3.92250824     11.34671307
Na       11.29438400      4.35984945     22.68253326
Na        8.80325699      6.77676439     23.45392799
Na        9.18510246      2.03539014     22.87159538
Na        4.99758196      8.79875851     39.00067139
Na        9.11740112      4.64822721      2.49065709
Na        6.94972658      4.33605957      4.80705166
Na       11.38751888      9.89529705     13.98761845
Na        4.13268852      6.78804874     27.50873756
Na       18.22301674      6.52160358     22.78476906
Na        6.90296268      8.22691727     27.58217239
Na       13.70326042      6.66999865     31.97493744
Na        9.38772774     15.76024342     -0.26333669
Na        9.59119511     11.44803810      8.62485504
Na       11.42517376     13.36434937     13.97153664
Na       11.36876965      8.54918289     18.33717728
Na        8.71955776      9.22727966     25.49654198
Na       15.91081905      8.87261200     27.25163269
Na        4.92759514      4.83909988     29.79852867
Na        8.86951923     15.95822239      4.63002396
Na        8.90716648     20.44854736     13.93141651
Na        9.07802010     11.20056438     17.84226608
Na       15.82994366     13.46317387     18.32656097
Na        8.96847534     13.36371517     20.63005257
Na        9.26048088     13.43137455     29.76332092
Na       13.53883839     11.14919758     36.64990997
Na        9.14322758     27.26110077      2.20593119
Na        6.95923996     23.05964851      9.17576408
Na        9.28488541     15.94149303     13.32532883
Na        6.79494190     18.03584480     22.68280792
Na        8.99444199     24.68586922     23.02352905
Na        9.10614872     18.07772827     25.30809784
Na        4.42822933     20.57818604     36.45634460
Na        6.96002150     27.34858131      4.73510933
Na        9.14026546     22.83898544      6.93006134
Na       13.74923801     29.54291344     14.10288048
Na        8.83237648     25.26788330     14.05892944
Na       13.31865311     24.89590073     22.83848190
Na        9.18629169     34.11571884     27.65263557
Na       11.49374104     26.91197586     27.40596581
Na       13.67377090     32.00251389      2.12415671
Na        7.02296925     27.54001808      9.25704670
Na        6.80934381     31.49674606     18.49604034
Na       11.15055752     27.19613266     22.98594475
Na       13.99865532     22.81725502     24.81717491
Na        9.29080486     32.02767563     25.21775055
Na       11.64191341     -0.03053303      9.26081753
Na       13.62884235      2.36845469      9.30812836
Na       11.30347919      4.13186598      8.70421314
Na       13.58291245      1.79767632     18.10455132
Na        4.56568766     -0.54164326     29.76910400
Na        9.12958050      4.27723408     29.67388916
Na       11.60555458     -0.17273499     31.50705719
Na       13.56156349     11.39519215      9.38597584
Na       16.19468117      8.80046558      8.86870956
Na       16.21979141      4.32492256     18.22769165
Na       13.56130886      6.56918764     18.46778870
Na       13.87728119      4.08069468     20.20811272
Na       15.86217785     13.96103287     27.17876816
Na       13.73073864     10.98121834     27.46403503
Na       13.81297493     15.90017414      8.82416058
Na        6.81990004     13.82967567      9.08408833
Na       18.17805862     13.32041931     11.29605007
Na       11.54181480     13.75372887     18.14742279
Na       15.83564949      8.93558216     17.51335144
Na       13.73994064      9.12491894     20.60134888
Na       13.37305069     13.70072269     34.45896149
Na       11.35627651     17.83809471      4.65429449
Na       15.95196915     18.36021042      8.99762917
Na       11.45041466     13.97060966      9.13203907
Na       14.06594658     11.46280861     13.49618244
Na       13.75357628     15.78769493     18.27213097
Na       11.39719677     13.24556351     36.53647232
Na       11.44579983     22.72414780      4.49407053
Na       12.94797325     22.48805046      6.74030161
Na       13.53739929     20.39847183     13.82438946
Na       11.69992161     22.17214584     18.92060661
Na       13.45106220     13.15165424     29.74200630
Na       13.71353245     18.06487274     25.01603699
Na       11.48783588     22.40358925     27.42536926
Na       13.69550228     18.22097206      2.56471848
Na       13.80001736     17.96188354     11.55502415
Na       11.54388905     27.59279633     13.68505669
Na       13.52045918     26.96575928     16.04439354
Na       11.26721478     22.52957535     22.90860939
Na        9.21532059     29.43744469     23.12586403
Na       11.56410599     22.42844391     32.02812958
Na       14.30415249     29.45750046      5.01148462
Na       13.54224205     31.64027405      6.75817347
Na       16.27003288     22.49033165     18.44907951
Na        8.92276287     34.13529587     18.04756546
Na       13.10312271     26.91674423     25.27901077
Na       13.46474743     31.62491989     25.28122330
Na       13.59926701     24.99794579     31.99116898
Na       18.62386131      2.16811943      4.18852091
Na       18.42156029     -0.48043561      6.79194689
Na       18.50180054      6.63297272      8.76937485
Na       15.84005165     -0.51101118     13.46216297
Na       17.93380928      4.61256218     24.91208839
Na       18.33451271      1.90604722     26.95701981
Na       16.21822548      0.18412249     31.88765526
Na       18.53271103      3.98573661      6.79927349
Na       13.80266571      8.75028515     11.42973423
Na       23.15709114      1.97385442      8.87290096
Na       20.57962227     -0.29795519     17.99848175
Na       17.70478058      8.85336494     20.87893105
Na       18.42731857      6.55414438     27.31904221
Na       18.43042564      2.07591486     31.41090584
Na       16.05395317     13.32748890      4.47124481
Na       22.54313087     11.42661667      9.36155128
Na       22.86160278      6.71365023     18.34700394
Na       13.65406895     11.11306858     17.89944267
Na       13.35438919      6.73660946     22.97967911
Na       20.60549355     12.94225121     27.24094009
Na       18.15271950     13.96732330     34.12547302
Na       22.99979782     18.33160591      6.72445202
Na       20.85727119     17.83446312      4.60833406
Na       18.33400917     18.09998322     11.65107059
Na       17.98827744      8.84749126     11.19456959
Na       18.43784332     16.02260399     22.83329391
Na       22.79435158     11.04545021     22.47182846
Na       18.52532196     18.59391022     34.49020386
Na       18.32076645     24.97397614      5.02955723
Na       17.89303589     20.42724800      9.36478519
Na       13.30767536     20.29170799      9.06423283
Na       18.16966057     11.07249355     18.10399055
Na       18.89592552     20.58020973     22.72477150
Na       18.67501259     24.80445671     27.04473495
Na       20.42696381     18.31888199     27.14246941
Na       18.36204147     24.85349464      8.95620060
Na       18.83664322     26.98185921     11.38265228
Na       20.52745438     22.84851646     13.44406033
Na       18.10484505     15.74098682     18.39436531
Na       22.86813164     22.60729027     20.36536980
Na       18.74894142     29.40732765     31.77714539
Na       20.72000504     26.82833481      4.23535585
Na       18.85590553     29.26560593     13.19759750
Na       20.60234833     31.87942314     22.93288040
Na       18.21157646     31.72582054     20.54598618
Na       20.70847321     27.27641869     31.37831497
Na       18.20270920     29.67708397     36.38316727
Na       27.88705063     -2.54363441      4.70287180
Na       22.72624779      8.81855774     11.35618019
Na       29.66246796      4.40961313     13.55750656
Na       20.48283768      4.61026573     18.45105934
Na       23.01108170      0.13527544     25.08681107
Na       16.10746765      4.74408817     31.60379410
Na       22.43613052     13.24723053      2.26228905
Na       22.95153999     -0.27638206     11.18288994
Na       18.11898804      4.31436872     11.35352325
Na       22.49853325      8.62106228     20.55372810
Na       20.37371254      4.50107861     22.26000214
Na       23.02473640      6.57830334     27.49597168
Na       22.95153809      8.89049339     25.21802330
Na       22.77742004     11.02404690      4.86494732
Na       22.56124687     13.53481483     11.63809299
Na       18.20420265      4.34739733     15.74618530
Na       18.11388397      8.73213100     15.78364468
Na       25.06462669     13.70566273     27.32556343
Na       25.15339470     17.93281746     32.23610306
Na       23.50276184     11.29109383     31.91916847
Na       25.33689117     13.49299049      4.85200119
Na       20.58720398     13.51804161      4.77176952
Na       20.55975723     18.16652870     13.65620708
Na       18.48380089     13.56593418     20.32798576
Na       25.01667595     14.02635860     22.42188263
Na       27.42051697     11.32205105     27.35075760
Na       27.54458237     20.14238358     31.95757103
Na       29.68756294     22.15882683      9.33487892
Na       22.65023422     22.76867867      6.60398531
Na       25.24941826     22.56822205     13.83117867
Na       20.76361084     17.93972588     18.68383217
Na       18.16418076     22.72320938     15.65161896
Na       22.59807587     15.73394680     31.81024551
Na       25.01669693     22.07107544     32.25121689
Na       27.22907448     26.98313141      2.47516418
Na       22.97911263     24.84865189      9.09064484
Na       22.71058464     22.29845238     15.79023647
Na       20.62182999     27.44310951     17.32518768
Na       17.95033264     25.20544624     22.95583153
Na       18.61713791     18.17802429     25.03433609
Na       22.64064598     33.86341476     31.98979950
Na       27.18433189     31.79515457      2.48488927
Na       22.78904724     34.05870438     13.62955475
Na       27.56116295     24.74426079     13.86238766
Na       25.45380592     26.89364433     13.28099346
Na       22.52975082     27.29049492     20.39484024
Na       23.40390968     24.86075211     31.97509956
Na       25.59082413     26.88557625     27.39955139
Na       25.20840073      4.57515669      4.99497414
Na       32.48414230      9.15656376     11.48535061
Na       27.36503601      6.67842436      4.59704304
Na       20.21681023      8.59701061     13.31828022
Na       27.82770920     -0.17303976     20.48776627
Na       31.92922211      6.80985212     27.20751381
Na       24.94636726      4.46547508     31.62304306
Na       20.43350983      4.61308670     -0.02195336
Na       27.47610283      6.70198250      9.09506035
Na       27.25817299      8.89644146     15.90975952
Na       27.46160698      6.73243141     18.16838264
Na       26.72188759      8.69210529     20.67034340
Na       27.20256805      6.38886023     27.03602982
Na       28.01430702      9.16301823     38.94997025
Na       24.83598328     13.32806396     13.52755737
Na       32.25173187     18.16136169      6.93373442
Na       27.28786278     10.98624516     13.44672871
Na       24.74990654     13.44611359     18.21893692
Na       32.01353073     15.99459267     22.61038589
Na       27.44261551      6.32296896     32.06088638
Na       27.25201988     11.00742054     31.48472595
Na       29.97755623     17.80270004      9.27315140
Na       25.18269730     17.61015511      9.01312637
Na       22.77698326     15.68166924     13.77430248
Na       27.86726379     15.27993584     17.85437775
Na       27.49929047     11.13220215     22.21889877
Na       23.08899307     18.13425064     29.73589516
Na       27.45967484     15.61867619      4.81710386
Na       25.23643303     22.73900032      8.63534451
Na       29.84916687     17.86403465     18.44455147
Na       31.89093399     24.84220505     13.90487289
Na       36.52973938     22.47941208     20.38554955
Na       22.92126846     24.91431999     27.22126961
Na       27.67010307     18.34986115     29.75820923
Na       29.74400139     26.79291725      4.58056307
Na       30.03471756     31.87418556      4.68231487
Na       18.04194641     34.08799744     22.56658173
Na       27.51227760     24.93684387     18.44901466
Na       34.43453979     22.42839432     22.89088058
Na       27.67562103     27.31181335     29.58292007
Na       29.69785500     27.25424194     27.34731483
Na       25.25706673     36.38805008      9.46321011
Na       32.40225220     24.87372398      9.13978958
Na       28.37982559     29.93765640      9.14009380
Na       23.19067383     29.73305702     18.46449280
Na       27.39831543     24.98323059     22.74925041
Na       27.76334763     31.82861710     25.18797493
Na       26.92396545     29.60961151     27.76055908
Na        4.82593060     -0.65503788      2.14999223
Na       -4.41976643     -0.28490055      6.72811699
Na        0.16796450     -0.28664947     11.31252384
Na        2.24277091     -0.70833772     18.25003815
Na       -0.20700619      0.06388821     20.18311119
Na       -0.10623899     -4.67767382     25.04652786
Na       -0.25113443     -2.32882833     31.76699448
Na       -4.34020376      8.66810703      2.32722664
Na        7.06932163      5.33435440      9.28887367
Na        0.27645931      4.26320791      6.86529064
Na       -7.06195354      4.40171289     22.84739113
Na        0.05342228      4.53677893     20.75393486
Na       -4.38630295      4.31749582     20.21400642
Na        5.03979063      6.64716196     32.13312149
Na       -2.31743956      4.37162161      4.62248755
Na       -1.98195684     13.27352238      9.44366741
Na        0.02029563     11.19784164     13.67679882
Na        4.09099579     11.10039330     18.14083862
Na       -2.74272871      9.40716267     18.59779930
Na       -0.05276984      8.48995590     24.64430428
Na        2.69079232      8.88476276     37.00518417
Na        0.11184102     18.24648476      2.21375990
Na       -5.05970860     15.69309425     13.93047237
Na        0.29131499     17.84984970     11.48301792
Na        4.54322529     13.10143375     16.08110428
Na        0.02699542     13.71176243     20.59329224
Na       -4.59573174     13.00016403     25.05044746
Na       -0.10935864     20.68120193     31.95080757
Na       -0.14920513     18.90278625     -2.37853360
Na        0.14391592     15.89237022      9.15441227
Na       -0.06518248     15.61746120     17.83675575
Na        6.89945507     22.32542419     22.76507187
Na       -0.32308263     20.45751572     26.97383881
Na        8.90386009     24.59116364     27.92224121
Na       -4.18574476     17.85442162     34.18022537
Na        2.63693666     27.19335175     -0.46776643
Na       -4.52696800     24.94437218      4.74439192
Na       -2.23170590     27.15439415      9.33783436
Na       -2.39517736     26.99653435     13.95897579
Na        0.04564236     22.60389519     24.95302963
Na       -2.66586304     23.78507233     27.79210091
Na       -0.71070617     22.78034210     34.34141541
Na       -2.24106097     27.48569489     -0.04884542
Na        2.09095883     27.37556076      4.40893507
Na        0.35926053     31.75311661     15.72725296
Na       -4.17980719     27.04994583     11.26564598
Na       -2.20835900     31.56694603     22.81710625
Na        0.07973472     29.63047218     27.46149254
Na        2.14552069     27.32028770     22.79934502
Na        4.96328878      2.09638262      4.67308140
Na        4.94077778     -0.16544907      6.92114115
Na       11.42456722     -0.81843442     13.65377140
Na        4.72887611     -4.70779133     11.41711807
Na        6.55950308     -0.35845527     13.43024063
Na       -0.12842803     -0.55890453     25.04943657
Na        2.33270383     -0.28301141     32.08282852
Na        4.85260248     -2.35078263     -4.91432953
Na        4.26776648     11.32289314     13.95786762
Na        4.68740463      1.81528783     14.19091320
Na        2.24243283      4.08290815     18.36599159
Na        4.50009108      1.89410853     18.33656693
Na        4.21529484      6.65457296     22.79304695
Na        4.46337366      2.04200959     31.95050621
Na        6.92540073      9.47055244     -0.48462042
Na        0.61507779     13.40423965      6.87343597
Na        2.12756062      4.20640421     13.49811172
Na        4.87878561      8.82342052     15.99905491
Na        4.74441671      9.10716248     24.92635918
Na        4.76670456     11.09681892     23.03139114
Na        2.56285548      9.24990082     31.61381912
Na        4.67717123     18.00440216      6.88102627
Na        4.65622854     13.60785484      6.83348322
Na        9.12557030     18.30221558     11.58026886
Na        9.57719707     13.34457779     11.39351273
Na        4.25010061     15.52200413     18.48365211
Na        2.16109109      9.18162727     26.89496613
Na        4.55437994     11.18993759     27.02606392
Na        6.57720137     17.73414040      0.35321394
Na        4.40296268      9.07845116     11.48953629
Na        6.94699955     17.48642921     14.06223106
Na        4.58148670     18.28180122     16.12651443
Na       -0.07182832     27.11030006     16.14928436
Na        0.08333387     20.06134796     18.04067612
Na        4.25693560     15.87793350     32.18852615
Na        9.70136929     22.42081451     11.69608974
Na        4.93937111     20.46073341      8.97032356
Na        2.28937650     22.47366905     13.89002037
Na       -0.57806289     22.19591713     15.92301750
Na       -2.10993314     18.19289589     22.67930031
Na        8.69879627     22.60366821     20.72347260
Na        9.33403969     24.82789040     31.75553894
Na        9.56635952     26.72986412     -2.34390354
Na        4.41736364     29.64964867      4.63422155
Na        4.91680956     22.78779793      7.15181160
Na        7.18449497     26.59927559     18.42708969
Na        0.31396595     29.47330666     18.29668045
Na        2.11282635     27.19853020     18.56695366
Na        7.17050171     31.93696785     31.82751083
Na        9.43093586      1.93485606      0.55490857
Na        9.02352047      4.14454317     16.12271309
Na        8.92489815     -2.15630889      8.69934368
Na        8.87495041     -2.80872321     18.67915726
Na        9.10329533     -5.16962147     20.74575615
Na        9.11637020     -0.17884527     20.75003242
Na        6.73658657      4.02191687     32.17856216
Na        8.77445698     11.44195271      4.43071604
Na        8.87294388      2.09883356      4.67441130
Na        4.51485634      4.36944914     16.17435074
Na        4.24179268      6.76679230     18.43583298
Na       11.45652962      4.09990740     17.94707298
Na       11.60462475      4.35614538     27.25579262
Na        9.46832275      6.55028343     27.49177170
Na       13.74769115     11.05625916      0.46098512
Na        7.06090975      8.87417793      4.49425173
Na       11.53022861      9.11917305      4.87353468
Na        8.84529877     11.20252991     14.11065388
Na       14.32660103     15.72875023     22.77303886
Na       -2.78347373      3.82243824     27.51140213
Na        9.28502464      8.20930672     29.73528290
Na        8.95568371     17.94132996      2.42805743
Na       11.56749916      9.09597492      8.73373795
Na        6.68039083      9.26145077     13.50326061
Na        5.19692945     13.48206520     11.66789532
Na       11.22059727      9.12983227     22.51912117
Na        9.55008984     15.78029919     22.84930611
Na        2.26401377     18.18861008     31.71776581
Na        6.96541071     18.19617844      4.42362213
Na        9.67864609     20.21076202      4.44706678
Na       13.58734131     13.32784462      6.95394564
Na        9.22198868     17.76108360     16.19613266
Na        8.73566341     17.82369041     20.73386002
Na        9.13025856     13.68687534     25.30944252
Na        4.58938026     17.87509727     29.73492241
Na       11.57327271     27.12822723      0.55343986
Na        9.49032974     22.78853798      2.31348515
Na       11.37062168     27.37687302      9.03747463
Na        9.56845284     24.71525002     18.07598686
Na       11.68796825     17.82914162     22.61536598
Na        9.34500122     20.33232689     22.67828560
Na       16.04554367     22.84951210     31.98070526
Na        9.56940842     29.39349174     -0.03666084
Na        9.03749371     27.37470436      6.84446907
Na       14.17165184     24.85244179      8.77661228
Na        8.72328854     29.60099983     13.97053337
Na       13.86139011     26.65663528     20.44991493
Na       13.82924557     29.35028458     27.47071838
Na       18.02437401     -4.58503246      1.90541685
Na       16.16040039     -0.10550032      8.51477623
Na        9.00043774     -0.59656972     15.97780418
Na       13.77740002     -0.22750053     11.38611126
Na       11.53693199     -0.13643350     23.22260857
Na       16.00139427      0.02377286     27.31389809
Na       13.60818005      6.65553284     26.88328934
Na       13.44205189      4.33576918      6.62658548
Na       17.62123489      4.34306765      1.90799713
Na       18.76498222      2.24968004     17.96935272
Na       11.17916012     -0.36718279     18.57130814
Na       13.52069855      1.85514152     23.02475166
Na       13.83853436      3.83780766     24.85955238
Na       13.65278625      4.39776325     34.36720276
Na       13.67427349      8.63144112      2.23713064
Na       13.67874718     15.61295700      4.64461279
Na       15.85392475      9.09925270     13.41083431
Na       18.13246155      6.46540833     13.69311810
Na        8.84364223      8.64180279     20.65775490
Na       13.67566586      9.21239376     25.27217102
Na       13.67417622      8.58610725     29.77976799
Na        9.27690983     17.93127632      7.05955315
Na        8.94268799     13.67637348      6.94556570
Na       13.48898888     13.53937912     16.12350655
Na       16.02394104     13.65247917     13.53046513
Na        9.12200642     11.07728100     27.60847664
Na       14.01623249     13.81658649     25.12385178
Na       11.55863571     17.93080330     32.50113297
Na        9.19260025     20.20592117     -0.08010244
Na       13.43793106     17.80628204      6.98002672
Na       13.60738945     13.90350437     11.31703758
Na       11.39519405     23.14276886     14.02031994
Na       15.97360802     18.40101242     18.07077980
Na       13.93411350     20.65955162     18.04519844
Na       13.92398262     18.59941292     30.03053093
Na       13.78607273     22.68831062     -2.01768327
Na       13.59140873     25.30093193     12.93945026
Na        7.05147457     22.38251114     18.07419777
Na       18.08683014     20.24462318     13.48258018
Na       14.09600735     22.82635307     20.46561623
Na       18.24120331     22.98225594     25.19009018
Na        9.13920403     22.38692284     29.83407021
Na       13.77962017     36.22537231     -2.54122496
Na       14.15288162     22.74533844      2.51907730
Na       14.29827976     27.14340973      6.93009710
Na        9.56376743     27.43892860     11.46746540
Na       18.49332047     29.58817101     22.66448212
Na       14.26707840     31.73705101     29.62715149
Na       16.02679062     27.11200714     32.07322311
Na       18.51497459     -7.23398638    -14.13441086
Na       16.06199837      0.11593449      4.64694500
Na       18.50598335     -0.28134042     11.35505295
Na       18.25348091     -2.67837691     18.43269539
Na       22.96316338     -7.23106289     18.25857925
Na       18.29010963     -0.83087522     25.11555672
Na       18.25060463     -0.72425157     29.52956963
Na       16.11915016      4.44059849      4.84237623
Na       18.65749741      6.52494574      4.55604982
Na       22.79711914      4.09329414     11.31489086
Na       18.30512428     -0.29272166     15.81630802
Na       18.01278687      4.45575523     20.19881439
Na       18.14497185      9.15537548     25.03523064
Na       23.03548050      2.12200141     27.47229195
Na       17.97995567      8.82523155     -2.56113553
Na       18.21477127      8.89925766      6.82693434
Na       18.14568138     11.07026863     13.46993160
Na       15.91395378      0.15962483     18.56122971
Na       18.33788681     16.08688927     13.68415737
Na       16.06603050      4.43227053     22.64784241
Na       18.63105202      8.56371593     34.17488098
Na       18.24679756     18.03626442     -2.61944389
Na       15.87479305     17.91792107      0.35644820
Na       20.47440529     13.66067982      9.32640171
Na       22.74805641     13.65391445     16.05365372
Na       25.37417793     17.48542404     17.91312981
Na       15.56611824     17.87093163     26.99682999
Na       20.39454460     12.92846203     31.79609489
Na       18.37744331     16.04161453     -4.91754341
Na       15.92040348     18.34984016      4.59639645
Na       15.77397156     18.34031487     13.67515755
Na       18.27359200     18.26849556     16.10103607
Na       22.76488876     15.96870232     18.39446068
Na       16.03559303     18.45662498     22.93077660
Na       20.58596992     18.33889580     22.42526054
Na       15.93270111     22.59630394      4.86423445
Na       11.41083527     23.01792717      9.02347851
Na       20.95619774     27.11907196     13.44921112
Na       22.72830391     18.19625473     15.99067211
Na       13.37347889     20.40447426     27.77597427
Na       13.94564152     27.28209114     29.78499794
Na       18.15197182     29.36102867     27.38377762
Na       11.65866566     27.27848434      4.44189405
Na       18.42830086     24.99077415     13.46322441
Na       13.60808086     22.77546501     16.34862137
Na       20.77531433     22.70167732     18.27968216
Na       14.18428135     29.55237770     18.10642433
Na       17.93753433     27.62087631     25.22994614
Na       18.52906227     22.81334305     29.73488617
Na       20.54430580     -0.23378992     -0.07386338
Na       20.91297531     -0.52126324      8.52057171
Na       23.51116371     -2.42606211     13.73413658
Na       22.77501488      4.33215332     16.01739120
Na       27.40302086      4.35728884     15.82782650
Na       23.09204674     -0.22393805     15.87848473
Na       22.65345192     -9.44042301     34.20793915
Na       32.26218414      6.78882456      0.10473752
Na       20.81390381     -0.56070995      4.25976133
Na       32.04318619     -2.53436637      8.86701870
Na       29.83075333     -0.07706244     13.52802467
Na       25.17232323     -0.58278173     18.14502144
Na       22.94894218     -4.84833479     25.02860069
Na       22.74380112      9.12073803     29.55665207
Na       27.95084381     11.34443378      4.51038599
Na       23.23961067      8.99200439      6.99400806
Na       23.06903458      6.60995531     13.87843513
Na       29.67505836     -0.23165782     27.53372955
Na       22.66174698      6.64013624     22.74755859
Na       25.05767441      8.78379822     22.80099487
Na       29.80425835      9.00015736     32.15671158
Na       22.80397034     17.59849358      2.33251405
Na       32.05698395     11.34266376      4.48463297
Na       20.52774048     13.36383820     13.18312073
Na       20.20354652      8.83003807     18.08063889
Na       27.21437263     13.18042088     16.04850197
Na       16.16850662     13.13110924     22.70756912
Na       18.43861580     15.88100624     31.81096840
Na       23.22433090     20.49707031      8.75657177
Na       25.31728935     17.82465363      4.70854521
Na       22.55546379     15.74655342      9.01068211
Na       23.01495361     20.30337906     18.37786102
Na       22.82744598     16.00665665     22.58915901
Na       18.32548332     13.35786629     24.98955917
Na       29.79978561     18.18827248     36.97450256
Na       22.64116478     20.27309418      0.09483504
Na       20.46943855     22.60799408      4.63976002
Na       22.70324516     22.71072006     11.12481499
Na       27.13307953     22.62748337     20.91895485
Na       25.12088966     23.16055679     23.32608795
Na       27.13053513     27.57635498     20.55838013
Na       20.45390320     22.87608337     22.98785210
Na       25.38822365     27.08726120      0.12982669
Na       23.13466263     26.92385292      6.84119701
Na       23.06809998     27.76811981     15.77697086
Na       23.15305710     27.39938927     11.30550671
Na       24.97499275     26.80152702     22.77835464
Na       22.45760918     25.02928543     22.57790756
Na       23.20611191     36.16276550     34.14501190
Na       22.42431068      2.02145004      4.40133142
Na       32.41003036      6.62969637      8.96632385
Na       27.64188766      0.18102612     11.36591339
Na       27.68061066      1.99295449     18.17558479
Na       25.06080246     -0.21010680     22.88995934
Na       32.06163406      2.14139581     27.51040649
Na       23.16979980     -0.52483249     29.84107399
Na       22.96377754      4.26721764      6.99739218
Na       27.39700508      4.40400362      6.83926249
Na       25.35541153     -4.50770044      9.05877209
Na       20.53156662      4.24004269     13.50955296
Na       27.38205338      6.45628643     22.89666367
Na       22.78594589      4.03398561     29.50335884
Na       27.16268539      3.92349482     29.55404854
Na       22.94362068      8.91196728      2.14432454
Na       23.02264023      6.66059637      4.69832087
Na       29.96548080      4.66103458      8.79984760
Na       24.97974014      9.14518738     13.68106174
Na       29.64171791      8.79211521     22.69906044
Na       27.65036583      8.87155247     29.46302795
Na       34.15065002      9.21339893     22.33806419
Na       25.04418755     13.40198898      0.84525853
Na       27.46640968     13.82401562      7.06716299
Na       27.34666443      8.68959522     11.52219391
Na       29.41860962     13.60014343     14.08382130
Na       22.29758453     11.49808121     18.23908043
Na       29.89183998     13.61886311     27.00120354
Na       29.71934700     13.35435009     31.85480118
Na       22.65357018     20.23241997      4.24242020
Na       27.53082848     20.16549492      9.51525116
Na       29.10497475     18.10396576     14.30978584
Na       27.20373154     23.14249039     15.78509426
Na       25.27823448     22.33226967     18.09123421
Na       27.28937531     18.03534508     24.83049774
Na       27.67810631     13.49533749     34.17882538
Na       27.31781006     24.66141701     -0.20037737
Na       27.48214531     22.49206924      6.71672010
Na       27.37539101     22.77978134     11.25507736
Na       23.01095390     17.99881363     11.46869087
Na       27.38707924     22.41197395     25.21223068
Na       27.32460976     20.32266998     22.55528450
Na       27.64056587     20.37286377     27.28418159
Na       27.30033684     27.47231293      6.84894753
Na       22.85463905     31.45912933      2.41014695
Na       27.83441734     24.92658997      8.72886753
Na       25.20828629     26.91015053     18.49099731
Na       29.67550659     27.33402443     17.80204391
Na       23.32172012     20.46850777     23.19164467
Na       32.31558990     27.90898895     29.30124855
O         0.23600972     -0.62750524      4.45525026
O         0.45041370     -0.43970549      9.02313232
O         0.05598409     -0.27269927     13.45067883
O         0.02955083     -0.34931180     18.21517754
O        -0.08886467     -0.44009125     22.51943016
O        -0.06005979     -0.29703191     27.53775978
O        -0.14520609     -0.14653824     32.12003326
O         0.16328742      4.10281706      4.62811184
O         0.16912141      4.46883011      9.01858234
O         0.06748334      4.21889448     13.43903542
O         0.00746713      4.25112772     18.33749008
O         0.00474667      4.05062962     22.89870834
O        -0.03990282      4.36597967     27.47534180
O        -0.04940211      4.52051401     32.33388138
O        -0.02040952      9.03280354      4.57534790
O        -0.25569019      9.05686855      9.21984768
O         0.00895563      9.10447121     13.85254860
O        -0.50242186      8.90057564     18.24691963
O         0.14809664      9.06373310     22.75437737
O         0.06516184      9.05062103     27.32468224
O         0.14170627      9.17525768     31.87633896
O         0.36581841     13.53957176      4.28097057
O         0.14078315     13.49795818      9.25684071
O        -0.34924212     13.60187912     14.04900837
O         0.05601661     13.35652065     18.35102654
O        -0.08897977     13.61676407     22.66326904
O         0.07966746     13.55100346     26.95075607
O        -0.08927597     13.45879936     31.59871101
O        -0.02574078     18.27947998      4.60063314
O         0.28724822     18.10089684      9.21355915
O         0.03184774     18.04891968     13.99090576
O         0.12459171     17.82021523     18.34333229
O         0.30337876     18.15501404     22.52043533
O         0.09323971     18.28277016     27.35499382
O         0.05721622     18.18626213     31.94523811
O        -0.01573822     22.72480774      4.43848467
O         0.11181097     22.73701286      8.90573883
O         0.11490180     22.55070496     13.83569431
O        -0.08047096     22.28281784     17.98242378
O        -0.06264871     22.59625435     22.70139694
O         0.17634435     22.64059067     27.27308083
O        -0.13732882     22.83702850     32.02612305
O        -0.09220103     27.08448029      4.38465977
O         0.12034710     27.24910736      9.04045963
O         0.12687978     27.09015656     13.91372681
O        -0.01620494     27.10532379     18.26042366
O         0.13087039     26.96715927     22.90511513
O         0.24160755     27.48971176     27.14811516
O        -0.00728106     27.39733315     31.79799080
O         4.81518936     -0.18399960      4.61329937
O         4.91515207     -0.02469913      9.34349251
O         4.58003569     -0.31383306     14.04606152
O         4.61428022     -0.44150558     18.52784348
O         4.44412327     -0.29486054     22.80515862
O         4.59318352     -0.27588612     27.34981155
O         4.69571257     -0.46585226     31.83265305
O         4.79612398      4.58079004      4.75162506
O         4.69469690      4.72508812      9.29336643
O         4.61002302      4.13065100     13.70519161
O         4.57286119      4.00806379     18.45956039
O         4.38548136      4.64006615     23.08164787
O         4.51613569      4.65277147     27.45613098
O         4.61191177      4.51831007     32.01712799
O         4.71213198      8.98156548      4.69088602
O         4.95081329      8.89675140      9.08135128
O         4.42476702      8.90018654     13.70358753
O         4.63045168      8.89994240     18.33404732
O         4.34960365      9.05785656     22.64271736
O         4.78408766      9.06380272     27.15080261
O         4.74986219      9.06821442     31.92446709
O         5.01666451     13.36600494      4.84252024
O         4.60943604     13.45766163      9.25213718
O         4.48690319     13.49947357     13.84548378
O         4.41934776     13.35623741     18.22783279
O         4.30375624     13.57232857     22.69714355
O         4.50829077     13.24889374     27.20976448
O         4.57182026     13.53035545     32.07155609
O         4.85587263     18.31834221      4.77167749
O         4.85723972     18.26013184      9.11587143
O         4.67831278     18.07386589     13.75179672
O         4.50365782     17.80275345     18.19851685
O         4.74454641     18.02756882     22.75120926
O         4.57323122     17.86647797     27.30574989
O         4.57710123     18.19006348     31.84020233
O         4.63084650     22.69404984      4.65332890
O         4.66709185     22.91605949      9.28164864
O         4.57662153     22.83193970     13.57494259
O         4.65834141     22.31689644     18.18759918
O         4.67629862     22.35940933     22.90318298
O         4.77185345     22.56244087     27.18858337
O         4.75685835     22.84881592     31.84079552
O         4.41224718     27.15366173      4.46331167
O         4.71965790     27.34193039      9.17951775
O         4.50478458     26.97087860     13.74227142
O         4.82900238     26.83510971     18.42458725
O         4.74209642     27.01177025     22.95948410
O         4.85090160     27.28834152     27.37468529
O         4.88022661     27.10438156     31.94226456
O         9.07394028     -0.08755880      4.41653156
O         9.25124741     -0.09559130      9.28984737
O         8.80206394     -0.37156910     13.66807842
O         9.09581661     -0.44756615     18.53309822
O         9.15122128     -0.04387037     22.89337158
O         9.29663944     -0.18171573     27.40669632
O         9.20143223     -0.30722761     32.01678085
O         9.12512684      4.46697330      4.79656267
O         9.13643169      4.51046371      9.47753429
O         9.03557205      4.46708918     14.08048439
O         9.07390881      4.09714794     18.44511032
O         9.07526684      4.36998129     22.90967751
O         9.32276344      4.27254915     27.41602898
O         9.12722683      4.46736717     32.10604858
O         9.23205376      9.21533775      4.45870113
O         9.34352398      9.03538609      9.06237602
O         9.31981373      9.05297279     13.87406254
O         9.08007050      8.74206829     18.17116928
O         8.87229252      9.03714180     22.85193825
O         9.10658073      9.03319263     27.64822006
O         9.09899235      9.03918266     31.97773743
O         8.97755909     13.61225414      4.48170900
O         9.10060501     13.71642590      9.07525349
O         9.18031979     13.68543530     13.60805225
O         9.38907623     13.65788460     18.20601845
O         9.14509869     13.24754524     23.01206017
O         9.24272728     13.59146023     27.59782600
O         9.35854721     13.66913605     32.11579895
O         9.19082451     18.00776863      4.55849552
O         9.20366859     18.23480606      9.28419971
O         9.13542461     18.21083069     14.00505352
O         9.18352032     17.89706230     18.29369736
O         9.06972408     18.12799072     23.03674126
O         8.95867062     18.00729752     27.70918083
O         9.28538704     18.00212860     32.00231934
O         9.21696663     22.62496567      4.56704903
O         9.28714943     22.97620201      9.06169987
O         9.02146053     22.71476364     13.79580021
O         9.16191769     22.30133057     18.27922249
O         8.87531281     22.44587326     22.94449997
O         9.22068691     22.57756615     27.60370636
O         9.22017956     22.77231789     32.06514740
O         9.29068565     27.04645157      4.68276739
O         9.24547768     27.54204178      9.17196083
O         9.07752323     27.42924881     13.67959023
O         9.36528492     27.06763458     18.41398048
O         9.06375122     27.07850456     23.23905373
O         9.11026382     26.82929802     27.37818146
O         9.50894070     27.07023239     31.93526268
O        13.92027855     -0.10429933      4.59418011
O        13.90392876      0.10682445      8.91261768
O        13.49043465     -0.21001269     13.63754559
O        13.69272900     -0.22627349     18.47112846
O        13.68040848     -0.17138091     22.74148750
O        14.01921844     -0.26640946     27.40854836
O        13.87636280     -0.06616050     31.94577980
O        13.83466339      4.55079794      4.64008617
O        13.58151054      4.67319584      8.94274139
O        13.55750275      4.40282774     13.53546906
O        13.65694141      4.06678057     18.09717560
O        13.50068474      4.18348122     22.75197983
O        13.76894760      4.53266668     27.17056656
O        13.67214203      4.47957182     31.82525063
O        13.97519302      8.82965851      4.29233694
O        13.83383083      9.05240726      9.12068272
O        13.69956303      9.16952610     13.49924088
O        13.58581257      8.83997250     18.05224419
O        13.47002602      9.06060314     22.98360634
O        13.60426903      8.84579849     27.32542229
O        13.68449402      8.81463814     31.91416740
O        13.60408974     13.22980118      4.64447212
O        13.57734394     13.76095676      9.20872211
O        13.57947063     13.55233860     13.72889233
O        13.72955990     13.65210438     18.16323090
O        14.03088188     13.21466064     22.66366959
O        13.60701942     13.59768581     27.50740051
O        13.71257687     13.45751667     32.19644165
O        13.54468441     17.98437500      4.79818583
O        13.66249371     18.00747871      9.22546291
O        13.67856503     18.33633995     13.94861221
O        13.83069420     18.12290955     18.21414948
O        13.77893543     18.07344818     22.81760979
O        13.47441483     18.05672455     27.45306587
O        13.68772125     18.19180870     32.26106644
O        13.67910290     22.62867737      4.75316000
O        13.54065514     22.59463692      8.86231518
O        13.62278557     22.88679695     13.74132919
O        13.78740883     22.66255760     18.44609642
O        13.73621178     22.69608116     22.53059387
O        13.82838535     22.59984970     27.32050705
O        13.85791588     22.88480186     32.15216446
O        14.00788784     27.18354416      4.73108816
O        13.84840775     26.92699814      9.07708740
O        13.72801113     27.46698952     13.66882420
O        13.85043526     27.51688194     18.45953369
O        13.28788853     27.30785179     22.95631790
O        13.69918346     27.05712891     27.41202736
O        13.76286316     27.40742111     32.11253357
O        18.26159668     -0.08857071      4.36245871
O        18.54791260     -0.23527759      8.95045090
O        18.21068192     -0.23567991     13.61078835
O        18.42746925     -0.02223016     18.17008209
O        18.30151367     -0.29013887     22.80749702
O        18.32393456     -0.45239168     27.20364761
O        18.43192101     -0.43027234     31.62393188
O        18.51537514      4.37720823      4.38248444
O        18.32834625      4.25297356      9.05953312
O        18.11454391      4.31369209     13.52389431
O        18.31784248      4.35283804     18.17259789
O        18.09449768      4.26289845     22.65454674
O        18.13339424      4.35812473     27.09918022
O        18.32244873      4.12565041     31.55735207
O        18.28884506      8.78911686      4.37831736
O        18.45505524      9.06421947      9.01593399
O        17.92250443      8.68521500     13.48349476
O        18.11836815      8.98231125     17.94176483
O        18.48395538      8.78798866     23.14631844
O        18.37717247      9.07124329     27.26309776
O        18.50975990      8.99324894     31.87767982
O        18.48444176     13.93198776      4.37308502
O        18.13722038     13.56506729      9.09652328
O        18.34403610     13.42623043     13.45208549
O        18.05991554     13.48633671     18.07233810
O        18.36720467     13.43361759     22.49525642
O        17.98049355     13.42282486     27.44001770
O        18.07705116     13.43363285     31.86074829
O        18.33224487     18.31673813      4.74843931
O        18.36218452     18.21179199      9.16130447
O        18.28973007     18.24175262     13.83625507
O        18.50478172     18.06594467     18.44607925
O        18.38813782     18.31560898     22.82217598
O        18.36156845     18.11293030     27.18660927
O        18.28940773     18.25150871     31.87014580
O        18.39061356     22.79293251      4.51246834
O        18.10617828     22.52445602      8.61732101
O        18.21692848     22.75038338     13.62890434
O        18.34315491     22.63680267     18.11524010
O        18.43505478     22.85578728     22.88508987
O        18.43873024     22.66106987     27.42887115
O        18.31978416     22.70895195     32.21011734
O        18.67175102     27.35445023      4.30409050
O        18.52392387     27.13439751      8.90585041
O        18.46007156     27.16160965     13.61076450
O        18.45652580     27.07331657     18.32228661
O        18.04629517     27.46949768     22.80781555
O        18.27528954     27.01663971     27.39336014
O        18.31006813     27.10697556     31.83659554
O        23.25399208     -0.06568637      4.64050102
O        23.03133011     -0.14446092      8.80594921
O        23.06495857     -0.12499304     13.75669193
O        22.93647194     -0.07533158     18.07374382
O        22.98972702      0.12687467     22.62655067
O        22.99738503     -0.28599972     27.32386017
O        22.76238251     -0.23000436     31.96993828
O        22.76683807      4.25119114      4.37969589
O        22.94748878      4.25769806      9.17664528
O        22.87937737      4.48832417     13.84782124
O        22.75587654      4.53121233     18.31295204
O        22.70968056      4.47707129     22.46509552
O        22.99745560      4.06854916     27.32493401
O        22.68056107      4.21114159     31.80750847
O        22.85799980      8.83702564      4.51627541
O        22.80189705      8.77762222      9.01814651
O        22.52523613      8.70872688     13.80601597
O        22.52005959      9.24146938     18.29445457
O        22.79197884      8.82859802     22.81384468
O        22.76308250      8.88070679     27.31383133
O        22.97953987      8.98127842     31.80052948
O        22.74828339     13.62067032      4.64036703
O        22.62038040     13.52175045      9.37756634
O        22.64320183     13.50217915     13.75481987
O        22.46958923     13.89293480     18.29816437
O        22.88912773     13.60478497     22.46529579
O        22.93279457     13.46289349     27.08722687
O        22.73111916     13.35031796     31.99872780
O        22.98497009     17.96438217      4.61856747
O        22.97460556     18.03751183      8.98665047
O        22.77151489     17.97335052     13.77509212
O        22.89170837     18.14451981     18.42590141
O        22.80747414     18.05483055     22.97149849
O        22.68586159     18.43529510     27.43671608
O        22.53217125     18.08386993     31.93563652
O        22.84190941     22.65042305      4.40477562
O        22.84580040     22.75523758      8.85839939
O        22.68469429     22.76003838     13.57314968
O        22.96330833     22.50514030     18.18729019
O        22.76051903     22.69031906     22.94610786
O        22.61003685     22.75119400     27.31648445
O        23.03936958     22.57552910     32.06723404
O        23.24289894     27.29314804      4.56452656
O        23.21230698     27.28845978      9.06134796
O        23.20966530     27.24668121     13.56860828
O        22.76353264     27.23585892     18.14688301
O        22.88066292     27.28703117     22.80444527
O        23.08503723     27.20246696     27.22031212
O        22.83589554     27.25950050     31.90485573
O        27.74352074     -0.04856417      4.44361210
O        27.33463097     -0.25417334      9.23365307
O        27.57708168     -0.03301680     13.78778267
O        27.37933540     -0.19879960     18.12701035
O        27.58082581     -0.21001706     22.61312675
O        27.42612839     -0.28532350     27.44002151
O        27.44653130     -0.25701687     32.07971191
O        27.54229927      4.59349537      4.48974895
O        27.59497261      4.44573164      9.16858006
O        27.57001877      4.32162905     13.64439392
O        27.63035774      4.36436367     18.04486084
O        27.67254448      4.23290396     22.71711922
O        27.27052498      4.23054886     27.24359703
O        27.39989853      4.37103510     31.69518089
O        27.49034691      8.80065823      4.51524782
O        27.32235146      8.94205856      9.13874817
O        27.33697128      8.91520977     13.81345749
O        27.06483078      8.89401817     18.34219170
O        27.63124657      8.92189503     22.76933861
O        27.65388298      8.71800232     27.32666206
O        27.19115448      8.69186115     31.92558670
O        27.47226906     13.43391323      4.66026211
O        27.34278297     13.66359138      9.27730179
O        27.10971642     13.23317814     13.62338448
O        27.01563454     13.61846542     18.07449722
O        27.33464050     13.32834148     22.73833084
O        27.74838448     13.44725323     27.08535004
O        27.21128082     13.24266338     31.70119286
O        27.62263489     17.86385918      4.70911026
O        27.54521179     17.99249077      9.29587746
O        26.95889473     18.13849449     13.54356289
O        27.66625214     18.11328888     18.22920036
O        27.44089508     18.01645279     22.62479401
O        27.56665993     17.97346306     27.30381203
O        27.45373535     17.77414513     31.90633392
O        27.48765755     22.41991425      4.43861055
O        27.72422600     22.67337036      9.02179813
O        27.60320854     22.61739349     13.73814201
O        27.31471443     22.61348915     18.52273369
O        27.34925270     22.84305382     23.09833908
O        27.47352409     22.63075447     27.29674721
O        27.38290977     22.45100594     31.77988243
O        27.51463890     27.38502312      4.69345903
O        27.51604462     27.00307274      9.25278187
O        27.63842773     27.19162941     13.53195763
O        27.38076019     27.38697815     18.33903503
O        27.21390915     27.19610214     22.88325500
O        27.52021790     27.53074265     27.40912056
O        27.50955009     27.35885048     31.87996864
H         2.16449618      1.12178469      3.13949442
H         3.93430352      2.02608466      2.37337875
B         2.64029527      1.83456051      2.11298919
H         2.31857586      1.34422851      1.14004743
H         2.14408112      2.94291162      2.01530433
H         3.38074613      1.88638139      5.79162836
H         3.46193624      2.11405134      7.59080315
B         2.49898887      2.14546061      6.68843079
H         2.27505088      3.31434035      6.45199060
H         1.77947998      1.11345112      6.77716160
H         2.81746674      2.83240128     10.74182224
H         1.11138368      3.05160403     11.47161961
H         2.47839499      1.88355255     12.43148804
B         1.97668540      2.26773572     11.35719299
H         1.46965730      1.26114237     10.83908272
H         2.45365715      3.38464713     15.66631603
H         1.06740844      1.91796756     15.04166794
H         2.00738144      1.62057853     16.88743019
B         2.01080155      2.25360847     15.83492279
H         2.79032278      1.55871713     15.32595825
H         2.13410592      2.27011681     21.56153488
H         2.75678086      0.85587424     20.44109344
H         3.47716451      2.64726949     19.80977440
B         2.52603436      2.07296705     20.47067261
H         1.56646371      2.33953023     19.71549416
H         2.94031477      2.39242649     24.43520164
H         2.50402427      1.99760640     26.54187393
H         2.63312912      0.64379728     25.08964348
B         2.44094396      1.76126945     25.30873680
H         1.16855621      1.88404548     25.10292816
H         3.54947281      1.21083367     29.88594627
H         1.72066855      1.64118052     29.08013725
H         3.17864656      3.08997369     29.69539642
B         2.60121393      1.96771920     29.97167778
H         2.08113122      2.02993369     31.07802773
H         1.24097037      6.62094069      2.72317624
H         2.19959259      6.85937548      1.03316200
H         2.79293275      5.72318077      2.64708471
B         2.24301887      6.80162811      2.22336173
H         2.68474388      7.85893345      2.59711218
H         2.10762310      5.55985880      7.17395687
H         2.28554511      6.58383989      5.30618668
H         2.94228363      7.34314680      7.27802944
B         2.17998934      6.75917482      6.52649593
H         1.07741332      7.27059841      6.74335861
H         2.30276942      6.09969664     10.59796715
H         3.44803905      6.77674198     11.88677597
H         1.51189983      6.41385269     12.37677956
B         2.25695705      6.92592430     11.53257656
H         2.03970075      8.04867363     11.09666824
H         0.76233470      6.69774389     15.89661407
H         2.21355748      6.58050346     14.66877460
H         2.90972972      6.38343811     16.31256676
B         1.91982210      7.01340961     15.84523487
H         2.19031978      8.16356564     16.03725624
H         3.13571620      7.34566593     20.16128159
H         1.34994161      6.43226242     19.57376480
H         2.41457009      5.64120436     20.92188644
H         1.54718065      7.22973824     21.41473198
B         2.07209945      6.74618435     20.40607834
H         3.63933992      6.75959969     25.15401840
H         2.28259134      7.48591471     26.03134346
H         1.79830408      6.88601494     24.18964958
H         2.38579154      5.63785505     25.68209457
B         2.50500345      6.70030260     25.10564232
H         2.51238322      7.50026655     28.87504387
H         2.80374122      7.04056787     30.81942558
H         0.94034928      6.65704155     29.95466805
H         2.62433505      5.57118654     29.63641739
B         2.28718424      6.73590040     29.82967186
H         2.89072442     12.07078171      2.87803817
H         3.18126893     10.91264153      1.10125768
H         2.51257920     10.16275311      3.00455880
H         1.40252864     11.24024200      1.74290335
B         2.52529907     11.10553169      2.20490122
H         3.28866363     12.00109577      7.37929010
H         2.53346634     10.18403912      7.45436764
H         1.41517603     11.64548206      7.26051188
H         2.50839424     11.03960705      5.71806622
B         2.52083635     11.20959663      6.90443277
B         2.65000868     11.67462158     11.49773884
H         3.74358678     11.72374344     11.32955647
H         2.39446902     12.93624306     11.76304245
H         2.10880113     11.56305122     10.34451103
H         2.16542363     11.09056187     12.30879879
B         2.18785906     11.06784534     16.04755020
H         1.68619108     11.52079105     17.15272713
H         3.44949746     11.05561543     16.16988564
H         1.72971892     10.04192829     15.64199638
H         2.16708350     12.04471874     15.02740288
B         2.09139514     11.47857666     20.46324539
H         3.30679035     11.41358566     20.93707848
H         1.83187914     12.56632233     20.68590164
H         1.87771237     11.08188725     19.26503181
H         1.42852902     10.70406818     21.01353455
B         1.89124751     11.12139606     24.93483925
H         2.61927414     11.20718193     25.85612869
H         0.67866170     11.58656979     25.11116028
H         2.34522653     11.78298378     24.10436249
H         1.86697495      9.97919941     24.59515762
H         2.22221017     12.55001450     29.93731689
B         2.49835753     11.48768902     29.53365707
H         2.92682028     11.56687355     28.34632492
H         1.60007417     10.85939503     29.37721252
H         3.23665118     10.78800392     30.26046371
H         1.74021351     15.05173874      3.16796207
B         2.31042480     15.90220737      2.44638824
H         1.96045351     15.91228867      1.39022529
H         3.60832453     15.53850937      2.39493990
H         2.25186300     16.87140465      3.12583590
H         1.80790555     16.56709862      6.80271339
B         2.68480062     15.79376888      6.54650450
H         3.68035197     16.14290810      7.03922510
H         2.64224029     15.58294201      5.34645748
H         2.55120134     14.73888969      7.17212057
H         2.48939109     16.70839119     12.33023071
B         2.19367361     15.87620544     11.51705647
H         2.32232499     14.72660255     11.71090889
H         2.90951729     16.16967964     10.53431702
H         1.00814199     16.00476646     11.47329712
H         1.64249730     15.07158756     15.78832150
B         2.59385848     15.67013931     16.29063988
H         2.63293290     16.90711784     16.26073647
H         3.64125466     15.19465065     16.16956139
H         2.47219968     15.64665127     17.56816292
H         3.60690689     15.47333813     20.38337517
H         1.86518121     15.04305363     21.34745979
B         2.46185637     15.64927292     20.58487892
H         2.58020854     16.82098198     21.06456757
H         1.75150859     15.57927608     19.61078262
H         3.22255826     15.49021435     24.91490936
H         1.23953032     15.64769363     24.60462570
B         2.23528481     16.02259254     25.34144592
H         2.02553988     15.76474571     26.48505020
H         2.39105010     17.17063141     25.15638351
H         1.93713272     16.63138771     30.28703499
H         1.90750968     14.82004166     29.26465607
B         2.57655549     15.83390522     29.51638412
H         2.71055913     16.35214043     28.51060677
H         3.51376081     15.27011013     30.12784195
H         3.21459508     20.77523041      2.73511052
H         2.31686044     21.09007835      1.01615989
B         2.37269807     20.35277367      2.06467438
H         2.76047254     19.27923012      1.73999405
H         1.33400869     20.22199249      2.76790071
H         3.52767086     20.49932098      6.33128119
H         2.46192598     18.89345741      7.17966652
B         2.62488508     20.05621910      7.07176876
H         2.41345549     20.40791130      8.34354210
H         1.41811109     20.31829071      6.71048737
H         3.10942841     19.94797707     12.34599781
H         3.05901170     20.39736366     10.36279392
B         2.41712403     20.25409126     11.47352314
H         1.51397169     19.49141121     11.46716881
H         2.10191083     21.56074524     11.65913105
H         3.20385385     20.85290527     14.91090488
H         1.88675487     21.66897202     15.86362457
B         2.30869412     20.59770584     15.80704784
H         1.38231540     19.76423454     15.70705414
H         2.93956256     20.34348297     16.89613152
H         1.53628457     19.59962654     20.04600716
H         3.07988644     20.75338745     19.53516006
B         2.32461596     20.33273315     20.51328278
H         1.60424626     21.36265755     20.68537331
H         2.90221930     19.81829453     21.42806625
H         2.44045401     20.28899574     26.33083344
H         2.84506989     19.18471336     24.78713799
B         2.36021900     20.25607681     25.10377884
H         1.34199679     20.49414825     24.48447990
H         2.88364029     21.14907265     24.58365822
H         2.45069814     21.62392616     29.33605766
H         2.50110722     19.71357536     28.44091225
H         1.95905590     20.05259705     30.26153946
B         2.66473079     20.41854095     29.41759109
H         3.80762267     20.25496483     29.65731430
H         3.53099179     24.47288322      2.59086919
H         1.71392059     23.91112518      1.91722929
H         2.65262413     25.27433205      1.06421781
B         2.42477512     24.82551384      2.21594620
H         2.14199495     25.61790848      3.10910177
H         2.54888248     25.53580093      5.49753618
H         1.95243394     24.09271622      6.80643940
H         2.22995782     26.19045067      7.23822975
B         2.49420595     25.15725136      6.64853239
H         3.70202923     25.00783157      7.07666779
H         2.81954932     26.21686172     11.50814342
H         1.06126320     25.16671371     11.14923286
H         2.24391603     24.48480225     12.67041588
B         2.21083045     25.04240417     11.51732731
H         2.66035390     24.27773094     10.73172951
H         0.88844299     24.63427734     16.03566360
H         2.60577822     25.82724953     16.70067978
H         2.47190952     24.50723076     14.95831585
B         2.16062617     24.67901802     16.20702553
H         2.73777342     23.80480003     16.95268250
H         1.84646809     24.79156685     21.76396751
H         2.30763102     23.49184799     20.20033836
H         3.60839295     24.86565590     20.62570953
B         2.35977340     24.71287346     20.65408897
H         1.53486693     25.39182663     19.98103523
H         1.64422691     24.21199036     25.35697365
H         2.65883613     25.43932724     26.37035751
H         2.44448519     25.67796135     24.43258667
B         2.68539286     24.87458992     25.25720978
H         3.56909037     24.21142960     25.15077019
H         1.80386639     24.27535629     29.47854614
H         2.76647115     25.16862679     31.04265785
H         2.27578449     26.15054321     29.23907280
B         2.55378318     25.11399269     29.82715607
H         3.71655440     24.70018959     29.26629448
H         3.04446459     30.57531357      1.76773012
H         2.77626181     28.86087036      0.80506128
H         1.36564171     29.42726898      1.79951608
B         2.50689459     29.39266396      1.78517008
H         2.95549560     28.81839561      2.80233431
H         3.86641264     30.14855003      6.90478039
H         1.97586596     30.17733002      7.29506493
H         2.51777148     29.38086128      5.66639709
H         2.99362397     28.36294556      7.34040976
B         2.80785012     29.43280792      6.82896328
H         2.28812194     30.27023125     10.14058113
H         2.70129418     30.56533623     11.95369530
H         1.93294966     28.81678009     11.32320309
H         3.50836992     29.19250679     10.79762459
B         2.58763170     29.79238129     11.01610756
H         1.68361259     29.91061974     15.30986691
H         2.99694157     28.52542496     15.30785084
H         3.02320814     29.60741425     16.81415749
H         1.47851598     28.26294136     16.42659950
B         2.20188165     29.10621834     16.09719658
H         1.45749450     30.06486893     20.18454552
H         2.45740914     29.58675385     21.79858589
H         1.61523211     28.48802376     20.46892929
H         3.24590254     29.10889053     20.14531898
B         2.32679582     29.36760712     20.58665657
H         1.60531616     30.32080078     26.02508354
H         1.68156350     28.42527199     24.85529518
H         2.23569441     29.83315086     24.00992584
H         3.24455452     29.39151382     25.60827827
B         2.19112945     29.51082611     25.15302658
B         2.40010095     29.64398766     29.58180046
H         2.48109412     30.45565796     28.80863762
H         1.21549916     29.61226845     29.80545425
H         2.86483693     28.52577019     29.14601707
H         2.87832570     29.84218407     30.80285454
B         6.93143463      2.02237320      2.70329595
H         6.16846228      1.09906614      2.08058238
H         7.94925404      1.77844620      2.11300278
H         6.56617546      3.15652871      2.66953158
H         7.01613045      1.72114015      3.85197711
B         6.89044905      1.81062043      7.16646528
H         7.14789867      0.58704495      7.05137730
H         7.38946009      2.46834135      8.04019165
H         7.22505188      2.26184058      6.08610725
H         5.57871342      1.95618415      7.22324419
B         6.96706867      1.83705568     11.73266029
H         5.85070848      1.57120121     12.14950752
H         7.64345121      2.19043422     12.55629635
H         7.58760452      0.98328239     10.97014999
H         6.72653580      2.89152551     11.11136055
H         7.01167011      0.75737286     16.77330971
B         6.98042440      1.76297855     16.23311234
H         5.83269215      2.35524726     16.45822716
H         6.91544914      1.62625325     15.06413555
H         7.77185011      2.58613777     16.50769615
H         6.51491928      1.66349602     19.55530739
B         6.60932064      2.02093482     20.84972191
H         7.54708195      1.34649193     21.26630974
H         5.69356775      1.77843106     21.52407455
H         6.85207796      3.21648979     20.74248695
H         5.82645941      2.05680156     25.74892998
B         6.86581898      2.00655127     25.18676186
H         6.86990499      1.98774612     23.98376656
H         7.38151741      0.94277555     25.47846603
H         7.71364641      2.73380089     25.56587982
H         7.48709345      1.48245180     28.78116798
B         7.25452566      2.03957057     29.78339386
H         6.37156487      1.36771691     30.14333534
H         6.97053242      3.36073923     29.72591782
H         8.14639759      1.94376040     30.54426956
H         7.19606161      5.99735546      1.49613059
B         6.81908560      6.41501093      2.50364661
H         7.37345648      5.95231676      3.47295547
H         5.55953312      6.46636152      2.56343007
H         7.34206533      7.48205614      2.38020134
H         7.09657383      7.61335611      7.78897333
H         7.39992094      5.77774477      7.08883810
B         6.90364075      6.78005600      6.94407606
H         5.66627741      6.53903294      7.01452160
H         7.05172396      6.99029684      5.78762627
H         6.16190672      5.95244884     10.97477245
H         7.89961147      6.67164421     11.04396629
B         6.79297876      6.84838438     11.62963390
H         6.35610771      7.93520451     11.14522743
H         6.44713640      6.73310804     12.78847885
H         7.26281452      5.71402788     15.84068012
H         6.82005596      7.49639797     15.03694344
B         6.57106543      6.73011971     15.95237732
H         5.52185488      6.52695608     15.43683720
H         6.75901699      7.04116154     17.11795235
H         6.00310946      7.39616203     19.79767036
H         7.83819437      7.04937887     20.68451500
B         6.49915648      6.54927397     20.52536774
H         6.07438946      6.49225283     21.62177849
H         6.37033749      5.43571091     20.00897408
H         7.67460299      6.29787016     25.60144615
H         6.69334936      7.77603626     24.67880249
B         6.65093994      6.60489798     25.07851028
H         6.03968334      5.91659784     24.32706070
H         6.20888662      6.55573511     26.27088356
H         7.27433205      5.92545605     30.63206482
H         6.97600412      7.98950148     29.84129143
B         7.06862593      6.76484060     29.66064453
H         7.40393496      6.55603600     28.61837387
H         5.87817478      6.56863213     29.53601265
H         6.94091272     11.44319344      1.15314937
H         6.22167158     10.00962543      2.03856754
B         6.96708488     10.89349937      2.15814233
H         7.99439049     10.69136429      2.78523684
H         6.75772381     11.85602856      2.94265580
H         6.94401550     11.63545704      5.75272942
H         6.15916681     12.47495174      7.54443312
B         6.90827417     11.54643250      7.02505016
H         6.38804293     10.55351639      7.51046991
H         7.94203186     11.82838917      7.53107119
H         6.33957863     11.57562065     12.31381416
H         6.79568005     11.78962612     10.48096943
B         7.15486240     11.32081795     11.54568291
H         8.34340096     11.39146519     11.83662128
H         6.62304354     10.26600170     11.29990196
H         5.90607071     10.76010036     15.55115223
H         7.71402645     10.18585873     16.01644325
H         6.72708368     11.13190746     17.42292404
B         6.85712862     11.11006546     16.24685669
H         7.25846863     12.25311184     15.81548023
H         6.58429098     10.82498264     21.49508286
H         5.97310257     10.96134663     19.62556076
H         7.94470835     10.91901302     20.02568436
B         6.85387087     11.45170784     20.41267204
H         6.86914539     12.57834339     20.27946472
H         7.47237587     12.10230350     25.09683800
H         5.62052393     11.68849754     25.33308983
H         6.79150867     10.51275539     26.14554977
B         6.68422031     11.27723598     25.10770035
H         6.56166267     10.55807590     23.99621010
H         7.37494659     12.37498474     29.04835892
H         7.91544771     11.50977230     30.74413490
H         7.39275122     10.37457371     29.32354927
B         7.03255367     11.46824074     29.85256004
H         5.85233688     11.51740170     30.17953682
H         7.76346970     16.22470856      2.60758424
H         7.10358047     15.46466351      0.77483612
H         5.90279102     16.19514275      2.03863049
B         6.89795780     15.55318165      2.03413057
H         6.76185131     14.38100243      2.37025833
H         8.26610661     16.29241562      7.42964268
H         7.00037527     17.62422371      7.38760138
H         6.94457436     16.12244415      8.65882206
B         7.07036400     16.47425842      7.52967167
H         6.49569941     16.10974121      6.51293850
H         7.48113632     15.96393490     10.36356354
H         5.81603622     15.83103371     11.57746506
H         7.40419483     16.81447029     12.03368378
B         7.18680096     15.82632637     11.46766090
H         7.43036175     14.70078468     11.79161263
H         7.91423702     15.74836063     15.51880264
H         6.93312740     15.37859726     14.16725922
H         5.89089108     15.81768227     15.81783867
B         6.89646626     15.29092979     15.37463951
H         6.65029907     14.12285042     15.60752964
H         6.66207075     15.88615322     18.93342209
H         6.48991251     16.91359520     20.70018196
H         7.77973413     15.51378632     20.48348427
B         6.69911957     15.87385082     20.11220551
H         5.84248114     15.20704651     20.70774078
H         6.81096506     16.32604599     24.28914642
H         7.19960070     15.75663757     26.30067635
H         5.56786203     15.54420853     25.36220169
H         7.17923069     14.42737865     24.83276939
B         6.82402039     15.58521843     25.22578430
H         6.25803518     14.82816982     30.37639236
H         6.79471684     15.48131371     28.66088867
H         6.38187790     16.95324326     29.96810341
H         8.12331772     15.88777256     30.30851555
B         6.90170383     15.86608315     29.92423058
H         6.24524403     20.93251991      1.30341840
H         8.17574883     20.43580627      2.05575252
H         6.39039803     20.64368629      3.12289786
H         6.98625088     19.20066261      1.90731847
B         6.82910109     20.28726006      2.12832642
H         6.94745111     19.88287354      7.59043932
H         6.60438490     21.92844009      7.14218187
H         8.39765072     20.90980530      7.04959965
H         7.34433413     20.80804062      5.56601000
B         7.20500183     20.93955994      6.80857038
H         7.39624977     19.62983704     11.33908749
H         7.08454370     20.78407478     12.95722198
H         7.83379412     21.54841042     11.25831032
H         5.90211153     21.03460503     11.43503475
B         7.09314442     20.70496368     11.69719410
B         6.80165291     19.90313911     16.11286926
H         6.85335255     20.21257782     14.92818165
H         6.67960835     18.59535599     16.05238533
H         7.94949532     20.13650894     16.69977760
H         5.91226530     20.27693176     16.75421524
B         6.74794197     20.29172516     20.67685699
H         7.91078568     20.23074150     20.37509727
H         6.37363386     20.19218445     21.87742615
H         6.50033140     21.25758743     20.10567093
H         6.18158245     19.40435791     20.10800171
B         6.65575981     20.01779175     25.05612564
H         5.55139017     19.83992195     25.50516510
H         6.89727068     18.94139099     24.67300224
H         6.92298365     20.98343658     24.33794594
H         7.34387970     20.18958664     26.09738350
B         6.83282471     20.16055679     29.96888351
H         7.98175287     20.32308006     29.71270180
H         6.55209732     20.76550102     31.03725624
H         6.14534426     20.54524994     29.11468124
H         6.94229031     18.94855118     30.01315689
H         7.12561655     25.18994331      3.55653000
B         6.84640884     24.89798164      2.34782004
H         7.36450386     25.80187225      1.61913919
H         5.66371584     24.69078064      2.36493826
H         7.42027187     23.84875298      2.06238770
H         6.04364681     25.38116074      6.62072420
B         7.09453201     24.76352882      6.64950514
H         8.12195587     25.31908226      7.12824202
H         7.08637857     24.20608330      5.58115673
H         6.52165651     24.03706932      7.45865631
H         7.68162727     25.83786964     11.68467522
B         6.62837410     24.98447990     11.14927483
H         6.89984322     24.97740364      9.83760929
H         5.50336361     25.32500076     11.32136059
H         6.67697239     23.92982674     11.82634640
H         5.87398815     23.91207695     16.07638741
B         6.79794312     24.65911484     16.37821960
H         6.53279400     25.70761108     16.10050774
H         7.59245443     23.88789368     15.72959328
H         6.97464228     24.39020538     17.70732307
H         6.40411615     23.81871414     20.24931526
B         6.91212463     24.78525925     20.65297699
H         6.37252760     25.76136589     20.16140175
H         8.24997616     24.73838997     20.64217186
H         6.59062624     24.87449455     21.92436981
H         6.59475040     24.58817101     23.86235237
H         6.21674490     23.80042076     25.38012695
B         6.75254059     24.68118668     24.89414787
H         7.88364172     24.61117554     25.00052834
H         6.33445406     25.64385796     25.43043518
H         8.19419193     24.52794456     29.81919861
H         6.53173542     24.55238914     28.58371162
B         6.93272591     24.79820824     29.67662048
H         6.47595978     24.02911758     30.47430420
H         6.50020266     25.72879601     30.23098183
H         6.93079853     30.54478264      2.46280241
H         6.09567690     28.69948769      2.62539816
B         6.97627687     29.34655571      2.23329329
H         7.26916790     29.08232307      1.18891525
H         7.92374754     29.23603630      2.97250247
H         7.24931717     28.67967796      7.19110727
H         6.35865498     29.32040596      5.50354624
B         6.94901705     29.67439461      6.56864119
H         6.02152729     29.99089622      7.30339527
H         7.83190346     30.48928833      6.77368402
H         7.91085005     29.46978760     11.73146152
H         6.34695911     28.54430580     12.27601433
B         6.68498898     29.38984871     11.52437782
H         6.16826057     30.53091812     11.95882893
H         6.26279354     29.03485298     10.36461830
H         6.98963881     30.04579735     14.99887562
H         6.77734661     27.99952507     15.85997868
B         7.01680136     29.23827744     15.96218395
H         8.21522808     29.42509460     16.34162331
H         6.25204134     29.73074722     16.83485794
H         7.42835617     28.49855995     20.20001411
H         7.60404110     30.15419388     20.21932793
B         7.01036692     29.42311478     20.85681915
H         5.74974251     29.71183395     20.88555145
H         7.30444002     29.01117516     22.02254295
H         6.85931635     28.84544754     26.42012596
H         5.49470997     28.93871117     24.89463234
B         6.57196283     29.40842628     25.30116844
H         6.79592371     30.64610291     25.47939682
H         7.51555681     28.99194336     24.63772202
H         6.61425304     29.52131271     30.69830894
H         7.06295776     28.03106689     29.80314445
B         6.98547411     29.21185303     29.64047241
H         6.12042952     29.52291679     28.66004181
H         8.11576080     29.63620758     29.54515648
H        12.46801186      2.83023190      1.45046782
H        12.37976551      2.07999969      3.18509173
H        11.43245029      1.18094337      1.48682404
B        11.75101471      2.21760511      2.10497403
H        10.67361450      2.78083611      2.19680095
H        12.38475037      2.47067547      6.98893213
H        11.65028667      0.76489484      6.89780855
H        11.21277714      1.77368796      5.56113768
B        11.29240608      1.90235853      6.77165270
H        10.35177898      2.15087175      7.54749489
H        12.49614620      1.86589336     11.87613869
H        11.56309319      2.52601290     10.23175526
H        11.00155926      2.91391611     12.11073399
B        11.42685890      2.01025248     11.30053711
H        10.81281567      0.99455976     11.12517643
H        12.18122578      2.56336784     15.64906120
H        10.57008362      2.31688595     16.31146812
H        11.75673389      0.47390753     16.49375343
B        11.41709900      1.55861127     15.93079662
H        11.04277039      1.38019168     14.74153709
H        12.00660896      0.90322298     21.00252724
H        11.32176208      2.89955664     21.02725983
H         9.88794804      1.63929713     20.39716148
B        11.16173077      1.65758693     20.54544640
H        11.78635120      1.78916883     19.60420036
H        11.06714725      1.74067676     26.18073654
H        12.67852497      2.03178716     25.33402634
H        11.21190929      3.43561268     25.15323448
B        11.49335670      2.22276521     25.26060486
H        11.04502773      1.36854541     24.48412895
H        10.96625710      1.33263350     29.04847336
H        11.57499599      2.13633823     31.02241135
H        11.08767986      3.21479702     29.30026245
B        11.57919312      2.14941883     29.74106026
H        12.79298210      1.86163533     29.50739670
H        11.73194027      5.55891275      3.03121114
H        12.03366852      6.24178457      1.44098783
H        11.58281517      7.43483973      2.90908527
B        11.43321037      6.39992666      2.40591311
H        10.30415058      6.30779076      1.79551387
H        10.45997620      7.21852160      7.00734711
H        12.04429722      7.62314415      6.33735466
H        10.81169891      5.86993504      5.75194836
B        11.43218327      6.69966412      6.66139078
H        12.00779152      6.04179716      7.50930452
H        11.57545471      7.48718977     12.63495541
H        10.71706772      5.90553713     12.10463142
H         9.99015236      7.26937246     11.31090736
H        11.86715984      7.10629463     10.73337078
B        11.06340694      6.94471359     11.72946072
H        10.31845284      5.93048573     15.70073509
H        12.18565941      5.57179499     16.41359520
H        11.64700699      7.42076778     15.76401043
H        10.77312279      6.66110802     17.41764069
B        11.28051853      6.37522650     16.27860069
H        11.99892235      6.66469336     20.10846901
H        10.74945068      7.96558475     20.82358551
H        10.05447197      6.10686064     20.64672470
H        11.51548576      6.59199715     21.94786644
B        11.06676579      6.87960386     20.82928276
H        11.36179543      5.74817371     24.65118980
H        12.20354939      7.59692907     24.80148125
H        10.25986767      7.30288267     25.23796654
H        11.52431011      6.67012453     26.44801331
B        11.39423370      6.83026934     25.25731850
H        11.68302536      7.85909176     29.54871941
H        12.41871357      5.83803606     29.83382607
H        11.43687153      6.64966726     31.18156433
H        10.52294445      6.14272881     29.27457047
B        11.58608627      6.71455431     29.87325859
B        11.28437710     11.44663715      2.23498225
H        11.99075031     10.93042564      2.94390559
H        10.28741741     11.91025734      2.72217298
H        11.97657871     12.07727242      1.57937896
H        11.05012226     10.44347286      1.56131268
B        11.61888409     11.08629704      7.05881405
H        11.56442451     11.40513706      8.13261318
H        12.64654922     10.63220310      6.84899378
H        10.61402798     10.37627888      6.74651575
H        11.69703674     12.11167717      6.36143494
B        11.67315102     10.94766998     11.39456367
H        11.18929482     11.73802567     10.50060844
H        12.02120590     10.16559601     10.59305477
H        12.55566978     11.24568462     12.17677402
H        10.77462769     10.78792381     12.13811970
B        11.79469013     11.10280037     16.20767784
H        11.24978828     11.50825024     15.05957890
H        11.91200542      9.84778976     16.03480911
H        12.86231041     11.63244820     16.02277756
H        11.33844090     11.34698963     17.28596878
H        11.02190208     10.79808998     21.42834663
B        10.93137455     11.52358913     20.37620735
H        11.82495689     11.20194530     19.55390930
H        10.80833912     12.62495995     20.51712799
H         9.96674442     11.11090183     19.82966805
H        10.18998432     11.86225796     24.60348701
B        10.99482632     11.14551067     24.98767090
H        10.50542736     10.23109245     25.51850700
H        11.57678413     11.63881016     25.88732910
H        11.66324520     10.77819347     24.08776855
H        11.09353733     11.94996357     28.58328438
B        11.52770424     11.14721298     29.49798584
H        11.20001984     10.06754971     29.26242256
H        11.38909054     11.27729130     30.71239662
H        12.64335060     11.04738617     29.31003952
H        11.01162624     14.88501549      3.32583356
B        11.26037979     15.99449062      2.65549231
H        11.98150826     16.59165573      3.35594916
H        10.19726849     16.39601707      2.23218918
H        12.19254303     15.73055363      1.80967236
H        11.62971973     14.66064644      6.65166330
B        11.36290836     15.69485474      6.89236927
H        10.17829132     15.76465607      6.94201183
H        11.58342934     16.03148460      5.58886623
H        11.79350567     16.12714005      7.96968460
H        12.21743488     16.38399315     12.27323437
H        11.90976524     15.68904972     10.29582214
B        11.48071766     15.84728909     11.47092724
H        11.27287674     14.82724094     12.11337662
H        10.28554726     16.35705376     11.24228382
H        11.62659264     17.02583885     16.10149765
H        10.47871494     16.13954926     15.08461952
B        11.42571735     15.91746998     15.67674541
H        12.47914505     15.46362972     15.16191292
H        11.02800751     15.04665565     16.44894791
H        12.13227844     16.21696854     21.58565331
H        10.51805496     16.99258995     20.23509789
B        11.25556469     16.03143692     20.66200256
H        11.77745819     15.31769276     19.77355194
H        10.58629417     15.26814079     21.35704231
H        12.64954090     15.45297337     25.42969131
H        10.87874699     15.89095402     25.89249420
B        11.62410641     15.69334221     24.87296486
H        12.02478981     16.78192329     24.59086037
H        11.41471863     14.89597797     23.94652939
H        11.98435402     16.88433456     29.39632988
H        11.48968983     16.22323608     31.15349579
B        11.78800106     15.83964252     29.98506927
H        10.81532764     15.32555199     29.77522087
H        12.67595673     14.99082088     29.81262398
H        11.59056664     20.54094887      1.03370440
H        12.00933170     19.59018898      2.94270563
B        11.59330177     20.64961243      2.37003183
H        12.39445496     21.57369232      2.47184610
H        10.34383965     20.65675163      2.65494871
H        10.99852848     19.36472702      7.50668001
H        10.97231960     19.62744904      5.58770227
B        11.35712147     20.16838455      6.66690111
H        10.74223137     21.25126076      6.77717161
H        12.51004887     20.22639275      6.77213097
H        13.19488335     20.18474007     11.62989521
H        11.36079311     21.03754234     12.18029594
B        11.91060352     20.20136833     11.41726971
H        11.76873779     20.80990982     10.30648327
H        11.31425285     19.02981186     11.31528378
H        11.26071930     20.28840446     17.49008179
H        12.24002075     19.56146049     15.88868237
B        11.19958591     20.22509575     16.17671394
H        10.15092182     19.70146561     15.61515903
H        11.40980911     21.29679871     15.60127068
H        10.44504738     20.82601547     20.97364235
H        11.70893764     20.22928810     22.03699112
H        12.22107887     20.68109131     20.24728394
B        11.37010860     20.10923195     20.84827232
H        10.83482838     19.12156677     20.47179794
H        11.96022415     21.22908401     24.31570625
H        11.94729996     19.30218506     24.93542862
H        10.20822620     20.46759605     24.77350807
B        11.43276691     20.43865967     25.15101051
H        11.85717773     20.72654724     26.29102707
H        11.40587425     19.77697754     28.83399773
H        10.76601028     20.97576714     30.35867119
H        12.29311562     20.87570572     29.88022995
B        11.32566357     20.07258224     30.00207138
H        11.68993664     19.27104378     30.77729988
H        11.58825970     24.13508797      3.06432915
H        10.75900078     25.97551537      2.97730851
H        11.08659267     24.95382690      1.21859694
B        11.48463345     25.15148544      2.29983497
H        12.60646725     25.76611710      2.16081333
H        10.35458946     25.48423576      7.22117901
H        12.26827240     25.54482460      7.43487501
H        11.81949234     24.90292358      5.74886703
B        11.44039154     25.03786469      6.81331205
H        11.20768070     23.82124329      6.91289997
H        11.64841270     26.44798470     11.04239082
H        12.56323147     24.60975266     10.88639164
H        10.78335285     24.63873291     10.30239010
B        11.46050549     25.15152740     11.16457748
H        11.03185844     24.78774643     12.22884369
H        10.85310936     25.05035973     14.61357403
H        12.41841316     24.51854134     15.93938160
H        10.62499905     24.42523766     16.61472511
B        11.37844944     25.07830811     15.86602211
H        11.40234661     26.17499161     16.27724266
H        11.20413208     24.65111732     22.25269508
H        10.66309357     23.69794464     20.67128944
H        12.51658821     24.25247955     20.63637733
B        11.35234451     24.59106827     21.00345230
H        10.85097504     25.75292206     20.42840004
H        11.27653217     25.15436935     24.40272903
H        12.82947636     24.91018677     25.35979652
H        11.45693874     23.39800644     25.35331917
B        11.60250759     24.53398895     25.40922928
H        11.13237095     25.14738464     26.21573257
H        11.44938946     26.39754868     30.22181129
H        11.64397621     24.27132416     30.61222076
H        11.50757885     24.92259598     28.74623680
H        13.05357933     25.43467331     29.76520729
B        11.86676502     25.24981880     29.91210365
H        10.69918728     28.60717392      2.48219275
H        10.79965782     30.45878983      1.93828988
H        12.01724339     29.87102127      3.21102715
H        12.11081314     29.17160797      1.13590097
B        11.54748344     29.45372391      2.10438681
H         9.93395233     29.25763321      6.77189112
H        11.38206005     29.74624825      5.53172922
H        11.15033627     30.68463326      7.11750364
H        11.69894981     28.94791985      7.55898333
B        11.01183319     29.58938789      6.68271160
H        11.08891201     30.64722443     11.30474758
H        12.34439182     30.00428200     12.45511341
H        10.61133766     28.99609184     12.42789268
H        11.83750439     28.64850235     10.95703983
B        11.47122383     29.55618477     11.71120644
H        12.43124580     30.19347954     15.91769600
H        10.74908829     30.11062241     16.90648270
H        10.92434788     29.62938118     15.03703117
H        12.00905132     28.59273148     16.37658310
B        11.50201988     29.64901543     16.06110954
B        11.16404819     29.40694237     20.68328476
H        11.57644939     29.40802765     19.58466339
H        11.39707184     28.31061745     21.16196060
H        11.87917042     30.14556503     21.33648300
H         9.94105148     29.67214012     20.76482010
B        11.34916306     29.61602211     24.74950981
H        12.40477371     29.83570480     25.42813492
H        11.09969425     28.53928185     25.14049911
H        10.46196842     30.40006638     25.00310516
H        11.51820183     29.60892677     23.62282562
B        11.71404743     29.52686882     29.39314842
H        11.94064331     28.99792480     30.49890709
H        10.92910099     30.37515259     29.47001457
H        12.76100922     29.75934219     29.22099686
H        11.17413616     28.66933823     28.64923477
B        16.25230789      2.07267785      1.99990082
H        15.70231152      1.10058153      1.86951447
H        17.36643219      1.78960395      1.74994755
H        15.81647873      2.85194731      1.21787941
H        16.23206329      2.58920789      3.08734226
H        16.35464096      2.01071501      7.70469093
B        16.25452042      2.41640329      6.63645935
H        17.36424255      2.69044924      6.06736898
H        15.53223419      3.38670993      6.45338440
H        15.61823177      1.52450693      5.99804258
H        15.71345615      2.70576596     10.44428349
B        15.87875271      1.91390204     11.37961578
H        15.71545124      2.53513694     12.51225185
H        17.14476395      1.67741477     11.52351952
H        15.22023869      0.94116360     11.61875343
H        15.56038570      2.64138436     16.51420784
B        16.19085121      2.20163894     15.55264664
H        17.30592155      1.71937919     15.98672771
H        16.49451256      3.11394954     14.92719460
H        15.66448116      1.42273295     14.90073967
H        14.84984016      2.32542229     19.94527245
B        16.05861664      2.42118788     20.46355438
H        15.82907009      2.20845366     21.64102364
H        16.29378128      3.60961270     20.50290871
H        16.92531967      1.95056486     19.80327606
H        16.11114883      2.22667217     26.22696304
B        15.85196972      1.84508443     25.06000137
H        16.50144196      0.79684752     25.12537384
H        16.48480225      2.39828062     24.15124893
H        14.74534798      1.43968546     24.63547134
H        15.81165695      3.07371712     28.95753479
H        16.09967041      2.11799574     30.77140045
B        16.33720779      2.03611636     29.48683167
H        15.43443966      1.35930538     29.02481651
H        17.51762962      1.75741887     28.95796204
H        14.83324814      6.83131075      2.73232079
H        17.05113411      6.64325714      2.70755196
B        15.79747200      6.56720829      2.14981675
H        15.61498451      5.56903601      1.51369917
H        15.79873085      7.40850306      1.21756160
H        16.15481567      7.97472048      6.93087053
H        14.75638294      6.44031763      6.69703293
B        15.99163151      6.76406240      6.75492907
H        16.44017410      6.56496906      5.66569424
H        16.61214828      6.09768724      7.53796768
H        14.73882866      6.46781158     11.11804008
H        16.61869049      5.71769905     10.54930115
B        16.00498962      6.67974424     11.07921505
H        16.02571297      7.79885197     10.53992558
H        16.38635635      6.54472828     12.29907608
H        16.44928169      7.58172321     15.87621975
H        15.42053986      6.11762142     14.69527626
B        15.75298500      6.40396404     15.80328274
H        16.37192535      5.43942118     16.17960167
H        14.66660023      6.30490685     16.26079369
H        16.94775391      6.02937460     20.92264366
H        14.81950855      6.10188484     20.52229500
B        15.94271660      6.65116596     20.41241264
H        15.79369545      8.02778912     20.38178062
H        16.39589691      6.43363237     19.28978729
H        16.93212700      7.04361391     24.61199379
H        16.49863243      6.53527021     26.41416740
B        16.01625443      6.56245804     25.30618858
H        15.14985275      7.34749842     25.17225075
H        15.66618156      5.39749575     24.92360687
H        14.71787739      6.73464727     29.74158096
H        16.44081306      7.55181503     30.35334969
B        15.93929482      6.79120874     29.47546387
H        16.49449348      5.74948645     29.70240784
H        16.27163124      7.16414928     28.38563347
H        15.90356445     11.34898949      1.00208998
H        15.88118267     10.56416893      2.84010863
B        16.55968857     11.18827629      2.08478332
H        17.68630791     10.82412434      2.14107180
H        16.36877823     12.36694908      2.67929864
H        15.60674000     12.35283661      7.10425663
H        16.66212845     11.17852402      5.94906950
H        14.70480156     10.87758541      6.24163580
B        15.71605301     11.22533226      6.71016359
H        16.00367737     10.58947372      7.67562103
H        15.51426983     12.55531788     10.85447788
H        16.14850998     11.79056168     12.57612514
H        16.89328003     10.97317410     11.01774216
B        15.82822990     11.56427860     11.36375904
H        14.93183041     10.75451756     11.45849705
H        15.42688656     12.33557796     16.03293610
H        16.62585640     10.79215717     16.72240639
H        16.58364105     11.27651405     14.75341225
B        15.96401882     11.19039154     15.82599640
H        15.00036144     10.35032463     15.45859528
H        16.07565689     10.02366161     21.01605034
H        16.68085098     11.24939632     19.54713249
H        17.52744865     11.31160450     21.01200104
B        16.42750168     11.18006706     20.64331818
H        15.40467072     11.73709202     20.96072197
H        16.28041840      9.92316914     25.78007126
H        16.37762260     10.70919323     24.07893944
H        16.80848694     11.77428246     25.47108459
B        16.04996109     10.93085957     25.15295982
H        14.82877827     11.22829533     25.21222687
H        17.00127029     11.45738411     29.90394020
H        15.87191296      9.62330246     29.65677834
H        15.74078369     11.40585899     28.49025345
B        15.90502739     10.85258961     29.62810898
H        15.09583759     11.28934097     30.45602798
H        16.18687630     15.25096035      1.88915527
H        14.47795677     15.89468956      2.50639224
H        16.26915741     17.01593590      2.32295942
B        15.68231010     16.01459312      2.63589239
H        15.97945118     15.79051495      3.77453399
H        16.55721664     14.80781460      6.63405561
H        14.93146896     15.82910919      7.04993916
H        16.45682526     16.85868835      6.34602404
B        16.08263779     15.82470226      7.13116932
H        16.67106247     16.06165314      8.26817703
H        16.74409676     15.12846661     11.94173908
H        14.85383129     16.05443001     12.12882614
H        15.78681564     15.64782524     10.40902328
B        15.95484161     15.93277931     11.56641102
H        16.21249199     17.09115791     11.74880219
H        15.44030476     14.56675148     16.12648582
H        15.57000828     16.40421295     16.82666779
H        17.21477127     15.61835384     15.95900249
H        15.46741676     15.91002941     14.77460957
B        15.89518833     15.59960747     15.98642731
H        16.31701851     15.98585606     21.51949883
H        15.85977554     16.69891357     19.80272865
H        16.39615250     14.52346230     20.08854294
H        14.65889549     15.30424786     20.66629601
B        15.82762432     15.57578850     20.40134239
H        17.07063675     14.86658192     24.36707878
H        15.57383919     14.91731739     25.47829628
H        16.69429207     16.34804153     25.83729744
H        15.89561462     16.24055862     23.93611908
B        16.30531120     15.53981972     25.00152206
H        15.37977123     14.31110477     29.37851715
H        16.76605225     15.87211609     29.45326614
H        15.34134388     15.77688789     28.09216499
H        14.93961048     16.43346786     29.89839554
B        15.55658340     15.50662708     29.34021950
H        17.07138252     21.10807610      2.63039708
H        15.20318604     20.66874313      3.38001180
H        15.56659508     20.89509583      1.41127729
H        16.16666031     19.19024849      2.56119347
B        16.02136612     20.43624115      2.43943596
B        15.65012360     20.24125671      6.70523310
H        16.15988922     20.31196022      7.85067987
H        16.63920784     20.13545799      6.02724504
H        14.71040916     19.35511017      6.65667200
H        14.95924759     21.30147743      6.23787928
B        15.88160992     20.63453674     11.32347012
H        15.19586563     21.31019020     12.15427876
H        17.26094055     21.05084610     11.99182606
H        15.86737537     19.36348534     11.51263142
H        16.14626312     21.20336151     10.31902885
B        15.92738533     20.40652847     15.70578671
H        14.86174107     20.28221893     16.08157349
H        16.07344246     21.62207985     15.67790318
H        16.68277168     20.10565948     16.54898643
H        16.10318375     20.05290985     14.53326035
B        16.02101898     20.59568787     20.21018600
H        14.86317825     20.52816010     20.12392235
H        16.42533684     21.72695160     20.29211998
H        16.46167374     19.92440796     21.14844894
H        16.62328720     20.20302582     19.25469208
H        15.36230373     20.76487732     26.04601860
B        16.09863281     20.37945938     25.08566666
H        15.89984703     20.92122269     23.99131584
H        15.51613140     19.33356476     25.03786659
H        17.22204208     20.16613388     25.38624001
H        16.20009995     18.76773834     30.27272224
B        16.08879852     19.98312378     30.00475502
H        15.39474297     20.27851105     29.17657661
H        17.28936195     20.32491875     29.69789696
H        15.57995415     20.33482742     31.14430809
H        17.16578102     25.39806938      2.97361445
B        16.11221695     25.46972847      2.48641133
H        15.48397160     24.94049072      3.16802955
H        16.24107742     24.96957970      1.30889332
H        15.94384575     26.55919838      2.13797641
H        16.07683563     25.24481773      7.96823883
B        16.47519302     24.87127495      6.88100863
H        16.73175430     26.07666397      6.57431412
H        15.42268848     24.52430916      6.26134682
H        17.44450378     24.14577484      6.91243124
H        16.20019150     23.55158424     11.13299656
B        16.14089584     24.71902275     11.57389069
H        15.25567722     25.26092529     10.99578285
H        17.20903778     25.46834183     11.32773304
H        16.09647751     24.73869705     12.76687622
H        15.00285721     25.04418182     15.70511436
H        16.02730370     25.01074600     17.19950104
B        16.00672722     25.53454781     16.07268524
H        17.01521492     25.19790077     15.26995373
H        15.73499203     26.72583389     16.03182793
H        17.46375084     25.21318817     20.57007980
H        16.33085632     23.81651688     20.80371857
B        16.18865204     25.06867981     20.79941368
H        15.85842896     25.63915825     21.75819588
H        15.37846851     25.27321053     20.01609802
H        15.96480560     25.98564720     25.17481422
H        16.59797287     24.11739159     24.90126610
B        15.71211052     24.81958961     25.17898369
H        15.27963924     24.48389816     26.14957237
H        14.74421120     24.82983208     24.47983742
H        16.03853798     23.60222816     29.49395752
H        16.67296600     24.77764511     28.14194870
B        16.35108948     24.74671936     29.37165833
H        15.45010090     25.58901787     29.63132477
H        17.29753494     24.59485626     30.18817329
H        15.84953785     31.12783432      2.42529726
H        16.16758919     29.69386864      3.83745742
B        16.15587807     29.89635277      2.58860803
H        15.28656197     29.23977661      2.01544070
H        17.31759453     29.61805534      2.29645443
H        16.26258278     29.22584152      5.59170341
H        16.68417549     28.89850998      7.51046276
B        16.04533768     29.64690399      6.81173611
H        16.49771309     30.82938576      6.87343740
H        14.96444225     29.58295631      7.35906124
H        16.95979118     28.78392792     11.28644562
H        15.15104294     29.38183022     10.36821556
B        15.78740883     29.51371956     11.44765854
H        15.09777260     28.96720505     12.28945065
H        15.93983269     30.76180077     11.38963032
H        15.82020855     29.41317177     14.79936314
H        16.22188568     30.81232262     16.16695404
B        16.38570976     29.68150902     15.82171822
H        16.01303482     29.08245468     16.80251694
H        17.55636978     29.60547447     16.14370537
H        16.06819153     30.83579636     20.87677193
H        17.14866447     29.46391106     20.92014885
B        16.00398254     29.59172058     20.62387085
H        15.08012867     29.20912552     21.39122581
H        15.71954727     29.39558029     19.43938065
H        16.41220093     29.98308563     26.35713768
H        15.58392239     31.03766632     24.80487633
H        15.22022724     29.15915298     24.85185814
B        16.00339317     29.97771645     25.09651375
H        17.20473480     29.56924629     24.45015907
H        16.50064659     29.74567223     29.22201729
H        14.61017799     29.71161079     29.86119270
H        16.17317200     30.05046272     31.14070320
B        15.80479813     29.44086647     30.14729118
H        15.92530727     28.23475075     30.22533798
H        20.43954086      3.17176652      2.15025401
H        20.47698784      1.44169366      3.13676596
H        21.96819496      1.86958313      2.07959747
B        20.75479889      2.03976178      2.14017320
H        20.09464073      1.66378832      1.13378751
H        20.20029640      2.92312241      6.24142981
H        20.54419708      0.72845107      6.54623604
H        20.19862938      2.13843036      7.97028875
B        20.70014381      2.01053786      6.84107733
H        22.02809334      2.24174953      6.95449352
H        21.51635933      2.50250077     10.70956039
H        20.52240181      0.76008320     10.54518700
H        19.49620056      2.22395110     11.46480179
B        20.63765335      1.68895972     11.26770687
H        21.15460205      1.52892983     12.49178219
H        20.09203720      1.19642746     15.26401615
H        21.30800438      1.37259328     16.89305496
H        20.29196930      2.91142893     16.33587265
B        20.83403778      1.92579591     15.89673901
H        21.74265480      2.10563588     15.21086502
H        20.85448074      1.77298737     20.94781303
H        20.82020950      3.45438981     20.67438507
H        19.02868843      2.44125628     20.19068527
B        20.20683479      2.49853826     20.17325020
H        20.86200714      2.19620824     19.12247658
H        19.99523926      3.22122765     24.86432457
H        20.83140564      1.66051877     24.13182831
H        19.59382439      1.44083941     25.68563652
B        20.42469025      2.10322642     25.12203979
H        21.25137520      2.22999144     25.88437271
H        20.07342339      2.30800939     28.67746353
H        20.38681793      1.52898729     30.43514061
H        20.89188576      3.35707235     30.20086479
B        20.75266075      2.23091459     29.63092613
H        21.93488693      1.92316842     29.45151329
H        19.40589523      6.03048801      2.24603748
H        20.11681938      7.10010195      0.67149055
H        20.73753357      7.52449036      2.56380463
H        21.26731873      5.69918919      1.60468876
B        20.43745995      6.57587337      1.79798472
H        20.82108498      6.53477621      8.07879257
H        20.46539116      7.51708221      6.39551067
H        21.60123634      5.75131845      6.29189157
H        19.54403114      5.94990873      6.52136421
B        20.63819313      6.32952642      6.85932732
H        19.16496086      6.41700554     11.57403946
H        20.89846230      7.37276554     10.71388531
H        20.93406487      6.39194012     12.56709194
H        20.62190437      5.38377428     10.79869175
B        20.42292404      6.56490278     11.50921059
H        20.77639580      6.01569033     15.39606285
H        20.42840004      8.12997246     15.62392998
H        18.98625565      6.55929947     15.66559029
H        20.20675278      6.69842720     17.06312370
B        20.20196724      6.92948914     15.86741829
H        19.74588394      7.23057652     20.07034111
H        20.35313416      6.94981003     21.83073425
H        19.75309753      5.52093077     20.71598625
H        21.44907570      6.30180264     20.32073975
B        20.37466240      6.64459991     20.75798798
B        20.54289055      6.65762615     25.15945625
H        21.62056541      6.26528454     25.55059814
H        19.90399742      7.54434824     25.80275345
H        20.74152374      6.42726231     23.88621712
H        19.83017921      5.75460100     25.47307205
B        20.31868172      6.56097126     29.35707664
H        20.26026535      5.83945656     28.38558578
H        19.04062462      6.65900469     29.61900330
H        21.12299538      6.04357290     30.24057007
H        20.67224503      7.73469162     29.37065125
B        20.76086426     11.06097698      2.13020563
H        20.54296875     12.06798649      1.64022064
H        21.79039383     10.76867104      1.58121419
H        20.93362999     11.28886127      3.40998864
H        19.80618477     10.44582653      1.81094217
B        20.68998528     11.61879635      6.80762720
H        20.04536247     11.23593044      7.73871422
H        20.81259918     12.74711323      7.37917519
H        21.87962723     11.07667637      6.81357765
H        20.14016914     11.59775734      5.66272736
H        21.75796700     11.06702995     11.44351673
B        20.59728241     11.10177898     11.06199932
H        20.13992500     10.08338833     11.41877556
H        20.36738586     11.27467155      9.80411911
H        19.80272484     11.73791504     11.52153683
H        20.56276131     11.04979038     14.60022259
B        20.40447617     11.11027908     15.95513439
H        21.26639938     10.46954250     16.51998138
H        19.23523521     11.02549553     16.22577095
H        20.49884415     12.24582767     15.84024048
H        19.76256371     10.20050907     19.87220383
B        20.49909019     11.03865910     20.32470703
H        20.27506065     12.18517399     19.76466179
H        21.69137383     10.62543106     20.17118835
H        20.36589241     11.07345867     21.67635155
H        19.18924713     11.38669300     25.07087898
B        20.40419388     11.32473469     24.97130013
H        20.88743210     10.24887562     25.18813705
H        21.11310768     12.24972916     25.54133224
H        20.69335747     11.26970100     23.74524307
H        21.76843071     11.91998100     30.48553848
B        20.97566223     11.29474354     29.65074921
H        20.83350182     10.03734016     29.85733414
H        21.30339622     11.48622704     28.54801559
H        19.85346413     11.93692493     29.54635429
H        20.24882317     16.61113358      1.55286443
H        20.47859001     16.13306808      3.45827913
B        20.80374718     15.80310249      2.39347100
H        20.11223030     14.74355793      2.28145766
H        22.00394440     15.66826534      2.01676559
H        20.63177490     16.52597618      8.02254677
H        21.59737015     16.59429932      6.23807240
B        20.61716270     16.05245399      6.89836311
H        20.67910767     14.96039963      6.98992348
H        19.54325294     16.26355743      6.35367870
H        20.22504997     15.41222382     12.49633980
H        21.66636848     15.51364136     11.25731468
B        20.57418251     15.93031597     11.47033596
H        19.91688728     16.11308289     10.55044174
H        20.63529778     17.11148262     11.67561054
H        20.29172134     17.16740417     16.23661613
H        20.76452446     15.86154079     14.77539062
B        20.79261208     16.09999466     16.02238464
H        22.01235580     16.21471214     16.15170479
H        20.37821579     15.13706303     16.60509491
H        20.32895088     14.57064438     21.00809097
H        21.66401291     15.93213463     20.30388832
B        20.61728096     15.63167191     20.95771599
H        19.65390968     16.39969063     20.47583008
H        20.82150078     15.90001774     22.01286125
H        19.82447624     14.89957523     25.50446892
H        21.25311279     16.56047630     25.68832397
B        20.48868752     15.78541470     24.92422485
H        21.18942261     15.15418816     24.09711075
H        19.90800858     16.51104355     24.22287178
H        21.04897690     16.34391594     28.93327904
H        21.06098747     14.84696293     30.28768921
B        20.35525703     15.35187721     29.35526085
H        19.27213860     15.81343842     29.75126839
H        19.82492828     14.33337688     28.65649986
H        20.08823013     20.01268578      3.49329329
H        20.04547691     19.99028587      1.56443715
B        20.55441856     20.47053909      2.52852917
H        20.06072807     21.62365150      2.49298739
H        21.71619797     20.47017288      2.34428310
H        20.54869080     20.84021759      5.60382748
H        20.91971970     19.00807571      6.20839739
B        20.68547821     20.09064674      6.57167768
H        21.39556122     20.77490234      7.32702208
H        19.65552330     20.13304520      7.22651482
H        19.95109940     19.36720085     11.69821548
H        19.56320000     21.25883865     10.78943729
H        21.31937981     20.18308640     10.35356426
B        20.42299080     20.44318771     11.20070457
H        21.11919975     20.76914024     11.98223782
H        21.25790977     19.90220642     15.21057129
H        20.05362892     21.26398659     15.63474083
H        21.32545662     20.74310303     16.97255135
B        20.57093620     20.25404549     16.23901558
H        19.72739220     19.50897980     16.77787209
H        19.62520218     20.10107040     20.67910957
H        20.77325249     21.21875954     19.71398354
H        21.72948647     19.71721649     20.57132339
B        20.83436012     20.54052544     20.67649651
H        21.00403023     20.96857071     21.72399330
H        20.88410759     20.40505028     25.97627640
H        20.59462357     21.89501762     24.90278816
H        19.19127274     20.49461555     25.20777321
B        20.24924278     20.79958725     25.09165764
H        20.78270340     20.20316124     24.17765617
H        19.31111717     20.04602242     30.06138420
H        20.45012665     20.52764702     28.22091103
H        21.43453979     19.98552895     29.86389923
B        20.34505272     20.33696938     29.50720215
H        20.24462128     21.61243820     29.65683556
H        21.40501595     24.18345261      3.08373070
H        19.95572281     25.46523476      2.67493510
H        20.22404480     23.87797165      1.44718134
B        20.81455421     24.73102760      2.09664345
H        21.44401550     25.50194740      1.34275115
H        21.55176926     25.11083031      5.73738480
H        21.54306793     25.94084740      7.31990004
H        20.79321480     24.09948730      7.34634876
B        20.92737961     25.18769073      6.79946661
H        19.81177139     25.58059120      6.62670469
H        20.17314148     24.51684761      9.90878773
H        20.60269928     25.80838776     11.13831329
H        21.38278008     24.17674065     11.62654972
B        20.42897415     24.73765373     11.11712360
H        19.40113640     24.33870506     11.50411320
H        21.70137024     24.19456482     15.86971474
H        20.84100914     25.82877922     15.92291164
H        20.83544731     24.50460625     17.70755768
B        20.82002831     24.66908073     16.49477768
H        19.87753487     23.96579552     16.08893013
H        19.88397789     25.14133072     21.21396065
H        20.54873466     23.30925560     20.60749626
H        19.39962387     24.60164070     19.63600159
H        21.34998512     25.10407257     19.85735512
B        20.36527061     24.45693588     20.35011482
H        19.32504463     24.48047066     25.18873024
H        20.63396645     24.65606308     23.79274750
H        20.48002434     26.26304626     24.73408508
H        21.49477196     24.67656326     25.48372459
B        20.50246048     25.12294388     24.83558083
H        19.53603745     24.60549355     29.85991096
H        21.63646317     24.63289070     30.29353714
H        20.83579254     24.66187859     28.41707802
H        20.59385109     26.33346367     29.54845047
B        20.64158249     25.08508110     29.52937508
H        21.87206268     29.31964111      2.73642254
H        20.65616798     30.69835663      2.15026259
H        21.11266136     29.02693939      0.91378915
H        20.06783104     28.96973801      2.63776779
B        20.89623451     29.53667831      1.99313653
H        19.52142334     29.61544037      5.72685623
H        21.04987526     28.70233536      6.21313000
H        21.01011086     30.61303329      6.59105873
H        19.79412651     29.50756836      7.64914608
B        20.31228256     29.64340782      6.49819374
B        21.05342865     29.43394089     11.18999863
H        21.87749290     29.96051598     11.97555542
H        21.50801277     29.22418976     10.10286713
H        20.78146553     28.36511040     11.54570770
H        20.03786278     30.09746552     11.13844681
B        20.34718895     29.20320320     15.53611565
H        20.34030914     27.91279602     15.34381008
H        20.06951904     29.52979088     16.66035843
H        21.50857925     29.41385078     15.19922161
H        19.76488495     29.79625702     14.64538765
B        20.58135796     29.69069481     20.33789444
H        19.28900146     29.44580078     20.38142014
H        21.07008553     29.69890213     19.14881134
H        20.73617744     30.82632256     20.76297760
H        21.12059975     28.82726479     21.04730606
B        20.47056198     29.26322365     25.06477737
H        19.88416100     29.48356819     24.09741592
H        19.58217239     29.14779854     25.79014969
H        21.21355820     28.40304756     25.12275314
H        20.91521072     30.39759254     25.31034851
H        20.74034691     30.97705841     29.97100258
B        20.77511406     29.78302002     29.48282051
H        20.49580002     29.79712486     28.20429611
H        19.95380974     29.10074425     29.97964287
H        21.84020805     29.37818146     29.50190735
H        24.13759041      1.91814828      2.31547141
B        25.11990547      2.46742368      2.54355812
H        26.05473900      1.72407424      2.20799828
H        25.15157890      2.30749822      3.74724865
H        25.37453842      3.81769347      2.27767062
H        26.32201195      2.63866305      6.26399946
B        25.32405853      1.97127247      6.63971519
H        24.37591553      2.01410556      5.81090593
H        25.08477974      2.43062949      7.79439688
H        25.46526337      0.77245826      6.60619307
H        25.30012321      2.00444245     10.36240196
B        24.95384216      2.35582995     11.48059177
H        24.03371239      1.60535157     11.68167305
H        24.81389618      3.56515074     11.64367199
H        25.83995819      1.77742958     12.18201637
H        25.38470840      2.40081215     14.64851856
B        25.37202835      2.02866578     15.86748981
H        24.90356827      0.80019933     15.86263180
H        24.80671692      2.63321662     16.71946335
H        26.65229797      2.19651866     16.22713852
H        24.67443466      1.41142237     20.10719490
H        26.07979965      2.45730519     19.32741928
B        25.56088638      2.12064195     20.40657234
H        24.97559357      3.14897633     20.94037628
H        26.27699089      1.67594993     21.27194405
H        26.14895821      2.39311433     25.49499893
H        25.07504463      1.64869606     24.00660896
B        25.21136665      2.44829011     24.99829292
H        24.48064804      1.74845684     25.70998955
H        24.82210350      3.59858489     24.76750946
H        24.95143509      2.22595644     31.17397690
H        25.47251320      1.14850211     29.44524765
B        24.82647896      2.02711606     29.99204254
H        23.54732132      1.79391146     30.03030777
H        25.06970024      3.15730214     29.60949516
H        24.84680557      6.28165913      3.43306971
H        24.34736061      5.87902689      1.41092455
B        24.96443176      6.65007687      2.26018238
H        24.76030159      7.77832317      2.05583525
H        26.21302032      6.36401176      2.18960524
H        25.32163239      5.09851742      7.17400169
H        23.51852989      6.57280302      7.20151854
B        24.79746056      6.17340279      6.94544172
H        25.36557770      6.91049528      7.70492411
H        25.04573059      6.47695351      5.82414770
H        26.12726402      6.66060162     10.92619228
H        25.37054825      6.92716169     12.60216331
B        25.11788750      6.46365213     11.57617664
H        24.13686180      6.68802214     10.85753155
H        25.02439499      5.18338156     11.69040012
H        25.94159317      6.53707361     17.02852821
H        25.29549980      7.14558363     15.14424133
B        25.02108192      6.68768263     16.18182182
H        24.70896912      5.50570393     15.93502998
H        23.83503914      7.03857040     16.56300354
H        25.70775414      6.60111904     19.37936974
H        25.44080544      6.87466812     21.37633896
B        24.95597458      6.21330976     20.50698471
H        23.71025467      6.73125744     20.54598999
H        25.13488960      5.05806589     20.59212112
H        24.46301651      6.02900505     24.25684166
H        25.11882401      6.17690086     26.12681961
B        25.27372742      6.56177473     25.02076912
H        26.43391228      5.96086979     24.82268333
H        25.16727638      7.73899794     24.97121429
H        24.93773460      6.13535595     28.27967453
H        25.36098862      7.87401247     29.50817108
H        26.11484909      6.21025229     29.86359024
B        25.15590668      6.58648729     29.40978813
H        24.13936234      6.52998495     30.22830772
H        25.72717857     10.03969860      2.72979903
H        26.12322998     11.87754345      3.16046000
H        24.21084023     11.32849789      2.70771217
B        25.44034386     11.13490009      2.41868567
H        25.81205940     11.30784416      1.23741567
H        24.44938660     11.51339912      7.72759485
H        25.78248787     10.23339844      7.38223076
H        25.81036568     11.94573116      6.60696697
B        25.11161613     11.09674740      6.92768669
H        24.41316223     10.71649170      5.93417788
H        24.80142784     12.13425636     10.34605217
H        24.36291504     11.66999245     12.15620613
H        26.10609055     11.06969070     11.21878624
B        24.81356049     11.21854877     11.21489906
H        24.25229073     10.17863369     10.75347233
H        25.48216438     11.66936588     16.66995621
H        24.46258545     10.09372807     16.30452728
H        25.42172050     11.06630707     14.93562317
B        24.69606209     11.25506306     15.91639519
H        23.88192749     11.89668846     15.31281757
H        24.89571381     11.72891045     21.88038826
H        26.43714333     11.30679035     20.32962418
H        24.63697052     11.86902237     20.04246712
B        25.20374870     11.11431599     20.79809570
H        24.75550079      9.83113003     20.69437981
H        25.02113724      9.88839817     25.53060532
H        23.66722870     11.26470852     24.79351807
H        25.55229187     11.14861012     24.15324402
B        24.80526733     11.02474117     25.10462761
H        25.05644608     12.14135361     25.80339432
H        25.56220245     11.40748405     28.22894096
H        24.66293335     11.79697323     30.02505112
H        26.15652084     10.12746906     29.82621574
B        25.11862564     10.85248089     29.31679726
H        24.24596214     10.13598156     29.03772736
H        25.34335136     14.77195263      2.91280890
H        25.65284729     15.33509636      0.89957476
H        25.55969810     16.71803093      2.06225848
B        25.10510635     15.67138672      2.06259894
H        23.86219978     15.51586819      1.90602279
H        24.54234886     15.93408108      8.12207699
H        26.03002930     16.46279716      7.26978159
H        25.63820267     14.55082607      7.18833256
H        24.24222755     15.72058868      6.37935257
B        25.12596512     15.57751656      7.16886282
H        25.15197563     16.60445595     12.76138115
H        24.12991905     16.10321808     10.96249771
H        26.18113518     15.65736389     11.27789307
H        24.79112244     14.77154636     12.39009953
B        25.04324913     15.84363270     11.79561615
H        24.09973907     16.16651917     16.44398117
H        24.85768127     14.36022568     16.30382919
H        24.84322739     15.81250763     14.89208412
H        26.01403427     16.15791130     16.44959831
B        24.99390984     15.54765892     15.96047020
H        24.65590096     15.85126877     21.29706383
H        26.54288864     15.89935589     20.51538277
H        24.92838287     15.86956787     19.37574959
H        25.38588524     17.49993324     20.14490128
B        25.37101746     16.29624367     20.35903931
H        25.83568764     15.17026138     25.76508904
H        25.79502869     16.40123367     24.23394775
H        24.20760345     15.18939018     24.50823402
H        24.51371765     16.62128639     25.99715996
B        25.10743904     15.79846096     25.10901070
B        24.78434944     15.98949432     29.28943634
H        24.82342720     14.69984722     29.09953880
H        23.77239037     16.47776794     28.68190575
H        24.67895889     15.77418423     30.64629936
H        25.93913078     16.37051773     29.28279114
B        25.25528526     20.07233620      2.47768784
H        24.99110794     21.33642578      2.33101988
H        24.29625320     19.53791237      1.78966391
H        26.36807823     19.74818230      1.95991743
H        25.21919823     20.03740692      3.71466160
B        25.23344612     20.27428055      6.86545849
H        25.43187714     19.10207367      6.95862913
H        25.68832970     20.82890320      7.98342133
H        25.79055595     20.64308167      5.88344479
H        23.97591782     20.39686775      6.64821339
B        24.94267654     20.41634369     11.23408508
H        24.84458542     20.18591881     12.56604958
H        25.52348328     19.38417625     10.68903542
H        23.80659676     20.63470840     10.75258446
H        25.77586365     21.38000298     11.26014709
H        24.01323891     20.18439865     15.73751736
B        25.05576515     19.89589691     16.13527298
H        25.69229126     20.92110252     15.96259689
H        25.69627190     18.88646317     15.78389931
H        24.79009247     19.78072166     17.40618896
H        24.37012100     20.21853256     20.10376167
B        25.26203728     20.51916313     20.95969009
H        26.20304298     21.13727951     20.39675903
H        25.49394226     19.29966164     21.51222038
H        24.76544380     21.35665321     21.79139328
H        24.34704590     21.18943787     25.19136620
B        25.12565422     20.19498253     25.49684906
H        25.38812065     20.43579292     26.68342972
H        26.19366455     20.39968872     24.82229996
H        24.80105782     19.04899406     25.53472137
H        23.65879250     19.97736740     29.42440605
B        24.78038788     20.06871033     29.85738754
H        25.24814606     21.18533707     29.42733192
H        25.64233971     19.10031891     29.41239357
H        25.05590057     19.97569847     31.00308990
H        26.75014877     24.39877510      2.43106794
B        25.66131210     24.42923546      2.08372474
H        25.31615257     25.34894943      2.70660424
H        25.20433617     23.36169052      2.20157361
H        25.56790543     24.80712891      0.97110265
H        26.21289062     24.83948708      7.19148540
H        24.30110550     24.92912292      6.73263311
B        25.35555267     24.44151878      6.35493374
H        25.72209167     24.78960609      5.27884197
H        25.16427994     23.20684814      6.57346678
H        25.39132881     23.30375862     10.85490036
H        26.58547592     24.88934898     11.05251884
B        25.42179871     24.50234222     10.95497417
H        24.76483154     25.02117729     10.04491138
H        24.94295883     24.76732635     12.25084114
H        25.08159637     24.44147301     14.95275497
H        24.28459740     25.89258766     15.55233669
B        24.84485435     24.86160851     16.03708267
H        24.05584908     24.13454437     16.71114731
H        26.00142670     25.27921486     16.50595093
H        26.45080757     25.26753044     20.50713921
H        25.35886383     24.83788109     21.97176933
B        25.20731544     25.14735603     20.73718643
H        24.48037529     26.31518936     20.63068199
H        24.79640579     24.09543991     20.17367172
H        25.45883369     26.20008278     24.53967476
H        24.05714798     24.87195396     24.70476532
B        25.12061310     25.21506691     25.18546486
H        25.89499283     24.26819611     25.39957619
H        24.60653114     25.78844070     26.07073593
H        24.63601494     24.75415993     28.66164589
H        25.01698685     23.73039246     30.22019005
B        25.33431625     24.76015854     29.66917610
H        26.44143867     24.61849785     29.27280617
H        25.01000023     25.85582733     30.01260757
H        24.33272362     29.73750496      2.12557650
H        26.43374634     29.42790031      2.93618679
B        25.31166077     29.11407471      2.35046721
H        25.10473442     28.00315666      2.57578683
H        25.58748245     29.00905418      1.17330432
H        25.10751724     28.35289001      6.76887989
H        26.47903824     29.47651863      7.71056509
B        25.69082832     29.54234505      6.83499146
H        25.96190453     29.72536278      5.60637426
H        24.70814896     30.36406136      7.16205406
H        25.25246239     30.31307983     10.22603035
H        24.27345085     29.35521317     11.72812462
B        25.38994408     29.80111122     11.19232464
H        26.16110039     28.95676994     10.95535183
H        25.89687157     30.68929863     11.97215080
H        25.71024704     29.99991035     14.75544357
H        24.12738800     29.79761887     15.94170952
H        26.08763695     29.55838013     16.66466904
B        25.29099274     29.41554451     15.76782322
H        25.24018669     28.16571236     15.75867176
H        24.97172546     29.34867096     21.42514801
H        25.58337212     31.09380531     20.91577339
H        23.89477921     30.34668732     20.34658623
B        25.08832932     30.05736351     20.53641129
H        25.81583786     29.80570793     19.54056740
H        25.15167809     29.09623909     24.00779343
H        23.77310753     30.03836823     25.16381264
H        25.67397499     30.37989616     25.44533157
B        24.97321701     29.59524536     25.08048439
H        24.84159660     28.60386086     25.97682190
H        25.18268776     31.06093025     29.99796486
H        24.58856583     29.21008682     29.23699570
H        24.62953568     29.47065353     31.12815094
B        25.03808212     29.89831352     30.03019333
H        26.33500671     29.60726357     30.03903961
H        28.70506096      2.26519513      2.31560159
H        30.32888031      0.99481255      1.94928885
H        30.59096527      2.64508653      3.21784925
B        29.92556572      2.07639122      2.36102223
H        30.34507370      2.76026320      1.40853739
H        30.82960129      2.23012376      6.69695330
H        29.70292282      1.69935131      8.48371983
H        28.87905693      1.60034788      6.46167612
B        29.77099037      2.14373803      7.32834053
H        29.43812561      3.32109785      7.16333103
H        29.54531860      3.41451931     11.43524456
H        29.19330788      1.34373105     10.97728062
H        29.47105598      2.29178286     12.77048683
B        29.83111000      2.15595078     11.62742233
H        30.99107552      2.16045570     11.43400669
H        30.00195503      0.94928896     15.44043541
H        31.19580650      2.04419565     16.15633583
H        29.54338264      1.68098199     17.29544830
B        30.01794052      2.00814557     16.18662643
H        29.60039711      2.99705458     15.72531986
H        30.39468384      3.02822375     21.27511024
H        30.61774063      1.85237277     19.62414169
H        28.75464249      2.58629727     20.17294693
B        29.88883400      2.31915975     20.45031166
H        29.89114761      1.29677844     21.22088242
H        28.56809998      2.05295253     25.67063904
H        30.48035622      2.56894135     25.79217720
H        30.14907074      0.76505971     25.13677788
H        29.76111603      2.27492952     23.86270905
B        29.67769432      1.96497774     25.05692291
H        29.49924088      1.58043933     30.61368561
H        29.82295418      1.75784600     28.77348137
H        29.44516373      3.49852228     29.85910034
H        31.06551743      2.23395467     29.80233383
B        29.84889603      2.44159722     29.76563072
H        29.89543533      5.25941753      2.22650385
H        29.57731819      6.88209772      3.56521153
H        30.39979744      7.19307089      1.76182246
H        28.74047661      6.58023643      1.60479772
B        29.75075150      6.43882227      2.40645695
H        29.53388405      7.73470163      7.65674210
H        29.98997307      6.07090044      7.32289934
H        28.60456085      6.85853863      6.31613779
H        30.39999580      7.00590992      5.84114218
B        29.60741234      6.98252630      6.78139544
H        31.42691231      7.22220325     11.02355862
H        29.77704430      8.15001297     11.94772434
H        29.81479073      6.61002159     10.41806221
H        30.15230370      6.43945503     12.50893879
B        30.34216881      7.09936285     11.56891060
B        29.75989723      6.57883453     15.93369484
H        30.22389030      5.51976681     16.25730133
H        30.39683723      7.41586685     16.29489899
H        29.89802551      6.37312031     14.72152996
H        28.59368515      7.00390005     15.99759674
B        29.80211639      6.67396307     20.48137856
H        28.54158783      6.55636406     20.46827507
H        29.88339806      7.87277317     20.41600418
H        30.04647064      6.47686100     21.70124054
H        30.42245293      5.78418732     19.97726250
B        29.79505157      6.27911282     25.02034950
H        29.27673721      6.98361349     24.17158508
H        30.95905685      6.25928593     24.40680885
H        29.93741798      6.93717480     26.10914040
H        29.57581711      5.15126610     25.08944702
B        29.82429123      6.85924673     29.99711037
H        30.30484581      6.04462385     29.23910141
H        28.62005234      6.50406981     29.96502495
H        30.25862122      6.83418226     31.14088631
H        30.03601837      7.84372616     29.43198204
H        29.59545517      9.89195919      2.21081328
B        30.00324249     11.17761803      2.27683544
H        29.18701172     11.54716015      1.27119505
H        31.23218155     11.33909988      1.92864931
H        29.60080147     11.60347652      3.30409884
H        28.93456078     11.96228218      7.62937641
B        29.85677910     11.30914497      7.12927771
H        29.96450233     10.40046406      7.82432890
H        30.70014954     12.13883781      7.23368788
H        29.56654930     11.14756203      5.87907553
H        29.30223274     10.09716511     11.78289127
B        30.04679108     10.99279499     11.46792221
H        29.87262535     12.19093227     11.97825050
H        29.68004036     11.39424133     10.37648296
H        31.25460243     10.71941757     11.51798725
H        28.02056694     11.23733330     15.80226231
B        29.26788521     11.70497227     16.22467422
H        29.36539078     12.84618759     16.32495880
H        29.90153885     11.36507988     15.16906929
H        29.46067238     11.03625011     17.17995262
H        28.46170044     10.93582153     20.34585571
B        29.56212234     11.34019661     20.58323669
H        29.79776001     11.95380592     19.56404877
H        30.12610817     10.34382248     21.19722557
H        29.40982819     12.27569389     21.44430923
H        29.68122101     11.98693275     25.61871529
H        28.99177170     10.31801796     25.59763527
B        29.55331230     11.01114464     24.82981873
H        28.77728081     11.39897823     24.05281830
H        30.61865807     10.77299309     24.43268204
H        29.07137299     10.59483624     29.46336937
H        30.13431168     11.58482647     30.82799149
B        30.03628159     11.45244217     29.57870102
H        31.02390289     10.94492912     29.18185234
H        29.54536247     12.49716473     29.14262962
H        29.77482605     16.71431923      2.81831336
H        30.40471268     14.71866608      1.98915780
B        29.53110504     15.50154686      2.38442039
H        28.75727272     14.95261955      3.11347699
H        28.72899437     15.85232353      1.37652612
H        28.84319878     15.55488396      6.05230474
H        30.23734093     14.15628624      6.62195873
B        29.74561310     15.18334484      6.84270716
H        30.88224411     15.91898251      7.18512487
H        29.21856308     14.96540451      7.98657703
H        28.74628639     16.11608696     11.80776787
H        30.36827087     15.80127239     10.46648788
B        29.62585640     15.45964336     11.54957390
H        30.39556694     15.60578442     12.39866352
H        29.43926430     14.30577755     11.40953827
H        28.89276886     16.02500725     14.84171581
H        29.81943893     14.88292694     16.24161911
B        29.68866348     15.98909378     15.84217167
H        30.69167900     16.43057823     15.36629200
H        29.01391983     16.72997856     16.60079956
H        29.44849968     15.57671165     19.00702095
H        29.71363258     14.95397854     20.96078682
B        30.02965736     15.80398083     20.07401848
H        31.35134315     15.72691727     20.15493011
H        29.62243462     16.89901924     20.61698914
H        29.08967209     14.94581604     25.12620354
H        29.63267326     16.83548355     25.37162399
B        29.97908783     15.83831787     24.90664291
H        30.86200333     15.19587517     25.49820137
H        29.99534225     16.14724731     23.83436394
H        30.07079887     15.14739609     28.70726967
H        28.47978973     15.25402069     29.81906700
B        29.50692749     15.73152542     29.54512215
H        30.10227394     16.19884300     30.35569763
H        29.04928970     16.77064133     28.85707855
H        30.67624474     19.77304459      2.12792850
H        29.05607033     19.39735603      2.62816119
H        29.43585014     20.25369835      0.76830357
B        29.55301476     20.32911682      1.96590459
H        29.72171783     21.35906410      2.36764646
H        30.87619400     20.53012657      6.52515411
H        28.87914467     20.16905975      5.77712154
H        29.22643852     21.20189667      7.31102419
B        29.66974258     20.22545242      6.81621313
H        29.63638878     19.04292107      7.20375872
H        29.11144257     20.33091927     12.27591991
H        30.66430473     21.45641327     11.49619770
H        29.75089073     19.68749619     10.33499050
B        30.12536430     20.25273132     11.54851151
H        30.67688751     19.32210159     11.99611855
H        28.56271744     19.71946716     15.50337315
H        30.66221046     19.99992561     14.88993835
H        29.89874268     20.52062988     16.83617592
B        29.56863022     20.40446663     15.64760971
H        29.31672668     21.53577614     15.68131256
H        30.12700844     19.18172073     20.79725266
H        30.75241852     20.85291290     20.78140640
H        28.64296722     20.59312248     20.54443550
B        29.86200142     20.32086182     20.24217033
H        30.01121521     20.23675346     18.89300919
H        30.63258362     20.95605087     24.69087410
H        29.66309929     20.54121208     26.25347519
H        30.21019554     19.12122536     24.99360085
B        29.67499352     20.22249031     25.08225060
H        28.66894150     20.49649620     24.62151527
H        30.41285133     20.92646217     30.19839668
H        29.69556999     19.72675896     28.55978012
H        28.50107384     20.79014206     29.75980377
B        29.59342003     20.29705429     29.69373131
H        29.34345818     19.30516243     30.28339005
H        30.46468735     26.28764153      2.65598130
H        30.82126427     24.83928490      1.40589559
H        28.83684349     25.40021515      1.91561806
B        29.99181366     25.15689468      2.25379324
H        30.09271622     24.39443398      3.23327875
H        29.42684364     24.90897560      6.20345592
H        30.17571831     25.13668442      8.20780754
H        30.07316017     26.58574104      6.91077280
B        30.24042511     25.46134567      7.07402754
H        31.42315292     25.28133011      6.81098986
H        29.63843155     24.91276550     13.14027786
H        29.62005997     23.89010620     11.19941235
H        29.69076729     25.87995148     11.32803535
H        31.24046707     24.67381668     11.96999264
B        29.91818237     24.74703026     11.89001274
H        29.83072281     26.26612473     15.73636150
H        29.85243225     24.18192863     15.38834953
H        30.26275063     25.11694336     17.20126152
H        28.48113823     24.96444511     16.44501495
B        29.71580696     25.08086395     16.07382011
H        28.74055862     24.00647736     20.78998947
H        30.41604233     24.39396858     19.66396713
H        29.25850487     25.84513283     20.13955879
H        30.00873566     25.05238724     21.77588654
B        29.60512161     24.78264046     20.57863617
H        30.30189323     25.90910912     24.61581802
H        30.05508041     25.12168121     26.40647507
H        28.51809311     25.48155022     25.23056412
H        29.93372917     24.06844330     24.83990288
B        29.66675758     25.13770485     25.28268814
H        30.52081108     26.56642532     29.73129845
H        29.46802902     25.30067825     30.90443802
H        29.04261398     25.49015999     28.93115425
H        30.71986008     24.59955788     29.30689240
B        29.97638321     25.46224213     29.71819878
B        29.91990852     29.34583092      2.19631934
H        30.04641724     29.33171272      0.99051452
H        31.08984947     28.98888969      2.64388871
H        29.43508339     30.28886604      2.83021617
H        29.24582863     28.33669090      2.46560907
B        29.67040634     29.35371208      6.73423052
H        28.42390442     29.28694344      6.73357582
H        30.11474037     28.54593277      7.58626795
H        30.13374519     28.80766487      5.60444355
H        30.09367561     30.44134331      7.15646601
B        29.96139908     29.71101570     11.04115391
H        30.04216194     29.24151230      9.90786743
H        29.63007736     30.91058350     10.98766613
H        29.05071068     29.02421761     11.63160419
H        31.08545494     29.21326828     11.48482609
B        29.69080162     29.56691360     15.52070332
H        28.90065193     29.20715332     16.42472267
H        30.46815109     30.33473587     16.02875900
H        30.26673698     28.60257149     15.59094143
H        29.37055779     29.91437340     14.43342209
H        29.06722260     28.82987404     21.41753387
B        29.73465347     29.39951324     20.46133041
H        30.58394623     28.61283493     20.04225540
H        30.16804123     30.44178009     20.76650238
H        29.01400757     29.22330284     19.63428116
H        29.09089470     29.88137436     24.25732422
B        29.88667297     29.05264282     24.74146461
H        29.45499229     27.90727615     24.75116539
H        29.90112114     29.10902023     26.00540733
H        30.99739456     29.32796288     24.46913910
H        29.29157639     29.34336281     30.87133789
B        29.51778030     29.48987389     29.74201775
H        30.22797966     30.40761375     29.36079788
H        28.45002556     29.54578972     29.32794380
H        30.31263161     28.71545029     29.12660789
