3075

Na        2.02469850     -0.40235716      4.54750967
Na        2.40129375     -0.10905016      9.31864166
Na        2.36623359      0.14853325     13.98663139
Na        2.59335256     -0.36755317     18.28621483
Na        2.49317598     -0.14909488     22.84648705
Na        2.25569725     -0.11467257     27.43971634
Na        2.10861945      0.20173615     32.08419418
Na       -0.25815979      4.19089556      6.83056879
Na        2.46232343      4.51174402     13.64173126
Na        2.54312682      4.83973360     18.62420082
Na        2.25733376      4.35731840     22.64376259
Na        2.46945643      4.55057716     27.59651566
Na        2.05402350      4.69616652     32.09285355
Na        2.21194935      8.92354870      4.48386669
Na        2.36051583      9.06022930      9.62511063
Na        2.44406390      9.09600925     13.64569283
Na        4.22379160      9.34623337     20.66207695
Na        0.05862617     11.58624363     23.11890411
Na        4.65348673     11.39123058     27.28304100
Na        2.22153473      8.90347767     32.18173981
Na        2.39676332     13.70737648      4.18480444
Na        2.31414318     13.36736584      9.30116177
Na        2.30813074     13.55617809     13.76780224
Na        2.50291824     13.79753494     18.46341896
Na        2.42811847     13.60700130     22.62884331
Na        0.23795049     13.98019123     25.35307121
Na        2.42727661     13.95858383     32.12493515
Na        4.74947309     17.99565506      1.67158997
Na        2.24362183     17.92176056      9.46185970
Na        2.43303728     18.12639999     13.75336361
Na        2.18123412     18.14078140     18.10344696
Na        2.24317074     18.15761375     23.06076622
Na        2.40416169     17.97010040     27.46444511
Na       -0.04380787     18.26597595     29.73981857
Na        2.16985583     22.67883873      4.33553648
Na        2.14107704     22.52745628      8.95496273
Na        2.20154905     22.63269043     13.81377029
Na        2.18974686     22.88370132     18.24397087
Na        2.05997872     23.26889801     22.65188599
Na        2.35292053     22.74995613     27.62808990
Na        2.18762708     22.58275604     31.99018478
Na        2.28261805     27.30685425      4.67369032
Na        2.35714293     27.22989655      9.21783352
Na        2.03365159     27.14392662     13.66004658
Na        4.74488974     27.19472504     15.89008236
Na        2.19184303     27.47976494     22.95515823
Na        2.20321178     27.54585457     27.50809669
Na        2.17900538     27.28513908     32.11361694
Na        6.65249777     -0.15724823      4.81533289
Na        6.80840588     -0.25594056      8.93078899
Na        6.93250418      0.03859645     13.61840534
Na        9.58343601     -2.27632499     18.23805237
Na        7.01039648     -0.10094935     22.82872772
Na        6.90508699      0.34393135     27.49276924
Na        6.52581358      0.26247436     32.16446686
Na        6.57286787      4.70005894      4.68799639
Na        4.86903763      2.14036536      9.19705677
Na        6.86927843      4.51264906     13.71465778
Na        6.90251160      4.59846687     18.23498726
Na        6.54704857      4.90041542     22.69677734
Na        6.82653236      4.85248947     27.31201935
Na        6.79317808      4.66696024     31.90521812
Na        6.87817144      8.96113300      4.53963089
Na        6.93193483      8.84102345      9.24076748
Na        6.88266754      9.34637833     13.82178402
Na        6.55643892      8.74863625     18.65098381
Na        9.11576557      6.65049744     22.87944984
Na        7.00045776      9.07488155     27.52701569
Na        6.55376291      9.03330517     31.92778969
Na        6.90370035     13.76734447      4.43693638
Na        6.91907692     13.49996853      9.16725826
Na        6.93443441     13.78844833     13.73096085
Na        7.00822592     13.61094761     18.41029739
Na        7.01128578     13.83218575     22.99736023
Na        6.74025631     13.77760601     27.59557343
Na        6.61170292     13.58776665     31.99598312
Na        4.65312672     20.44544220      4.19623137
Na        6.78935623     18.31905174      9.32125473
Na        6.98503780     17.95349121     13.79305935
Na        6.66480684     18.59072113     18.19135857
Na        6.79929638     18.27227020     22.69810677
Na        9.16282177     20.73889160     27.46313667
Na        4.79308271     17.85319138     29.63070297
Na        9.02559662     25.24074364      4.46639919
Na        6.97804689     22.90627289      8.96984673
Na        6.89521360     22.92568398     13.72784138
Na        6.79167700     23.06076431     18.31155205
Na        6.83469343     22.85935211     22.80578041
Na        6.91618967     22.80630302     27.75663376
Na        7.10992670     23.03458786     31.97092247
Na        7.03492260     27.30404091      9.54195023
Na        9.01933956     29.63647079     13.52213669
Na        6.69344091     27.10874367     13.35221958
Na        6.76780701     27.38662338     23.21899986
Na        6.91475773     27.26474190     27.08224297
Na        6.86525536     27.83430862     32.09531021
Na       11.34281540     -0.25844863      4.49883604
Na       11.36444950     -0.42527023      8.99238777
Na       11.54828358      0.10121354     13.91216755
Na       11.39977932     -0.06581649     18.10481071
Na       11.42888260     -0.12204976     27.50864029
Na       11.21576500      0.01092583     31.95889091
Na       11.36042023      4.51893044      4.57140541
Na       11.32026291      4.47506618      8.97841835
Na       11.66203785      4.61901426     13.70652199
Na       11.39060116      4.63325834     18.23280144
Na       13.45543289      2.39229822     22.99477386
Na        9.06807232      2.45458341     27.64110184
Na       11.32117462      4.73139477     31.91831970
Na       11.46997261      8.99769974      4.77069235
Na       11.57700062      8.81628990      8.62953377
Na       11.41502285      9.07223034     14.07128239
Na       11.19685459      9.10701466     18.17689705
Na       10.98639202      3.96334696     23.13225174
Na       11.44991398      9.25603485     27.57128716
Na       11.37722015      9.24647236     32.18906784
Na       11.50438023     13.49402714      4.49539661
Na       11.31928349     13.64167690      9.24597168
Na       11.48986149     13.56316948     13.94430256
Na       11.42592907     13.87190437     18.54126358
Na       11.43028545     13.81797600     22.82752037
Na       11.04275513     13.56376362     27.29239845
Na       11.31568813     13.71348381     32.06086349
Na       11.23046589     18.14500427      4.85893106
Na       11.14868927     18.28609085      9.46299553
Na       11.43219185     18.53279877     13.78273296
Na       11.56508064     18.50880051     18.37791252
Na       11.42708206     18.56877136     22.91464615
Na       11.23709583     18.07188225     27.37558746
Na       11.49791908     18.10735893     31.68125343
Na       11.48782921     22.73938179      4.65044594
Na       11.46978092     23.03486633      8.90892220
Na       11.38819408     22.94068146     13.98397255
Na       11.54939556     22.83573914     18.46973991
Na       11.33644390     22.80507278     22.42448044
Na        9.18711185     23.02466774     29.78122139
Na       11.50438309     23.03036880     31.82503510
Na       11.29989147     27.47653008      4.49648857
Na       11.60776901     27.69002533      9.32720852
Na       11.43195152     27.64038467     13.51915932
Na       11.66793633     27.27274513     18.24958229
Na       11.34084320     27.38889885     23.02287102
Na        9.13955116     27.44128799     29.64942169
Na       11.43005371     27.26033020     31.80915070
Na       13.35478973      2.20389676      4.40628815
Na       15.91664982     -0.01509151      4.29331017
Na       15.98302841     -0.35626444     13.53914738
Na       16.10993004      0.18588807     18.54084015
Na       15.88788795      0.32691318     23.04321098
Na       15.72283268     -0.92609787     27.45685959
Na       16.01074219     -0.01785325     32.06590652
Na       13.87688351      4.06657934      7.02607346
Na       18.20035744      1.95364785      9.37029552
Na       13.95073986      2.15066981     13.71731758
Na       15.83331680      4.40436983     18.51902962
Na       18.25976944      2.34515357     23.15261650
Na       15.98239803      4.43242502     27.51018524
Na       15.99186039      4.58901453     31.99180603
Na       16.09395409      9.21605492      4.88684225
Na       18.27964592      6.73697615      9.47759247
Na       18.57187271      8.92569542     16.06016922
Na       15.76631451      9.09424114     18.34963036
Na       13.54741764      6.80152512     22.59419441
Na       16.01011276      9.52059555     27.32045746
Na       15.97729301      9.06604671     32.07897186
Na       17.75813675     13.73812866      2.62223911
Na       13.77470207     11.20676517      9.59678555
Na       18.23620796     13.69750309     16.03728867
Na       16.19708061     14.09689617     18.39201927
Na       15.85802364     13.70952606     22.82516670
Na       15.98378086     13.86144447     27.31456947
Na       13.73334026     13.96223450     29.75455093
Na       16.06134033     17.96862793      5.07704115
Na       15.88632202     18.38208008      9.38118649
Na       15.91427517     18.43148232     13.57180119
Na       16.10040474     17.90866852     17.83736992
Na       15.98053551     18.38376045     23.36326790
Na       16.23910904     18.20852852     27.36317253
Na       15.83496094     18.25115585     32.16941071
Na       15.97106743     22.75117683      4.46616697
Na       16.03199387     22.82971382      9.40936470
Na       15.99221134     23.20152092     13.59737968
Na       16.34267426     22.78248024     18.35306740
Na       16.11417389     22.73863411     22.84161568
Na       15.82122803     22.76349640     27.51110458
Na       16.16252518     22.73684692     32.00729752
Na       16.08439827     27.18278503      5.02519751
Na       16.03982162     27.61058617      9.11349964
Na       13.45547104     25.42876244     13.72317791
Na       20.60899734     27.60103607     18.54602051
Na       13.92065525     27.54156303     25.35231972
Na        8.79788685     25.34706306     27.03675652
Na       16.06586456     27.15340805     32.11008072
Na       22.71370697      2.11354780      4.63504362
Na       20.46224594     -0.17306776      9.18680477
Na       20.51096916      0.15221445     13.98570728
Na       20.65188217      0.43027449     18.65233994
Na       20.60387230      0.24819370     23.06314087
Na       20.45254135     -0.00119116     27.46310043
Na       20.60142136     -0.04534182     32.09926987
Na       20.63188744      4.65603399      4.64276075
Na       20.49044991      4.14474010      9.26915550
Na       20.48791695      4.43244886     13.68657112
Na       20.64314270      4.23917341     18.38803101
Na       22.31953621      4.58135891     25.20059776
Na       20.16959381      4.50090694     27.23646355
Na       20.37413216      4.52411985     31.93128014
Na       18.47179604     11.21968746      4.76607132
Na       20.75387955      8.79397964      9.21070099
Na       20.65148163      8.91489983     13.86758041
Na       20.96213150      9.12533569     18.35334969
Na       18.18569183      9.15002537     20.64669037
Na       22.80294418      8.93776989     29.71871376
Na       20.61690521      9.35034466     32.24191284
Na       18.19959068     13.29462814      6.79760504
Na       20.34161568     13.35475540      9.11162758
Na       22.99665451     16.04395485     13.73141670
Na       20.65496445     13.64931679     18.51952934
Na       20.62281036     13.92161083     23.08321953
Na       20.52521706     13.87363243     27.40208435
Na       20.32403183     13.30156803     32.09243011
Na       20.68952179     18.33779526      4.56009102
Na       22.47121239     18.12027931     11.30265045
Na       18.23990822     18.22265244     11.35774612
Na       20.52974701     18.61622810     18.11241531
Na       20.40339279     18.50236130     22.55991173
Na       20.62988281     18.48475075     27.63236427
Na       20.38785553     18.20395470     32.17451477
Na       20.56509209     22.85444450      4.28373528
Na       20.37190819     23.00577545      9.11278820
Na       20.34284019     22.99480057     13.37259483
Na       18.33213043     25.26773262     18.09595299
Na       20.64238167     23.28585243     23.04632187
Na       20.77314758     22.76262283     27.54119873
Na       22.68927002     25.19775009     32.28793716
Na       18.40078545     29.57646942      4.70793247
Na       20.75457382     27.12974548      9.14870167
Na       20.49916458     27.34169006     13.58475971
Na       22.95112801     25.56825829     18.27521896
Na       20.19038582     27.38901138     22.58005333
Na       20.43995285     27.46204948     27.53175354
Na       20.61792183     27.36210632     32.20804596
Na       27.63004684     -0.15886903      6.82879066
Na       25.09223747      0.02925313      9.00796890
Na       24.95359993     -0.31779253     13.62187481
Na       25.27416801      0.13604702     18.31334686
Na       25.03868294      0.19316919     22.85871887
Na       25.07779312      0.09814553     27.44764709
Na       25.18695068     -0.05422124     32.07769775
Na       25.04238510      4.55262756      8.93142128
Na       25.04018784      4.44520998     13.44509029
Na       22.63707924      4.94147301     20.63189888
Na       25.33990860      4.90538883     23.19783974
Na       24.89043808      4.52472305     27.37966728
Na       25.01026535      4.33167505     32.21609116
Na       25.04441452      9.30669403      4.79754734
Na       25.00953102      9.42651272      8.80734158
Na       25.16122818      9.17707634     13.86024475
Na       25.25891876      9.37383080     18.06872559
Na       25.25271988      9.31437683     22.61295891
Na       24.76356316      9.06004524     27.32935333
Na       27.50561333     11.43475914     31.98177910
Na       25.06163025     13.58116913      4.70938873
Na       25.02790070     13.37718582      9.12635326
Na       27.54467392     11.46145439     13.79253960
Na       25.25292015     13.35424519     18.25780106
Na       24.96653748     13.97172070     22.51810455
Na       25.08729362     13.45945930     27.30431557
Na       24.97667694     13.77428722     31.90154076
Na       25.23101997     18.11231613      4.29599905
Na       25.06612396     18.14001656      9.15037060
Na       25.18101501     18.26304436     13.68628407
Na       25.29340744     18.37685776     18.34820747
Na       25.31337929     18.52072525     22.81794167
Na       25.30344391     18.44798660     27.42662811
Na       25.14522934     18.50801849     31.99122620
Na       27.17302895     25.07070160      4.28522444
Na       25.04265404     23.10315132      9.10094547
Na       25.39150047     23.23901749     13.87339687
Na       25.12830925     23.05596924     18.25976181
Na       22.98924255     23.12202072     20.34381104
Na       25.14379311     22.79991722     27.14683723
Na       23.06404114     22.76217079     29.63557243
Na       25.03496742     27.34413338      4.34288883
Na       24.98971748     27.63699913      8.65659618
Na       27.57618332     27.72413826     15.93771076
Na       25.13667107     27.59099197     17.92225838
Na       25.08820534     27.45966530     22.84844589
Na       25.03864861     27.41127396     27.17349052
Na       25.15870857     27.05207253     32.17409134
Na       29.61876488     -0.13278081      4.64037418
Na       29.73564911     -0.33063048      9.10102940
Na       29.69326401      0.26069021     13.78699780
Na       29.59513474     -0.12553418     18.01738930
Na       29.79278946     -0.03804778     22.25318146
Na       27.52336693     -0.04365244     29.50537491
Na       29.66894531     -0.06211540     31.79088974
Na       29.65690422      4.41396046      4.40753126
Na       29.50094223      4.68977356      8.84296513
Na       29.86240196      4.64389944     13.64544296
Na       29.77720642      4.72703695     18.07416534
Na       29.95496750      4.75382853     22.99646950
Na       29.95129776      4.53674603     27.58903885
Na       29.74349403      4.65566063     31.89657021
Na       29.66768646      8.80916119      4.54214573
Na       29.74454498      8.75006866      9.38227558
Na       29.76687431      9.21045780     13.67058754
Na       29.69795609      9.02618885     18.54877853
Na       29.84794426      8.90848541     23.26533318
Na       29.74814987      9.24013615     27.76445198
Na       29.89411926      9.00916767     32.09735870
Na       29.82224274     13.68365097      4.64592695
Na       29.61277962     13.40404224      9.22969246
Na       29.88759041     13.88083744     13.56331062
Na       29.97721672     14.04119492     18.67599487
Na       29.70266914     13.71883965     22.73825645
Na       29.64651108     13.59555149     27.71438217
Na       29.62961197     13.62068939     32.22730637
Na       32.18506241     18.52666092      2.32254410
Na       29.70829964     18.01476288      9.07789993
Na       29.87024879     18.02575493     13.92791462
Na       29.69161224     18.51518822     18.43252373
Na       29.87287903     18.12692642     22.88347435
Na       29.57572746     18.32359695     27.42489815
Na       27.46486092     20.47127151     32.23233414
Na       29.66084480     22.69504929      4.87894106
Na       29.49683189     22.49453163      8.94846249
Na       29.61449051     23.13982773     13.72911739
Na       32.24448776     25.28334618     18.23250771
Na       29.54275703     22.84701347     22.87226486
Na       29.53837776     22.83043098     26.93223190
Na       25.02514648     22.92109299     31.89022064
Na       29.83397293     27.59743690      4.65173578
Na       29.52249527     27.61230087     13.35797405
Na       29.57563400     27.20427322     18.19905853
Na       29.56086159     27.48645782     22.65260124
Na       29.96739388     27.32089043     27.55676079
Na       29.81653595     27.32465935     31.75759315
Na        0.03969206      2.50822949      4.30248404
Na        0.01128170      4.35526800     11.14986897
Na        0.06524584      2.23334742     14.03980827
Na        0.23417090      2.09568453     18.62655449
Na        0.21183749      2.32514620     23.02541161
Na        0.02278068      2.28428411     27.71128845
Na       -0.28198183     -0.16103020     29.55152321
Na       -0.04130606      6.69365883      4.99618483
Na        0.35862383      6.61404228      9.11346912
Na        0.14453909      6.83948708     13.58481503
Na        0.01831328      6.99481583     18.15991211
Na       -0.15032390      6.79410934     22.81803131
Na        0.22034943      6.93673563     27.73722267
Na       -0.48242414      4.60379696     34.06062317
Na        0.10926556     11.18871784      4.69652891
Na        0.26668903     11.10112858      9.13422585
Na       -0.06624649     11.36354446     14.02440262
Na       -0.04140147     11.57945442     18.22858238
Na       -0.05679218      9.27717972     20.73400879
Na        2.21326590      9.40660000     27.57201767
Na        0.10337119     11.37023449     32.06274033
Na        0.00630789     16.03636551      4.51373005
Na        0.42300653     15.44663620      9.18643284
Na        0.10332904     16.01644325     13.69696617
Na       -0.16120183     15.95213127     18.09079170
Na       -0.22040078     16.09331322     22.90261650
Na       -0.30014497     15.99629879     27.53855324
Na       -0.31341940     15.92706680     32.20536804
Na       -0.33268148     20.26241302      4.39742184
Na        0.02686430     20.29403114      9.29255772
Na       -0.00084913     20.69465256     13.51419830
Na        0.04356467     20.73915863     18.18720245
Na        0.34217659     20.71739197     22.80430222
Na        0.25735882     20.59852219     27.61945724
Na       -0.07627337     20.35862160     31.85739326
Na        0.21568812     24.79359245      4.56634092
Na       -0.10154367     25.01566315      9.06509590
Na       -0.08369294     25.15370369     13.58905888
Na        2.17590594     27.31229591     18.50805855
Na        0.05109768     25.20653725     22.93979263
Na        0.06223337     25.09541893     27.31476402
Na       -0.31749651     25.00160408     32.07743835
Na       -0.16892014     29.78973007      4.36534595
Na       -0.08597995     29.58746338      9.37772751
Na       -0.24740706     29.76748848     13.95815468
Na        0.00078325     29.54458046     18.25462723
Na        0.13335499     29.77012253     22.81246567
Na        0.07190005     29.52482033     27.41451836
Na        0.16842230     29.48507690     31.88401413
Na        4.51569891      2.30005622      4.87876034
Na        2.45113206      4.34680939      9.25807381
Na        4.55233622      4.74246311     11.49742222
Na        4.65175056      2.28859282     18.44177437
Na        4.44039488      2.36242509     22.94260216
Na        4.40771437      2.20795679     27.38706207
Na        4.47271109      2.31133056     32.09481812
Na        4.50229645      6.69946575      4.87382221
Na        6.81205082      4.32663488      9.39054012
Na        4.75777626      6.96476603     13.84560776
Na        4.65680456      7.05344057     18.88537216
Na        2.13230658      9.08642960     22.89622307
Na        4.56805038      6.71543169     27.21802521
Na        4.35558462      6.74243546     32.14687347
Na        4.38272667     11.30234432      4.56563807
Na        4.64181471     11.29952812      9.45038319
Na        4.71112728     11.35812855     13.51605606
Na        4.70734835     11.46369267     18.33684540
Na        4.69357586     11.51745987     23.05575943
Na        4.27843142      8.86806202     25.09093475
Na        4.42047930     11.14848328     31.69633865
Na        4.84011936     15.92114639      4.67490864
Na        4.84426641     15.82196999      9.41858673
Na        4.42892933     15.97551250     13.63497162
Na        4.75572062     16.04174614     18.54493523
Na        4.26099300     15.71405888     22.67665100
Na        2.36248112     13.95191288     27.81896782
Na        2.43004274     18.27188873     31.98197556
Na        4.39729786     23.11710739      2.03317785
Na        4.27804995     20.16215706      9.08274174
Na        4.60237551     20.41517067     13.62333393
Na        4.55162764     20.79005814     18.32949257
Na        4.40163660     20.56042290     22.83047867
Na        4.84589529     20.55763054     27.47052765
Na        4.99226618     20.71702003     32.14299011
Na        4.37615108     24.96549797      4.87470865
Na        4.47428751     25.11359978      9.16453075
Na        4.06780195     24.92782402     13.33236408
Na        4.28904343     25.08802986     18.18334770
Na        4.39343119     25.15568542     22.98966599
Na        4.34611416     25.06754494     27.41972351
Na        4.46649361     25.32644081     32.03146744
Na        4.31034422     29.38340569      4.63288164
Na        4.57574463     29.52808762      8.95018768
Na        4.57907152     31.85823441     11.36877346
Na        4.70278072     29.48755074     18.33737946
Na        5.06114149     29.76403046     22.89888954
Na        4.93668079     29.75233650     27.20844841
Na        4.12565660     29.60903549     32.51658630
Na        8.95374203      2.00128460      4.26262093
Na        9.19732094      2.26252604      9.22364712
Na        9.42427921      1.95250046     13.59436035
Na        9.02574635      2.10800982     17.97602081
Na       11.56099796      0.01356159     22.83965111
Na        9.11285114     -0.09404880     25.32671547
Na        9.01686287      2.43351841     32.23374176
Na        9.27113819      6.77413559      4.76311064
Na        9.07361126      6.87495184      9.46985531
Na        9.32545090      6.76742411     13.77495956
Na        9.07772541      6.81489611     18.10025787
Na        9.16440010      9.18842220     25.20308876
Na        9.27756977      6.78800488     27.34447098
Na        9.47548199      7.13422632     31.88010979
Na        8.89200783     11.24105549      4.70165682
Na        9.57322121     11.37375450      9.42914200
Na        9.34245968     11.47175980     13.79128170
Na        8.92594624     11.38523197     18.34241295
Na        9.16583538     11.30760384     23.03865433
Na        9.18829823     11.18441010     27.36000061
Na        9.25455761     11.64888859     31.69015503
Na        9.16401386     15.86256695      4.56539488
Na        9.16183567     15.85996342      9.26134968
Na        9.34827042     15.82162952     13.61870098
Na        9.03340149     16.25571442     18.11573792
Na        8.96545887     16.18950844     22.97479820
Na        8.80925941     16.11028099     26.99175835
Na        8.85974693     15.88700581     32.25334167
Na        9.24793053     20.44728088      4.51515007
Na        9.19160652     20.54161263      9.10195255
Na        9.36983967     20.43726158     13.84829521
Na        9.20172119     20.44745827     18.41785240
Na        8.83089828     20.34333611     23.02376175
Na        9.61500454     22.70017815     25.11655998
Na        6.82733631     18.21723557     31.64241409
Na        6.77230740     27.35188103      4.48550797
Na        9.43408966     25.20839500      9.25587845
Na        9.34174442     25.11680412     13.55713463
Na        9.44181442     25.28469658     18.19901466
Na        8.82107449     27.32363701     20.74589157
Na       11.33365917     23.37199783     27.44770050
Na        9.06722546     25.37196922     32.11337662
Na        8.76024151     29.72184753      4.51328945
Na        8.78366756     29.76431847      8.97099686
Na        8.91364861     31.82820320     16.09871292
Na        9.14106750     29.94895172     22.91722107
Na        8.89500237     29.75893021     27.57076073
Na        9.08670712     29.77200508     31.95616913
Na       16.01315689      4.44035244      4.58168411
Na       13.55875683     -0.04909344      6.80743265
Na       13.61886406      4.63942146     11.27209377
Na       13.67256260      2.04902840     18.17283630
Na       13.52283955      4.61439037     20.72628975
Na       13.71314240      2.44286013     27.55383873
Na       13.81621838      2.35460711     31.91308594
Na       13.84502697      6.89681911      4.59196997
Na       13.79930305      6.59945345      9.03577137
Na       14.05273533      7.10117149     13.61712170
Na       13.77416134      4.53161812     15.92669964
Na       13.19472694      4.41692972     25.33943939
Na       13.36133766      6.87292433     27.50166702
Na       13.61330318      6.77077627     32.22654343
Na       13.77551365     11.38559818      4.69469595
Na       13.68813133     13.48252392      7.07476473
Na       13.86149311     11.45307636     13.81421661
Na       13.79100132     11.77799129     18.33481598
Na       13.81970119     11.31563854     22.90875816
Na       13.66933441     11.57946968     27.79639053
Na       13.85554123     11.40162468     32.29488373
Na       15.91180134     13.64876842      4.69445419
Na       13.55621719     15.90565109      8.84972095
Na       13.84475040     15.90083313     13.71606827
Na       13.41210938     16.12804413     18.28970909
Na       13.66442871     16.02092552     22.83617401
Na       13.55849743     16.05647087     32.16954422
Na       13.80808163     20.44710159      4.48201609
Na       13.58441734     20.60600281      8.91531563
Na       13.78703499     20.81906319     13.69871044
Na       13.86514091     20.55405617     18.44793129
Na       13.74250317     20.60239792     22.80307770
Na       13.43746090     20.71624756     27.28761292
Na       13.79760933     20.39563560     31.98953629
Na       13.78215027     25.04976463      4.84993267
Na       13.75583267     25.12225533      9.11039162
Na       15.80456543     27.06903839     13.80859089
Na       14.12460327     25.34373283     18.24143219
Na       13.40024185     25.02714539     23.26667786
Na       13.90753460     25.37679482     27.63690186
Na       13.92227077     25.19666862     32.09632874
Na       13.51016426     29.69064522      4.68152523
Na       13.77410698     29.69448090      9.50960922
Na       13.85750866     27.38245010     16.26200294
Na       13.86728096     29.72077370     18.46373940
Na       13.66670799     29.60625267     22.82187080
Na       16.15189362     27.38901711     27.66274643
Na       13.70486069     29.76879501     31.95724487
Na       18.50024986      2.29995227      4.39737272
Na       18.12620163     -0.22582808     11.58484173
Na       18.06966209      2.07410073     13.72714901
Na       18.24038696      2.50633764     18.17963409
Na       18.32460976     -0.19558394     25.26596260
Na       17.81274986      4.84807920     25.12585640
Na       18.15610123      2.29865551     32.05567551
Na       18.53207970      6.75756359      4.56999445
Na       15.81983852      9.28532791      9.10218716
Na       16.42291069      8.79922199     13.45532894
Na       18.38804245      4.55955076     20.59831238
Na       22.62064743      7.09132862     22.84758377
Na       18.34083176      9.17012978     25.16213036
Na       18.26226234      6.88544607     32.12879562
Na       20.42753410     13.52405548      4.59666777
Na       18.12605667     11.33651161      8.98546886
Na       18.27122116     11.40848160     14.14647484
Na       17.99409866     11.36216640     18.39317322
Na       18.29556084     11.73041058     22.29694176
Na       18.21940804     11.44414043     27.22466087
Na       15.83763790     13.93758774     31.97470474
Na       18.31819344     15.88597202      5.04702139
Na       18.59465218     16.02410126      9.00054264
Na       18.03780556     13.66836548     11.39402866
Na       18.80361748     16.03284645     18.25282860
Na       18.40783691     16.13760376     22.89377403
Na       18.37959671     16.02638817     27.14242363
Na       18.18115044     15.95192623     32.13824844
Na       18.33811188     20.39120865      4.81352949
Na       18.24965286     20.57949066      9.35554790
Na       18.31524467     20.74357986     13.59534931
Na       18.18185997     20.21092606     18.46850967
Na       18.41497040     20.69211006     22.71428680
Na       18.12916946     20.52027130     27.44842148
Na       17.93998718     20.47406578     32.30208588
Na       18.38148689     25.19007111      4.74056435
Na       18.10572624     25.20212173      9.16539097
Na       18.50590515     25.16489220     14.12490654
Na       18.31920624     25.09189987     22.80401230
Na       18.39458466     25.23370361     27.18687630
Na       18.25905800     25.14547729     31.72245979
Na       20.56442451     31.63120651      4.36451006
Na       18.40825844     29.80987549     13.93495655
Na       18.08614349     29.47643661     18.42894363
Na       18.21391487     29.89361000     22.74145889
Na       18.32370949     29.66073227     27.53526115
Na       18.26643181     29.64420509     32.10498428
Na       25.22336960     -0.53607661      4.45607662
Na       22.90439987      2.22791147      8.77439594
Na       22.54097557      2.19440103     13.74831676
Na       23.16505051      2.41205907     18.01649475
Na       22.62193871      2.23699880     27.12478256
Na       22.57707024      2.32890487     31.91879845
Na       20.84705353      8.88036919      5.00534534
Na       22.52012825      6.87496901      8.76273346
Na       22.75272560      6.81962156     13.24022770
Na       23.04143715      6.87693644     18.67932892
Na       20.42467690      9.13916206     22.90629578
Na       22.82613564      6.70657969     27.15739822
Na       22.81271362      6.77685404     32.01832199
Na       22.75113106     11.32672977      4.84512758
Na       22.66994476     11.29002666      8.79993820
Na       22.74452400     10.94002151     13.55322456
Na       22.50513268     11.71345425     17.97423172
Na       22.54269600     11.49353504     23.07214355
Na       22.74431229     11.49084759     27.18553162
Na       22.88927460     11.33054638     31.89042854
Na       22.37002182     16.00639534      4.29093981
Na       22.95467567     15.85049534      9.30387688
Na       25.02271271     13.93462849     13.56716824
Na       22.90566444     16.19413376     17.92912292
Na       22.99354935     16.00643349     23.00375938
Na       22.69540215     15.87303257     27.48826599
Na       22.84892082     16.05253792     32.08927536
Na       22.81841278     20.64243126      4.20892477
Na       22.36873627     20.37724113      9.40098095
Na       20.65077972     18.53474808     13.84054756
Na       20.64011765     22.95109749     18.38044167
Na       22.79388046     20.84534454     22.42659187
Na       22.84218979     20.54742432     27.36224937
Na       22.62559128     20.69461632     31.79455566
Na       22.99253464     25.16069603      4.52572727
Na       22.84508705     25.20982742      9.16534328
Na       23.20123672     25.18053818     13.81360531
Na       22.71691513     28.00789070     15.96442032
Na       23.03044510     25.18909454     22.74141884
Na       22.68705559     25.12628365     27.48361778
Na       22.71818542     22.88459015     34.13646317
Na       22.87124252     29.66404533      4.57909107
Na       22.76373863     29.65327263      9.00838661
Na       22.56133842     29.88817024     13.67422485
Na       23.15349388     30.05192184     18.20157814
Na       22.84029388     29.88817787     22.88784981
Na       22.67271042     29.80140114     27.63337898
Na       23.07858658     29.56479836     32.25533676
Na       27.29787064      4.26516581      6.81760836
Na       27.84135056      2.25934577      9.36814880
Na       26.97167397      2.13577890     13.66661930
Na       27.32258606      2.53147459     18.31603241
Na       27.64231110      4.37551594     20.70988846
Na       27.36719322      0.25535333     25.20997047
Na       27.54869461      2.22547770     32.06628418
Na       27.58784866      6.95444250      4.43291998
Na       26.88742447      7.14050722      9.34617710
Na       27.05995941      6.83849478     14.01735687
Na       27.74804306      6.89100504     18.42342377
Na       27.77640533      6.95397997     22.95212364
Na       27.19643021      6.77427006     27.46417046
Na       27.41404343      6.85721254     32.24340820
Na       27.43540764     11.36379147      4.76006794
Na       27.43359184     11.32733250      8.80905247
Na       27.68626785     13.65557861     11.39243793
Na       27.75030708     11.52876377     17.97413063
Na       27.42898750     11.41222763     23.11321831
Na       27.39502716     11.31151676     27.56564713
Na       27.13579941     13.61836529     34.37206268
Na       27.29493332     16.02293587      4.80677652
Na       27.45638084     18.15875053      6.76133347
Na       27.65775108     16.05730057     13.52915096
Na       27.56125259     16.18171310     18.40913200
Na       27.19794846     16.02658653     23.15959930
Na       27.37650299     15.79685688     27.63534355
Na       29.69158173     18.13190079      4.42548895
Na       27.10342407     20.52152443      9.29703331
Na       27.28244591     20.60436440     13.78815460
Na       27.28072739     20.45485687     18.34848022
Na       25.24691391     22.90171242     22.78445816
Na       27.85879898     20.72008896     27.44185066
Na       27.69492531     25.04029083     31.57305527
Na       27.27355576     22.43447876      6.85961294
Na       29.54347801     27.27139664      9.06702137
Na       27.47790337     25.41246605     13.25646877
Na       29.65133286     22.97828293     18.62186813
Na       27.37298584     22.82795143     20.72776413
Na       27.31391716     25.18736458     27.14845276
Na       27.56568146     22.88939095     29.58898544
Na       27.56520462     29.33345222      4.31289339
Na       27.30319786     29.70710182      9.29691410
Na       27.02849007     29.85925674     13.37852192
Na       27.60965347     29.92828178     18.02949524
Na       27.12497902     29.86330605     22.88221169
Na       27.40434456     29.78296089     26.98542976
Na       27.57261086     29.63097191     31.79203415
Na       -0.22104372      0.26899114      2.19226933
Na        0.10288603     -0.01454253      6.83707333
Na        0.11091957      0.09162423     11.63284397
Na        0.09965241     -0.10714740     16.13812447
Na        0.14968148     -0.04286818     20.50418663
Na        0.13601120     -0.14683585     25.04222488
Na       -2.39388680     -0.21496958     27.28329659
Na       -0.16843779      2.19660544     -0.08970055
Na        2.38398767      4.29534054      4.77861929
Na       -0.08442294      2.20415473      9.29904842
Na        0.16551636      4.83934259     15.94879818
Na       -0.07123722      4.88923120     20.38265038
Na       -0.09221499      4.37712908     25.40392113
Na       -0.04175257      4.63777113     29.93045998
Na       -0.07392828      8.70947361      2.27966166
Na        0.20664220      8.72836399      6.96059227
Na       -0.11860087      9.03032207     11.49928379
Na        0.16522345      9.31038570     15.97252464
Na        2.15422225      9.28250885     18.45095062
Na        0.02101029      8.81910229     25.16011429
Na        0.07203412      8.94618225     29.83638000
Na       -0.08890489     13.40900612      2.34763765
Na       -0.05618095     13.48369122      6.88293457
Na        0.19847733     13.37005806     11.49884605
Na        0.11539145     13.93494225     15.93822002
Na        0.30962369     13.95905209     20.57821274
Na       -0.03696173     11.34737015     27.50226974
Na        0.05143640     13.57174873     29.95616150
Na        2.13336945     17.75622177      4.76708078
Na        0.09024718     18.17257881      6.95888424
Na       -0.20752898     17.93479729     11.61580849
Na       -0.22160880     18.46744728     16.20243263
Na       -0.04678815     18.18333244     20.63896751
Na       -0.15326577     18.34183884     25.33969307
Na       -2.31197047     18.22543907     32.22220612
Na       -0.40745723     22.73236084      2.24666739
Na       -0.06496561     22.62660980      6.90381956
Na       -0.37549871     22.75992203     11.29801178
Na       -0.22810607     23.15939331     16.02540779
Na       -0.28336683     22.85494232     20.72166824
Na       -0.01087386     22.73048210     25.15565300
Na       -0.13188154     22.77310371     29.71809387
Na       -0.14204928     27.29491043      2.19683003
Na        0.01823817     27.37447929      6.73654509
Na       -0.19843623     27.26169395     11.53508282
Na        0.00449163     27.34439850     15.85689640
Na       -0.10630450     27.25563049     20.49349403
Na       -0.15293393     27.41607666     24.97156143
Na        0.16209692     27.36682320     29.80782890
Na        4.06351185     -0.04590261      2.39479709
Na        4.08791685     -0.14631429      6.70407152
Na        4.40272284      2.46243763     13.50199699
Na        4.80843210      0.22783574     15.98802185
Na        4.52623034     -0.21496639     20.59611130
Na        4.53426743      0.07085073     25.16769791
Na        4.61311293     -0.41698986     29.90768242
Na        4.22156572      4.52137709      2.54571390
Na        4.80525923      4.39614630      7.13744593
Na        4.38891745      7.02813673      9.10900879
Na        4.64990139      4.46354485     16.03636169
Na        4.57903242      4.72783470     20.67925453
Na        4.78485012      4.59118652     24.98050880
Na        4.57796669      4.74194670     29.67729759
Na        4.74528170      9.08794117      2.31167531
Na        4.25738907      9.14677334      6.88510704
Na        4.84178925      9.05331135     11.42777824
Na        4.56185722      9.35448551     16.00349617
Na        6.84580898      9.40711784     22.84325790
Na        4.52109337      6.92709017     22.74351311
Na        4.26992702      8.89263725     29.69823265
Na        4.54247379     13.48737049      2.18865108
Na        4.84057665     13.77537823      6.92720795
Na        4.54970455     13.72396755     11.52980423
Na        4.62663651     13.77813625     16.23447227
Na        4.68068123     13.40803051     20.65005684
Na        4.60811663     13.75558949     25.26670265
Na        4.38872290     14.07908535     29.77835274
Na        6.71884012     18.32987404      4.41333055
Na        4.34666109     18.34473801      6.71195936
Na        4.69024944     18.31230354     11.37346077
Na        4.65377331     18.45502281     15.77643299
Na        4.05188704     18.44056702     20.67224312
Na        4.69832277     18.11896133     25.07259750
Na        6.81863403     18.10396576     27.46009064
Na        6.79619455     22.71251297      4.58989000
Na        4.79876089     22.67166328      6.78278875
Na        4.81471872     22.49935150     11.40657425
Na        4.48290777     22.95007706     15.77238178
Na        4.47489834     23.03499031     20.69613647
Na        4.54138041     22.96799278     25.27339172
Na        4.71303511     23.34354973     29.72618294
Na        4.61365175     27.14559746      2.35130215
Na        4.61478138     27.31369400      6.86231756
Na        4.29357243     27.45700836     11.32058144
Na        4.43775415     29.53536415     13.85831833
Na        4.50789499     27.41453171     20.63264656
Na        4.54845953     27.55951118     25.05564499
Na        4.77517509     27.59461021     29.64643478
Na        9.22476578     -0.12843844      2.31586719
Na        9.12747478      0.19433689      6.64958858
Na        9.31053829     -0.08882836     11.33366776
Na        7.07002878     -0.23639207     18.40695000
Na        9.49293613      0.10854797     20.45851707
Na        8.91168118      2.04938078     22.56544304
Na        8.90925407     -0.11099564     29.76334763
Na        9.18048096      4.76747513      2.42703414
Na        9.07609844      4.67816734      6.94895744
Na        9.27000999      4.46673870     11.47797012
Na        9.36022663      4.33110428     15.80968475
Na        9.19000721      4.49281645     20.56751060
Na        9.03314400      4.49524355     25.08712578
Na        8.96162796      4.53699446     29.74304390
Na        9.21737480      9.26646996      2.24457884
Na        8.87427807      9.02297688      7.05844307
Na        9.72039986      9.19759750     11.30651760
Na        8.98230839      9.10210133     15.97641468
Na        8.94196892      8.99025440     20.83092880
Na       11.45904636      9.44242668     22.98585892
Na        8.99454308      9.22411156     29.89579010
Na        9.01979733     13.42606640      2.28307581
Na        9.14522552     13.45197868      6.76836586
Na        9.40283012     13.66101837     11.52603436
Na        9.29604721     13.69718075     15.95475292
Na        9.29069901     13.69476032     20.60087395
Na        8.69395638     13.70022774     25.13779068
Na        8.93152905     13.80208015     29.65821075
Na        9.32009983     18.11724091      2.55965233
Na        8.82470417     17.82757759      6.77160025
Na        9.21836853     18.30498314     11.39924335
Na        9.26199532     17.96237946     15.92047977
Na        9.02801704     18.15297890     20.67424202
Na        9.22113514     18.28658104     25.12398148
Na        9.24739361     18.33122444     29.81584358
Na        9.06044579     23.00830841      2.33622646
Na        9.14414406     22.73112488      6.56147003
Na        9.24167728     22.84834099     11.35562706
Na        8.88338470     22.85641861     16.16945457
Na        9.03747559     22.86616325     20.40909576
Na        9.08041191     24.95014763     22.86344337
Na        9.11672211     20.69303322     31.81189537
Na        9.37437725     27.19705391      2.22594237
Na        9.22215366     27.33813858      6.77954292
Na        9.27730179     27.71504021     11.41537952
Na        8.97192192     27.42424393     16.07384682
Na        6.89158535     27.43283844     18.38691521
Na        9.33774662     27.77795219     25.14281464
Na       13.47831535     -0.15422955      2.20801306
Na       18.40839005      0.10817648      6.84670448
Na       13.57957363      0.27058330     11.32450390
Na       14.00849247      0.16954216     15.99769306
Na       13.76010704     -0.25615138     20.65531731
Na       13.55396938     -0.14959967     25.08563614
Na       13.60893726      0.08220656     29.39150047
Na       13.61276627      4.35848522      2.28405261
Na       13.53412533      2.07227135      9.15451813
Na       16.01850891      4.20437336      9.51088619
Na       16.15853882      4.36386824     13.61437321
Na       13.86051083      6.80687046     18.39087868
Na       11.41010666      4.57954550     27.83576584
Na       13.79475021      4.53178787     29.79086494
Na       13.88447094      9.25192928      2.23104882
Na       13.65168381      8.91115093      6.87347460
Na       13.51947880      9.09392357     11.63322926
Na       13.93557644      9.01659775     15.90267849
Na       13.43982792      9.42324066     20.49629021
Na       13.61871910      9.12076378     25.22019958
Na       13.65321827      9.25671101     30.02546692
Na       13.77346706     13.38954067      2.54217625
Na       13.52534294     16.11266899      4.78370190
Na       13.50770664     13.85063744     11.46574593
Na       13.87667084     13.57903004     16.10409164
Na       13.96969223     13.76567650     20.72198868
Na       13.87708473     13.58587265     25.15036392
Na       13.71732712     16.16322327     27.23565292
Na       13.59815884     17.94015503      2.38185763
Na       13.27577305     18.12800598      6.95992947
Na       13.46552277     18.23151588     11.42060852
Na       13.74733067     18.50896645     16.03075790
Na       13.49474812     18.38986588     20.75867462
Na       13.40070820     18.36652184     25.16198349
Na       13.61680984     18.39045334     29.58774185
Na       13.57558632     22.77548409      2.23649120
Na       13.67228413     22.84562302      6.84527254
Na       13.54371834     23.12555504     11.55982685
Na       13.99820042     22.87693596     16.00919914
Na       13.75970173     22.81299210     20.49781036
Na       13.54885006     22.93514061     25.24659920
Na       13.55907917     22.81791878     29.70850182
Na       13.86992073     27.51665115      2.40119672
Na       13.42155457     27.43784142      6.79779482
Na       13.57476139     29.69245911     13.72527790
Na       17.80246353     27.22401237     20.39006805
Na       14.12725449     27.42828941     20.69495583
Na       11.54143620     27.67221832     27.41526604
Na       13.98119640     27.92412567     29.48656654
Na       18.35018730     -0.31098813      2.24772024
Na       18.53849220     -2.50001097      9.13594437
Na       15.96628475     -0.35434058      8.99984932
Na       18.05586624      0.09923478     15.98854637
Na       18.27618217      0.13047731     20.66341019
Na       17.82233620      2.29574299     27.35881424
Na       18.29178429     -0.08683581     29.69231987
Na       18.45039558      4.76973009      2.43000913
Na       18.16003990      4.54957247      6.83253193
Na       18.29108429      4.16679621     11.55507469
Na       18.43386269      4.55984306     15.88192940
Na       15.93492031      4.56898546     22.77144432
Na       17.95115471      6.90125608     27.44564438
Na       18.22056198      4.56757975     29.64873314
Na       18.31465530      9.27766132      2.64260030
Na       18.43092155      8.68275452      6.90318727
Na       18.45982742      9.05426216     11.48182964
Na       18.29913330      6.73601723     18.36215973
Na       15.83625889      9.00296307     22.73509789
Na       20.32846642      9.01873684     27.33601189
Na       18.47904778      9.15164375     29.76889229
Na       17.83017159     11.51172829      0.01173730
Na       16.05879211     13.77692795      9.07141018
Na       15.87417030     13.48798847     13.45395374
Na       20.45128250     13.73104954     13.81405449
Na       18.03427315     13.97359848     20.49319839
Na       18.14269638     13.74304676     25.15626717
Na       18.28573608     13.93490887     29.59198952
Na       17.93047333     18.34637833      2.38398385
Na       18.69885254     18.73578644      7.07765198
Na       18.47097015     16.08300400     13.58184338
Na       18.36564255     18.44048500     15.88552380
Na       17.88177872     18.00395203     20.69839668
Na       18.51713753     18.54135704     25.12147903
Na       18.28370285     18.15333939     29.54274178
Na       18.37275696     23.31961632      2.17385125
Na       18.42701721     22.91124153      6.91162920
Na       18.21486855     23.54002190     11.33403397
Na       18.30119896     22.91547012     16.11224365
Na       18.56642151     22.69546700     20.63251114
Na       18.07237625     22.77006149     25.20965004
Na       18.48527336     22.94740295     29.57014465
Na       18.40888596     26.99948311      2.44446301
Na       18.49702263     27.58290863      6.98616409
Na       18.24545860     27.26096153     11.59450150
Na       18.48208237     27.42749977     16.12207413
Na       15.99338341     27.00159836     22.87526703
Na       18.03595352     27.38158798     25.22939491
Na       18.61587715     27.60803032     30.02678299
Na       22.75902176     -0.28493765      2.28109455
Na       22.81845093     -0.38114318      6.74492836
Na       22.94779968      0.33129054     11.29475498
Na       22.95525360      0.17231725     15.91906834
Na       22.96163177      0.12565437     20.56720352
Na       22.60989380     -0.38018832     25.39512825
Na       22.84543228     -0.25927761     29.81708908
Na       22.84230614      4.61378717      2.41874790
Na       22.79220200      4.61068773      6.90340376
Na       22.97173500      4.43697023     11.52672100
Na       22.76491547      4.66803598     15.98229790
Na       20.19927788      4.93148088     22.89446068
Na       22.83565140      2.56792068     23.13363457
Na       22.59546089      4.35491848     29.60998726
Na       22.68165779      9.16192913      2.49229407
Na       22.90428734      6.87130499      4.80203009
Na       22.92524338      8.85101891     11.31027222
Na       22.80921555      9.03987408     15.86245155
Na       23.05215454      9.53828621     20.40596008
Na       22.79414749      8.99962997     25.02126694
Na       25.19112587      8.73047256     32.06336975
Na       22.83022690     13.41396046      2.35848451
Na       22.78229141     13.66660404      6.91395473
Na       22.56557083     13.55392838     11.45286942
Na       22.82946777     13.92296028     15.99308300
Na       22.69709778     13.52626610     20.47370148
Na       23.04107666     13.53433704     25.04986572
Na       22.88501358     13.41220570     29.63687515
Na       22.54672623     18.24353218      2.35332394
Na       22.87814522     18.25822067      6.85217571
Na       22.78669739     20.64180565     13.57469463
Na       23.00658226     18.27489662     15.75218487
Na       23.02394867     18.40129852     20.40427017
Na       22.92187309     18.22947502     24.93081093
Na       22.72058105     18.45152664     29.78827477
Na       25.04356003     22.70214462      4.69950819
Na       22.94727325     22.80241013      6.71222591
Na       22.91510963     23.00150871     11.25331211
Na       22.81406021     22.96021271     16.03286743
Na       22.74283791     20.71118736     18.37841034
Na       22.90502930     23.03053474     24.91798019
Na       20.35978508     22.88495445     31.88489532
Na       20.92971611     27.25896645      4.54148483
Na       23.07450676     27.38083458      6.73977327
Na       22.97492027     27.44231224     11.47808456
Na       25.12509727     27.53821754     13.29204655
Na       22.84311676     27.67181206     20.58224487
Na       22.47589111     27.37685966     25.18613815
Na       22.86629677     27.25407791     29.66242027
Na       27.37118530     -0.38643336      2.21122861
Na       27.42693710      1.98960161      4.60852909
Na       27.78040314      0.31129029     11.52296066
Na       27.33196831      0.29862297     16.03965187
Na       27.12254524      0.14173764     20.54829979
Na       27.59235764      2.35924745     22.86223412
Na       27.45963860      2.30179453     27.53868866
Na       27.02968979      4.37043428      2.52516389
Na       25.01062012      4.59615183      4.49283838
Na       27.63291931      4.63265276     11.44961643
Na       27.11197853      4.51390934     15.92770863
Na       25.13179207      4.79214525     18.48721886
Na       27.75721550      4.53377628     25.12919998
Na       27.64233017      4.37298059     29.66012001
Na       27.49975014      9.14340401      2.33135247
Na       27.17450905      9.35390854      6.78713799
Na       27.41802406      9.27972412     11.53201580
Na       27.63399124      9.42283249     16.09235764
Na       27.90337944      9.35567093     20.73477936
Na       27.52794266      8.99551868     25.38257599
Na       27.53507233      9.12956810     29.83083534
Na       27.65613937     15.82412243      0.38114920
Na       27.31637573     13.41890430      6.82162762
Na       27.07473564     15.99589348      9.25004482
Na       27.58344650     13.84159470     15.72528839
Na       27.48089600     13.46298122     20.61554718
Na       27.30830002     13.35490227     24.99523735
Na       27.41437340     13.51673126     29.93268967
Na       27.21742249     18.39414597      2.29745102
Na       27.47219276     20.42734528      4.56392479
Na       27.45451736     18.54898643     11.45378113
Na       27.57998657     18.14683151     16.07362366
Na       27.66368866     18.21916008     20.83649826
Na       27.36920357     18.32817841     25.31879234
Na       27.37319565     18.04245758     29.87112999
Na       27.51945114     22.86450005      2.24207234
Na       27.29195976     25.21184540      9.03771782
Na       27.66080093     22.87290192     11.25396538
Na       27.71929741     22.95884514     16.11181259
Na       27.27544975     25.11902618     23.09202194
Na       27.46553421     20.76032448     23.08157349
Na       29.69262314     22.71295166     32.06565094
Na       27.55501938     27.05454826      2.10375452
Na       27.31406021     27.59738159      6.70905352
Na       27.59702301     27.33873558     11.24365425
Na       27.12847328     25.37461090     17.96160316
Na       27.28569794     27.62642860     20.38938141
Na       27.25908089     27.18009186     25.02253723
Na       27.42647934     27.49738884     29.48659325
O        -0.05717555      0.01962680      4.34520864
O        -0.04787748     -0.11654967      9.26928997
O         0.02321691      0.05546902     13.86451340
O         0.23340148     -0.29078123     18.34396172
O         0.13539743      0.15455000     22.76694679
O        -0.15757512     -0.04869156     27.48932648
O        -0.19228752     -0.11303417     31.79652405
O        -0.14211152      4.55951643      4.59406853
O         0.18430960      4.48130226      9.01382637
O         0.20205729      4.57811403     13.58136654
O         0.07346679      4.75229263     18.23231506
O         0.19461492      4.55960608     22.85738182
O         0.18227096      4.52010918     27.63668442
O        -0.18802258      4.45441437     32.02665329
O        -0.05086059      9.07595825      4.54924059
O         0.09741148      8.66904449      9.26574802
O         0.01023688      8.91710377     13.61358070
O        -0.02348747      9.30695343     18.52289009
O         0.01013341      9.23157501     22.87541580
O        -0.13638422      9.19699097     27.34015846
O         0.00337464      9.33370686     31.98357773
O         0.16401073     13.70536423      4.43631935
O         0.00004985     13.35397816      9.15971470
O         0.04873837     13.73327351     13.66040516
O         0.05809892     13.77957344     18.45467758
O        -0.01480608     13.82317829     22.80229378
O        -0.03337304     13.63649178     27.58286476
O         0.04725499     13.67059040     32.11285782
O        -0.02107383     18.09447098      4.70667601
O         0.05919746     17.78617668      9.29240131
O         0.11508036     18.29259491     13.86312962
O        -0.01932131     18.11495590     18.51191521
O         0.19123845     18.27288055     22.87141228
O        -0.24507594     18.42523384     27.56900787
O        -0.03138197     18.13449287     32.11304474
O        -0.07330901     22.55853462      4.71465921
O        -0.20332998     22.75150681      9.07250881
O        -0.20088939     22.72451210     13.75347233
O        -0.03947524     23.01796913     18.13088608
O        -0.19004139     22.97068787     22.87296867
O        -0.01529383     22.67503929     27.35570335
O        -0.17703430     22.81122780     31.91766739
O         0.14990607     27.54996109      4.58300161
O        -0.05162115     27.27628326      9.22253418
O        -0.28567320     27.36674118     13.60153484
O        -0.20501254     27.41484451     18.37623787
O         0.19984782     27.39055824     22.70169258
O         0.07468510     27.38886833     27.48118210
O        -0.04915371     27.41802216     31.95112610
O         4.35314894      0.03128058      4.52716017
O         4.46370077     -0.05855794      8.89203835
O         4.60069895     -0.05752061     13.72472095
O         4.85051775      0.04395704     18.20735550
O         4.53821564      0.12238197     22.98399353
O         4.50304604      0.01083597     27.32424927
O         4.38418722     -0.07520118     32.09680557
O         4.59014320      4.52476692      4.90968466
O         4.52223730      4.44394350      9.27902699
O         4.72406960      4.79241848     13.87380600
O         4.73622990      4.56241179     18.59151459
O         4.52905703      4.67144060     22.86646271
O         4.72072887      4.50453043     27.39595222
O         4.51020765      4.59694719     31.71406364
O         4.55400801      8.81739616      4.55578089
O         4.49651957      9.11289787      9.29282093
O         4.68287182      9.22902203     13.58299732
O         4.48415518      9.25201321     18.44088364
O         4.42330027      9.14085674     22.72212982
O         4.53221512      9.03859234     27.14101982
O         4.55944395      8.79402447     31.86924934
O         4.64043522     13.55990887      4.36231470
O         4.52074146     13.56281662      9.23280525
O         4.59951878     13.69279099     13.72749424
O         4.92569065     13.69932461     18.48939323
O         4.79175568     13.57639313     22.83579826
O         4.57719517     13.45680332     27.64352226
O         4.61418629     13.32131290     31.90557671
O         4.44738531     18.02766609      4.27976036
O         4.48476648     18.03608131      9.12695122
O         4.67990828     18.08191681     13.63126564
O         4.53225422     18.43004227     18.10400391
O         4.50476789     18.23587608     22.90199280
O         4.65797329     18.31992149     27.27885246
O         4.75180101     18.69219971     31.70002747
O         4.61382866     22.78079605      4.50885391
O         4.78264952     22.51298714      9.13266945
O         4.33610535     22.77224541     13.52784824
O         4.58071184     22.90888786     18.30161858
O         4.46878338     22.79991150     22.94328880
O         4.50761127     22.96235466     27.49015236
O         4.78551626     22.95942879     31.96645355
O         4.50754738     27.18180847      4.60478640
O         4.78828907     27.20907211      9.04894543
O         4.54012966     27.32782936     13.53834343
O         4.55700207     27.28637123     18.21430779
O         4.51133633     27.23755264     22.79859161
O         4.62611723     27.41497231     27.34380150
O         4.49864864     27.44748497     31.95226860
O         9.13445568     -0.21308525      4.47264528
O         9.23713017      0.04304973      9.04082966
O         9.37383556     -0.13469580     13.85501766
O         9.18869209     -0.12938505     18.11483574
O         9.09396553     -0.03147312     23.01049042
O         9.12657356     -0.00796210     27.57367325
O         8.96584511      0.05889072     32.13343430
O         8.97148991      4.65064621      4.70730686
O         9.14021206      4.36534882      9.32618713
O         9.16657639      4.38461447     13.59575272
O         9.04363346      4.50635290     18.18687439
O         8.80124187      4.40718031     22.82304955
O         8.98786354      4.57057238     27.62092972
O         8.94517708      4.73951578     32.19655228
O         9.06247425      8.98234081      4.48110294
O         9.30859566      9.00678062      9.10746765
O         9.29909134      9.13239574     13.79453754
O         9.14612198      8.95376778     18.21626091
O         9.26808357      8.98269176     22.95220757
O         9.20471764      9.01397610     27.68564224
O         9.18717384      9.33213615     31.99294662
O         8.98688889     13.49334145      4.69566250
O         9.30681324     13.47980976      9.28368473
O         9.21878719     13.54105568     13.67036724
O         9.27185059     13.83426857     18.23452568
O         9.06779575     13.72219849     22.90587425
O         9.01504707     13.58973122     27.39682579
O         9.13330555     13.76734066     31.99532700
O         9.16598034     18.21190262      4.67444086
O         8.96992683     18.11879158      9.07714462
O         9.23640060     18.14467430     13.65810776
O         9.22063160     18.28449249     18.27642059
O         8.98816967     18.31773758     22.82110977
O         9.01271629     18.28388977     27.38585091
O         9.37376881     18.19471931     31.92057228
O         9.13300705     22.79463005      4.48431969
O         9.32216072     22.81576729      8.92228508
O         9.11431885     22.78983688     13.90073299
O         9.30812550     22.91190910     18.36657333
O         9.20148182     22.71601295     22.81451416
O         9.19406605     22.97263336     27.31013489
O         9.20161724     23.07465744     31.99795532
O         8.98988152     27.60287094      4.47030258
O         9.40473557     27.58729362      9.12594891
O         9.05389214     27.40274429     13.50400543
O         9.19833755     27.42910194     18.41541100
O         9.03317356     27.55927086     22.98522568
O         9.15907478     27.45713425     27.42100525
O         9.04029465     27.72190285     31.93669510
O        13.61975384     -0.06738062      4.42939711
O        13.55760288     -0.09136071      8.90325928
O        13.73991489      0.04472716     13.70081711
O        13.81263828     -0.05803935     18.37784767
O        13.83240128     -0.07446499     22.76453018
O        13.61156750      0.25877675     27.29122734
O        13.57503796      0.02931949     31.98969078
O        13.74071884      4.47789764      4.65260410
O        13.70173264      4.41573143      9.22732830
O        14.05140877      4.52065945     13.68788338
O        13.68771362      4.57556009     18.26524734
O        13.55117321      4.64774847     22.93398857
O        13.63280678      4.63832140     27.66827202
O        13.46696377      4.59595490     32.09152222
O        13.75124168      9.17981243      4.58218336
O        13.64375019      8.94781303      9.37582016
O        13.55492783      9.16292858     13.64943790
O        13.55969810      9.11035061     18.19887924
O        13.75342751      9.01987457     22.85343361
O        13.66565704      9.36009502     27.68241119
O        13.61630440      9.15411854     32.15621185
O        13.81195545     13.69318199      4.70727062
O        13.80171967     13.80548000      9.25445747
O        13.67961502     13.58416557     13.71988106
O        13.73020458     13.83728886     18.29615593
O        13.64804268     13.69426155     22.79981041
O        13.63584614     13.79755306     27.23525238
O        13.62215233     13.63083839     32.11426926
O        13.49667263     18.24779510      4.77578020
O        13.45962143     18.20246506      9.13916969
O        13.64092159     18.35473061     13.74278545
O        13.81942463     18.43126297     18.49774933
O        13.69590378     18.22255516     22.90260696
O        13.65972519     18.35880280     27.32411766
O        13.75301266     18.10731888     32.07845688
O        13.73242760     22.81226158      4.63071775
O        13.89171028     23.06579399      9.09119034
O        13.84687901     23.14088821     13.86830330
O        13.69015884     22.86373329     18.27902412
O        13.65164948     22.93295670     22.86909866
O        13.67088985     22.89278412     27.42844582
O        13.81995773     22.86718559     32.15465546
O        13.65811729     27.43521309      4.75025606
O        13.59087372     27.55743790      8.90208054
O        13.54496002     27.50293350     14.01649857
O        13.75560379     27.46218300     18.25185394
O        13.77813911     27.18393707     23.04244232
O        13.89225388     27.53248215     27.51486588
O        13.83202076     27.34218407     32.08682632
O        18.26363564     -0.12285924      4.39053822
O        18.17411995     -0.21855640      9.20713425
O        18.22835922     -0.13256508     13.74944210
O        18.36022949      0.22527623     18.25848579
O        18.26011086      0.15690619     23.08040237
O        18.13138962     -0.04508415     27.44258881
O        18.47280312      0.00096860     32.03549957
O        18.32871056      4.53074121      4.43757057
O        18.34209442      4.41608334      9.19454765
O        18.33737564      4.29089260     13.67770576
O        18.42903328      4.67175436     18.51713753
O        18.16748428      4.33622074     22.87476921
O        18.04115677      4.53605509     27.31718826
O        18.28418922      4.59890318     32.10021210
O        18.60838699      8.99791622      4.80871296
O        18.36481094      8.92068863      9.23089504
O        18.44227028      9.07167912     13.83996010
O        18.21045876      9.10729313     18.25303841
O        18.16449547      9.45546246     22.92038155
O        18.22208405      9.26515293     27.66654587
O        18.13636208      8.99296474     32.44874573
O        18.08253670     13.34988403      4.62979174
O        18.17489624     13.48955727      9.21956730
O        18.33961105     13.79740334     13.68957996
O        18.30529976     13.72832870     18.28645706
O        18.20717621     13.90292645     22.98404121
O        18.24823189     13.90678501     27.37903595
O        18.09769058     13.64003944     32.28567505
O        18.30578995     18.28766060      4.82680464
O        17.90538979     18.35512733      8.97769642
O        18.25366783     18.38890457     13.66235638
O        18.21377182     18.15046883     18.18572617
O        18.28090286     18.32335854     22.87821579
O        18.45428848     18.26200485     27.32146645
O        18.13517380     18.21459007     32.07039642
O        18.38304520     23.07632065      4.49145222
O        18.30488014     23.08118248      9.29263306
O        18.23891068     22.93835258     13.87508488
O        18.43286514     22.72185326     18.38893890
O        18.24584198     22.82094383     22.85756302
O        18.32814026     22.71774673     27.29140282
O        18.29229927     23.02554131     32.01925659
O        18.25011253     27.46417809      4.65909624
O        18.43284035     27.39978981      9.19686317
O        18.24420166     27.44315720     13.90603638
O        18.58491898     27.34015465     18.29923248
O        18.12967682     27.37189674     22.79242897
O        18.27886009     27.60799980     27.40666199
O        18.43678474     27.46434212     32.09259796
O        22.73502159     -0.18570606      4.43147898
O        22.64874458      0.09167821      8.91042805
O        22.66390228      0.05874922     13.64565754
O        22.95849991      0.21221507     18.21760178
O        22.89715576      0.01194048     22.90123940
O        22.86432457      0.13619176     27.50788879
O        22.90600395      0.07742884     32.09833145
O        22.91489792      4.81519890      4.64644766
O        22.73317528      4.53559256      9.10874176
O        22.97062111      4.47216272     13.59081078
O        22.95460129      4.85998392     18.34821320
O        22.54627037      4.95814371     23.00647354
O        22.62321091      4.52911329     27.39692116
O        22.76238823      4.48168993     31.90694427
O        22.87221718      9.14228058      4.54738665
O        22.81721115      9.08109856      9.21699142
O        22.74336433      8.91848183     13.62701702
O        23.13293266      9.59041500     18.26797676
O        22.78133011      9.31325531     22.80588913
O        22.60905075      9.00370312     27.13413239
O        22.91576195      8.96657753     32.13790512
O        22.71002579     13.65928555      4.69036388
O        22.88371468     13.54597187      8.97286034
O        22.76859856     13.84290504     13.77583027
O        22.80729103     13.82912922     18.12339973
O        22.94669914     13.54749966     22.68503952
O        22.79536247     13.76972961     27.46908569
O        22.65884018     13.61133385     32.06384277
O        22.99766159     18.38757324      4.52619648
O        22.97905922     18.19619370      9.27654648
O        22.98823547     18.23500443     13.43033409
O        22.90707397     18.60329437     18.15614319
O        22.99398613     18.47838402     22.86609077
O        22.92284012     18.40844917     27.49436951
O        22.84580994     18.29196167     32.06508255
O        22.97504997     22.95814896      4.47157240
O        22.76431656     22.59386826      9.04526329
O        22.67248344     22.89638519     13.51579857
O        22.84667206     22.86846733     18.29874611
O        22.94164276     23.17430496     22.66801834
O        22.86330795     22.83566856     27.23598671
O        22.57177353     22.91106606     31.82916260
O        22.93360329     27.51660347      4.57790756
O        22.94811249     27.33913231      9.03511906
O        23.01359940     27.49396896     13.70778847
O        22.92649460     27.70961761     18.27854919
O        22.73866844     27.50770950     22.93325806
O        22.83654976     27.61861038     27.29731750
O        22.91551971     27.53925705     32.02305984
O        27.53210831     -0.17973797      4.51839781
O        27.57519341      0.14069721      9.22386456
O        27.34632111      0.09527037     13.76805210
O        27.38886261      0.24446958     18.15008926
O        27.29543304      0.19833069     22.74277687
O        27.46591377      0.01197095     27.42727852
O        27.40450859      0.02063427     31.94448662
O        27.33730125      4.27455902      4.57350922
O        27.36224174      4.60790300      9.37638950
O        27.17692375      4.64365673     13.69483662
O        27.52611732      4.78637218     18.33039474
O        27.79178810      4.57108164     22.93684387
O        27.35910034      4.48208046     27.42176819
O        27.54384232      4.44916201     32.03731155
O        27.46712875      9.06333351      4.63224554
O        27.50514793      9.17689705      9.18655109
O        27.42450333      9.23185444     13.85150528
O        27.47776794      9.34743786     18.39557648
O        27.74432755      9.25989532     22.90768814
O        27.34134483      9.04408455     27.61736488
O        27.42698479      9.26642704     32.01562500
O        27.21984291     13.57034111      4.71326160
O        27.48068428     13.46118450      9.09564209
O        27.65374374     13.67794800     13.62302780
O        27.52428436     13.85748291     18.05952072
O        27.38033485     13.56096077     22.77050018
O        27.33428192     13.53025818     27.57732964
O        27.47099686     13.57842541     31.97926140
O        27.42625999     18.23102570      4.43299150
O        27.31490707     18.23016548      9.24218941
O        27.51587105     18.10562325     13.91411877
O        27.57082748     18.26559258     18.42226601
O        27.50320053     18.38798904     23.14926147
O        27.51829529     18.42848587     27.48998451
O        27.35169983     18.11354446     32.22105408
O        27.42280960     22.65016174      4.64847469
O        27.03321266     22.83688164      9.08367252
O        27.49646187     22.95695305     13.49416065
O        27.47099686     22.78749847     18.34258652
O        27.53589821     22.92478752     22.88246918
O        27.46496582     22.84788132     27.31857300
O        27.46533394     22.86765289     31.89126205
O        27.50784492     27.22479439      4.49741507
O        27.24050903     27.39087677      9.15025425
O        27.27099609     27.49779701     13.59188271
O        27.49738884     27.68374252     18.00284767
O        27.55599213     27.52394485     22.83157730
O        27.26537704     27.52224541     27.12176132
O        27.58295631     27.25306702     31.90205002
H         1.78544509      1.77829063      1.37983632
H         1.83903039      3.16299629      2.73174310
B         2.51243424      2.37835336      2.19242764
H         3.18927526      1.68122518      2.88239384
H         3.02958393      3.15395617      1.44246209
H         1.83056533      1.58449519      6.04500771
H         1.81448209      3.11752987      7.64892054
B         2.46772695      2.36215687      6.87688351
H         3.24764466      1.68974090      7.52759171
H         3.22963095      2.97818732      6.16826725
H         2.99846625      3.00205469     10.87643623
H         1.52777159      1.65200388     10.91200542
H         1.55500042      2.93925643     12.34060192
B         2.23963475      2.30698180     11.58826542
H         2.91760993      1.69729102     12.32254314
H         2.91465354      2.98263907     15.40787029
H         1.51725006      1.42052364     15.32142448
H         1.55852604      3.02780867     16.81221008
B         2.18159556      2.21573162     16.14393425
H         2.94658494      1.47503805     16.79897118
H         3.44936132      2.85724449     19.66979980
H         1.96797156      1.37468469     19.65156364
H         2.01492572      2.82852840     21.22694016
B         2.67881489      2.14330983     20.34453392
H         3.34708881      1.49519563     21.15338516
H         2.96673894      3.22998619     24.42156601
H         1.54377508      1.74500442     24.38390732
H         1.59034014      3.22108245     25.76602173
B         2.18282151      2.46566367     25.05121231
H         2.94273567      1.80666947     25.75092316
H         2.85328674      3.23303795     29.28471184
H         1.46835935      1.78065383     29.34007835
H         1.40402114      3.24201059     30.76731491
B         2.16158867      2.55099034     29.99808502
H         2.76021099      1.81836426     30.66526604
H         2.96550274      7.52744627      1.70231402
H         1.64460194      6.16759062      1.65148902
H         1.62505198      7.59782124      3.16469812
B         2.32898211      6.83386755      2.53181148
H         3.04928160      6.13463736      3.17810202
H         2.86894941      7.42000961      6.25799847
H         1.48758197      6.06471682      6.21480894
H         1.55940533      7.39137602      7.62752628
B         2.17213154      6.74017191      6.96001387
H         2.88656116      6.09029484      7.67377186
H         3.29158926      7.39795685     10.81893349
H         1.87383771      6.11132908     10.83598137
H         1.82435369      7.43039322     12.31872940
B         2.58307409      6.75340843     11.54316616
H         3.25181723      6.13405275     12.24652100
H         3.05183601      7.78338099     15.41488457
H         1.67908752      6.28654242     15.47669029
H         1.67137444      7.72928810     16.84555244
B         2.40120554      7.09282446     16.15796089
H         3.02285242      6.25372076     16.87066078
H         2.86274624      5.98291492     21.19927979
H         2.80721068      7.50112629     19.81116104
H         1.55034113      6.05133533     19.82404709
H         1.42887795      7.60970497     21.25232124
B         2.11655855      6.88250351     20.58751297
H         3.12474728      6.08239174     25.56267548
H         3.18575382      7.44674921     24.20633316
H         1.68158305      6.04688549     24.23183250
H         1.73232234      7.37050867     25.54744148
B         2.43841839      6.80409241     24.81548500
H         2.76285934      6.24666739     30.76204872
H         2.93825126      7.73326731     29.13669968
H         1.43847561      6.22019482     29.28561783
H         1.42914939      7.59367418     30.79784584
B         2.18435383      6.97872543     29.96950722
H         2.78674817     10.51369095      2.85288596
H         2.77031255     11.89612675      1.31353569
H         1.43394136     10.49784374      1.28125250
H         1.47797096     11.88438034      2.82470417
B         2.13225031     11.13882446      2.12623549
H         3.06421590     10.71263790      7.34660912
H         3.20636773     12.16583538      5.91147804
H         1.76246130     10.66320992      6.00420237
H         1.74724054     12.08833122      7.41125679
B         2.48110199     11.49235153      6.62122774
B         2.28076696     11.68550682     11.67200089
H         2.74903440     10.82378674     12.29715061
H         2.88010740     12.41342831     10.89988899
H         1.60635352     10.87759686     11.08477211
H         1.52531064     12.30958939     12.32438278
B         2.34204531     11.27641392     15.99710560
H         3.07805324     10.64451981     16.84502029
H         3.14274263     11.98880768     15.34324741
H         1.72940123     10.52326393     15.28668118
H         1.78286374     11.99191189     16.91281509
B         2.29678440     11.65031338     20.66892815
H         2.89792585     10.99155140     21.44797707
H         2.95185709     12.53771973     19.92842674
H         1.62228739     10.93358231     19.92439079
H         1.73981190     12.42423344     21.38842201
B         2.32346749     11.13154411     25.15544128
H         2.99699926     10.42799377     25.80683517
H         3.02577186     11.92741013     24.44843864
H         1.78503275     10.36561012     24.41482735
H         1.74963617     11.99641800     25.90461540
H         1.38994718     12.00465775     30.46159172
B         2.22344732     11.29055119     29.77996635
H         2.97600317     10.51835537     30.46617126
H         2.89288974     11.92612457     29.12468529
H         1.45382559     10.58681393     29.11003304
H         1.76199675     16.62393379      2.84861112
B         2.51207685     16.06602478      2.13961983
H         3.20814753     15.27105236      2.78595567
H         3.29108310     16.64421463      1.28874373
H         1.86005068     15.30645180      1.40707719
H         1.53123081     16.23968697      7.37034798
B         2.31351495     15.49587631      6.67556763
H         3.08561397     14.76072407      7.37863207
H         3.04483652     16.20719337      6.04235411
H         1.51073873     14.74851608      5.98936796
H         1.75596213     16.50328064     12.12264347
B         2.43432260     15.74595165     11.53422451
H         3.18576097     14.98974609     12.19211388
H         3.12020612     16.50719643     10.89968491
H         1.69043338     14.99368572     10.83807087
H         1.58192348     16.57614899     16.63330841
B         2.37329268     15.89019585     16.02372169
H         2.97401714     15.05548954     16.72464561
H         2.94066453     16.63413048     15.28771496
H         1.61220276     15.17710400     15.37597656
H         1.54432929     15.32460690     19.74031448
H         1.50257838     16.80148697     21.32465935
B         2.15626025     16.09779167     20.61228561
H         2.89492798     15.39911652     21.20839882
H         2.87096834     16.66126442     19.83878517
H         1.61250961     15.14918423     24.21944237
H         1.54221630     16.73162079     25.69651604
B         2.21565676     15.96652412     25.04239082
H         2.88704777     15.15949154     25.61591530
H         2.83910203     16.60307312     24.27769661
H         1.50904918     15.29176044     29.12174034
H         1.51091003     16.50473785     30.49246216
B         2.21345353     15.99241161     29.76658058
H         2.89965010     15.24145412     30.54462814
H         2.96407533     16.62132835     29.00700951
H         1.28984189     20.07528496      1.58276081
H         1.22614026     21.46249962      3.09794116
B         1.97212291     20.83657074      2.30579948
H         2.71758509     20.02773857      3.08178353
H         2.71123338     21.43998909      1.54156864
H         1.31831014     19.53760719      6.13671732
H         1.33452475     20.94835472      7.73520803
B         1.95328820     20.23746109      6.94869328
H         2.67216563     19.51474380      7.77428675
H         2.63686347     20.95213127      6.14915514
H         1.66385317     19.72469521     10.96239281
H         1.67280614     21.26606369     12.33706188
B         2.25981307     20.48943901     11.68823910
H         2.99722743     19.72449684     12.34621239
H         3.00842643     21.28641319     10.95099640
H         1.65207338     19.75714302     15.35002708
H         1.46222663     21.28828812     16.94349289
B         2.09343505     20.40921593     16.23092461
H         2.89943266     19.73544502     16.77534485
H         2.78320718     21.00391388     15.44455433
H         1.36749351     19.96969986     19.92166901
H         1.41426289     21.36693192     21.28457260
B         2.13922024     20.61825562     20.60667419
H         2.84366417     19.95232964     21.34871101
H         2.81518197     21.40258789     19.93278313
H         1.57439530     19.76651955     24.45410347
H         1.71234131     21.18940735     25.93162537
B         2.39198947     20.45844269     25.22128868
H         3.03378057     19.80056953     26.03552246
H         3.00943899     21.26896286     24.51249504
H         3.27853775     20.93560982     28.85971642
H         1.74711192     19.63922882     28.90872383
H         1.66221416     20.97149658     30.42711067
B         2.51952314     20.34413719     29.58639526
H         3.26912451     19.59963417     30.38181114
H         3.00652003     25.82038498      1.97029257
H         1.46047068     24.43808174      1.93366051
H         1.47493505     25.84255409      3.22335839
B         2.20476794     25.16847992      2.55244613
H         3.00683594     24.47439575      3.20150685
H         3.10686064     25.68535805      6.21062040
H         1.56358933     24.26469803      6.20548773
H         1.56900012     25.68507957      7.59880495
B         2.26660109     25.01264381      6.89341593
H         3.05467796     24.32201195      7.54690075
H         2.53600860     25.81087112     10.73023796
H         1.27435398     24.39579582     10.78306198
H         1.22376776     25.80863190     12.08580685
B         1.93357670     24.94236183     11.47845078
H         2.70393324     24.17504692     12.25597000
H         3.11134291     25.74927711     15.07781982
H         1.87384510     24.31560898     15.01959229
H         1.82910514     25.85224533     16.47221375
B         2.38714027     25.01578712     15.77716255
H         3.15865731     24.32652283     16.41656113
H         2.99047089     25.93917084     20.02156258
H         1.36147010     24.44939804     19.88109398
H         1.57268870     25.86841774     21.21781349
B         2.23938370     25.17291451     20.63584137
H         3.03529739     24.54503632     21.33339119
H         2.68405557     25.99193382     24.42600250
H         1.39505291     24.60198212     24.42201996
H         1.38642323     26.00454521     25.87467384
B         2.04235816     25.24444389     25.21402740
H         2.75061965     24.53939819     25.92862701
H         2.83981156     25.89342117     29.09703064
H         1.40140879     24.34405899     29.11896133
H         1.40709460     25.86580467     30.74197578
B         2.09973097     25.14600754     29.77139091
H         2.65425777     24.50768280     30.58403778
H         2.66702747     30.45384789      1.37656069
H         1.40360248     29.07198524      1.49042726
H         1.34354961     30.40003395      2.86186528
B         2.06809640     29.66822433      2.21169257
H         2.70825529     28.91688919      2.95690656
H         2.96584868     28.85035896      7.61914587
H         2.87625480     30.06560707      6.17864275
H         1.56267071     28.84687042      6.08556175
H         1.57003653     30.15132332      7.61526775
B         2.15012383     29.46461487      6.87775278
H         2.95426440     28.83784485     12.22319031
H         2.97342086     30.23440933     10.79318810
H         1.60653734     28.74948692     10.72398758
H         1.72519147     30.18495560     12.19289303
B         2.34988165     29.47990990     11.43883705
H         3.03805876     28.75867844     16.86640549
H         2.95680404     30.13479996     15.48748207
H         1.65726364     28.80055809     15.44810867
H         1.63158751     30.19985199     16.85020065
B         2.35733032     29.44269371     16.17042160
H         2.96766019     28.69183159     21.39866447
H         3.04815125     30.09497452     19.93861389
H         1.75823629     28.60956383     19.93683624
H         1.76904035     30.08594704     21.47012901
B         2.37082338     29.34701157     20.60897827
H         2.84246922     29.16656113     25.86826706
H         2.94711828     30.63286018     24.34381485
H         1.50454068     29.16110039     24.44300461
H         1.48205447     30.55615807     25.89621162
B         2.21519923     29.89251328     25.17317200
B         2.05046058     29.70588684     29.75945473
H         2.70055032     29.12333870     30.64518738
H         2.72651696     30.41778374     29.04314804
H         1.41431534     29.09498405     29.04076004
H         1.50601315     30.32847404     30.58184624
B         6.62713003      2.12196016      2.31767559
H         7.29619217      1.36277938      3.04644299
H         7.32910872      2.92248344      1.71543896
H         5.84071207      1.32253575      1.70811176
H         5.90355349      2.86696935      3.02384567
B         6.89391851      2.21193504      6.97850847
H         7.48494530      1.31678510      7.59028101
H         7.55948734      2.94679308      6.29776955
H         6.27859688      1.36639023      6.42191696
H         6.16473532      2.93650746      7.65453768
B         7.21495962      2.10489511     11.38037586
H         7.89048386      1.41369593     12.11449337
H         7.82696342      2.79922128     10.70741081
H         6.52760839      1.41673505     10.64693069
H         6.51320457      2.87410688     12.12585831
H         6.23164034      2.84196115     16.54670715
B         7.05239677      2.22668982     15.82524776
H         7.66657734      1.40070784     16.61239243
H         7.73033524      2.97140479     15.03844070
H         6.29694128      1.53169382     15.23318481
H         6.20368290      2.88765717     21.17113113
B         6.89662695      2.20878553     20.49657822
H         7.62372065      1.45313907     21.19608688
H         7.58791399      2.87680674     19.95317459
H         6.19629288      1.47070563     19.93493271
H         5.99429512      2.84669065     25.94522095
B         6.75723648      2.27739739     25.34529305
H         7.48653460      1.43692648     26.00284767
H         7.47766113      2.89544272     24.53689003
H         6.03044319      1.53070021     24.62178993
H         6.03482580      2.86761403     30.66345978
B         6.82985306      2.06968021     29.88704300
H         7.55748510      1.41119540     30.64604187
H         7.55465126      2.84736061     29.29570580
H         6.00795031      1.36690068     29.24857712
H         6.23715639      7.44608831      3.12690496
B         6.83972692      6.70185137      2.42344928
H         7.59388828      6.00589752      3.11563087
H         7.59897327      7.43989897      1.79260886
H         6.22749710      5.98496437      1.77676070
H         5.95709944      6.10089970      6.42780876
H         5.98918724      7.50443554      7.78463221
B         6.69034243      6.77947044      7.10792446
H         7.54372454      6.08065033      7.83696842
H         7.43972778      7.45277596      6.51155663
H         6.31344223      5.97816038     10.82975292
H         6.30536270      7.61043406     12.42137909
B         7.06845427      6.74315357     11.68321991
H         7.84447193      6.03909111     12.35236835
H         7.75765610      7.45460844     10.97749901
H         6.22662067      6.21140718     15.21474743
H         6.14088249      7.59420300     16.72527504
B         6.86038113      6.94588995     15.98073387
H         7.51840782      6.13169670     16.71924782
H         7.50357008      7.57333708     15.14987469
H         6.18711615      5.93953943     20.02484322
H         6.25673485      7.52304125     21.31186485
B         6.98831654      6.73887873     20.72407913
H         7.83068562      5.90681934     21.41420555
H         7.76414204      7.55883694     20.05866814
H         6.50321150      6.37147570     24.34817886
H         6.44699621      7.83803797     25.63587570
B         7.13126945      7.17483282     24.98380089
H         7.73950911      6.35645485     25.59468079
H         7.82047939      7.87781334     24.25218773
H         6.40790367      6.01252222     28.83541107
H         6.44386721      7.51065111     30.19834709
B         7.04925013      6.76672173     29.58238792
H         7.82241249      6.02040386     30.22643089
H         7.80317259      7.51949406     28.86253357
H         6.20076799     10.71180439      1.59769297
H         6.08494806     12.02596188      3.03550291
B         6.87338448     11.26083469      2.39746809
H         7.61433744     10.57744122      3.05404687
H         7.51801252     11.94818115      1.55965459
H         6.11024046     10.62285709      6.51518202
H         6.18700361     12.02028370      7.99618053
B         6.82921553     11.24120331      7.29982758
H         7.62540388     10.60927582      8.08652496
H         7.52377748     12.00900173      6.60322809
H         6.41176367     10.69968033     10.95071697
H         6.27877474     12.18495941     12.35329628
B         6.92206717     11.55580807     11.56899643
H         7.65117264     10.72352982     12.19645691
H         7.78753710     12.16448593     10.83820152
H         7.23840046     12.20236397     15.32544804
H         5.95097017     10.94063568     15.31731701
H         5.87582922     12.28563786     16.69102669
B         6.59780359     11.50718975     16.05724144
H         7.33895397     10.84821415     16.70830727
H         7.99696589     12.09071541     19.97577858
H         6.58493853     10.59487152     19.89672661
H         6.65974283     12.09496403     21.21956444
B         7.33412981     11.33751202     20.63319588
H         8.01936722     10.65152168     21.23771858
H         7.51469040     12.16674805     24.48629189
H         6.07713270     10.71482372     24.46954727
H         6.06371641     12.19690895     25.85983849
B         6.76460266     11.45842361     25.15060806
H         7.47168779     10.77457047     25.78667641
H         7.38360023     12.08264160     28.75738144
H         6.17933941     10.55532265     28.75933266
H         6.17244530     12.08758640     30.33554840
B         6.76611853     11.33432293     29.53674126
H         7.38039827     10.55657673     30.32740211
H         7.52843189     17.11503220      1.46543336
H         6.23527765     15.55699444      1.45892668
H         6.20160818     17.15520859      2.95841694
B         6.86360216     16.35048866      2.22028971
H         7.52941704     15.56251621      2.91922617
H         7.46704626     16.32883835      6.28702784
H         6.11737537     14.95195866      6.36480331
H         6.02088881     16.34754944      7.64561892
B         6.80948114     15.59046745      6.98189735
H         7.53665447     14.80457497      7.69651699
H         7.70504665     16.64205933     10.62409210
H         6.34228277     15.12870789     10.58046341
H         6.35870838     16.66926193     12.15025139
B         6.97835302     15.86844254     11.34494495
H         7.73678160     15.14060211     12.15478325
H         7.70908785     16.48088837     15.01841736
H         6.17872000     15.17914581     15.10304260
H         6.15088177     16.42410088     16.48738098
B         7.02869272     15.89827442     15.79384232
H         7.67277384     15.13083458     16.50785446
H         7.81341410     16.58819962     19.65901756
H         6.20577192     15.16817188     19.70562553
H         6.28722286     16.46014214     21.17671585
B         7.16598558     15.83125401     20.38060760
H         7.84740686     15.08757210     21.33876610
H         7.25912762     15.33019257     25.74554062
H         7.24543619     16.73258400     24.25607872
H         5.85024261     15.32376766     24.23596382
H         5.94028521     16.66265678     25.66192245
B         6.54506350     15.99584007     25.01434135
H         7.74609566     15.24720478     30.32310295
H         7.66108847     16.67672348     28.87346649
H         6.30466890     15.29039764     28.83165359
H         6.37588358     16.64732170     30.20869446
B         7.05347347     15.93353081     29.56601715
H         7.48745394     19.97507286      2.91144419
H         7.57240725     21.40371132      1.57794464
H         6.12172270     19.92352104      1.61134720
H         6.16337109     21.32866096      2.92134547
B         6.74051428     20.62010002      2.25241017
H         7.72736263     19.42986488      7.38785458
H         7.64500141     20.93739891      6.07527781
H         6.18443584     19.46684456      6.02989626
H         6.11750984     21.04970741      7.41780138
B         6.93500185     20.18678856      6.79476929
H         7.88893843     19.76086998     12.24870777
H         7.88927221     21.19869423     10.74171734
H         6.50240278     19.90954590     10.89072990
H         6.40316772     21.14891624     12.19926357
B         7.31788492     20.50885773     11.58987808
B         7.20859718     20.54628372     16.03298759
H         7.89309645     19.77117157     16.64733696
H         7.96110296     21.16342735     15.34568596
H         6.55841827     19.75921631     15.40173626
H         6.50202084     21.16377449     16.71569252
B         6.68180513     20.66443825     20.65483284
H         7.33138895     19.87319183     21.28372192
H         7.36220312     21.34753036     19.95189476
H         6.11736774     19.83576965     19.94528770
H         5.97801733     21.49348831     21.46049309
B         6.90850067     20.77970505     25.29700279
H         7.57586241     20.05489922     25.98237991
H         7.66595984     21.34926033     24.61008835
H         6.21388006     19.96268845     24.60797310
H         6.17770815     21.38754654     26.11076355
B         7.00580025     20.74023819     29.86203384
H         7.65845537     20.01500320     30.43882370
H         7.80335474     21.38387871     29.10930824
H         6.30433416     19.92458344     29.16378975
H         6.21682024     21.41691208     30.61675453
H         5.88297176     25.78065300      3.01752210
B         6.56975126     25.04759789      2.34117389
H         7.31863022     24.39693451      3.02556729
H         7.25066376     25.72073174      1.51085210
H         5.96309376     24.48510170      1.53105295
H         6.17556238     25.42925644      7.41745234
B         6.88787603     24.75699234      6.74688864
H         7.55100393     24.04784775      7.35435820
H         7.58091736     25.39607430      5.85717916
H         6.29008770     24.09927940      5.93852282
H         6.07353973     25.60595512     12.13091564
B         6.75616264     24.92002869     11.37211037
H         7.51508856     24.10943604     12.02777863
H         7.49728012     25.48501015     10.54813004
H         6.25931787     24.19207764     10.61296177
H         6.25468922     25.85029411     16.30048370
B         6.85024214     25.24016190     15.49135113
H         7.54320669     24.56529045     16.36056709
H         7.61248398     25.97965622     14.94487572
H         6.11714554     24.48783112     14.93669319
H         5.99104929     25.84739876     21.32784843
B         6.63970947     25.17073441     20.60070992
H         7.25650120     24.39300728     21.27632904
H         7.30691099     25.84628868     19.84338760
H         6.04902506     24.39945984     19.90025330
H         6.19925642     24.44184494     24.11060524
H         6.21793938     25.73838615     25.65440750
B         7.01164722     25.05573273     24.95427895
H         7.71792173     24.42701530     25.68791962
H         7.60560751     25.65958595     24.20808983
H         6.14496231     24.66408157     29.03802490
H         6.07595825     26.09547615     30.53603745
B         6.71482897     25.32665825     29.92424202
H         7.39857531     24.62377930     30.50733185
H         7.33648109     26.00467873     29.05981827
H         5.87724781     28.83294487      1.83683777
H         5.89570665     30.22525024      3.05167317
B         6.60276175     29.60967827      2.43965816
H         7.32244968     28.82641029      3.07666683
H         7.42132807     30.34912300      1.73142481
H         5.94777203     28.71813965      6.24230480
H         6.22724533     30.11349106      7.58104515
B         6.88938951     29.28686142      6.87403584
H         7.54718971     28.81558418      7.76307392
H         7.50986958     30.25819969      6.37706947
H         6.31882191     29.11145401     10.70672417
H         6.28543758     30.41955376     12.12486744
B         7.08517694     29.83811760     11.39766788
H         7.68044567     29.04947853     12.15345764
H         7.66279554     30.43049240     10.66239929
H         6.05962133     28.67356682     15.14463329
H         6.00482273     30.03809166     16.55814362
B         6.76114273     29.31663513     15.82970333
H         7.38094711     28.54933357     16.62757874
H         7.33342791     30.06000519     15.06791973
H         6.17885160     28.99948692     19.82485771
H         6.20906115     30.42025375     21.23063850
B         6.89459944     29.65917206     20.56969261
H         7.73901749     29.03650665     21.22382545
H         7.67304420     30.34746742     19.92785263
H         6.20337391     29.13525009     24.56174850
H         6.19521189     30.53397751     25.89193916
B         7.03406000     29.75191307     25.25177383
H         7.71505785     29.04365540     25.97537231
H         7.63804054     30.54039383     24.54716873
H         6.22360802     28.96854973     28.69289398
H         6.24947405     30.16781807     30.34074974
B         6.91103983     29.64471054     29.49752426
H         7.61576414     28.92592430     30.40923882
H         7.57517338     30.19571495     28.69086075
H        12.17293549      2.98598623      1.25136554
H        10.81920338      1.57571828      1.24039495
H        10.78051186      3.03564715      2.73292351
B        11.49644661      2.25215197      1.96610260
H        12.20199776      1.55762672      2.71232438
H        11.66730404      2.97317123      6.02956247
H        10.38998413      1.50892675      5.97974062
H        10.39193249      3.02104521      7.45209169
B        10.94938469      2.30195832      6.70210028
H        11.66419601      1.56185651      7.40110970
H        12.16548538      3.01114488     10.73656464
H        10.69481277      1.55817091     10.75962067
H        10.72020340      2.96269894     12.07980251
B        11.44332409      2.35787654     11.34635830
H        12.08444977      1.61615145     12.04721069
H        12.16125393      3.06179738     14.91882801
H        10.70304585      1.59519410     15.10546875
H        10.68824005      2.88996363     16.20713615
B        11.51316547      2.23173499     15.65095043
H        12.14041901      1.42938888     16.35813522
H        11.89485836      3.04539251     19.66123390
H        10.42199135      1.60229027     19.65357971
H        10.41879559      3.05624318     21.01239777
B        11.16463375      2.30707979     20.27867126
H        11.88348198      1.62132239     20.99017143
H        12.05940151      2.82188320     24.40798569
H        10.63985062      1.48640776     24.49885941
H        10.55674934      2.81410956     25.82418060
B        11.30358124      2.14715958     25.13636208
H        12.06329155      1.39164281     25.83584595
H        12.06478405      2.57953501     28.83130836
H        10.66392231      1.41275954     28.94205666
H        10.46196270      2.67074871     30.36306953
B        11.28911400      2.02622366     29.68184662
H        12.10207367      1.26472342     30.30914497
H        12.14510250      7.48748302      1.82443321
H        10.66870117      6.12780952      1.76930928
H        10.71619511      7.49511337      3.14977717
B        11.45951748      6.74659920      2.46586919
H        12.20060158      6.12743473      3.19764614
H        12.42681599      7.41360569      6.09626913
H        10.97918510      6.05746460      6.08321571
H        11.09672546      7.30911922      7.41209507
B        11.81005764      6.55514336      6.82663393
H        12.46969414      6.02763987      7.55946016
H        12.33347034      6.24634695     12.22718143
H        12.31173420      7.59345007     10.73137379
H        11.07505512      6.17616320     10.63945198
H        11.08938694      7.67103958     12.28303242
B        11.69916439      6.88894415     11.51770973
H        12.08599472      5.84447145     16.64561653
H        12.05029964      7.27606058     15.13485527
H        10.70647240      5.93130016     15.18598843
H        10.68791866      7.24348021     16.57734108
B        11.42460537      6.60485506     15.84862900
H        11.93114376      6.23267841     20.79480362
H        12.17815399      7.53306532     19.39515305
H        10.62372684      6.02697086     19.43645668
H        10.60159397      7.51389599     21.02264595
B        11.28688431      6.88926649     20.05487442
H        11.97014523      6.02064419     25.87317657
H        12.06497383      7.29893589     24.45684242
H        10.79830360      5.95113325     24.48216248
H        10.77132511      7.30059671     25.96966553
B        11.36860085      6.67787409     25.20374680
H        12.26704216      6.20266533     30.48535728
H        12.11974335      7.62155819     29.22521019
H        10.62755966      6.22121382     29.09645844
H        10.64682579      7.73104334     30.44754410
B        11.41235542      6.94686842     29.78891754
B        11.09114933     11.46912956      2.36254978
H        11.82742691     10.76642227      3.04699492
H        11.77243233     12.20381260      1.73644972
H        10.47753620     10.75056171      1.66559339
H        10.49345875     12.25874710      3.04693389
B        11.43033504     11.47058582      6.88062000
H        12.08190823     10.68131542      7.54010201
H        12.15733147     12.27331352      6.22672081
H        10.77508545     10.65461826      6.27544737
H        10.77477169     12.22490025      7.56711245
B        11.45151615     11.73622990     11.61075020
H        12.11417198     11.01568890     12.40214729
H        12.17282677     12.43393993     10.91720390
H        10.62315369     11.03486633     10.99503517
H        10.67133045     12.30792999     12.33479309
B        11.56677151     11.26573372     16.05228615
H        12.36648083     10.60595417     16.76878357
H        12.43015862     12.00216293     15.45141315
H        10.68543434     10.53354168     15.44267941
H        10.80871582     11.88761330     16.71791267
H        10.47308350     12.20193386     21.44892311
B        11.12522888     11.49007225     20.67683411
H        12.01463127     10.83619595     21.25898933
H        12.14316273     12.14053154     20.09667015
H        10.52543449     10.69861317     20.08761787
H        10.51122570     12.05916214     25.89930916
B        11.29543304     11.33358669     25.09646034
H        11.77821445     10.60511971     25.79294777
H        11.94753456     12.12212086     24.38172722
H        10.54643822     10.53397179     24.47989655
H        10.87089825     12.34337425     30.46430206
B        11.52263737     11.60338879     29.76249695
H        12.14218044     10.81990623     30.59820557
H        12.12248230     12.45757866     28.97923088
H        10.85337162     10.93628311     29.07590866
H        10.86165333     16.60364914      3.03581047
B        11.32643127     15.76669025      2.36215115
H        12.16078568     15.32973385      3.06087756
H        12.10272408     16.57065582      1.94006610
H        10.62766361     15.12081146      1.67308247
H        10.54017448     16.74139977      7.64684486
B        11.19165802     15.92005730      7.05086899
H        11.88023567     15.35291195      7.82575226
H        11.71697426     16.75704575      6.41833830
H        10.40310860     15.39475346      6.29691839
H        10.72789955     15.44189358     10.81259060
H        10.66347504     16.85465050     12.20977116
B        11.40036774     16.22881889     11.56863689
H        12.04491043     15.38524151     12.20199776
H        12.02645779     16.82842636     10.77439308
H        10.76064014     14.96035671     15.21923256
H        10.83545494     16.35476685     16.52375984
B        11.61258602     15.67461777     15.92737675
H        12.28130341     14.94513321     16.61379814
H        12.28798580     16.45148659     15.19732857
H        10.44433498     15.45565319     19.86384010
H        10.59174347     16.79420280     21.15511894
B        11.26606750     16.13465691     20.47923470
H        11.90455723     15.45181465     21.30636597
H        11.89732170     16.93821716     19.86723518
H        10.82262993     15.19007683     24.50341415
H        10.89036465     16.50074768     25.92884064
B        11.52172947     15.92591572     25.20917320
H        12.23233032     15.15485191     26.03180122
H        12.19931030     16.57068825     24.50121307
H        10.60526752     15.28725433     29.13936615
H        10.63097286     16.47529411     30.55084038
B        11.39733601     15.85068226     29.83799553
H        12.02160740     15.25879192     30.60500908
H        12.05161953     16.55947685     29.08088875
H        10.67185974     19.72094345      1.56333101
H        10.76109600     21.32451248      3.06800365
B        11.33569050     20.51359558      2.24700403
H        11.98872757     19.84967041      3.02851510
H        12.02805138     21.32434654      1.65273213
H        10.60583305     20.06911659      6.12420177
H        10.56744289     21.37037849      7.39525843
B        11.34493637     20.70748901      6.85250854
H        12.14783764     20.03769493      7.38828945
H        12.18207645     21.39764786      6.05854225
H        10.68691444     19.84408379     10.69699192
H        10.68408012     21.13071060     11.98741722
B        11.45888424     20.49028778     11.27230549
H        12.11495304     19.77014160     12.05852509
H        12.12679100     21.21365547     10.61121178
H        10.82550144     19.73662758     15.38682556
H        10.90519619     21.11242485     16.76171494
B        11.61324406     20.38302231     16.04510498
H        12.37926769     19.77812195     16.79991150
H        12.47287941     21.24423409     15.33471012
H        12.13567352     21.35265732     19.93910027
H        10.54415512     19.95363426     20.05450058
H        10.43171597     21.34969902     21.32717133
B        11.34366512     20.67180634     20.65229416
H        12.06083488     19.91307259     21.25529480
H        12.04287052     21.20168495     24.47003174
H        10.84743977     19.85805893     24.51599884
H        10.79284573     21.21031380     25.98667145
B        11.45703697     20.46550560     25.27409744
H        12.14594650     19.70901680     26.08111954
H        12.32524014     21.29533386     29.09113121
H        10.96674252     19.88614655     28.98608017
H        10.96786690     21.39925957     30.31687546
B        11.60779667     20.54892731     29.74016762
H        12.43487930     19.88155556     30.32258987
H        12.25450420     25.84523964      1.50070465
H        10.65275288     24.40086365      1.51020300
H        10.62306499     25.86542892      3.08872700
B        11.43743896     25.12343597      2.35044432
H        12.17201900     24.47385025      2.98605275
H        12.36170959     25.86952591      5.82161570
H        10.89048576     24.39200974      5.82662201
H        10.93786907     25.81713676      7.50760889
B        11.55883980     25.24029732      6.61057758
H        12.23144436     24.51726913      7.42973328
H        12.08094788     25.89008713     10.88169956
H        10.82280064     24.42195511     10.91312504
H        10.75539494     25.92606735     12.34345055
B        11.47377396     25.23714638     11.62060356
H        12.09595299     24.37552452     12.32247639
H        12.28039169     25.92428970     15.41815948
H        10.87167931     24.37318230     15.41979885
H        10.91380692     25.88052368     16.79915428
B        11.64912891     25.08880234     16.24039078
H        12.32336617     24.32856750     16.88589668
H        12.16696453     26.05129814     20.00783730
H        10.64219856     24.66762924     20.07888222
H        10.61870480     26.00374603     21.47331238
B        11.39839077     25.41410637     20.77320862
H        12.10135937     24.66219139     21.45525742
H        12.04564381     26.17468262     24.39059830
H        10.84447479     24.78896332     24.34797859
H        10.81489086     26.24688530     25.84022141
B        11.47903252     25.49927711     25.18037415
H        12.08142853     24.79579544     25.80380440
H        11.66419506     24.40288544     30.36046028
H        11.69044018     25.70626640     28.74570084
H        10.33243275     24.42384720     28.79290771
H        10.31642437     25.67506599     30.35550499
B        11.03717518     25.05331421     29.52519608
H        12.03258610     28.79737663      3.10178185
H        11.98832607     30.26577377      1.55508053
H        10.73464680     28.92307281      1.63651502
H        10.58820915     30.33077621      3.12252617
B        11.35083294     29.65212440      2.34357619
H        12.06891632     29.02293205      7.45599365
H        12.01377583     30.38564301      6.00331116
H        10.63657570     29.02824783      5.95348835
H        10.67868137     30.39336205      7.40856981
B        11.35310459     29.74268913      6.75195885
H        12.08663177     29.05568123     12.17483139
H        11.92603779     30.43194771     10.84545326
H        10.60204983     29.03749657     10.66667366
H        10.58698750     30.62578773     12.20807838
B        11.25990486     29.70615005     11.51914787
H        12.26256466     28.91343498     17.00844765
H        12.20649338     30.36595535     15.70185375
H        10.71872330     28.83520126     15.56754875
H        10.86978436     30.34920120     16.93561935
B        11.55101299     29.48120117     16.31559563
B        11.46796513     29.54149628     20.47688484
H        12.24393940     28.78889465     21.11939812
H        12.24909019     30.07501793     19.81076241
H        10.86957359     28.72328758     19.75030327
H        10.79576683     30.20928192     21.25881577
B        11.46136284     29.65153313     25.18159866
H        12.31749916     29.07078171     25.77601051
H        12.11765862     30.24055290     24.49890137
H        10.80874252     29.06606865     24.29434967
H        10.75531578     30.49853325     25.83415222
B        11.65999222     29.69729805     29.92847824
H        12.34836769     29.01153946     30.67259789
H        12.31176281     30.26413345     29.08020592
H        10.96739006     29.03186989     29.06393242
H        10.89958668     30.34820938     30.72006989
B        15.88692188      2.30331731      2.56609964
H        16.73197174      1.57656550      3.21287489
H        16.70235634      3.08126044      1.89579570
H        15.11489773      1.64301753      1.93263125
H        15.13408279      3.02524018      3.12723851
H        15.38994980      2.45364285      7.53027010
B        16.17350578      1.82806516      6.85638905
H        16.72856712      1.19306791      7.59494877
H        16.79118538      2.58093929      6.16025400
H        15.29009724      1.15789413      6.18769789
H        15.19039726      2.65915346     11.97885895
B        15.95899773      1.94191790     11.30765629
H        16.69701385      1.30943298     11.95042610
H        16.59556580      2.52927065     10.55782127
H        15.28002834      1.37063086     10.51756954
H        15.15880489      3.05301499     17.10905647
B        15.99797153      2.47059512     16.35574913
H        16.65670395      1.79547441     17.07114029
H        16.72073555      3.07913232     15.54978657
H        15.25240326      1.85115767     15.66950321
H        15.13645077      3.16093564     21.52489090
B        15.82669067      2.41935492     20.66509056
H        16.63634682      1.84077120     21.47217751
H        16.64225769      3.11413455     20.06736755
H        15.05982780      1.71143579     19.94394493
H        15.12060547      3.02740312     25.71118546
B        15.73703957      2.27830505     24.98098373
H        16.50880623      1.65328383     25.77890778
H        16.53998756      3.12630630     24.37983894
H        14.95236206      1.55276346     24.31049919
H        14.94686031      1.59854436     29.01657104
H        15.05528831      2.96876049     30.32142830
B        15.78311062      2.15873003     29.73880005
H        16.48873711      1.56672120     30.46168137
H        16.38217354      3.00244832     29.09131050
H        15.44104195      6.32047272      1.71405399
H        15.36336899      7.89959049      3.17264271
B        16.03112411      7.05927849      2.49879670
H        16.79662132      6.26520729      3.15023541
H        16.72866440      7.80922604      1.72674561
H        15.11513615      6.14975786      6.20294905
H        15.12194920      7.49279404      7.62792206
B        15.78007507      6.73473597      7.02697277
H        16.62903786      6.06043673      7.72405672
H        16.49078941      7.45068026      6.25187635
H        14.98912907      6.18694973     10.76564121
H        15.08627033      7.59215736     12.09098530
B        15.66018963      6.83189917     11.54437637
H        16.35479736      6.11113596     12.26394176
H        16.21497154      7.62528896     10.82965279
H        15.26207066      6.15667105     15.43738651
H        15.29878139      7.71073866     16.82550430
B        15.96545982      6.94489384     16.12330055
H        16.64983749      6.20626116     16.81262398
H        16.61252785      7.66054869     15.52428627
H        15.23640728      6.10842705     19.82724571
H        15.17171574      7.54074335     21.28701782
B        15.80067825      6.89230251     20.51162529
H        16.54045105      6.11438656     21.21636772
H        16.56869125      7.49833250     19.80496597
H        15.11162567      6.25794268     24.56760406
H        15.06718922      7.62219906     26.13045883
B        15.74415016      6.98107338     25.34804153
H        16.32599449      6.21125889     26.13270569
H        16.33668518      7.63513756     24.51022911
H        15.36133671      6.11144352     29.27801704
H        15.36349010      7.29281569     30.59465027
B        16.08529472      6.86981297     29.85452461
H        16.68638039      6.14251709     30.56573105
H        16.88504601      7.46256065     29.11042404
H        15.19915390     10.77498436      1.89022338
H        15.30056286     12.09957790      3.31053782
B        15.93579865     11.39142799      2.58776808
H        16.74392319     10.85541058      3.33152080
H        16.72143936     12.09807777      1.99313247
H        16.41888618     11.97013760      6.11966753
H        15.13392639     10.67719364      6.15041113
H        15.01750755     12.05581379      7.59057522
B        15.67731667     11.38279152      6.86201239
H        16.41262054     10.65271473      7.49863386
H        16.61684608     11.91130733     10.56100845
H        15.18932629     10.42817593     10.54742718
H        15.17158031     11.94263554     11.97077274
B        15.89817238     11.23359871     11.25714493
H        16.59696770     10.46163654     11.91956615
H        16.88442230     12.37055969     15.49068260
H        15.34028435     10.82191372     15.57278824
H        15.43965435     12.18908310     16.82296753
B        16.15804291     11.57090950     16.10263443
H        16.78026962     10.84396172     16.90029144
H        16.68203354     12.26903152     19.38977814
H        15.26825523     10.90041828     19.46135330
H        15.21939468     12.24631691     20.90276718
B        15.90804863     11.57181549     20.12322998
H        16.65439606     10.85647964     20.89784622
H        16.75537491     12.25912285     24.55117416
H        15.18748283     10.90280342     24.50236893
H        15.16386700     12.33154297     25.89996719
B        15.90930557     11.62920189     25.23108292
H        16.74902534     10.95795822     25.82119942
H        16.48884773     12.30539227     28.77972984
H        15.08507442     10.86951637     28.86381149
H        15.06927776     12.23710728     30.37135315
B        15.85143948     11.63045216     29.60944557
H        16.40824699     10.86603642     30.35903740
H        16.65926552     16.85223389      1.77813482
H        15.17729378     15.34789276      1.84088874
H        15.23930550     16.72746849      3.32634592
B        15.95657539     16.11804581      2.48048043
H        16.50011253     15.44429016      3.29195881
H        17.07780838     16.84536743      6.37126160
H        15.74453926     15.25952816      6.43924284
H        15.73021412     16.79171181      7.78808498
B        16.38921356     16.13406181      7.00647688
H        16.90044022     15.36891460      7.66437292
H        16.80010033     16.57754707     10.84922981
H        15.26555538     15.20985508     10.84580040
H        15.39505577     16.45147514     12.31662750
B        16.01800728     15.91747379     11.49956989
H        16.69425201     15.31913280     12.33684921
H        16.50437164     15.06753445     16.44198608
H        16.55378914     16.51297951     15.08543682
H        15.12327003     15.08116817     15.14848709
H        15.07456970     16.49863052     16.47705269
B        15.80647945     15.78784752     15.78509045
H        16.62171364     15.65655899     21.40420723
H        16.48099518     16.93992615     19.99892235
H        15.13274002     15.64212513     19.84377098
H        15.22002029     17.00779724     21.33135986
B        15.84686661     16.26612282     20.67474937
H        16.77629280     15.10528278     25.87919044
H        16.79249382     16.48491859     24.36164093
H        15.32805347     15.18586636     24.45842552
H        15.31153107     16.40465546     25.81513023
B        16.06045151     15.87017918     25.12389374
H        16.95118713     15.04925823     30.66576385
H        16.88433647     16.43724632     29.08430099
H        15.53267479     15.17439175     29.14258575
H        15.46560001     16.44603729     30.60770607
B        16.31200218     15.84053707     29.95023918
H        16.33932495     19.76200104      3.01840901
H        16.30672073     21.27510071      1.69540632
H        14.86208344     19.81229210      1.71309376
H        14.83906746     21.28042793      2.99113369
B        15.57150841     20.55037880      2.37099028
B        15.98535442     20.85141182      7.07387638
H        16.60454750     20.04018021      7.71328545
H        16.67022324     21.54804993      6.30754089
H        15.30303288     20.04561615      6.37865210
H        15.22057915     21.55939102      7.79030132
B        16.11621666     20.93579674     11.31238651
H        16.61350822     20.20061874     12.00217342
H        16.76950264     21.63895416     10.66602898
H        15.26369858     20.15729332     10.77869987
H        15.28923035     21.50074959     12.01996613
B        16.18099403     20.56173706     15.97154903
H        16.84811020     19.89049530     16.62598610
H        16.84735489     21.27738953     15.30186176
H        15.36716461     19.88270569     15.29331779
H        15.36792755     21.28516960     16.63301277
B        16.06480026     20.70691872     20.96142197
H        16.84106636     20.05541992     21.54005814
H        16.88298607     21.31060028     20.30903435
H        15.44211006     20.06098557     20.35651779
H        15.35370541     21.35151672     21.62289429
H        15.42811966     21.23056221     25.99658775
B        16.12352943     20.45500565     25.34920692
H        16.84369659     19.80180740     26.09871864
H        16.80274010     21.29173470     24.57516670
H        15.39212036     19.86793900     24.60034180
H        15.14158249     21.07125473     30.35511208
B        15.99522209     20.35817909     29.79374886
H        16.58785629     19.47447777     30.36844063
H        16.62385178     21.12057877     29.02592850
H        15.21603775     19.56226158     29.14970970
H        15.40945530     26.00748444      2.96889615
B        16.12163544     25.38647652      2.22709441
H        16.78481293     24.70687103      3.08041716
H        16.84450912     26.17870331      1.66879809
H        15.25099182     24.65992928      1.68155050
H        15.61064625     25.83525658      7.33754921
B        16.25551987     25.15555573      6.60875893
H        16.90451813     24.48417664      7.36777544
H        16.90397644     25.86494064      5.90608501
H        15.52749634     24.43125153      5.85261869
H        15.06687450     25.97896957     12.31575871
B        15.67504501     25.26299858     11.51744461
H        16.45496368     24.78734207     12.33950329
H        16.36514282     25.91289330     10.83110428
H        15.00737381     24.75158691     10.70552826
H        15.50227547     24.34539795     15.50883865
H        15.47548866     25.72682762     16.85171700
B        16.22473335     25.05845070     16.13105583
H        16.82038879     24.32135582     16.84897232
H        16.87662697     25.78032303     15.42855740
H        15.19104004     24.34286499     19.80792999
H        15.12729931     25.82024574     21.21544266
B        15.86807632     25.10830879     20.57116318
H        16.43343735     24.25787926     21.23668671
H        16.48775864     25.89581108     19.66862297
H        15.17374802     24.50970650     24.34893417
H        15.17498112     25.74997139     25.80080986
B        15.91254234     25.11998367     25.02021027
H        16.55952835     24.50319290     25.80855751
H        16.58647156     25.78466225     24.31547737
H        15.30817890     24.64829445     29.12505913
H        15.20086098     26.02823257     30.38943291
B        16.05555153     25.26432419     29.86286545
H        16.93902588     24.46121788     30.46919060
H        16.79196358     25.96092987     29.08504486
H        15.33671665     28.81380463      1.44177508
H        15.29597759     30.11089134      2.78548551
B        16.03429413     29.55074692      2.08717179
H        16.68021965     28.79123878      2.76731300
H        16.77650452     30.18900299      1.32292473
H        15.21714020     29.04835510      5.86063671
H        15.40117359     30.17934036      7.28468704
B        16.01222610     29.64462662      6.41630316
H        16.77823830     29.10844612      7.40862989
H        16.82666206     30.35170555      5.87230349
H        15.25846958     28.91126442     10.78785610
H        15.25004196     30.19258690     12.13696480
B        16.09791183     29.60326195     11.44240189
H        16.82566071     28.87259483     12.16720581
H        16.82474518     30.22191238     10.75010204
H        15.49930668     29.00395775     15.18274498
H        15.48395252     30.35649681     16.70843697
B        16.16178322     29.60540962     15.92424488
H        16.72564125     28.90372849     16.79331207
H        16.65525055     30.37098122     15.15290737
H        15.40463352     29.14026260     19.89527893
H        15.29981422     30.58684540     21.36186600
B        16.04656410     29.75405884     20.80186462
H        16.77981567     29.01458168     21.38272476
H        16.62929535     30.45718575     19.92012024
H        16.52083778     30.25680923     24.11326218
H        15.19730854     29.08039284     24.16615105
H        15.17473507     30.22649574     25.58456421
B        15.96872044     29.60838890     24.92514801
H        16.62605858     28.92228317     25.72010231
H        16.83142281     30.44457626     28.97329521
H        15.46310806     29.13180351     28.85576820
H        15.51468277     30.51053047     30.24965668
B        16.14161873     29.75723648     29.67084503
H        16.98228073     29.09847069     30.33456421
H        21.35639000      3.04141045      1.81303430
H        20.10524940      1.64191186      1.78828096
H        20.24743843      2.92397428      3.02836323
B        20.93343163      2.10663462      2.46519876
H        21.52082634      1.50223041      3.31023383
H        21.15391541      2.68311930      6.00335979
H        19.79729080      1.44169819      6.04333496
H        19.66651535      2.77392077      7.45967960
B        20.42579079      2.08708882      6.83983421
H        21.17010689      1.38553250      7.38506889
H        21.25906372      2.62642312     10.71405697
H        19.81419373      1.27939880     10.65558720
H        19.81226158      2.68682384     12.06906128
B        20.47853470      1.97725487     11.32926559
H        21.26321983      1.33371043     12.01281738
H        21.50514984      3.25681067     15.38943577
H        20.13496208      1.70133162     15.45059586
H        20.11949539      3.21111751     16.75972748
B        20.77159309      2.54984164     16.05076027
H        21.47422409      1.67109752     16.77449608
H        21.31662750      3.12304401     20.07776451
H        19.85090828      1.56684351     20.04474640
H        19.86532402      3.14164543     21.48126602
B        20.47577477      2.38099051     20.71845818
H        21.26519203      1.65129566     21.41123199
H        21.09322548      3.06031156     24.39519310
H        19.78031158      1.56624591     24.48226929
H        19.77618027      2.97736549     25.82236481
B        20.49909210      2.23871374     25.08089638
H        21.08115768      1.49123490     25.89324570
H        20.83271790      2.74091458     28.88224602
H        19.42497635      1.29627514     28.86996460
H        19.42141151      2.75675964     30.17102814
B        20.10586739      1.99342382     29.48254204
H        20.91501617      1.22625601     30.23748207
H        21.43712044      6.37913752      2.95793962
H        21.49559402      7.77230883      1.66455805
H        19.98890686      6.30394363      1.64783919
H        19.99252701      7.78540707      3.02951264
B        20.64021683      7.18210268      2.32232857
H        21.19796753      5.72588634      7.74631643
H        21.16099167      7.29694653      6.33699751
H        19.81727600      5.72712421      6.30125999
H        19.85510254      7.29485941      7.70725346
B        20.51421928      6.46488333      6.99423361
H        21.24886131      5.87876940     12.23049927
H        21.11972809      7.24934483     10.76002312
H        19.68451309      5.91573143     10.66785049
H        19.72197151      7.30406046     12.15608025
B        20.36815071      6.53091860     11.52583218
H        21.15650749      6.11018610     16.76529884
H        21.19315147      7.56104660     15.33677006
H        19.64482117      6.05557823     15.31880569
H        19.75136375      7.47246933     16.71336365
B        20.47422218      6.79482365     15.98093033
H        21.34345627      6.64415789     21.14785957
H        21.48459244      7.94237471     19.81170845
H        19.82684898      6.46850634     19.77719307
H        19.96172142      7.84201813     21.18863869
B        20.61228752      7.19298029     20.45225334
B        20.21433640      6.80119658     25.20824432
H        20.92100143      5.99587965     25.78921700
H        20.87888718      7.50418186     24.44279671
H        19.54939461      6.06237030     24.46717262
H        19.51704979      7.51215172     25.75507164
B        20.30705833      6.87914896     29.95610619
H        20.88211632      6.11588860     30.68074417
H        20.96223068      7.65387964     29.28300095
H        19.62739563      6.05655813     29.30378151
H        19.66102600      7.59946728     30.70644569
B        20.62368774     11.58481693      2.38567042
H        21.29054642     10.85953045      3.11015177
H        21.33206367     12.27998543      1.68067801
H        19.82736397     10.81466293      1.67732847
H        19.90540314     12.20529652      3.07697988
B        20.55260468     11.30410480      6.74207783
H        21.13398361     10.68152237      7.64928150
H        21.09496117     12.16424942      6.05308914
H        19.74096489     10.72014332      6.05268860
H        19.91979027     11.98582554      7.43183661
H        19.67464066     11.68970776     12.12629700
B        20.33416557     11.01535320     11.32828522
H        21.17587852     10.35746574     12.18501854
H        21.07178688     11.64433670     10.53331375
H        19.70876694     10.45031357     10.52206993
H        19.84366608     12.61051369     16.75123215
B        20.50825500     11.84707355     16.02639389
H        21.35786057     11.10062790     16.70018005
H        21.25905991     12.46066189     15.37141705
H        19.93011856     11.13602734     15.30801773
H        19.80388069     12.15260792     21.27273750
B        20.41224670     11.34610844     20.63850212
H        21.06624222     10.58622932     21.22665787
H        21.04556847     12.08585358     19.87554359
H        19.85386848     10.59013844     19.85877800
H        19.60089302     12.25695133     26.08256721
B        20.28959274     11.65827179     25.34507561
H        20.98606873     10.91585732     26.11750031
H        20.99711609     12.30293179     24.58454132
H        19.56063843     10.91053772     24.59026909
H        19.71492577     12.13354588     30.34372139
B        20.41615677     11.38125229     29.51511765
H        21.21039009     10.72122002     30.27256775
H        21.18920135     12.04120541     28.80137253
H        19.69264221     10.62778282     28.68674850
H        19.66933060     15.20593262      1.73529446
H        19.52583122     16.62366104      3.21144772
B        20.36451721     16.02041054      2.45615482
H        20.97351837     15.22398663      3.04989457
H        21.13526154     16.62384987      1.59160459
H        19.75219345     15.04008102      5.94956112
H        19.80085373     16.61305809      7.30177212
B        20.40278625     15.83197021      6.60336685
H        21.19818497     15.18859577      7.20192051
H        21.23933983     16.55436325      6.05692148
H        19.58077812     15.28773594     10.45813942
H        19.51024246     16.84437943     11.88481140
B        20.27523422     16.07670403     11.25332832
H        21.07541084     15.24515629     11.85685539
H        20.94626236     16.68727684     10.54470539
H        20.23339081     15.24692345     15.20783901
H        20.22822762     16.87181854     16.68762398
B        20.93062210     16.11145020     15.83010197
H        21.60980225     15.39073277     16.53865433
H        21.71719933     16.83024597     15.24424934
H        19.92991257     15.24996853     19.99677086
H        19.96165657     16.75990868     21.45572853
B        20.72734833     16.01844788     20.86084747
H        21.46499443     15.22848511     21.50895691
H        21.34551811     16.69365883     20.09476471
H        20.05252838     15.35246181     24.47532272
H        20.02565384     16.77751732     25.76446342
B        20.75481224     16.05923271     25.13147545
H        21.52697945     15.30499077     25.78506088
H        21.47849274     16.74962807     24.47633553
H        20.02452087     15.31955051     29.12553596
H        19.95231247     16.79869461     30.55585861
B        20.75003624     15.89617825     29.86342430
H        21.46752930     15.07791615     30.72528458
H        21.20707321     16.70766258     29.14435768
H        19.61204910     19.72955704      1.69069052
H        19.47600937     21.34442520      3.04431701
B        20.18057060     20.58505630      2.36038733
H        20.84590149     19.75257683      2.88525867
H        20.92078781     21.26025200      1.63882482
H        20.12278557     19.97714996      6.04269743
H        20.04579163     21.45436859      7.42583227
B        20.82678986     20.71826744      6.72764683
H        21.49983406     19.91361618      7.41237259
H        21.48266411     21.42373657      5.99633598
H        21.42967033     21.70051384     10.64453125
H        19.97982025     20.26570129     10.43627548
H        20.02569008     21.86289978     11.83218670
B        20.66543388     20.94740868     11.30478764
H        21.59815979     20.30546761     11.83828926
H        21.36892700     21.36133575     15.19256973
H        19.97710228     19.98791122     15.28507805
H        19.88516235     21.36076927     16.65871429
B        20.61948013     20.77339745     15.96458626
H        21.31084824     19.95347786     16.60120201
H        21.41938400     21.37015724     19.87636757
H        19.98381042     19.98294640     19.83912849
H        19.97282219     21.41838646     21.39529610
B        20.60899544     20.72384262     20.61199570
H        21.33320999     20.10636139     21.26089287
H        21.25956917     21.49370003     24.10349083
H        19.78644371     20.08946037     24.09017181
H        19.87632751     21.41713333     25.47624779
B        20.54862404     20.78915596     24.76799202
H        21.31041145     20.05193901     25.60365486
H        21.12277222     21.25332832     29.00426674
H        19.65141869     19.77313805     29.05558586
H        19.58674812     21.26667786     30.41198921
B        20.24432373     20.62537766     29.66845703
H        21.00448608     19.84010696     30.28035164
H        21.31176376     25.92129326      1.66374385
H        19.93345833     24.67588806      1.64292586
H        19.97931099     25.89625740      2.91142154
B        20.77265358     25.15707970      2.32616830
H        21.43562889     24.57284164      3.06032109
H        21.41611671     25.90152359      6.14349842
H        20.07601738     24.55828285      6.33700657
H        19.88940048     25.89463425      7.75348186
B        20.68758774     25.38869858      6.97302723
H        21.24921799     24.53167343      7.59347534
H        21.37766647     25.99317932     10.60778904
H        19.99108124     24.64126778     10.64596462
H        19.92811012     26.01797676     12.15687180
B        20.72193336     25.36783981     11.40671253
H        21.43847275     24.54228401     12.19288445
H        21.48407364     26.09259415     15.44418335
H        20.01588440     24.52258110     15.45025539
H        20.10153580     26.00086975     16.82028198
B        20.79882622     25.34866142     16.06941032
H        21.37564278     24.62493896     16.80357361
H        21.12001228     24.31911659     21.30664253
H        21.25878143     25.70110321     19.76037025
H        19.86020660     24.29777527     19.87779808
H        19.81734848     25.62653351     21.37084007
B        20.51969147     25.04688072     20.55475616
H        21.32151413     24.35224342     25.89997292
H        21.46558189     25.78068924     24.37649345
H        20.02291870     24.34178162     24.51009750
H        19.98504639     25.68495941     25.94831085
B        20.76075745     25.06707764     25.11415863
H        21.36146164     24.75828743     30.15457535
H        21.27416229     26.10560417     28.79307556
H        19.86380005     24.76729202     28.71478462
H        19.92826462     26.11943054     30.08110619
B        20.61371040     25.37030411     29.47303200
H        21.03754807     28.98747444      3.04086637
H        20.99194908     30.38583755      1.59380746
H        19.71187592     29.08233261      1.64306700
H        19.67510033     30.37335396      2.98278451
B        20.35008430     29.68363380      2.31434703
H        21.13314819     28.94649506      7.47996855
H        21.00572968     30.44360352      6.05744219
H        19.73183441     29.05605125      6.03957844
H        19.67140388     30.52189636      7.43084192
B        20.37465286     29.73157310      6.79798126
B        20.58668709     29.40337372     11.39984322
H        21.37492752     28.83438873     12.17658138
H        21.26018524     30.11925507     10.83721638
H        19.88164520     28.80417633     10.69225979
H        19.87556648     30.27029037     12.21287441
B        20.29939842     29.87214088     15.99277401
H        20.94200325     29.16258812     16.74045944
H        21.05343056     30.42896843     15.19822788
H        19.48198700     29.18292046     15.32998753
H        19.42004585     30.35914803     16.78206635
B        20.70529366     29.94371414     20.32694817
H        21.32586098     29.27280998     21.05693245
H        21.36879349     30.70969391     19.74038887
H        19.93309593     29.28494644     19.79545403
H        19.95460892     30.63311386     21.02328491
B        20.49703789     29.73394203     25.48353004
H        21.19719124     29.12090302     26.18005753
H        21.17882538     30.36120224     24.66412544
H        19.74688530     29.15329742     24.67815590
H        19.70174599     30.39231110     26.19280052
H        19.81296730     30.51256180     30.66367149
B        20.71783638     29.81009865     29.76180840
H        21.37548256     29.06249046     30.50940704
H        21.42045593     30.40327263     29.08179665
H        19.97771072     29.07297325     29.13725281
H        24.28515244      2.67056417      3.18043780
B        24.97377777      1.97304797      2.29794216
H        25.59679222      1.23736835      3.10595441
H        25.70432472      2.70361209      1.51557195
H        24.33208847      1.20981979      1.59555435
H        24.41270256      2.40919089      7.20444822
B        25.00849915      1.64726615      6.52465439
H        25.66841316      1.00786829      7.26954603
H        25.69271469      2.49859262      5.94236851
H        24.26095200      0.92121559      5.88001871
H        24.67218018      2.91404009     11.94172668
B        25.32368851      2.17503810     11.23046494
H        25.97696686      1.40638685     11.90084934
H        26.00387192      2.90006781     10.51416111
H        24.69076920      1.38409770     10.51877594
H        24.44532394      3.32106042     16.73784065
B        25.13528633      2.52981877     15.98321152
H        25.88382339      1.82133281     16.66788292
H        25.82843590      3.19571662     15.30576134
H        24.47941208      1.78546417     15.21450710
H        24.64261436      1.50061381     19.84127235
H        24.55021667      2.98325682     21.34333611
B        25.15827751      2.30803657     20.52348328
H        25.86950111      1.56531692     21.18623352
H        25.92575455      2.88240814     19.84972191
H        24.32745934      1.67473996     24.37303162
H        24.25203705      3.35570288     25.84417915
B        24.94037819      2.55343676     25.03159904
H        25.59266663      1.76755345     25.67594147
H        25.67922592      3.27402639     24.37928581
H        24.51763725      1.61157870     28.86103630
H        24.35963249      2.89657998     30.22353935
B        25.18762398      2.33029699     29.46782112
H        25.83232880      1.51247072     30.16464233
H        25.92358398      2.92893696     28.67067146
H        24.46348190      6.00308466      1.56788540
H        24.59519005      7.43036699      3.13399148
B        25.19034576      6.83544493      2.32635641
H        25.86741257      6.10640669      3.16237950
H        25.91795349      7.50929594      1.62066591
H        24.42051888      6.04939556      6.08728647
H        24.45318413      7.50732374      7.46574736
B        25.15778732      6.67527008      6.79327583
H        26.02148247      6.04209852      7.50571203
H        25.95934486      7.48515034      6.14212751
H        24.60822296      6.20635939     11.03421307
H        24.56784821      7.73932648     12.33102131
B        25.28723907      6.93571901     11.63330364
H        26.04582405      6.25581360     12.24119282
H        26.10534096      7.70901585     11.02414989
H        24.31827927      5.85828400     15.19102192
H        24.39388275      7.30466747     16.60263634
B        25.06211472      6.56236887     15.95861244
H        25.63834381      5.83715916     16.69936371
H        25.66371727      7.42676926     15.14452362
H        24.85552597      6.13946915     20.10932541
H        24.78067017      7.58097363     21.39791679
B        25.69843102      6.77980804     20.75113297
H        26.25838089      6.04280901     21.41972160
H        26.20904922      7.55344772     20.06199646
H        24.46139908      6.02692032     24.35138130
H        24.45694542      7.48173141     25.76935768
B        25.05320740      6.74127626     25.03577232
H        25.78812408      6.05669641     25.73512840
H        25.80139351      7.46077156     24.36789131
H        25.58752441      7.74902821     29.22588539
H        24.26899529      6.24657536     29.17263603
H        24.37611961      7.69515085     30.51822853
B        24.98839951      6.92727804     29.91466904
H        25.70484161      6.18250847     30.68942261
H        26.01162910     12.09889984      1.49437141
H        24.59056664     10.71379662      1.53094113
H        24.57523537     12.07765770      3.03109193
B        25.29551125     11.43667030      2.30919647
H        26.00465775     10.68419838      3.04536152
H        25.91356468     12.15962029      6.22318697
H        24.54245186     10.78988361      6.23809910
H        24.52763367     12.15952492      7.57218981
B        25.23553276     11.48326206      6.92046642
H        25.90875053     10.77978516      7.56747198
H        25.91151047     11.96658897     10.42619038
H        24.50004959     10.51256847     10.52688980
H        24.38264847     11.98329067     12.09411240
B        25.08182716     11.35165596     11.19774532
H        25.75576401     10.56761646     11.92166233
H        25.78393555     12.25179005     15.05437183
H        24.35713196     10.72577000     14.94256115
H        24.38947105     12.33126163     16.32806969
B        25.08699036     11.45954323     15.63836098
H        25.84040833     10.78110790     16.30507088
H        25.94853020     12.10542011     19.82663727
H        24.56371307     10.87458134     19.77173615
H        24.53554916     12.18848610     21.22582245
B        25.27216339     11.45921421     20.47168922
H        26.06148720     10.81652355     21.25571442
H        25.84946823     11.87571907     24.75920868
H        24.60013390     10.28938770     24.75978470
H        24.55109978     11.92417622     25.97130775
B        25.20000648     11.08704185     25.28868866
H        25.82785225     10.31042957     25.90123367
H        25.63929749     12.03335953     29.22966957
H        24.21446419     10.77437305     29.15346527
H        24.22216797     12.10185814     30.55616379
B        24.86836624     11.41432381     29.86747169
H        25.69103050     10.79884338     30.53939819
H        25.80398750     16.52477837      1.44808865
H        24.44801521     15.24656391      1.60962832
H        24.36929512     16.44195747      3.03102994
B        25.22798538     15.83252144      2.35487199
H        25.76111031     15.12790012      3.07097435
H        25.95883560     14.98408222      7.41071224
H        25.73620987     16.56227684      6.14216328
H        24.43193245     15.09585381      6.03131056
H        24.53176689     16.57329559      7.19910574
B        25.27087021     15.67699623      6.78081560
H        25.92009735     15.09941578     12.11048412
H        25.93463516     16.67683601     10.69165039
H        24.60985374     15.03389168     10.64066410
H        24.76436615     16.57330894     12.02149773
B        25.27936554     15.83916855     11.41452122
H        26.00869942     15.45437336     16.87003136
H        25.94047356     16.93638802     15.20486546
H        24.57942581     15.60958195     15.29184723
H        24.52492142     16.90390778     16.76932716
B        25.36796570     16.26167870     16.08705139
H        25.86995125     15.35893917     21.32912254
H        25.77743721     16.74293327     20.00622177
H        24.27326584     15.39495850     19.94972801
H        24.30018044     16.77251244     21.26618958
B        25.10975838     15.98371506     20.71126556
H        25.63021851     15.14684391     25.95132828
H        25.66740036     16.66809082     24.59109497
H        24.26935577     15.17089272     24.65232468
H        24.23701859     16.63919449     25.95961761
B        24.98194313     15.86964417     25.35043526
B        25.38717270     15.94743538     29.71082687
H        25.94775772     15.21340179     30.54889488
H        25.99902916     16.66922760     28.81888962
H        24.66763306     15.34904861     29.00580978
H        24.63265610     16.51728439     30.44822693
B        24.85140991     20.54049492      2.02394724
H        25.56686020     19.79690742      2.69324231
H        25.62823296     21.29672241      1.33240438
H        24.13944054     19.79212952      1.38899899
H        24.10001183     21.27955627      2.73744845
B        25.31827736     20.55792427      6.36267138
H        26.09376335     19.82592010      7.09879589
H        26.10848808     21.21857071      5.77936792
H        24.57774734     19.74913597      5.71730900
H        24.64004326     21.21833420      7.11328268
B        25.22427940     20.95381737     11.66687679
H        25.93250465     20.36519432     12.38963985
H        25.97701645     21.72292519     11.03497982
H        24.54466057     20.20850945     10.92280769
H        24.67366600     21.70609283     12.41731834
H        24.53957939     21.16843796     16.62033653
B        25.23941231     20.53247070     15.79291344
H        25.84604836     19.86238480     16.59167862
H        25.90101051     21.19474220     15.22833920
H        24.52914429     19.82329369     15.24421120
H        24.44793129     21.31103706     21.20785141
B        25.20562363     20.62584877     20.53919029
H        25.92406273     20.00089455     21.17744064
H        26.05793190     21.41449738     19.77027321
H        24.44657516     19.96912766     19.87237549
H        24.16369438     21.23211861     25.82428169
B        24.86660957     20.53364182     25.14615822
H        25.69915199     19.98492813     25.86333466
H        25.69437218     21.26638985     24.47678757
H        24.11104012     19.97132301     24.45840263
H        24.60516548     21.19280052     30.44130707
B        25.16227531     20.46559525     29.74777222
H        25.97101212     19.95632744     30.61725807
H        25.87590218     21.27364349     29.23688698
H        24.33058167     19.85769844     29.04314613
H        24.54378891     25.29045868      3.02619362
B        25.37644958     24.66636848      2.35003018
H        26.04084015     23.96130753      3.12814069
H        25.94804001     25.29960251      1.49110687
H        24.60005951     24.11952400      1.55652368
H        24.45302773     24.36053467      5.99585915
H        24.50136948     25.63809776      7.41773891
B        25.15694046     24.93603706      6.72790575
H        25.84008026     24.33746529      7.48915100
H        25.73969269     25.60912323      6.07317829
H        24.49013710     24.69909668     10.72814846
H        24.47127724     26.15628433     12.15088940
B        25.21962929     25.44141579     11.44528389
H        25.92322922     24.68500710     12.14611912
H        25.93478012     26.16306305     10.70250988
H        24.67243195     24.62735748     15.50150776
H        24.64048195     26.02306366     16.83805084
B        25.29733467     25.30116272     16.24424171
H        25.93120193     24.59821320     16.83524323
H        25.88254547     25.97159767     15.52102089
H        24.50865364     24.62518311     19.86069107
H        24.56272507     26.11254692     21.35653305
B        25.22264862     25.39951134     20.56737328
H        25.96213341     24.77861786     21.25717163
H        26.05992508     26.11097908     19.91633415
H        24.25725365     24.53595734     24.31827545
H        24.23357964     25.77587700     25.69186783
B        25.05895805     25.20001984     24.99356270
H        25.66232300     24.43813896     25.76601028
H        25.75519180     25.94289017     24.12759018
H        24.78831291     24.31771851     28.92890358
H        24.70194626     25.74808311     30.41938782
B        25.45075607     25.10473633     29.57211494
H        26.06667709     24.31579208     30.33495140
H        26.17319870     25.77016830     28.82045364
H        24.84678841     28.75864029      1.45155787
H        24.78082848     30.14610481      2.86113119
B        25.46432304     29.53319740      2.14385700
H        26.13717461     28.76426125      2.78954744
H        26.19270897     30.13005447      1.40164721
H        24.56750107     29.02564812      6.27170897
H        24.59181404     30.26455307      7.76332045
B        25.32970428     29.63075447      7.03617239
H        26.03887177     29.04565430      7.76762724
H        26.07519341     30.30518532      6.25539160
H        24.19483757     29.07221031     10.68621922
H        24.21317673     30.53193474     11.95527935
B        24.88118935     29.91479874     11.28381920
H        25.56449890     29.04220581     12.00362492
H        25.59424782     30.61003113     10.62646198
H        26.21568489     30.71651840     15.12527275
H        24.69818687     29.21963501     15.15228844
H        24.74269104     30.64500046     16.56734467
B        25.45645523     30.01438713     15.87422180
H        26.10710144     29.30120277     16.53028297
H        25.82273865     30.17310715     19.88293839
H        24.23118973     28.91440964     19.87988853
H        24.31371307     30.09363174     21.20819855
B        25.00435257     29.52191544     20.51792526
H        25.81007004     28.93012810     21.27500343
H        25.96949577     30.36955643     24.29180717
H        24.50830650     28.94596672     24.29513168
H        24.47905731     30.39548111     25.76588631
B        25.23986435     29.76645088     24.95681381
H        25.88979149     29.02234650     25.66026115
H        25.71951675     30.32561302     29.00794411
H        24.28661919     28.76469231     28.93915749
H        24.43691826     30.24410248     30.30966187
B        24.96334076     29.55757523     29.57566452
H        25.67918015     28.87381744     30.35083580
H        30.43889236      2.92083836      1.95445859
H        28.87679291      1.54313207      1.91317475
H        28.94422340      2.89469004      3.22392964
B        29.71400070      2.20983624      2.58212209
H        30.41287994      1.61042845      3.22406530
H        30.43736458      2.67642665      5.97449684
H        29.00271606      1.30378187      5.94635534
H        29.00531960      2.70196462      7.22740459
B        29.75143242      2.03271961      6.64899874
H        30.48334694      1.28594112      7.24784899
H        30.46411133      2.87238765     10.51014042
H        29.12747955      1.45053220     10.67693138
H        29.04689980      2.78617716     11.95979214
B        29.79716492      2.22397876     11.21423340
H        30.37386513      1.37398851     11.95575523
H        30.44108391      2.95305896     15.49554920
H        29.13164711      1.69408131     15.32198334
H        29.17218208      3.08608961     16.83970642
B        29.73904991      2.25738978     16.14314651
H        30.61461449      1.69411528     16.88020706
H        30.47594643      3.10804558     19.78296852
H        28.93538857      1.62188792     19.68262482
H        29.11872101      3.02505779     21.04336166
B        29.71805382      2.28196692     20.33708382
H        30.49495697      1.70322084     21.14536285
H        30.53575897      1.67421567     25.96773529
H        30.59823799      2.93731904     24.54698181
H        29.22175980      1.48824525     24.42348862
H        29.32605362      2.95651722     26.04941177
B        29.83868217      2.32986164     25.22933578
H        30.27614784      1.53906775     30.53433418
H        30.23459435      2.93412733     29.07567215
H        28.96196938      1.58543730     29.08049011
H        28.94046211      2.95081997     30.50947189
B        29.60452271      2.18329358     29.81831360
H        30.47301102      6.01294041      2.81912518
H        30.49183464      7.38526106      1.39971757
H        29.08592224      5.98260212      1.38820231
H        29.07571220      7.40698433      2.85967207
B        29.76277351      6.68420649      2.10912251
H        30.49584007      5.84520626      7.55450106
H        30.48643112      7.25529289      6.28160524
H        28.95050049      5.85762405      6.28461409
H        29.01170158      7.19108105      7.48088074
B        29.74276543      6.57423353      6.91829872
H        30.52028465      6.18638182     12.14121342
H        30.52574348      7.46815395     10.83760071
H        29.18862915      6.11541605     10.77209568
H        29.07658005      7.64570665     12.32422733
B        29.72010231      6.96233892     11.57644558
B        29.67964172      6.87438440     15.96159363
H        30.38397598      6.27634907     16.75013924
H        30.37472153      7.60515738     15.31813908
H        29.00619316      6.19666147     15.22919559
H        29.10464859      7.59564495     16.73137093
B        29.84404182      6.91836786     20.53541565
H        30.55283737      6.20222378     21.24179649
H        30.56843185      7.55317593     19.84873962
H        29.12456703      6.08956480     19.75167656
H        29.18181801      7.59298801     21.29720306
B        29.55314445      6.87885714     25.05265236
H        30.37554550      6.26477480     25.73178864
H        30.30128479      7.66722202     24.48011208
H        28.93025398      6.18588018     24.32695580
H        28.98240471      7.76822805     25.75853348
B        29.91508484      6.94801188     29.84616661
H        30.72694969      6.24814987     30.56683540
H        30.67767525      7.66815138     29.17262840
H        29.23770142      6.26335049     29.13855553
H        29.24323273      7.69669247     30.54610252
H        28.76742554     12.20860958      3.16453886
B        29.40188599     11.37660980      2.41347980
H        30.04658699     10.77727795      3.20643997
H        29.99637222     12.20029449      1.76226020
H        28.73324776     10.78500080      1.71976686
H        29.18638229     12.03319550      7.30593300
B        29.92220116     11.36004162      6.59821987
H        30.60985947     10.54104424      7.36988926
H        30.63997078     12.12726498      5.89486408
H        29.21269035     10.63130951      6.01524258
H        29.13133049     12.12017918     12.28358173
B        29.71499252     11.62176895     11.44739342
H        30.36009598     10.96867275     12.38295841
H        30.37355423     12.23301506     10.70582485
H        29.01349068     10.95020866     10.70081902
H        29.33371925     12.03790188     16.76499176
B        29.95989990     11.21518898     15.98356628
H        30.76222992     10.60792828     16.86254501
H        30.65036201     12.02358723     15.42508793
H        29.18526649     10.55702877     15.26232147
H        29.13901329     12.05068302     21.28527069
B        29.90878868     11.38818073     20.44348335
H        30.66313362     10.69077587     21.23188019
H        30.67848206     12.01263905     19.80260658
H        29.18395615     10.68232441     19.80950165
H        29.01503372     10.72786045     24.49175453
H        29.03931046     12.26519203     25.75305748
B        29.76162910     11.51916504     25.13651466
H        30.35091782     10.67276955     25.83242416
H        30.36374855     12.35738850     24.42383385
H        29.09552383     10.93572903     29.27485657
H        29.18591309     12.10021877     30.57464218
B        29.96855545     11.53717518     29.84569931
H        30.52264595     10.87961483     30.72114372
H        30.57466316     12.29873657     29.16672897
H        28.95985985     14.95479965      1.89232898
H        28.84495735     16.40852928      3.13125300
B        29.68825340     15.66570950      2.44650412
H        30.25026703     14.95426464      3.01688433
H        30.33135414     16.37524796      1.81070673
H        28.76469231     15.28445721      6.16443777
H        28.76389503     16.78269768      7.56951618
B        29.45681763     16.01316261      6.78230286
H        30.19963074     15.30496502      7.54821014
H        30.26739120     16.82915306      6.11718559
H        29.14595985     15.51607704     10.57548714
H        29.16543961     16.87989235     11.96483421
B        29.85132027     16.13833427     11.37113380
H        30.57091331     15.40712738     12.09326458
H        30.43828011     16.87568855     10.59917164
H        29.07035828     15.18616867     15.38044834
H        28.89158058     16.56740952     16.63722992
B        29.79117203     15.84102440     16.08458138
H        30.46795273     14.98650360     16.65811729
H        30.43861961     16.55896568     15.21011639
H        29.09799385     15.37718201     20.08295822
H        29.01347160     16.69067192     21.53299713
B        29.72117996     16.12353516     20.67532921
H        30.45456886     15.45118618     21.37447357
H        30.62380981     16.70138931     19.98772049
H        28.98692703     15.26428890     24.43414116
H        28.92153931     16.62748337     25.92893219
B        29.66764259     15.95535946     25.08223534
H        30.32162666     15.27709579     25.85073662
H        30.37027168     16.59793472     24.39830208
H        28.91788673     15.21558094     29.09588623
H        29.01124573     16.74223900     30.61318398
B        29.70440865     16.05070114     29.73924828
H        30.32622337     15.40857506     30.51354980
H        30.48862648     16.80500984     29.12647438
H        30.31034660     21.15407562      1.38071787
H        28.82854462     19.94650650      1.48218644
H        28.80166245     21.07949066      2.92986822
B        29.57324791     20.55060005      2.10436893
H        30.23167992     19.92370415      2.92578816
H        30.36275291     20.90925980      6.42725658
H        29.07300949     19.42146492      6.33351326
H        29.10197449     20.97403908      7.79401350
B        29.69687653     20.13813210      7.03910923
H        30.38787079     19.49008942      7.75435114
H        30.48090172     21.08382607     10.74992561
H        28.95185280     19.75123787     10.66101074
H        29.03000450     21.09458923     12.24083710
B        29.66246414     20.46236992     11.43984413
H        30.44120026     19.87985611     12.19037151
H        30.46639824     21.28587723     15.43519402
H        29.16453934     19.78600693     15.38227558
H        29.21225739     21.29107857     16.80009842
B        29.77831268     20.56183815     16.11582947
H        30.47950363     19.82582092     16.80800247
H        30.41775513     21.29972458     20.04687500
H        28.96387100     19.89360428     20.03717041
H        29.00866699     21.26463509     21.47172928
B        29.67839622     20.55038261     20.70494652
H        30.39252090     19.92854309     21.48158836
H        30.67132378     20.95853996     24.39555740
H        29.22291756     19.53126144     24.39957809
H        29.25679588     20.92064285     25.90790939
B        29.93964577     20.32826614     25.04143906
H        30.59714890     19.60141754     25.87162971
H        30.13676453     21.16837120     29.19178391
H        28.73786163     19.82030678     29.31386185
H        28.71449089     21.06966209     30.52772331
B        29.56909561     20.42045784     30.01823807
H        30.17981911     19.65517426     30.66948700
H        30.63792419     25.55580521      1.77298248
H        29.13690376     24.13523483      1.80717874
H        29.16348076     25.49503517      3.28564882
B        29.86473465     24.95081139      2.51357841
H        30.54991341     24.18904877      3.25841045
H        30.30274010     25.77191544      6.16425133
H        29.07570267     24.38443375      6.11536837
H        29.07420540     25.82229614      7.51877165
B        29.74447823     24.99711990      6.87442255
H        30.41572952     24.32032585      7.58137989
H        30.47208786     24.32147408     12.21778584
H        30.58044243     25.71520233     10.63868427
H        29.08793449     24.26193428     10.68749905
H        29.16003418     25.59428787     12.20522499
B        29.88028145     24.96373367     11.37954330
H        30.22275162     24.43001556     16.61280251
H        30.14971924     25.59388733     15.15324116
H        28.88622284     24.46039772     15.11058998
H        28.87119484     25.65156555     16.59744835
B        29.50927925     24.99204254     15.93693352
H        30.09936333     24.47377396     21.26322937
H        30.04680824     25.88301277     19.80895805
H        28.83847618     24.54294586     19.82557297
H        28.73385620     25.97101402     21.29867554
B        29.45769882     25.29187775     20.64157295
H        30.70162392     24.36625671     25.80671692
H        30.82560349     25.62414551     24.55805588
H        29.15150452     24.23616219     24.55193901
H        29.18401337     25.59775352     25.90430450
B        29.89204025     25.05392456     25.10139465
H        30.25808144     24.18234253     29.91990280
H        30.30329895     25.47957230     28.37371445
H        28.99006653     24.29103661     28.52762794
H        28.86440468     25.45132256     29.93687248
B        29.66073799     24.92663193     29.21873474
B        29.83642769     29.21261978      2.47125053
H        30.61784744     28.55519867      3.21190476
H        30.57403564     29.95952606      1.72872829
H        29.17162132     28.60785675      1.73757470
H        29.17331314     29.94898987      3.15755582
B        29.89550591     29.39989090      7.07128525
H        30.71842766     28.56777573      7.64286852
H        30.68150139     30.05426407      6.45036650
H        29.07248306     28.57819176      6.42385578
H        29.08501244     30.06824303      7.61992311
B        29.67524910     29.59543228     11.50338936
H        30.50210762     28.87740326     12.18888187
H        30.45620918     30.25560570     10.96284771
H        29.04891777     28.77084732     10.81039333
H        29.05105400     30.40592384     12.29330158
B        29.38589859     30.05754471     16.04091454
H        30.12460327     29.36161613     16.64440155
H        30.06086540     30.71234512     15.34824657
H        28.58179665     29.30427170     15.22716236
H        28.69006538     30.72515869     16.59347916
H        28.96996498     30.61018181     21.05892754
B        29.67460823     29.88090897     20.25913429
H        30.44032288     29.17899323     21.07256126
H        30.40984154     30.59333420     19.59120750
H        28.98326302     29.20592690     19.58765602
H        28.94191170     30.53035355     25.77441025
B        29.60750008     29.71215057     25.18217659
H        30.35432053     28.88692665     25.80647278
H        30.31160355     30.51969910     24.49498367
H        28.96496010     28.94203758     24.50737953
H        29.03335190     30.25713539     29.91904449
B        29.74772835     29.49312401     29.26595116
H        30.41529655     28.77208138     30.06325531
H        30.36153984     30.34758759     28.64455605
H        28.93746185     28.82040405     28.63912201
