3075

Na        2.27988410     -0.14462134      4.67558146
Na        2.15364528      0.09104409      9.65183449
Na        2.28627968      0.07043501     13.98174667
Na        2.59258151      0.20430675     18.16661072
Na        2.09036970     -0.10869395     23.03261185
Na        2.25310302      0.33160746     27.63482285
Na        2.42561388     -0.45731449     31.94728661
Na        2.53429055      4.49074078      9.33262348
Na        4.61529922      4.64699650     16.13462067
Na        4.57380915      4.21074438     20.65346336
Na        2.28840494      9.35717201     23.02388763
Na        2.27055740      4.41710329     27.28558731
Na        4.29099035      4.40485096     34.36138916
Na        2.41434789      8.98473167      4.21606016
Na        2.23311877      9.07339096      8.83428001
Na        2.43297815      9.42953300     13.69610977
Na        2.60939384      9.37002850     18.38596725
Na        0.47003394      6.64946270     23.01318550
Na        2.37880182      8.95499420     27.23389435
Na        2.19947171      9.30916595     32.07015991
Na        2.13189173     13.62380409      4.85510111
Na        2.25052285     13.86199760      9.03970051
Na        2.35099912     13.76615334     13.71006489
Na       -0.40810487     13.78032207     16.04275703
Na        2.28683949     13.94844246     22.83267403
Na        2.14645481     13.55419540     27.40033913
Na        2.05207372     13.50171280     31.98453522
Na        2.15944743     18.20362663      4.44615078
Na        2.17553473     18.39444160      8.87828541
Na        0.09855162     18.01977730     11.42153740
Na        2.21826220     18.33707809     18.50844193
Na        2.06885552     18.35432053     22.84335899
Na        2.17298532     18.12547493     27.39752197
Na        2.35777450     18.36325455     31.70841789
Na        2.24108458     23.15430260      4.64924717
Na        2.15065694     23.01106071      9.17775726
Na        2.09341335     22.58760643     13.44407177
Na        2.18454838     23.06088829     18.36456299
Na        0.11232197     22.63295364     25.12979317
Na        2.29133105     22.52021408     27.48417091
Na        2.26661921     23.08019447     32.45286179
Na        2.38838625     27.31686974      4.79851437
Na        2.14074826     27.50089455      9.61076164
Na        2.33147144     27.29080009     13.65886879
Na        2.23675537     27.28212547     18.16467667
Na        2.21482491     27.38226891     22.91859627
Na       -2.42756987     27.52420044     27.65779877
Na        4.84246349     25.07562828     31.73394394
Na        6.80410337     -0.18687992      4.68561268
Na        4.48896217      0.16513619     11.29235554
Na        4.60991335     -2.22005820     13.73692703
Na        6.96241093     -0.12970524     18.05305290
Na        4.32894945     -2.14089394     22.78529549
Na        9.15967941     -2.05650115     27.48263550
Na        8.72057533      2.35370922     31.95482445
Na        6.83317518      4.31044865      4.45469236
Na        7.13557434      4.59615946      9.19205952
Na        6.98890352      4.63552952     13.93401814
Na        6.97941542      4.57160807     18.52234650
Na        8.92751980     -0.01989188     25.20876312
Na        6.73019886      4.48360825     27.24487877
Na        6.73743010      4.75912189     32.18275452
Na        7.00338793      9.15104771      4.62442970
Na        6.88748264      9.41577244      8.64883137
Na        6.90762520      9.45572853     13.62536240
Na        6.97355604      9.00267887     18.21166801
Na        6.70507336      9.45210457     22.60428429
Na        6.76759958      9.23937893     27.43257904
Na        6.95593596      9.22941589     32.28551483
Na        6.81340265     13.73895168      4.82284355
Na        7.00692797     13.84169388      9.39921761
Na        6.70225048     14.29042530     13.65152264
Na        6.93473673     14.11757565     18.56660652
Na        6.76738262     13.34361935     22.68184471
Na        6.80761290     13.34422779     27.52929878
Na        6.84684992     13.63214970     31.83469772
Na        6.64552784     18.87253380      4.36663008
Na        6.73272753     18.08215904      8.91303444
Na        6.86664486     18.49317741     13.62440205
Na        6.77735901     18.43229866     18.12505722
Na        6.78672218     18.33882332     22.93473816
Na        6.78145885     18.29284286     27.24776268
Na        9.33813953     20.69690704     32.16731262
Na        6.74325418     22.72391319      4.67652512
Na        6.92790270     22.86446571      9.27207851
Na        6.89820004     22.75318527     13.80203342
Na        6.80972576     23.07796288     18.20688820
Na        4.39449120     20.60260773     22.80108070
Na        9.02001572     23.28177643     24.93533897
Na        7.19404507     22.70402908     31.86969948
Na        7.16053820     27.29842377      9.11712360
Na        7.17276812     27.48840523     13.87108994
Na        6.77552080     27.34445381     18.33534050
Na        6.82192278     27.87452126     23.06292915
Na        7.11446953     27.99740982     27.64942169
Na        7.25257969     27.68167877     31.92178535
Na       11.53278732      0.02116111      4.30588007
Na       11.64015388      0.08762953      9.35786343
Na       11.74900913     -0.07530373     13.41556454
Na        9.42314339     -2.38571477     18.28306580
Na       11.37037468      0.01831906     27.77713776
Na       11.36305714      0.39243579     31.53012466
Na       11.59488678      4.33522415      4.61161995
Na       11.46078110      4.82443857      9.22114849
Na       11.55540657      4.79186440     13.67659092
Na       11.49993038      4.69253445     18.06270218
Na       11.45452213      4.26768875     22.56535339
Na       11.55453110      4.62822628     27.14251137
Na       13.53966045      4.59819365     29.95297623
Na       11.61768723      9.22007847      4.12112284
Na       11.36642361      9.17827606      9.01737022
Na       11.51130772      9.28633499     13.71936131
Na       11.74857998      9.16525650     17.99299049
Na       11.30459785      8.76798916     22.70990562
Na       13.22739697      9.03339100     25.14403915
Na       11.43504620      9.11400700     32.03108597
Na       11.24048615     13.93739319      4.42907000
Na       11.26215076     14.23733425      9.16680336
Na       11.35351467     13.87513733     13.54566765
Na       11.16934681     13.43283939     17.98617554
Na       11.18577671     13.94606018     22.36540031
Na       11.29811096     13.82440281     27.45921516
Na       11.33023834     13.32552338     31.76621056
Na        9.17104626     18.20907593      2.23542571
Na       11.20311737     18.37896347      9.06813908
Na       11.29389668     18.13559151     13.89479256
Na       11.34450722     18.49522781     17.94286346
Na       11.39009476     18.55932426     23.08698273
Na       11.22383881     18.44088554     26.94753265
Na       13.59624004     17.83899879     34.22947693
Na       11.28556347     22.80105400      4.17112398
Na       13.22352314     20.53977394      8.96731472
Na       11.50266361     22.77249336     13.60849667
Na       11.57595825     22.96211624     18.37645912
Na       11.67219543     22.78841591     23.05771828
Na       11.54909039     23.19067192     27.11195946
Na       11.46509552     23.16527748     31.80543327
Na       11.34101582     27.25143623      4.39616728
Na       11.44250011     27.54733467      9.20051289
Na       11.55782700     27.57113075     13.80475807
Na       11.68104362     27.44429588     18.20177460
Na       11.37003899     27.41642570     22.74704742
Na       11.48465633     27.63900375     27.47686768
Na       11.63677692     27.48921585     31.69624901
Na       15.99418449     -0.19648591      4.40168715
Na       15.97162819      0.24705420      8.97856998
Na       16.02289009      0.39606038     13.54079723
Na       16.20437050     -0.03470480     18.66206741
Na       16.14464760     -0.30993617     22.46867943
Na       16.14350128     -0.11746064     27.14239883
Na       15.79544830      0.01952281     31.78365517
Na       16.06772995      4.62397432      4.69552803
Na       16.07923698      4.66579342      8.81431580
Na       16.12030220      4.76340580     13.77819061
Na       16.06620979      4.31651640     18.31216240
Na       16.03275490      4.63120556     22.68123627
Na       13.66162777      6.88243914     27.39990044
Na       15.92852879      4.60751486     31.64506531
Na       16.15194130      8.86278248      4.32451582
Na       16.00570869      9.46297455      9.17631435
Na       16.05965614      9.16782475     13.60183430
Na       16.16860008      9.16677570     18.26301575
Na       13.76301098      6.83922577     22.34984779
Na       16.23113441      9.09728432     27.22669411
Na       15.80484962      9.04070950     31.89742851
Na       15.94356823     13.47628307      4.83130836
Na       15.89035988     13.85469246      9.19819546
Na       15.93614197     13.88836575     13.74571609
Na       15.91357613     13.75449276     18.32633972
Na       15.67966938     13.62153053     23.00789833
Na       15.93586826     13.71826935     27.23675537
Na       15.88615990     13.86097050     31.92366600
Na       16.06918526     17.86944389      4.20350981
Na       16.06431198     18.56492424      8.89936638
Na       16.07278633     18.13499832     13.72125721
Na       15.73605442     17.98951912     18.16995049
Na       15.88749599     17.79850578     23.03069305
Na       15.79880810     17.92528152     27.48860359
Na       17.83667183     16.14006805     31.75605202
Na       13.71217918     22.70489120      2.31359792
Na       16.03266716     23.04878426      9.13088322
Na       18.33168793     22.80501556     16.18502045
Na       18.24373245     24.91240501     18.30035400
Na       18.28642082     20.40122223     22.88147354
Na       16.10733414     23.02351761     27.27176094
Na       15.99475574     22.85769081     31.94243622
Na       18.46210098     29.59811020      4.05246973
Na       15.84561920     27.49476242      9.02702236
Na       13.46732140     25.36672783     13.86466599
Na       15.99440289     27.38241959     18.48570251
Na       16.05336761     27.32454491     22.80090904
Na       15.87656403     27.39115334     27.31153297
Na       18.10374069     25.00061417     32.12770462
Na       20.56420898     -0.27025697      4.22683811
Na       18.13038445      0.18049070     11.31488609
Na       20.61421967     -0.02385924     13.67387676
Na       20.67814064      0.06199321     18.29565048
Na       20.79321098     -0.64100498     22.60106659
Na       20.36112022     -0.17967123     27.65140533
Na       20.57978058      0.05173799     32.13388062
Na       20.57728386      4.59957504      4.64340401
Na       20.41643143      4.43444443      9.05671692
Na       18.02951622      6.88476610     13.52135372
Na       23.06814194      4.25393963     20.65931892
Na       22.62981224      2.04050565     23.11667442
Na       20.61531448      4.89005041     26.82987404
Na       20.41295815      4.51159191     31.86249542
Na       20.87534523      8.93934727      4.91143131
Na       20.72671127      9.17715931      9.45973969
Na       20.48125458      9.04027176     13.57860756
Na       20.63629913      9.28695774     18.28550911
Na       20.84953880      9.25206184     23.00035095
Na       20.58445358      8.99753666     27.46870422
Na       20.55345726      9.31765270     32.04212570
Na       23.14995193     11.47206020      4.76413774
Na       22.84035873     16.29758835      9.31262112
Na       20.37627220     13.67723465     13.63813877
Na       20.40554619     13.64621353     18.32052231
Na       20.56404686     13.46932983     22.70142365
Na       20.40517807     13.53301430     27.52849579
Na       22.94618797     16.03340340     32.09337234
Na       20.66846657     18.61905289      4.54256344
Na       18.46025276     16.19599152      9.08787060
Na       20.37357140     18.32146454     13.71863842
Na       20.59164810     18.30230522     18.31977844
Na       20.58835983     17.99417496     22.95198250
Na       20.41463661     18.13455391     27.66213608
Na       20.90941620     18.30310631     32.22644806
Na       18.16162872     20.52211189      4.47607231
Na       20.52853012     22.95932961      9.21792126
Na       20.48955727     22.42821121     14.09975624
Na       20.50197220     22.71640587     18.59087181
Na       20.70121765     22.66271019     23.08406639
Na       18.23380089     22.92433357     25.17942429
Na       21.03192139     22.28815269     32.04224014
Na       20.46549225     27.23908234      4.29651546
Na       20.48680496     27.43716812      8.87338924
Na       18.40032959     29.86552048     13.47712231
Na       20.42810822     27.71467400     17.98290253
Na       20.65253067     26.65442657     22.63048172
Na       20.70493507     27.55856514     27.18827629
Na       20.53307533     27.29235649     31.89361000
Na       29.61026955     -0.00045700      4.40728807
Na       25.08034515     -0.01438536      8.98800945
Na       27.01674461     -0.04875661     11.55281734
Na       25.31585312     -0.13128902     18.26909256
Na       25.12162399     -0.13952702     22.81721306
Na       24.80381775      0.10526787     27.31604004
Na       24.96869469      0.05791777     32.18106461
Na       27.31566811      4.41131401     11.45646000
Na       22.62858391      2.28093505     13.63928509
Na       25.37506294      4.41680288     18.19465828
Na       25.25369263      4.27691936     22.55721855
Na       24.87961960      4.80893898     27.32347488
Na       24.92317581      4.32806206     32.39301682
Na       25.01425552      8.79359245      4.24435139
Na       25.00820923     13.69932461      9.34939384
Na       27.22570801      9.27205181     11.43529892
Na       25.22195816      9.19703484     18.48613358
Na       25.36832237      9.31867504     22.94658089
Na       25.20079994      9.30180454     27.69659805
Na       25.23194885      8.86505985     31.84745026
Na       25.03301430     13.84414387      4.65647030
Na       22.94052505     13.68634033      7.07544804
Na       24.97036171     13.68782330     14.02110767
Na       25.04142189     13.86936283     18.30651283
Na       25.09972954     13.85703468     22.98045540
Na       25.15124702     13.83576012     27.56270599
Na       27.53583336     13.70818233     34.35367203
Na       25.25540733     18.40816307      4.49886894
Na       25.06725502     18.22325897      9.26749134
Na       27.10344315     20.50876045     13.80848503
Na       27.57319069     18.17805672     16.02669334
Na       23.10761261     20.40245819     22.80841827
Na       25.14689064     18.19071770     27.46726036
Na       25.32011414     18.32250214     32.05535507
Na       23.09632874     22.72082520      6.85860348
Na       24.94106483     22.96612549      8.92877674
Na       22.81100082     22.86473274     15.90660095
Na       25.02774620     22.46709442     18.22930908
Na       25.04072571     22.77769852     22.88252449
Na       25.28422546     22.71409225     27.38806915
Na       25.25111961     22.65578270     31.97607040
Na       22.71203613     29.47808647      4.16560459
Na       25.24424744     27.56615639      9.12194538
Na       24.79934311     27.33234406     18.26230812
Na       22.51929474     27.43387413     16.10404205
Na       24.63408661     27.08994484     22.77628517
Na       24.97099495     27.78779984     27.50974846
Na       25.06825256     27.33900452     31.98963165
Na       27.33515167     -2.31168103      4.46368170
Na       29.39861870      0.23997499      9.35632133
Na       29.63931656     -0.12607755     13.82419300
Na       29.74135208     -0.13703319     18.26671600
Na       29.57151604      0.05574626     22.45897293
Na       29.47867393     -0.09141365     27.54055786
Na       29.91294479     -0.02689772     31.84355545
Na       29.71835327      4.61510277      4.56050968
Na       29.84126091      4.57532740      8.72497845
Na       30.04474640      4.58280373     14.05915642
Na       29.74575806      4.55384541     18.14037514
Na       29.79782486      4.76066971     22.68793869
Na       29.89422226      4.71578503     27.77118301
Na       29.51138496      4.66017723     31.98242378
Na       29.85514832      9.14828396      4.16655397
Na       29.58342552      9.41857529      9.23488235
Na       25.14776039      8.82267666     13.66248512
Na       29.87047005      9.09966564     18.46198082
Na       29.88161469      9.33448887     22.93435669
Na       32.20309067      9.05713272     29.79371643
Na       27.46562576      9.14229870     34.17399979
Na       27.30116844     11.50956059      0.33415270
Na       27.37054825     11.58046055      9.09028816
Na       32.04706955     16.00127411     13.99422741
Na       29.80564308     13.54160786     18.30199623
Na       29.78971481     13.61250687     22.61061096
Na       29.64992523     13.72528648     27.52328300
Na       29.65865326     13.77871513     32.03818512
Na       29.61568069     18.23939133      4.41513062
Na       29.34648514     18.39094353      9.27256393
Na       29.79537964     18.00253487     13.52941132
Na       29.82515526     18.11017036     18.61616325
Na       29.60984612     18.24972343     23.02614975
Na       29.53273010     18.71382904     27.31661224
Na       27.58509636     18.52886009     34.25325775
Na       29.82025909     23.10581589      4.42317533
Na       29.40147972     22.58241463      9.01742840
Na       29.69684601     23.07870293     13.40545845
Na       29.62187958     22.63957977     18.10630035
Na       29.61395073     22.77953911     23.07454300
Na       29.83080482     23.38358307     27.60379791
Na       29.76318169     22.90396309     32.18714905
Na       29.39080811     27.33593941      4.97800398
Na       31.65041542     27.35669899     11.53587532
Na       29.72863960     27.19877052     17.91910934
Na       29.83861923     27.06325340     22.74013901
Na       31.97113228     27.44441986     25.15324020
Na       29.72789001     27.10634422     32.37010574
Na       -0.00401102      2.18669081      4.77560568
Na        0.06965303      2.25184894      9.13966846
Na        0.56249350      4.21323919     15.93330574
Na        0.01403376      2.10384107     18.09189224
Na        0.11221198      2.16109896     22.95779037
Na       -0.22751661      2.25655818     27.21991920
Na        0.16958855      2.37000728     32.13531494
Na       -0.00515047      6.90303755      4.45529747
Na        0.13942617      6.75286436      8.98895931
Na        0.24073474      6.96556282     13.63096142
Na        0.66519588      6.82879162     18.29683876
Na        0.17775483      4.04304314     20.46288300
Na       -0.15939435      6.78737402     27.60168076
Na        2.10507321      4.53139305     32.48713303
Na        0.06460395     11.13237381      4.15271425
Na       -0.07334005     11.57450390      9.06139946
Na        0.16753954     11.28961372     13.90724277
Na        0.24191155     11.42118740     18.64426041
Na       -0.06742423     11.52913857     22.90853500
Na       -0.11169302     11.45218658     27.26940346
Na        0.02152800     13.59694672     34.50103760
Na       -0.53733486     15.81920242      4.78000212
Na       -2.32196975     13.56219006      9.36654663
Na        2.35665846     18.06182098     13.57322598
Na        0.40263990     16.00236130     18.41917038
Na        0.13399456     16.15410614     22.76801109
Na       -0.08566730     15.74903679     27.56184769
Na       -2.24172735     18.21800423     32.02339935
Na       -0.06755736     20.53566551      4.67939854
Na       -0.30416197     20.44353867      9.29231358
Na       -0.22989987     20.56042290     13.41905785
Na        0.02362249     20.36745644     18.48400688
Na       -0.26312256     20.61801529     22.73964119
Na       -0.01539072     20.68317413     27.75699997
Na        0.06787654     20.48817825     32.12367249
Na       -0.17357826     25.08853531      5.02772903
Na       -0.39222565     25.10881996      9.29677677
Na       -0.35752243     25.32320976     13.85418987
Na       -0.31500870     25.04756927     18.01811028
Na        0.06327226     25.13428879     23.09055901
Na        2.35952568     27.22188950     27.31837273
Na        0.07246213     25.26568794     32.19021225
Na        0.05707282     29.65416336      4.68253660
Na       -0.09754456     29.86942291      9.14586163
Na        0.13636592     29.52626419     13.54778671
Na        0.22232454     29.60983086     18.25216866
Na       -0.26241332     29.58505821     22.66923714
Na       -0.34735397     29.78655052     27.30637550
Na        0.03710830     29.65588379     32.06764984
Na        4.21650267      2.18653512      4.57645130
Na        4.81770325      2.23244405      8.91909122
Na        4.67323446      4.71305704     11.51451206
Na        4.52382755      2.41221404     23.31879807
Na        6.63733101      4.42466688     22.66555405
Na        4.42321968      2.43458509     27.45763206
Na        4.57404852      2.25568223     31.99125671
Na        4.59554911      7.04545116      4.60173512
Na        4.83494043      6.61870480      8.63737774
Na        4.78408575      6.98540306     13.46382999
Na        4.77803659      6.61983681     18.57173157
Na        4.59109783      6.88907433     22.54199791
Na        4.85065460      6.91781616     27.60342789
Na        4.43292522      6.91686964     32.32991028
Na        4.37368298     11.64535332      4.80041218
Na        4.74071217     11.54673004      9.19190788
Na        4.69142056     11.57185268     13.83342838
Na        2.61087608     13.26021671     18.10612488
Na        4.35129309     11.68220997     22.50979805
Na        4.84871387     11.43653202     27.76881027
Na        4.30926132     11.54769039     32.14814758
Na        4.52264786     16.28724098      4.28688478
Na        4.67925310     16.04715157      9.21437931
Na        4.46375608     15.97575188     13.73386860
Na        4.22702360     16.30721283     17.93866920
Na        4.47501230     16.12353325     23.00233459
Na        4.39888334     15.79273033     27.74699020
Na        4.36709118     16.17025948     31.76447868
Na        4.32650709     20.94964790      4.30348682
Na        4.40426397     20.43633080      8.89302540
Na        4.56154776     20.57219124     13.75035954
Na        4.36984491     20.51978874     18.17870903
Na        4.49288082     23.10594749     24.92051506
Na        4.98889685     20.76753807     27.50130844
Na        4.44526768     20.77384377     31.76873589
Na        4.97127295     25.34334183      4.67483377
Na        4.72251511     25.06615639      9.33674145
Na        4.61932564     25.05435753     13.59960747
Na        4.50904226     25.10718155     18.42035675
Na        4.15331268     25.32279587     22.56271553
Na        4.55515862     25.14284515     27.41792297
Na        4.53201389     27.39484024     34.23343277
Na        4.62415266     29.84009171      4.73642445
Na        4.59926748     29.69066238      9.10047245
Na        6.90151501     32.36716080     13.60079670
Na        4.36493921     29.65842247     18.30455208
Na        4.70586538     31.91651917     25.40859032
Na        4.82230949     30.13996124     27.55688858
Na        4.82509756     29.55611992     32.00257492
Na        8.89469910      2.18340397      4.67389917
Na        9.43891048      2.31232405      9.24299335
Na        9.50273323      2.21025491     13.67698574
Na        9.27980995      2.13704491     18.01696777
Na        8.96035004     -0.14973433     20.55287933
Na        7.08604240      0.39866975     27.62498283
Na       11.27683067      4.65793371     32.01822662
Na        9.38945675      6.58400345      4.56774092
Na        9.17721081      7.11167288      8.87861729
Na        8.95243263      7.04583406     13.25227642
Na        9.36921215      6.92489624     18.03928375
Na        9.11313915      7.02652597     22.61639214
Na        9.44230366      6.73292637     27.37698174
Na        9.06779957      6.93700695     31.98753738
Na        9.07360363     11.45218658      4.31065989
Na        9.29010201     11.53083229      8.96784687
Na        9.12510300     11.60340023     13.51378155
Na        9.04026604     11.37238598     18.31723785
Na        9.19767952     11.27905560     22.77223396
Na        9.20370102     11.47782040     26.93552017
Na        9.08574867     11.51977539     32.07640076
Na        9.01261234     16.03929138      4.19206238
Na        9.04110718     16.25579643      9.21422768
Na        9.19908142     15.89823151     13.84732437
Na        9.11545849     16.13885307     18.27140045
Na        8.92919731     16.16586304     22.94531631
Na        8.81936646     16.09983826     27.24780655
Na       11.35678196     18.36280060     31.79746628
Na        9.23974419     20.58905029      4.25463867
Na        8.83349609     20.64484596      9.04886913
Na        9.22140980     20.37574005     13.49854660
Na        8.77729702     20.68019295     18.30603409
Na        8.90222645     20.73927689     22.74826241
Na        8.92661572     20.94008446     27.10428429
Na        9.25205803     18.18624115     29.51052094
Na        8.91916084     25.19722939      4.47434664
Na        9.43097019     24.94244957      9.03981304
Na        9.04365826     25.05974960     13.93207455
Na        9.03865242     25.25210953     18.27234077
Na        9.02591419     25.02412224     22.67201233
Na        9.35785198     25.30669975     27.61689758
Na        9.11033726     25.25053787     32.17192459
Na        9.19604683     29.72892761      4.29004622
Na        9.01832390     29.79066658      9.01996517
Na        9.22834301     29.61891556     13.67888069
Na        9.06766224     29.49595070     22.65774345
Na        9.50424194     27.72599220     29.87464714
Na        9.35644913     30.12540054     31.95240402
Na       14.11513233      2.31873465      4.49014568
Na       14.12117195      2.26814198      8.89712906
Na       13.78909492      2.56391716     13.50345230
Na       11.52042770      0.46142489     18.07435226
Na       13.66168785      2.23574805     22.79410553
Na       13.53709030      2.22734475     27.26206970
Na       13.56112957      2.28739929     31.89014053
Na       13.82196617      6.82200575      4.37548971
Na       13.77989483      6.96073198      8.89886284
Na       13.50504017      7.22203207     13.36116886
Na       13.99379444      6.78271866     18.38183212
Na       13.44716930      4.24449444     20.55028152
Na       11.22260475      9.13943958     27.49451637
Na       13.44569492      6.93969965     31.94827652
Na       13.68528175     11.48290348      4.44359875
Na       13.38379192     11.67266655      9.02793312
Na       14.04833317     11.61489582     13.73334217
Na       13.66068363     11.47873402     18.22106171
Na       15.85160160      9.46084309     23.08710098
Na       13.73215008     11.37573624     27.48716354
Na       13.74981880     11.44530678     32.01027298
Na       11.47539043     18.52062225      4.30101109
Na       13.47491646     15.97519684      8.94593716
Na       13.65303516     16.25341797     13.73422146
Na       13.57723331     15.79162121     18.49750137
Na       13.41295910     16.07514000     22.77621460
Na       13.53266239     15.84832001     31.76257515
Na       13.92204189     22.86488914      6.73781967
Na       13.75929260     18.40166092      6.73734188
Na       13.77815056     20.40050507     13.90967655
Na       14.00075626     20.54068947     18.54344749
Na       13.85970688     20.33653069     22.72042847
Na       13.47968674     20.46147537     27.11494446
Na       14.05570316     20.17664528     31.97174072
Na       14.02106476     25.04174805      4.02632856
Na       11.59506416     23.00885391      9.22583771
Na       13.70088291     22.55954933     11.48832417
Na       13.59712696     25.15983200     18.37914085
Na       13.70939445     24.87615776     22.81064224
Na       13.81619644     25.48411179     27.31387138
Na       13.38311672     25.08876038     31.78107834
Na       13.71607304     29.47676849      4.49546576
Na       13.75793362     29.94400406      8.71457100
Na       13.93383312     30.04526711     13.54480743
Na       13.67291832     29.91251373     18.10414696
Na       13.45674324     29.71246719     22.89583969
Na       13.94506645     29.77590561     27.22139740
Na       13.47085094     29.78275299     31.69826698
Na       18.62653351      2.16842198      4.18875408
Na       18.52772522      2.56796479      9.24333954
Na       18.26736259      2.41457176     13.53983974
Na       18.80950737      2.32952189     18.47091293
Na       18.44174957      2.11884999     22.56740952
Na       18.51254082      2.22061157     27.25625229
Na       17.99737167      2.12975192     31.93105888
Na       18.22044945      6.66215801      4.57765913
Na       18.65261841      6.87755013      9.35118008
Na       17.87356567      4.91363811     16.00209427
Na       20.69694138      4.80776739     18.39775658
Na       18.30142784      6.84124279     23.23517799
Na       17.98802185      6.84917974     27.33757019
Na       18.25663376      6.92727375     32.04393768
Na       18.32798576     11.37214851      4.62661743
Na       18.26998520     11.46809387      8.97950363
Na       18.21361732     11.81071568     13.77101994
Na       18.42142296     11.77110767     18.47059250
Na       18.40274048     11.61284542     23.07598495
Na       18.18759346     11.33451748     27.17363358
Na       17.83220100     13.69958401     29.46447563
Na       18.31729317     15.98232174      4.39747000
Na       18.15773392     13.87379646      6.81575155
Na       18.26837349     16.06033325     14.02789211
Na       18.38461304     16.05138588     18.48858070
Na       17.96672630     15.89918995     23.04730034
Na       18.01453781     16.06429863     27.40285683
Na       18.34560013     13.59689522     34.31327057
Na       16.16375351     22.85120201      4.19244862
Na       18.34057617     20.94988632      9.44739246
Na       18.25616837     20.44423294     13.54882050
Na       17.76881409     20.48860931     18.58622169
Na       18.28365898     22.75400734     20.59197235
Na       17.88269806     20.54046440     27.68727684
Na       18.19487381     20.45129013     31.70199013
Na       18.45977592     25.14245987      4.39918804
Na       18.31273842     25.31671715      9.02735138
Na       17.93510628     25.37907982     13.83579922
Na       17.98810005     24.90610886     22.55487251
Na       18.31035995     27.47381210     29.45093346
Na       18.36233902     27.11576271     33.97586060
Na       16.21314240     27.24260330      4.47997093
Na       15.87082195     27.54409218     13.60940552
Na       18.08427620     29.71156120     18.19787979
Na       18.37435341     27.65757179     25.10524750
Na       17.92260742     29.86671829     27.22656822
Na       18.49415588     29.58213997     31.97476006
Na       22.69724274      3.97331190      6.91890955
Na       22.94204140      2.35802770      9.40245438
Na       22.70458031      6.89460850     13.76451874
Na       20.69042397      4.76149702     13.84447765
Na       22.53547096      2.32518506     27.29620552
Na       22.64686966      2.41318464     31.61361694
Na       22.76478195      6.76622725      4.95193672
Na       22.75366974      6.74893188      9.15006256
Na       23.18352318      4.97118425     15.99660969
Na       22.82495117      2.39494967     18.24575996
Na       23.21629715      6.89320278     22.75915527
Na       22.87526321      6.95829058     27.19087601
Na       22.76015472      6.89758444     32.40068436
Na       22.99083138      9.40797329      6.76796865
Na       22.73307800     11.50846195      9.26818466
Na       22.83380318     11.64891911     13.77198410
Na       22.69565201     11.59139824     18.42207527
Na       22.85247993     11.70645523     23.21219444
Na       22.74232101     11.22658634     27.08626175
Na       22.85382080     11.43126106     32.21178436
Na       22.70009613     15.97551632      4.68296003
Na       20.61640739     18.42681313      9.40772533
Na       22.92981720     16.00630760     13.87641048
Na       22.58883667     16.00821686     18.37967491
Na       22.69795609     16.11123657     22.99001884
Na       22.41234016     15.82842731     27.34952164
Na       24.90994263     13.39893436     32.22834778
Na       22.71414948     20.79091454      4.25737286
Na       22.67066383     20.62013817      9.29627609
Na       22.84926605     20.51100540     13.78298855
Na       22.82086372     20.59847069     18.14469147
Na       22.72612381     18.00272369     20.64918518
Na       22.95253754     20.38225174     27.10586929
Na       22.94852638     20.46282578     32.01047134
Na       23.19512939     25.12687111      4.56337500
Na       22.99052620     25.30704498      9.25602341
Na       24.97742462     27.24205971     13.51870632
Na       22.78332901     25.16030693     18.03254890
Na       22.57843781     24.98325157     22.69639397
Na       23.01591492     25.12362289     27.37888336
Na       22.87237549     25.09128952     31.91152573
Na       22.74621010     32.24844360      6.67976332
Na       22.77915001     29.65702820      8.68530655
Na       22.82240295     29.66141891     13.18017292
Na       23.24455452     29.78015518     18.22367477
Na       22.78071594     29.55057526     22.57509613
Na       22.92131233     29.66990471     27.26199913
Na       22.81536484     29.92858505     32.24490738
Na       27.30305481      4.61065960      2.40774441
Na       27.49060059      2.15576935      9.26086140
Na       27.81859207      2.24804926     13.47913647
Na       27.38055229      2.07413530     18.37767792
Na       27.64677429      2.17467475     23.19616890
Na       27.40193748      2.40998077     27.53770828
Na       27.23583412      2.20577455     31.95175171
Na       27.46223259      6.56914759      4.32713699
Na       25.37450409      4.91885900      9.00012493
Na       27.60425568      6.58290482     14.03247452
Na       27.56843948      6.81239843     17.93820763
Na       27.80549049      6.89619207     23.10366440
Na       27.55476189      6.73217678     27.87542725
Na       27.83654404      9.32164478     29.91362000
Na       29.50815010     13.25767422      4.78546381
Na       27.53913689     14.03020382      6.89998817
Na       27.57323074      8.82171440     16.08437729
Na       27.52560997     11.19544411     18.32234573
Na       27.49401283     11.36127281     22.92843437
Na       27.44916344     11.52459908     27.29746437
Na       29.72409248      9.16439915     32.30748367
Na       27.35262299     18.26867676      6.78482771
Na       27.28917694     13.90310383     11.61403179
Na       27.17465210     15.68067265     13.93982887
Na       27.65651321     15.95133018     18.06495476
Na       27.21413803     16.04870605     23.15875816
Na       27.48719788     16.29884338     27.46729279
Na       27.36263275     20.78300095      4.56804895
Na       27.17523766     20.40379906      9.29835224
Na       24.92718315     23.02693748     13.44879913
Na       27.22503471     20.49791908     17.97458839
Na       27.26483727     20.69865036     22.55920029
Na       27.14191628     20.58399010     27.64186096
Na       27.70569611     20.51417351     32.22453308
Na       27.48545074     25.17426491      4.55780411
Na       27.62300682     24.94830704      8.66631508
Na       27.23804855     24.95515251     13.69156075
Na       27.24555016     25.06425667     18.40932083
Na       27.51321602     25.12779999     23.11312103
Na       27.27890205     25.09609222     27.37134743
Na       26.99281120     25.05575371     32.01012421
Na       25.12182045     27.43153191      4.73774195
Na       27.52291489     29.71265030      9.25426388
Na       29.61239433     27.17279434     13.60917854
Na       27.59305000     29.69983292     18.07497025
Na       27.18142128     29.48734093     22.82269478
Na       26.88163376     29.65703011     27.54546928
Na       27.36553955     29.66115952     31.91592789
Na        0.21504261     -0.25633422      2.17351484
Na       -0.27228081     -0.11653432      7.15580654
Na       -0.41932932      0.21562918     11.80991840
Na       -0.03675539     -0.37753841     15.97152615
Na        0.17298916     -0.28008810     20.62285614
Na       -0.29246002     -0.30433837     25.09430122
Na       -0.07329842      0.20481084     29.92625809
Na       -0.18764856      4.51999521      2.25675488
Na        0.21384376      4.76659155      6.79596376
Na       -0.02165122      4.36476851     11.34395981
Na        2.50321555      4.47068691     18.07003784
Na        2.33393955      4.40299225     23.03234482
Na       -0.10488550      4.75072670     25.26399231
Na        0.24644585      4.86054134     29.85593987
Na       -0.16175868     11.41185856      0.13415550
Na       -0.48784417      9.12605953      6.70034504
Na       -0.12748483      8.92739487     11.29132652
Na        0.00701377      9.14569759     16.19386673
Na        0.41319343      8.86483288     20.63274384
Na       -0.09690753      8.76022911     25.24809837
Na       -0.00557879      6.81872129     32.39519882
Na        0.08311383     16.04447365     -0.13335058
Na       -0.25925314     13.53395844      6.83168936
Na       -0.03363165     13.86203194     11.49320507
Na       -2.25182652     13.27599335     13.56881428
Na        0.17377229     13.94301128     20.73592758
Na        0.14932901     13.69772243     24.95155525
Na       -0.05658482     13.62834454     29.65056992
Na        0.47142535     18.47027588      2.33166313
Na       -0.44478646     18.37095451      6.68037701
Na       -0.01654060     16.04076958      8.70931339
Na       -0.09799864     18.28614044     16.11801720
Na        0.10494959     18.35836220     20.57875061
Na        0.05910942     18.31043053     25.48118782
Na        0.03592376     18.38055038     29.64352798
Na        0.05599692     22.81583023      2.39351606
Na       -0.35717821     22.75884438      6.94024181
Na       -0.29863694     22.69386292     11.32462215
Na        0.16066681     22.61144066     16.02090836
Na       -0.38807023     23.04171562     20.44964409
Na       -0.03451746     25.22834969     27.41412544
Na        0.10135131     23.18201256     30.06701088
Na       -0.02963424     27.43202591      2.51532388
Na        0.00440939     27.60295677      6.90149498
Na       -2.29074931     27.52289963      8.95156574
Na        0.04824613     27.42126656     15.82420540
Na        0.09313265     26.93613625     20.36608696
Na        0.00042746     27.56930733     29.62208366
Na        2.35622215     27.33655739     32.06211090
Na        4.88886404     -0.13951266      2.39836097
Na        4.54600906     -0.05724555      6.98092890
Na        5.08360529      2.55893755     13.62253761
Na        4.79990625     -0.00392432     15.88813305
Na        4.67629290     -0.09306796     20.77678108
Na        9.32491302      2.25351524     27.75275993
Na        4.63511086      0.15114224     29.77714729
Na        2.24234891      4.75008821      4.92724180
Na        4.66775084      4.04485750      6.61245012
Na        2.50307012      4.82815695     13.62153435
Na        4.87246561      2.20292187     18.29422951
Na        9.22115135      2.47707081     22.84540558
Na        4.74115849      4.97485638     25.05406761
Na        4.48149157      4.75442171     29.87094688
Na        4.93730879      9.32588577      2.39350176
Na        4.65354824      9.47430992      6.71527290
Na        4.70297861      9.25839233     11.33539295
Na        4.44022226      9.06742573     15.98832703
Na        4.70983839      9.32615471     20.46395302
Na        4.49058914      9.16047382     25.21648979
Na        4.72766495      8.96834183     29.93553925
Na        4.54170322     13.95647717      2.28225899
Na        4.56419754     14.07912445      7.04070950
Na        4.60759068     14.05546570     11.28564930
Na        4.83154631     13.69798660     16.08295441
Na        4.15012836     13.93406487     20.51103973
Na        4.82321882     13.82963657     25.36917114
Na        4.36824512     13.76177311     29.90188217
Na        4.50197649     18.47872734      2.19352818
Na        4.54985571     18.37545395      6.70422649
Na        4.43691587     18.52524757     11.41530609
Na        4.53304338     18.37538910     15.86756802
Na        4.69201088     18.30609894     20.80666733
Na        4.17035007     18.46570396     25.27243042
Na        4.69459486     18.20230103     29.78105545
Na        4.74711514     23.18199158      2.37777138
Na        4.62603903     22.80907440      7.04427147
Na        4.51574898     22.60024452     11.45573330
Na        4.27004480     22.73672104     16.16248322
Na        4.51357746     22.96111679     20.52738953
Na        2.04701781     22.85906410     22.85027122
Na        6.77687645     23.30238724     26.98337746
Na        6.83116102     27.60493469      4.68737507
Na        4.39419174     27.39191818      7.00643349
Na        4.88843632     27.60147095     11.45855713
Na        4.23804903     27.42175674     15.97975445
Na        4.61310959     27.41967392     20.42656708
Na        4.81470299     27.50100517     25.32127380
Na        4.90432787     27.33712959     29.52623367
Na        9.06870747      0.15825370      2.31234050
Na        9.24897957      0.10016947      6.66963482
Na        9.13564301     -0.03437121     11.34942436
Na        9.39477253     -0.36313409     15.63199139
Na        6.85688400     -0.03397940     22.87162781
Na       11.28041172     -0.06902035     22.83671188
Na        7.03900671     -0.19259897     31.77321053
Na        9.37232018      4.12810373      2.13716817
Na        9.21678352      4.52073097      6.89292336
Na        9.09167480      4.62496138     11.48153019
Na        8.94749928      4.57977772     15.91033077
Na        9.46943188      4.69023466     20.61144829
Na        8.97815895      4.59652805     25.06657219
Na        9.35458183      4.86865616     29.85325241
Na        9.14450169      9.31697464      2.35495400
Na        9.48573780      9.06791496      6.65927696
Na        8.91853523      9.41558170     11.27055264
Na        8.91943550      9.16638088     16.07609177
Na        9.41333294      9.43935871     20.30280113
Na        9.05758190      9.20388699     25.00653458
Na        9.06153584      9.03382683     29.79810715
Na        8.91957283     13.85499859      2.19816256
Na        9.07588863     14.06973076      6.96798038
Na        9.05885410     13.68907356     11.46249866
Na        8.92335796     13.52943039     15.96848488
Na        8.97810268     13.70690918     20.39633369
Na        8.88679886     14.11318874     24.93383026
Na        8.84753227     13.52256298     29.59173965
Na        9.05436134     16.11352158     -0.08412988
Na        9.36235428     18.23682213      6.81029224
Na        8.92815971     18.31697655     11.50642395
Na        8.69438839     18.25280190     15.82748699
Na        9.16321278     18.31721878     20.58435822
Na        8.93785858     18.51006126     25.16034889
Na        6.79977751     18.20378494     31.61599159
Na        8.72572327     23.07274818      2.27422810
Na        9.27238846     22.85579109      6.68638802
Na        9.29993153     23.01094818     11.57913494
Na        9.43129253     22.92422485     16.04219246
Na        9.41190815     23.08407021     20.54297256
Na        6.59227085     22.78191566     22.82899094
Na        8.90120506     23.09470177     29.52552986
Na        9.55889034     27.46816826      2.11044240
Na        9.22781086     27.68190384      6.91514063
Na        9.40844059     27.66375351     11.75938129
Na        9.23389149     27.61283875     16.09856987
Na        9.41600800     27.45924950     20.58668709
Na        9.18995667     27.39641953     25.31015015
Na       13.61221600      0.12764910      1.98734844
Na       13.85126114     -0.02686912      6.48051071
Na       14.08347130     -0.07089796     11.13457108
Na       13.87468243      0.18860270     16.00129128
Na       13.64303112     -0.16249965     20.47584724
Na       13.82697964     -0.14161824     24.98459816
Na       13.68428707     -0.06781202     29.50797081
Na       13.72968578      4.62083960      2.45839548
Na       13.54077816      4.39742327      6.79961824
Na       13.77688599      4.72774935     11.26163292
Na       14.03923130      4.65866947     15.85606003
Na       13.82509899      2.26478887     18.46825409
Na       13.73247337      4.57732821     24.97601700
Na       16.14369774      4.50433731     27.16512489
Na       14.12969017      8.87267017      2.04315758
Na       13.74017334      9.23462963      6.76003551
Na       13.57731724      9.35314369     11.13942623
Na       13.89021873      9.09060478     16.08177567
Na       13.55887890      9.22308826     20.41474724
Na       13.40807819     11.41218090     22.55567741
Na       13.65263081      9.07255554     29.54893684
Na       13.74344254     13.48599815      2.37842512
Na       13.00010777     13.95075226      6.83714199
Na       13.52967739     14.13283634     11.50509739
Na       13.51754665     13.57828712     15.91847801
Na       13.39227200     13.61997795     20.58800125
Na       13.54442501     13.79340553     24.98106194
Na       13.57540894     13.61262321     29.49731064
Na       13.25295067     18.14513779     -2.29161382
Na       13.44480801     16.04539871      4.26082420
Na       13.52168083     18.27256393     11.61337948
Na       13.78450584     18.53129768     16.11918449
Na       13.53774166     18.35302162     20.69685173
Na       13.51038456     17.89157677     24.91068459
Na       13.42284107     16.01948738     27.45776367
Na       14.16195011     20.61258316      4.38078928
Na       13.47640514     25.33319092      9.30302334
Na       15.81522655     22.88965225     13.74000168
Na       13.31907082     22.41365623     16.04983330
Na       14.26392174     22.63297844     20.83607483
Na       14.33204365     22.66019440     24.93992043
Na       13.91547966     22.80098152     29.25873375
Na       13.79938793     27.38886642      2.03926754
Na       13.53539276     27.27750778      6.53986073
Na       13.74035263     27.64454842     11.38748455
Na       13.93115425     27.78801346     15.95042896
Na       13.51125050     27.46433258     20.54958344
Na       13.99634457     27.55197525     25.00111771
Na       13.88259792     27.34817886     29.49348831
Na       18.04455948      0.04439129      2.02020526
Na       17.92831421     -0.08751217      6.70619965
Na       20.66416168      0.01608015      9.07066250
Na       18.42329025      0.25977054     15.90656376
Na       18.36854362     -0.13187236     20.56269264
Na       18.59448814      0.06835642     25.03386116
Na       18.27467346     -0.06088946     29.53428078
Na       18.39891624      4.58887005      2.10069251
Na       18.21128654      4.24797964      6.66111088
Na       18.19145393      4.55087423     11.35947895
Na       18.40424347      6.98206139     18.77028656
Na       18.35926628      4.52970791     20.74023819
Na       18.08301353      4.60299158     24.82530403
Na       18.66696930      4.58696556     29.66037178
Na       18.54292870      9.19451809      2.41480517
Na       18.47323227      8.96726894      6.81163931
Na       17.86846733      9.14752197     11.40441132
Na       18.50743484      9.16577053     15.86168003
Na       18.62578773      9.14234924     20.74541283
Na       18.58835030      9.09028149     24.96764946
Na       18.58822060      8.98020458     29.52538872
Na       18.16111755     11.54293823     -0.24641056
Na       20.51132011     13.47827339      4.83442831
Na       17.87323570     14.00326633     11.42298698
Na       18.24927521     13.78087902     15.88120651
Na       18.25813484     13.60013676     20.74445343
Na       18.16143227     13.86694145     25.13366318
Na       20.59871483     13.69659805     31.78472900
Na       18.43601036     18.15694427      2.28396511
Na       18.43243599     18.61200714      6.71585512
Na       18.04698944     18.40207100     11.37134838
Na       18.10548210     18.07552338     16.26580811
Na       18.13940620     18.06956863     20.69693947
Na       18.43407440     18.14975166     25.18996239
Na       18.31629753     18.27328110     29.83575630
Na       18.44472122     22.79555511      2.17082167
Na       18.15921021     22.82100868      6.71890545
Na       18.20974922     23.14075470     11.45079041
Na       15.99066830     22.92741585     18.05814743
Na       18.30875587     27.70121765     15.93311787
Na       18.44557571     22.83367729     29.74618721
Na       20.61560059     22.77489662     27.34403801
Na       18.56036758     27.60660172      6.67059565
Na       18.16845894     29.79814339      9.35187531
Na       18.51592064     27.56314278     11.43236542
Na       20.49023438     27.31170845     13.58175564
Na       18.44554710     27.62019730     20.59853363
Na       18.51917839     25.17707062     27.27839661
Na       16.05552864     27.11800194     31.52879333
Na       22.77990532      0.56317055      2.54707575
Na       25.07550049     -0.15636550      4.41090679
Na       22.81500244      0.23370114     11.28906536
Na       22.96461868     -0.29640019     15.83362579
Na       22.99081993     -0.22730955     20.58668900
Na       22.44987679      0.04939444     25.20797157
Na       22.84382248      0.37438601     29.54239655
Na       22.44713402      4.51106310      2.40884995
Na       24.88320923      4.41298580      4.80527258
Na       22.83372116      4.66749239     11.46694374
Na       23.27350044      7.12951326     18.65980911
Na       20.71901512      4.26569557     22.82315636
Na       22.98941422      4.32631683     25.10187149
Na       22.57908440      4.85598373     29.68411255
Na       22.52925491      9.27667427      2.39488792
Na       25.00862122      9.18737793      8.94054794
Na       23.13644028      9.25900364     11.36234665
Na       23.09531975      8.95698261     16.17972565
Na       22.83485031      9.36468410     20.72824669
Na       23.32275391      9.16674900     25.09649086
Na       22.72775650      9.17404079     29.91531372
Na       22.53084755     13.68066502      2.34591198
Na       20.39413643     13.97494984      9.51664543
Na       22.74377060     13.91818619     11.44919682
Na       22.42235184     13.76253986     15.89379311
Na       22.76796532     13.75433159     20.55463982
Na       22.74082565     13.70488930     25.06715202
Na       22.71950722     13.65321922     29.85825157
Na       23.03071213     18.37178230      2.37376046
Na       22.96656990     18.59050179      6.99765539
Na       22.94389915     18.33465004     11.59894657
Na       22.61882210     18.47360802     15.92586613
Na       25.07938004     17.99309540     18.09636688
Na       22.74551010     18.10569954     25.19880676
Na       22.62454414     18.49027061     29.55926895
Na       22.94167137     23.23426437      2.21761394
Na       20.71013451     22.88266373      4.50545883
Na       23.24426651     22.57835007     11.19913960
Na       22.35087204     25.27880669     13.34264088
Na       22.85047913     22.67560196     20.58745956
Na       22.92470551     22.78281784     25.25004768
Na       23.07309341     22.86975098     29.65329552
Na       22.96689034     27.61669922      2.09955478
Na       22.79739189     27.35928726      6.80451393
Na       22.53581238     27.32659149     11.40326595
Na       27.56987381     29.50170135     13.58813477
Na       22.88783264     27.47370720     20.41372299
Na       22.59283066     27.61020088     25.06427002
Na       22.65477753     27.10931778     29.80060577
Na       27.44004059      0.01899955      2.18171430
Na       27.27303314     -0.26279780      7.03605890
Na       25.02869606      0.19452210     14.03253078
Na       27.43200302      0.33599871     16.11334419
Na       27.13435745     -0.10959896     20.78258324
Na       27.39763641     -0.20935977     25.36774445
Na       27.61458206     -0.10133988     29.63737869
Na       27.55129623      4.44063997      6.90292311
Na       27.47843552      2.12268329      4.65591097
Na       25.06996727      4.58601713     13.58080387
Na       27.33956528      4.36229324     15.87286472
Na       27.71293449      4.68734026     20.40751457
Na       27.56159019      4.53447294     25.23744392
Na       26.97512627      4.58645725     29.66890335
Na       27.42981339      6.89685774     -0.15895961
Na       27.32135201      8.93371677      6.86036634
Na       27.40357208      6.80892324      9.01520061
Na       29.59501266      8.97806072     13.24181747
Na       27.44095802      8.72423172     20.54095650
Na       27.52116776      9.06526661     25.39336014
Na       29.61418915      9.11304855     27.66786957
Na       27.41277122     16.04072762      0.37859800
Na       27.24951363     11.28341675      4.58055735
Na       27.27396774     11.31519794     13.71564484
Na       27.22232437     13.33184528     16.23034859
Na       27.50710106     13.70937634     20.55329132
Na       27.43443298     13.62539005     25.13758659
Na       27.39828873     13.99290752     29.87397194
Na       27.53088570     16.04022980      4.41349459
Na       27.21176338     15.95935440      9.16938591
Na       27.22709846     18.31606102     11.59414101
Na       25.05496597     18.12272835     13.94004250
Na       27.37291336     17.91011620     20.42348099
Na       25.23245430     18.28494453     22.88989449
Na       27.61884499     18.36177826     29.87789536
Na       27.48222923     22.88460732      2.25633073
Na       27.02371407     22.62629509      6.73570585
Na       27.23141289     23.12705231     11.50047970
Na       27.07073212     23.04339790     16.01107216
Na       27.32644463     22.97300148     20.46693802
Na       27.45598602     22.52838326     25.22307396
Na       27.24618721     22.77341843     29.66645622
Na       26.81436729     27.50125313      2.44666648
Na       27.29466820     27.53325462      6.97947407
Na       27.33719826     27.62632751     11.31911659
Na       27.08983040     27.06908226     15.83338547
Na       27.49150085     27.55631638     20.55196190
Na       27.39193153     27.56400871     25.29116631
Na       27.52590942     27.31018639     29.66042900
O        -0.11953998     -0.22681455      4.33986235
O        -0.14001700      0.07240383      9.33924294
O        -0.04461199     -0.17119013     13.83057022
O         0.33500010     -0.16281067     18.31990623
O         0.10991136     -0.06027086     22.78959465
O        -0.11270986      0.06551405     27.39866447
O         0.01337205     -0.03104226     32.00759506
O         0.03646873      4.65768051      4.59132099
O        -0.10262930      4.62057877      9.03996944
O         0.21736646      4.88939333     13.66692638
O         0.17143929      4.27217293     18.27487946
O         0.23201652      4.36884356     23.14728737
O         0.14260131      4.66825247     27.48505020
O        -0.17826089      4.71511793     32.06084442
O         0.14840704      8.99322891      4.53421354
O        -0.12258572      9.33662701      9.03199482
O         0.09094460      9.03210163     13.69672108
O         0.30952489      9.08580017     18.54140472
O         0.04728225      9.08993530     22.77433014
O         0.07332235      9.12785244     27.41073418
O        -0.15912543      9.22865200     31.85755157
O        -0.11008000     13.48529530      4.73148680
O        -0.04028339     13.66148281      9.00746822
O         0.05805169     13.67795658     13.88171673
O         0.10699645     13.58451176     18.33975410
O        -0.12526774     13.80665207     22.83341026
O        -0.20058295     13.58510494     27.40159607
O        -0.04172493     13.56028461     32.11637878
O        -0.11888785     18.31213379      4.61718893
O        -0.25507036     18.11177826      8.81023693
O        -0.09139384     18.36651802     13.64771843
O        -0.06101700     18.26630974     18.42681885
O         0.03020124     18.42955399     22.91268539
O        -0.15782641     18.28744507     27.58254814
O         0.12869531     18.22582626     31.94998550
O        -0.06714363     22.65806961      4.69859171
O        -0.31477883     22.89590073      9.02024269
O        -0.16288018     22.61359406     13.65839577
O        -0.24574195     22.67720413     18.37654114
O        -0.31902018     22.84360123     22.77487755
O         0.07573781     22.95833588     27.57272339
O         0.08760796     23.03042793     32.22322083
O        -0.29931939     27.54135513      4.84394646
O        -0.09276076     27.44124794      9.12310982
O         0.12611087     27.23038101     13.59289074
O        -0.12397942     27.24799728     18.11627960
O        -0.08286042     27.46274948     22.73230171
O        -0.15563810     27.28616524     27.41624069
O         0.13994108     27.44674683     32.32247925
O         4.50127888      0.04008699      4.72163439
O         4.16879654     -0.07365271      9.15641880
O         4.73079014      0.23805271     13.55497932
O         4.79946709     -0.16600522     18.32151031
O         4.49942160      0.00886443     22.88071632
O         4.72154427      0.31542340     27.51030350
O         4.62216854     -0.17881118     31.99953842
O         4.48014832      4.57476044      4.65591383
O         4.73853493      4.44966125      8.98186111
O         4.79491854      4.76996136     13.73808098
O         4.75365543      4.46807718     18.17047691
O         4.49547100      4.63854504     22.90994453
O         4.41267872      4.72072792     27.44685555
O         4.51519251      4.65456486     32.06890106
O         4.65967178      9.22936153      4.49707365
O         4.64747238      9.33591652      8.98925686
O         4.69210815      9.17547989     13.63705254
O         4.84079790      8.84596252     18.27408981
O         4.63746023      9.28567028     22.92902565
O         4.71232891      9.15835953     27.63735390
O         4.60616684      9.16447639     32.11798859
O         4.48464060     13.94237900      4.72359371
O         4.69436169     13.88235092      9.19000435
O         4.54529142     13.90829659     13.80860043
O         4.58436918     14.18689919     18.28708649
O         4.51831865     13.87250042     22.84979057
O         4.67228651     13.63195992     27.58026886
O         4.43003416     13.69468689     32.05278397
O         4.30011415     18.46609879      4.40240765
O         4.52269459     18.29003143      9.08784008
O         4.66983175     18.31867409     13.78242683
O         4.45038462     18.26934052     18.20824623
O         4.51544714     18.32643127     22.99881554
O         4.46147346     18.05388069     27.59078598
O         4.55328846     18.44122314     31.84550095
O         4.41349506     23.10686874      4.75135517
O         4.55590200     22.75740051      9.20274162
O         4.49309587     22.69980812     13.76078320
O         4.45932484     22.91731834     18.29760551
O         4.30892897     22.99099541     22.72003746
O         4.45752335     22.81707382     27.10400772
O         4.59049225     22.86870956     32.30872726
O         4.62436008     27.59017181      4.80474091
O         4.67105484     27.26930046      9.31202888
O         4.42166376     27.33712578     13.76543617
O         4.60684919     27.40036964     18.11609650
O         4.37810516     27.63338280     22.88679504
O         4.91003942     27.55268288     27.37434578
O         4.81894112     27.33988571     31.84572029
O         9.24183178     -0.04628311      4.60824919
O         9.48436832      0.07387827      9.19076729
O         9.41217709     -0.24028705     13.46278763
O         9.26651859     -0.16369621     18.01998138
O         9.12635231     -0.14267282     22.79042244
O         9.33623981      0.06035654     27.51558113
O         9.25847435      0.19172037     31.92767525
O         9.26102448      4.31168747      4.51935101
O         9.13132763      4.80231619      9.18968391
O         9.20706654      4.54936981     13.80972385
O         9.36196709      4.59891224     18.33691216
O         9.25126934      4.67639828     22.72084427
O         9.18688488      4.48780727     27.24630356
O         8.99261570      4.59364510     32.07320786
O         9.32277203      9.14599991      4.47935104
O         9.14215755      9.45771980      9.00401783
O         9.16634178      9.15358067     13.72725487
O         9.20103931      8.99717426     18.30163956
O         9.13158894      9.22043705     22.57623291
O         8.99471569      8.84412003     27.47894287
O         9.13008213      9.24588871     32.03498840
O         8.98725319     13.86874866      4.36274529
O         9.14953899     13.88554859      9.13320160
O         9.08871365     13.83026505     13.81747437
O         9.01879406     13.70365334     18.32608223
O         9.08643246     13.90943623     22.71402550
O         9.04094601     13.80498409     27.15595245
O         9.21639156     13.86026287     31.86708641
O         8.98855686     18.38074684      4.29282904
O         8.92401409     18.40964508      9.08749962
O         9.14294529     18.27813911     13.72947025
O         8.99549675     18.46100616     18.29489708
O         9.02553177     18.44397545     23.01359940
O         8.99214554     18.33878708     27.23930931
O         9.22883797     18.37173271     31.79223633
O         9.02496719     23.01413727      4.37607193
O         9.26179790     22.86987877      9.08226776
O         9.01627827     22.78792572     13.80317974
O         9.07925415     22.99218559     18.27427101
O         8.95542812     22.89503479     22.72749901
O         8.97951698     23.23340034     27.07092285
O         9.38255882     22.90787125     32.07165909
O         9.08150959     27.56903076      4.63968563
O         9.22744274     27.54174042      9.20621967
O         9.25604916     27.27117348     13.80755043
O         9.28427887     27.47915268     18.31566429
O         9.00072956     27.41477966     22.71791458
O         9.28811073     27.56760597     27.48573685
O         9.35587406     27.77884674     32.08169937
O        13.81938171     -0.05296937      4.32576561
O        13.77397060      0.13639536      9.05831718
O        13.86253929      0.31000409     13.48950958
O        13.77060986      0.18329681     18.24704552
O        13.69372559     -0.22990048     22.80100822
O        13.57514095      0.00381986     27.30282593
O        13.55151272      0.04373531     31.72556686
O        13.82464981      4.38289452      4.63350248
O        13.62672710      4.72866821      9.03007889
O        13.76073360      4.92281723     13.54304123
O        14.00845051      4.53944254     18.13664627
O        13.75345421      4.27359915     22.69362068
O        13.67999458      4.52310896     27.15513611
O        13.65506744      4.80047083     32.17478943
O        13.78844452      9.05346394      4.44979286
O        13.74331093      9.23079681      9.01197529
O        13.69458294      9.30985737     13.56278133
O        13.86274529      8.95383549     18.20749664
O        13.55926991      9.15721416     22.75644112
O        13.58296680      9.07641506     27.26611900
O        13.64230061      9.24300385     31.90946007
O        13.66706276     13.81385899      4.59703064
O        13.41795158     13.83481979      9.16778564
O        13.73392677     13.69380856     13.72778893
O        13.51628304     13.64737034     18.20707703
O        13.39513206     13.82153702     22.88100815
O        13.58558464     13.70321751     27.37828636
O        13.55151749     13.68771076     31.85753632
O        13.63245010     18.18389320      4.39558125
O        13.38964272     18.38363075      8.95823288
O        13.65890694     18.31868935     13.77713776
O        13.61605549     18.30803299     18.34126091
O        13.50829411     18.17855263     22.84922028
O        13.37225914     18.14494514     27.31743050
O        13.45209885     18.11993980     31.86382675
O        13.67925549     22.88034058      4.53605556
O        13.70721817     22.87260246      9.12431145
O        13.65126705     22.82367897     13.74535084
O        13.77159119     22.57991409     18.34255219
O        13.69621563     22.61733627     22.92600060
O        13.93385601     22.96148300     27.12751770
O        13.71386528     22.93360329     32.12533188
O        13.93844795     27.30703926      4.24653339
O        13.57902050     27.44230652      8.85450459
O        13.79065228     27.79197311     13.67402840
O        13.75006962     27.46411705     18.12700462
O        13.82151985     27.33693504     22.61881065
O        13.63762188     27.60588837     27.45652962
O        13.91853714     27.09199333     31.61067009
O        18.42039108     -0.13569207      4.16409779
O        18.19804764      0.05739733      9.01450825
O        18.18233681      0.14623488     13.75567341
O        18.46743965      0.21327446     18.18354988
O        18.45088005     -0.04895789     22.79658127
O        18.33038712     -0.00799886     27.43322563
O        18.29499817     -0.08791068     31.83671379
O        18.46169090      4.56474829      4.46177673
O        18.35213089      4.73277712      9.21800709
O        18.38946915      4.76637268     13.51543808
O        18.42845345      4.80378342     18.46166039
O        18.26255798      4.47092247     22.81202316
O        18.37334633      4.64771986     27.25004387
O        18.34431458      4.62899399     31.88083076
O        18.43849754      9.03860950      4.70193195
O        18.23610306      9.39042759      9.25139713
O        18.47781563      9.39291096     13.68634319
O        18.28570938      9.31710529     18.28583145
O        18.38713074      9.30131435     22.88083267
O        18.49825478      9.18244743     27.15971184
O        18.24613762      9.02059555     32.05241013
O        18.08635139     13.81044197      4.55015898
O        18.11155319     13.98429489      9.25329590
O        18.07705498     13.93451595     13.87529659
O        18.26860428     13.73784637     18.47779274
O        18.41353798     13.65020561     23.09219551
O        18.09283257     13.70360661     27.29725647
O        18.32802773     13.78823757     31.87055397
O        18.39084816     18.40908813      4.49221230
O        18.42780876     18.45107841      9.18976688
O        18.22660446     18.28375435     13.99363136
O        18.05764580     18.28043365     18.42890549
O        18.28657913     17.85425949     22.99603081
O        18.31604958     18.20517921     27.47407150
O        18.64921761     18.18021202     32.03672791
O        18.39432335     22.86141968      4.46776819
O        18.19175148     23.04345703      9.16061974
O        18.26904106     22.92820930     13.95398617
O        18.20035172     22.81631088     18.46432877
O        18.55652428     22.66476059     23.15707016
O        18.22869110     22.83601570     27.44335175
O        18.28373146     22.57322693     31.93131828
O        18.36421967     27.46565056      4.36402798
O        18.17988396     27.50898361      9.09070301
O        18.32229042     27.66589546     13.73208427
O        18.20024109     27.52771759     18.24143028
O        18.30715752     27.05740166     22.65203857
O        18.08910179     27.39007568     27.32826805
O        18.36921310     27.25087929     31.68748283
O        22.73380280     -0.40538120      4.61375904
O        22.79568100      0.02494135      9.08790970
O        22.96695328      0.11990793     13.36548996
O        23.07806969     -0.04221891     18.31959915
O        22.98747063     -0.24290174     22.84241867
O        22.58993149      0.19853759     27.54317856
O        22.84784889      0.17521210     31.86487579
O        22.72215080      4.57584333      4.65810490
O        22.94824409      4.57037973      9.03628635
O        22.90232468      4.70811987     13.67105961
O        23.03605461      4.96261215     18.40051842
O        23.00635147      4.48476791     22.82122040
O        22.60030365      4.66069984     27.29830551
O        22.74896622      4.73202133     32.12310791
O        22.90780449      9.19927025      4.57915068
O        22.82208633      9.02490807      9.12084484
O        22.93603325      9.34387589     13.90151691
O        22.93126106      9.37372589     18.48395920
O        23.07897568      9.19146061     22.98051834
O        22.87151337      9.13025188     27.54098129
O        22.66514015      9.17990398     32.07697678
O        22.81513405     13.75043201      4.67785120
O        22.70310593     13.89429665      9.20716000
O        22.62752533     13.83142471     13.59778118
O        22.75388908     13.88928223     18.19029427
O        22.75557327     13.75239658     22.90090561
O        22.77688408     13.47580242     27.50138855
O        22.68481636     13.55319500     32.10686874
O        22.87252998     18.49898720      4.50993681
O        22.94878578     18.34173393      9.22298622
O        22.69793510     18.18946648     13.76403713
O        22.72448349     18.26475334     18.19243050
O        22.83202171     18.21754074     22.77192879
O        22.75895309     18.18601418     27.53622437
O        23.17497635     18.19251442     32.10033417
O        22.93998718     22.94080544      4.51394367
O        22.75549126     22.70872688      9.16164207
O        22.69859505     22.58184624     13.54703426
O        22.77012825     22.88344955     18.38881874
O        22.90003014     22.76512527     22.82925224
O        22.81986809     22.94371796     27.30097961
O        23.10916138     22.85857582     31.89451218
O        22.90465927     27.21284866      4.54273796
O        22.75871849     27.38942909      9.17420959
O        22.59968567     27.36334419     13.75523758
O        22.79999924     27.58513069     18.18309593
O        22.49363899     27.39145660     22.81140900
O        22.82287788     27.48983955     27.47567940
O        22.85073090     27.36391830     31.92934036
O        27.47766685     -0.20952262      4.90681553
O        27.43969154     -0.03896872      9.23538780
O        27.36126518     -0.03156766     13.63291645
O        27.51907539     -0.09885920     18.38848686
O        27.53431320     -0.13005574     22.99014664
O        27.21248817      0.03644086     27.43027687
O        27.30310249     -0.09739923     31.94648170
O        27.35757446      4.32275581      4.65706062
O        27.55569267      4.63163280      9.19752312
O        27.20944595      4.40383434     13.71443367
O        27.65840912      4.29678297     18.28988266
O        27.61576271      4.63840914     23.04692841
O        27.37905312      4.56585646     27.41315269
O        27.22871590      4.65476084     31.88017082
O        27.44276047      9.00747776      4.34550142
O        27.30373383      9.07343006      9.23367405
O        27.43705750      9.23076057     13.73221684
O        27.50257111      8.96616364     18.29227829
O        27.48886299      8.92271996     23.05043983
O        27.41361618      9.01475239     27.64800644
O        27.41962624      9.27046680     31.96750832
O        27.33281326     13.59869003      4.60769415
O        27.36052322     13.72782135      9.33156300
O        27.28657913     13.61012650     13.85647678
O        27.37479401     13.59781456     18.33566856
O        27.37709999     13.58484840     22.96950912
O        27.44268227     13.78665257     27.60941505
O        27.51863480     13.91333389     32.17447281
O        27.49159241     18.31844139      4.50593996
O        27.37350464     18.09807968      9.20838642
O        27.16115761     18.06081963     13.85339165
O        27.31339836     18.19454384     18.15913963
O        27.33453178     18.19373703     22.55790710
O        27.36279678     18.44385529     27.75063324
O        27.67601395     18.16247177     31.98203278
O        27.53402710     22.90012360      4.53784609
O        27.21037865     22.72537231      8.98943520
O        27.24091339     22.83940887     13.75329304
O        27.27269936     22.89780998     18.13904190
O        27.12149620     22.80992317     22.86862183
O        27.41400719     22.74826431     27.42567825
O        27.40325165     22.75120544     31.98188782
O        27.31737900     27.42116547      4.74376202
O        27.49629974     27.52865028      8.99549007
O        27.42975235     27.19196892     13.68704605
O        27.23827553     27.37937546     18.07684135
O        27.24026871     27.29940033     22.87643623
O        27.26327133     27.27559471     27.50158882
O        27.26178932     27.46120071     31.99892426
H         1.42465580      1.49461091      1.80553472
H         1.31533945      2.96333814      3.14879704
B         2.12264705      2.19376111      2.55829811
H         2.89452815      1.43894577      3.09514570
H         2.82754970      2.84270883      1.81684804
H         1.58319247      1.49051189      6.12813854
H         1.52487051      3.03957987      7.59475040
B         2.20733714      2.29320192      6.77257490
H         2.84984469      1.56010234      7.46683836
H         2.97056746      3.03239036      6.07700634
H         3.10492063      3.19745517     10.84350681
H         1.73919189      1.76930737     10.95665836
H         1.70944357      3.11405253     12.47374821
B         2.42047429      2.53839993     11.65896893
H         2.94758368      1.81349301     12.39981365
H         3.52072930      2.99444938     15.23215199
H         2.12825537      1.76344967     15.22798347
H         2.05662990      3.07024336     16.71146011
B         2.81642413      2.34270167     15.98121071
H         3.56725454      1.72109330     16.68219185
H         3.01388097      2.98911977     20.27567673
H         1.50079119      1.70670867     20.20349312
H         1.53784108      3.02425551     21.71645927
B         2.28270268      2.26078367     20.97353935
H         3.07503891      1.71773636     21.74248123
H         3.22734022      2.74440503     24.60883713
H         1.75407386      1.26626205     24.64762688
H         1.69767368      2.76201439     26.02786255
B         2.44742990      2.07232618     25.21837997
H         3.13435888      1.32045293     25.91727066
H         3.18864369      2.80035686     29.35659790
H         1.72703040      1.35790634     29.41976738
H         1.69586563      2.76835179     30.69081688
B         2.37420630      2.07341862     30.06781387
H         3.13829136      1.34508872     30.67247009
H         3.31524301      7.36754656      1.98549950
H         1.74170661      5.88437319      1.87519670
H         1.86655414      7.35300159      3.24751472
B         2.56337166      6.61037254      2.55383134
H         3.30167890      6.00824022      3.24849558
H         3.03549194      7.81311750      5.84426546
H         1.67090154      6.41386414      5.86853790
H         1.75653732      7.70320940      7.12966108
B         2.47975826      7.04872131      6.48632908
H         3.09038925      6.33469439      7.29446697
H         2.98620749      8.01751518     10.52200413
H         1.68294156      6.46953487     10.56440258
H         1.72936785      7.92869043     11.88258362
B         2.37616372      7.23086405     11.19050217
H         3.03296638      6.38037777     12.01816750
H         3.05482674      7.53471565     14.93271637
H         1.72356701      6.22026968     14.86402798
H         1.72025323      7.60671806     16.37422371
B         2.41042495      6.85514975     15.64755154
H         3.12777257      6.21601200     16.37516594
H         3.14656615      5.81412888     21.55061531
H         3.00436902      7.43741560     20.00906754
H         1.86117363      5.90351915     19.95626259
H         1.94829381      7.40310240     21.37410355
B         2.55998111      6.52436590     20.70679283
H         3.33275223      5.94620085     26.09719658
H         3.31477880      7.45773458     24.70591927
H         1.90249801      6.02178526     24.76353073
H         1.88778234      7.41483927     26.03632736
B         2.71701026      6.67725468     25.37648773
H         3.09208131      6.30086088     30.47373962
H         3.14192033      7.64635420     29.20117760
H         1.68241775      6.22437334     29.17453003
H         1.72355354      7.63186693     30.50909233
B         2.36654711      6.94837570     29.81313324
H         2.93498039     10.62313938      3.05124378
H         2.93102312     12.15947723      1.60176396
H         1.51142740     10.64142895      1.61609662
H         1.60158062     12.05499077      2.94280076
B         2.24756694     11.34180546      2.33104110
H         2.86551476     10.62866116      7.78391027
H         2.82123232     12.09336662      6.28453255
H         1.43003726     10.56404114      6.17563057
H         1.52661312     12.10569286      7.75195456
B         2.06531262     11.27751732      6.98621702
B         2.37479997     11.55815029     11.37193012
H         2.96753263     10.78375244     12.16937733
H         3.07362413     12.13021278     10.53556156
H         1.62193406     10.76784134     10.62574196
H         1.58091688     12.08104992     12.22630596
B         2.12878299     11.06726265     16.03067017
H         2.82368445     10.34054661     16.68892860
H         2.86901999     11.56345940     15.18061352
H         1.52977264     10.33606529     15.22146797
H         1.38112760     11.67125034     16.84205627
B         2.38866186     11.45311165     20.60522652
H         3.01284504     10.72509480     21.41176033
H         3.11297822     12.06168747     19.84554100
H         1.59002841     10.73698711     19.95756721
H         1.57814884     11.96154213     21.41174507
B         1.92817163     11.50637817     24.82468033
H         2.58762646     10.78403854     25.59560204
H         2.72661877     12.13660908     24.26199150
H         1.23881102     10.69734955     24.31429482
H         1.23198068     12.09113598     25.68911934
H         1.39217961     11.94231701     30.25104141
B         2.05393386     11.30213833     29.51577950
H         2.83942032     10.61404896     30.17750168
H         2.84194613     11.87130165     28.79734802
H         1.40327942     10.55160809     28.73743439
H         1.30769789     16.47867775      3.03648210
B         1.98989284     15.78038979      2.34774470
H         2.65206456     15.18523788      3.25636911
H         2.53710437     16.58360481      1.68824625
H         1.21175635     15.30918407      1.69723165
H         1.81521153     16.94665527      7.44281244
B         2.43303633     16.08379364      6.75942326
H         3.13342977     15.53904247      7.46807194
H         3.03672433     16.87520981      6.13667536
H         1.72849262     15.47758389      5.97850990
H         1.41810095     16.74311066     12.39639378
B         2.06068301     16.14995956     11.60416412
H         2.74706054     15.47513294     12.38726234
H         2.77698088     16.76390076     10.78750134
H         1.39086354     15.43876457     10.78105354
H         1.35107362     16.63427734     16.56621552
B         2.19161463     15.95392132     15.90849495
H         2.83683467     15.09132004     16.58906364
H         2.87765503     16.69794464     15.18534946
H         1.48603809     15.24913120     15.38398170
H         1.71640086     15.15958977     19.72172546
H         1.73851585     16.62256050     21.39806366
B         2.22631502     15.85011292     20.58374596
H         2.99008870     15.25680828     21.32296181
H         2.98888612     16.54625320     19.82014656
H         1.49658966     15.48500252     24.34587479
H         1.43387556     16.89944458     25.60445595
B         2.19368792     16.09888649     24.99499130
H         2.92068911     15.41161919     25.61512375
H         2.86257291     16.85199738     24.33060837
H         1.56586862     15.01711464     29.11144257
H         1.53593433     16.54970741     30.45398140
B         2.20506287     15.80419540     29.77764130
H         2.84120941     15.05340290     30.38775826
H         2.87848759     16.52076340     29.11045456
H         1.65068078     19.97813416      1.39327776
H         1.63493240     21.62147141      2.91437888
B         2.32674837     20.88593674      2.02753615
H         3.05582595     20.12466049      2.75210476
H         3.15474820     21.55812073      1.44088125
H         1.56379068     19.75372505      6.19853973
H         1.54598069     21.16684723      7.66066408
B         2.21496916     20.46442032      6.93421698
H         2.97984982     19.86568642      7.53089380
H         3.00935960     21.06658745      6.28099060
H         1.60975897     19.65631104     10.70305538
H         1.67748010     21.06570625     12.21112728
B         2.42695975     20.41646004     11.38823032
H         3.07045126     19.69381523     12.24134445
H         3.15969872     21.18517113     10.65131187
H         1.43303192     19.57543373     15.22592735
H         1.42616165     20.95202255     16.64745712
B         2.16806746     20.22535515     16.02051926
H         2.82051373     19.43996429     16.77605629
H         2.75408363     21.01419067     15.15688801
H         1.48227286     20.18465614     19.91769028
H         1.32190478     21.63623238     21.34386444
B         2.01690626     20.87421608     20.57849312
H         2.71995473     20.13193703     21.23621559
H         2.71806812     21.52669334     19.86685753
H         1.60765004     19.78962517     24.32612991
H         1.54645419     21.13912964     25.82475090
B         2.21885896     20.45870781     25.05658913
H         2.92758584     19.78017807     25.77300262
H         2.90307999     21.06287384     24.34119034
H         3.08700824     21.25908279     29.08931541
H         1.54565024     19.85926056     29.01352882
H         1.56608140     21.31443977     30.51861382
B         2.27504134     20.61369514     29.66734886
H         3.03333807     19.98871613     30.40958786
H         3.06107688     26.03713799      1.69890749
H         1.68496346     24.60223007      1.71803725
H         1.54210365     26.16086578      3.23446703
B         2.23100090     25.38070297      2.51063132
H         3.06224775     24.58192825      3.11190772
H         2.98536277     25.81450272      6.05091095
H         1.53084266     24.39464760      5.98061228
H         1.49208152     25.92355919      7.37068558
B         2.26312947     25.16651726      6.69424295
H         3.07723665     24.37307167      7.35350037
H         2.90766072     25.71182823     10.33278561
H         1.69760191     24.34779358     10.46380520
H         1.52038467     25.75802422     11.80623341
B         2.28944159     25.05527306     11.23279858
H         2.94793010     24.17650414     11.80030537
H         2.75221014     25.52891541     15.30543518
H         1.33845508     24.13455391     15.22866535
H         1.29202235     25.65211868     16.50242233
B         1.91082132     24.80240822     15.87823486
H         2.85209441     24.11144066     16.47910500
H         3.00186396     25.95000076     19.65944481
H         1.59992349     24.49538612     19.62571907
H         1.58843625     25.99521255     21.00927734
B         2.29287338     25.23044968     20.26278305
H         3.00402665     24.52694893     20.96622849
H         2.89968228     26.01247025     24.83859825
H         1.34063411     24.30327606     24.83147812
H         1.44468439     25.91554070     26.07569122
B         2.10511637     25.22528267     25.42183495
H         2.78287601     24.42720032     26.05581284
H         3.30043340     25.92693520     29.03056145
H         1.93846917     24.28261948     29.16194344
H         1.82697833     25.90704346     30.51490784
B         2.55749631     25.13644981     29.77156258
H         3.20916939     24.24250221     30.44353485
H         3.24922013     30.36513329      1.69237113
H         1.65368330     29.10115433      1.78328311
H         1.63722622     30.29067802      3.22962117
B         2.41672325     29.73767662      2.43518424
H         3.09566402     29.16379738      3.15052032
H         2.93546367     28.82448196      7.61395597
H         2.89680552     30.08572006      6.20241356
H         1.52617216     28.83072853      6.17000198
H         1.48614275     30.15816307      7.64773893
B         2.14687943     29.48755836      6.90989017
H         3.11946368     28.95628357     12.35633659
H         3.19148350     30.41017723     11.00872612
H         1.83446419     28.92166328     11.04612637
H         1.75338912     30.45384979     12.47203064
B         2.37251210     29.74831772     11.67047787
H         2.85777402     28.93142128     16.78011322
H         2.83477712     30.23486710     15.35620117
H         1.54194045     28.81592369     15.21770477
H         1.64118397     30.27412224     16.79636765
B         2.18940067     29.48417473     15.96313477
H         3.07658792     28.59719086     21.18781090
H         3.06901956     30.17661476     19.60432053
H         1.64187074     28.80455589     19.80411720
H         1.63683796     29.98185158     20.98547935
B         2.50221157     29.45073891     20.41847610
H         3.01265955     29.03989792     25.71558571
H         3.05075026     30.44807434     24.47153664
H         1.47102773     28.90268517     24.37241173
H         1.57196224     30.44626427     25.75186539
B         2.25738955     29.64452362     25.07970619
B         2.47715497     29.43076134     29.52819061
H         2.98425174     28.74698830     30.30925560
H         2.94086599     30.26423454     28.83141899
H         1.69925654     28.84123993     28.88228607
H         1.72966206     30.18296051     30.18459892
B         6.74759865      2.26935267      2.15948343
H         7.36739588      1.47472560      2.84388566
H         7.50637197      2.95605755      1.44174910
H         6.08843756      1.38162303      1.48762262
H         6.08693743      2.91168404      2.93848848
B         7.06604767      2.43565226      6.85813141
H         7.64996672      1.82156146      7.68735552
H         7.62911558      3.24412537      6.04403925
H         6.25514936      1.89806461      6.09969139
H         6.26119375      3.18242908      7.60480833
B         7.15161705      2.36098528     11.38073540
H         7.83525991      1.64172542     12.10958958
H         7.80217075      3.09691024     10.68237114
H         6.34560728      1.62167418     10.62923050
H         6.46363401      3.03202415     12.01161289
H         6.28420448      3.17458224     16.48969460
B         7.13930082      2.47827363     15.69672966
H         7.88739300      1.73399162     16.45264244
H         7.89229679      3.14243388     15.17150974
H         6.31712103      1.72985601     15.17227840
H         6.47465467      2.80892253     21.36355209
B         7.13054180      2.02609396     20.54739571
H         7.85167551      1.49302614     21.46623421
H         7.74239779      2.80232692     19.94699860
H         6.33877468      1.45982790     19.80452156
H         6.01120043      2.88611579     25.78461647
B         6.76098967      2.26742601     25.09944153
H         7.48238850      1.46700704     25.83792114
H         7.56062984      3.01766181     24.33102036
H         6.01510429      1.52421606     24.46647072
H         6.25602865      3.14779019     30.48226738
B         7.05803680      2.45723009     29.69792175
H         7.73310757      1.75652766     30.31217957
H         7.80212069      3.04671741     28.98023796
H         6.34580231      1.67621517     28.96893692
H         6.22388029      7.93426991      2.99958420
B         6.96629572      7.10759354      2.38006020
H         7.72518635      6.39674759      2.95386338
H         7.67350531      7.83686876      1.67641842
H         6.28992081      6.41706753      1.64505768
H         6.74739981      6.20095396      5.81159687
H         6.71004295      7.73994875      7.24937630
B         7.36046791      6.89512014      6.61479473
H         8.20730877      6.24465609      7.16831732
H         8.15765476      7.60923433      5.90495443
H         6.11892796      6.27868032     10.46325588
H         6.14405870      7.55296898     12.09035683
B         6.85643768      7.04771709     11.18890285
H         7.62948608      6.33447886     12.05968857
H         7.65184402      7.54465914     10.49669647
H         6.04721260      6.13316393     15.38269711
H         6.09464598      7.52132511     16.78839874
B         6.75255632      6.73024225     15.94765472
H         7.47035885      6.17545700     16.79353905
H         7.47638369      7.53248978     15.41896534
H         6.50549889      5.92885828     20.00191116
H         6.48501205      7.48825264     21.42947197
B         7.07836533      6.81572485     20.61248016
H         7.74145222      6.01074886     21.32709312
H         7.85067415      7.49509764     19.97457695
H         6.11889267      6.35194063     24.59250450
H         6.06614351      7.63165140     26.15882492
B         6.84898949      6.96974754     25.46291542
H         7.67354727      6.32630539     26.13171005
H         7.61045218      7.54144335     24.62996101
H         6.15645123      5.90885353     29.20854759
H         6.03807306      7.36670303     30.57656860
B         6.80422163      6.72759581     29.80811119
H         7.47320652      5.94831800     30.41872597
H         7.64816046      7.38381481     29.07305908
H         5.89537525     10.92598724      1.29971325
H         5.84242058     12.24627972      2.68009567
B         6.69168520     11.61060619      1.95472765
H         7.39721870     10.86565590      2.68747211
H         7.40370703     12.26014423      1.23289394
H         6.23603535     10.62096405      5.74415302
H         6.26619244     11.97723007      7.34513378
B         6.91293669     11.27930450      6.53367710
H         7.66889858     10.66562653      7.33062935
H         7.56445932     11.85828686      5.89325428
H         6.30449486     11.00344658     10.86383152
H         6.30055952     12.35431576     12.41995621
B         6.92763948     11.74725342     11.52399731
H         7.50596857     10.98144245     12.43802452
H         7.59604883     12.46246338     10.75174809
H         7.49479771     12.14221096     15.39839554
H         6.15406418     10.81585979     15.60745430
H         6.01682234     12.07039452     16.89946556
B         6.85093403     11.44016266     16.16896248
H         7.38222313     10.71937656     16.85870743
H         7.58663368     12.29277802     19.38516808
H         6.04176855     11.01152134     19.35762405
H         6.04585028     12.31624031     20.82662392
B         6.86461639     11.64619827     20.04724884
H         7.62200022     11.00369835     20.83852768
H         7.57230711     12.34074211     24.27842331
H         6.13092899     10.90928268     24.30038261
H         6.16900635     12.28070641     25.61486435
B         6.83539581     11.58137894     24.99042511
H         7.56154490     10.89808655     25.66413689
H         7.83575201     11.92691135     28.85308075
H         6.47647476     10.57543087     28.83135796
H         6.43463612     11.99047184     30.30674553
B         7.11091805     11.28519058     29.53636742
H         7.84731245     10.58559227     30.25474358
H         7.47109127     16.97783470      1.48317599
H         5.99556971     15.58253956      1.52615798
H         5.93738890     16.99303246      2.98055935
B         6.83909464     16.22622299      2.27872396
H         7.49945736     15.51119041      2.99372673
H         7.42129326     16.98198318      6.07566881
H         6.00835943     15.66860485      6.16339731
H         6.06020069     16.84241295      7.56439495
B         6.76067877     16.26057625      6.75757265
H         7.34304190     15.65912819      7.62571335
H         7.60587502     16.74824905     10.68759441
H         6.24952412     15.48992538     10.72210503
H         6.19710159     16.76616096     12.06533813
B         6.90516472     16.13934898     11.44363976
H         7.63307810     15.42820930     12.07463074
H         7.38202047     16.81651115     15.22573566
H         6.06726837     15.35710526     15.26200962
H         6.05439138     16.79311562     16.65582848
B         6.74392033     16.14150047     15.88790989
H         7.40106201     15.30178928     16.69826698
H         7.37575197     16.76678276     20.15725517
H         6.01441526     15.28680801     20.15752983
H         6.07225370     16.70866966     21.59877586
B         6.67840815     16.04996490     20.82483101
H         7.30751228     15.35477352     21.58864975
H         7.19727468     15.37556648     26.24538803
H         7.21835232     16.82900620     24.64044762
H         5.95612097     15.41597557     24.70193291
H         5.90777969     16.81585884     26.25331879
B         6.61126661     16.17703438     25.59147072
H         7.68049526     15.28840065     30.63663864
H         7.65986204     16.56995392     29.16516113
H         6.28398800     15.26831341     29.12443924
H         6.30027294     16.59439087     30.64043999
B         6.99263191     15.94232845     29.87545586
H         7.35771465     20.09936714      2.95733762
H         7.36004925     21.50530434      1.58243811
H         5.91550016     20.10511208      1.59051573
H         5.84581900     21.56690788      3.02127552
B         6.56237125     20.80476189      2.29389334
H         7.73453379     19.79595375      7.60206652
H         7.76024294     21.28490639      6.02891731
H         6.22909355     19.84936142      6.10803556
H         6.19888353     21.23599815      7.57886887
B         6.96676826     20.55361938      6.81031179
H         7.84817648     20.03364944     11.96649933
H         7.81880331     21.49950600     10.63531876
H         6.33295250     19.98595619     10.55825424
H         6.36856318     21.54096222     11.97858047
B         7.07658720     20.75282860     11.31559753
B         6.84170198     20.64202499     15.94626808
H         7.59307766     19.87378502     16.68640900
H         7.60734749     21.20277405     15.22356224
H         6.23812389     19.83544731     15.19949627
H         6.17117834     21.29378700     16.79169083
B         6.77169561     20.56241035     20.57496262
H         7.52838469     19.88139534     21.33433723
H         7.36496830     21.36451912     19.89335060
H         5.89414644     20.04667854     19.89521980
H         5.88932991     21.36746597     21.17386818
B         6.83655405     20.62816620     25.02356911
H         7.52747154     20.00271797     25.71216011
H         7.54517698     21.43363762     24.35805321
H         6.00212288     20.05384636     24.42688942
H         6.03174973     21.33517647     25.63140488
B         7.01584148     20.93683624     29.67566872
H         7.76659822     20.22933006     30.25746346
H         7.67332554     21.62444305     28.89296150
H         6.25884151     20.32418251     28.89453888
H         6.24326992     21.63843727     30.17818260
H         6.24108982     26.08559799      3.24284911
B         6.74695683     25.41213989      2.46250772
H         7.38626957     24.68205261      3.27319646
H         7.38968897     26.11936760      1.67072451
H         6.18296719     24.65427589      1.64636827
H         6.36155653     25.64851570      7.54193735
B         6.98050880     24.93442535      6.74460602
H         7.64159584     24.26003456      7.55820417
H         7.75387144     25.77705765      6.19358110
H         6.20895338     24.12369728      6.16951990
H         5.91603518     25.84827614     12.26519966
B         6.66798306     25.14719582     11.53090096
H         7.33812666     24.55574036     12.30101871
H         7.37156534     25.91753387     10.92446518
H         5.85012722     24.52565193     10.92781544
H         5.98827314     26.09310150     16.86205482
B         6.77445221     25.41666031     16.13000298
H         7.43995857     24.59799576     16.80310631
H         7.46196461     26.05615807     15.35158634
H         6.05066729     24.60144234     15.37703991
H         6.07777262     25.91549683     21.33349419
B         6.82706976     25.30002785     20.59966087
H         7.54944849     24.51322556     21.28405571
H         7.61865664     25.93526649     19.80451584
H         6.08387041     24.46988487     19.83038330
H         6.22326374     24.90779686     24.18742561
H         6.29032230     26.22571182     25.84339142
B         7.02944422     25.58307076     25.10130119
H         7.70418453     24.93512917     25.88311768
H         7.66786480     26.22911835     24.25107765
H         6.39101744     24.46118736     29.23316956
H         6.40208006     25.89514160     30.71225166
B         7.07027340     25.15275574     29.95018768
H         7.74896860     24.52680206     30.65769768
H         7.79007816     25.88169670     29.25767708
H         6.32996130     28.86439896      1.67026079
H         6.41402102     30.28316498      3.16498899
B         6.99670362     29.57654190      2.35316396
H         7.61439848     28.96737671      3.14607167
H         7.68439102     30.33424187      1.70324516
H         6.01929426     28.87098694      6.12542677
H         6.02752924     30.53385353      7.69066000
B         6.63033533     29.73570633      6.94208193
H         7.43425417     28.89438820      7.67549467
H         7.34876537     30.43319893      6.23431587
H         6.11928701     29.00693321     10.57196522
H         6.15870810     30.48441124     12.17600727
B         6.81892252     29.75925827     11.34687710
H         7.49786329     29.05075645     12.17160416
H         7.44467449     30.42681885     10.66897678
H         5.66336155     28.84334564     15.15943336
H         5.84900856     30.27795601     16.52566910
B         6.56598330     29.58060646     15.83079720
H         7.31027889     28.94489098     16.60977173
H         7.30678892     30.35857010     15.26446915
H         6.11247921     29.04819298     19.94875908
H         6.01380587     30.34602356     21.27698898
B         6.92564011     29.69206810     20.63668442
H         7.64387846     28.90246582     21.32404137
H         7.59741259     30.34661102     19.84950066
H         6.41273260     29.20217514     24.34888649
H         6.43024158     30.62517548     25.99864960
B         7.00287056     29.91205978     25.11249161
H         7.72901201     29.32456970     25.89376450
H         7.78214836     30.57342529     24.41814423
H         6.22756481     29.10927200     28.98372841
H         6.24429464     30.47906876     30.31282806
B         7.02839899     29.64644814     29.72478867
H         7.83657694     28.99985313     30.43897629
H         7.67486858     30.44350815     29.03601837
H        12.47203732      2.88836408      1.47895014
H        10.98535347      1.55431104      1.42551565
H        11.01128292      2.91586924      2.83148170
B        11.73804379      2.17874336      2.18290186
H        12.54505348      1.53472841      2.87699318
H        12.47999477      2.93461227      6.22566366
H        10.95386410      1.48261392      6.26147175
H        10.98739910      2.86526966      7.62930346
B        11.68508434      2.19145679      6.91353607
H        12.39851475      1.52828658      7.61716509
H        12.51859570      3.20260906     10.84815788
H        11.06002426      1.69533563     10.81910801
H        11.02933407      3.26234913     12.18779278
B        11.67689323      2.51342368     11.51213455
H        12.47302628      1.76995635     12.08248138
H        12.38076115      2.92950797     15.03181267
H        11.00214291      1.51104867     15.01455307
H        11.01943588      2.92947388     16.45080566
B        11.72179985      2.23837185     15.78608131
H        12.42779541      1.48127306     16.49787521
H        12.57432270      2.62666416     19.95393944
H        11.11695004      1.10431933     19.99590302
H        11.15480518      2.54684615     21.33751869
B        11.80911541      1.90987921     20.55639267
H        12.47933865      1.15734053     21.32234955
H        11.88038826      2.98970795     24.41976166
H        10.54788303      1.56787288     24.43465805
H        10.55328655      2.96940804     25.74232864
B        11.38852501      2.22095323     25.10858917
H        11.98279095      1.45057487     25.86503029
H        12.43296432      3.18550134     28.80995369
H        10.98820019      1.79362857     28.72420883
H        10.98764610      3.27179718     30.16941071
B        11.65246964      2.46898723     29.54470444
H        12.44414997      1.86818445     30.09429932
H        12.18632793      7.73122358      1.55419123
H        10.66885185      6.18594456      1.59540761
H        10.77916622      7.57969284      2.72819400
B        11.57039261      6.84028435      2.17852235
H        12.21263981      6.11841679      2.90603542
H        12.36464882      7.60328770      6.13424492
H        10.87618351      6.16445780      6.17012835
H        10.91156960      7.53201818      7.44126940
B        11.63291740      6.90244818      6.75879145
H        12.27438641      6.21883583      7.42227745
H        11.95252895      6.15900278     12.07703018
H        11.88561821      7.74301147     10.55999660
H        10.63992310      6.25645399     10.59053516
H        10.62971401      7.72268009     11.98978710
B        11.31572151      6.94958639     11.32079506
H        12.35983372      6.04493618     16.58664703
H        12.32329082      7.57456970     15.19884872
H        10.85448360      6.14477682     15.26214600
H        10.86223221      7.50352335     16.47905731
B        11.67989445      6.82930183     15.79376888
H        11.96484756      6.10316133     21.22813988
H        12.03386402      7.57824278     19.81520844
H        10.79552650      6.08330154     19.86436462
H        10.71916485      7.60544825     21.32435989
B        11.35303307      6.94590616     20.50843430
H        12.00065041      6.04556274     25.40457726
H        11.94794846      7.34502649     24.02210045
H        10.58766460      6.13112354     24.05495644
H        10.50209522      7.39773703     25.40458488
B        11.32633114      6.77782393     24.73446083
H        12.10664082      5.97986889     30.22715569
H        12.10620403      7.33362246     28.81880760
H        10.74849987      5.99273252     28.83123207
H        10.72418785      7.34550714     30.23860359
B        11.36708641      6.64434147     29.54887199
B        11.42644691     11.42875099      2.10155749
H        12.28414536     10.68132591      2.60047817
H        12.21448612     11.91857433      1.46488166
H        10.78341007     10.68654156      1.40043890
H        10.66816330     12.09826374      2.71050906
B        11.46422768     11.48460388      6.77439308
H        12.16905117     10.86829281      7.44720984
H        12.14501667     12.28767872      6.16796160
H        10.73728085     10.80136776      6.07700109
H        10.79797459     12.31794453      7.45344114
B        11.50250435     11.64648914     11.48418236
H        12.14224339     10.91196346     12.15713310
H        12.29004669     12.37846756     10.79545403
H        10.80181980     10.80528069     10.83657551
H        10.79511452     12.34405041     12.27052021
B        11.11868668     11.26727486     15.92262936
H        12.01865768     10.52523518     16.56448174
H        11.93337440     11.99992943     15.29376411
H        10.49101925     10.55350780     15.23675251
H        10.46309853     12.08486080     16.56412888
H        10.69527435     12.26283646     21.05809975
B        11.40797806     11.50279713     20.34100151
H        12.06081200     10.80946350     21.07478714
H        12.03672314     12.25543308     19.67151833
H        10.66515636     10.79603195     19.63399887
H        10.66586971     12.38543606     25.90059280
B        11.35388660     11.76393604     25.27456093
H        12.05723667     11.02901745     25.95461082
H        12.05519867     12.43741417     24.45756531
H        10.64536285     11.06252575     24.48903847
H        10.46254158     12.22179794     30.11125565
B        11.11354065     11.47051334     29.35427475
H        11.78228378     10.74775982     30.06407928
H        11.79854202     12.19087791     28.59962463
H        10.52219677     10.76023960     28.62836266
H        10.46789837     16.98054695      2.92301536
B        11.18520451     16.16788483      2.18397880
H        11.97160816     15.53304005      2.88737011
H        11.94109535     16.91438675      1.47931767
H        10.50588322     15.53537846      1.45114279
H        10.52461052     16.79025650      7.74187708
B        11.26954746     16.12819672      6.97331333
H        11.93525410     15.36661434      7.63755465
H        12.00065613     16.75133705      6.14760780
H        10.67827702     15.41595840      6.26235342
H        10.66282368     15.39564800     10.89773655
H        10.69925594     16.66317368     12.27384186
B        11.51659107     16.16344643     11.53159809
H        12.07330799     15.43181133     12.27411175
H        12.23106384     16.82119942     10.77614403
H        10.54730511     15.25979042     15.50051880
H        10.46123123     16.70785522     16.80760002
B        11.23510933     16.07304382     16.12018776
H        11.91284847     15.27306461     16.70825386
H        12.01581097     16.71147156     15.41082954
H        10.50216675     15.43157101     19.72445107
H        10.57754993     16.64999199     20.99617577
B        11.32881737     16.03817368     20.32551575
H        11.84655476     15.40905952     21.09407043
H        11.91367531     16.81500626     19.63481903
H        10.37467289     15.34285736     24.28914833
H        10.44669056     16.60962486     25.72389603
B        11.23576260     15.99737358     25.04148102
H        11.90222073     15.34231091     25.79645920
H        12.01437283     16.79433823     24.17645264
H        10.44063663     15.14783764     28.97049904
H        10.41791630     16.37773514     30.20435905
B        11.19153786     15.82074547     29.54145432
H        11.81801414     15.05990410     30.26957130
H        11.90244102     16.52737617     28.79813766
H        10.80928040     19.87112236      1.61059654
H        10.74643040     21.18260002      2.93781281
B        11.45105362     20.54964066      2.31241512
H        12.17677975     19.86594391      2.88014078
H        12.19451141     21.14266205      1.58768749
H        10.95182419     19.69862747      6.01646233
H        10.90713024     21.05115700      7.34971809
B        11.59684849     20.48389244      6.65824556
H        12.21058178     19.64564896      7.35800552
H        12.30216408     21.15102577      5.87189913
H        10.67949486     19.83172035     10.71312237
H        10.59966946     21.29407692     12.24894238
B        11.25998211     20.56838417     11.39026546
H        11.91030979     19.88578987     12.11504650
H        11.97690678     21.22677612     10.70059586
H        10.47264290     19.86623001     15.25640678
H        10.54398060     21.30174446     16.63183975
B        11.13531303     20.57546425     15.96681309
H        11.85861015     19.82703781     16.74236870
H        11.79512405     21.34878349     15.28070259
H        12.34265804     21.44712257     19.80586624
H        10.69504833     19.99999428     19.85046005
H        10.72393990     21.37363815     21.31576347
B        11.39606285     20.79848480     20.52255440
H        12.21252346     20.08553696     21.25911331
H        11.90887070     21.43989372     24.58328629
H        10.59940720     20.07119560     24.54354858
H        10.60833454     21.47070312     25.87321281
B        11.24268055     20.68081093     25.28326035
H        11.99988937     20.01991463     25.93342400
H        12.17276287     21.49039459     28.51626587
H        10.75133133     20.09721565     28.57799721
H        10.71134758     21.46864891     29.80924225
B        11.45466614     20.78786850     29.14847755
H        12.14120483     20.06704330     29.79942894
H        11.88373280     26.00438690      1.39937365
H        10.42634773     24.61101913      1.51873672
H        10.45845985     25.85290909      2.89793372
B        11.18761158     25.28784752      2.08231497
H        11.76773930     24.60764694      2.93341637
H        12.16980839     26.08213806      5.95904398
H        10.81836700     24.55529785      5.83868027
H        10.89826584     26.12260437      7.39028597
B        11.54404259     25.32654762      6.62842131
H        12.19637489     24.64909554      7.37638807
H        12.10065746     25.81646538     10.91982174
H        10.63319397     24.53895378     10.84816265
H        10.60346222     25.91785622     12.19258118
B        11.32111835     25.19734764     11.50091648
H        12.17192650     24.53934288     12.16245842
H        12.33351803     25.78501892     15.35254574
H        10.96080112     24.20243835     15.46481514
H        10.85858440     25.77496910     16.89307785
B        11.66190434     25.11042213     16.13204002
H        12.22617912     24.19750786     16.79578972
H        12.27426815     25.83617210     19.98826599
H        10.74352264     24.58176041     19.96869469
H        10.75772381     25.84153938     21.35940552
B        11.51807404     25.20422935     20.62456894
H        12.24222279     24.63337326     21.32199478
H        12.38734436     26.14139748     24.24416542
H        10.91165638     24.73245049     24.07727623
H        11.03446102     26.18548393     25.45495415
B        11.68783665     25.43190575     24.87637138
H        12.49118900     24.79549789     25.51471138
H        11.97931480     24.26408958     30.21130753
H        11.85781097     25.46647453     28.78306389
H        10.46379662     24.40204430     28.79951477
H        10.34689236     25.56692696     30.19025612
B        11.13696766     24.95603561     29.51447296
H        12.39320469     28.80920410      2.83607316
H        12.28336334     30.33447647      1.21528947
H        11.09176922     28.98393059      1.28017461
H        11.03990459     30.32145691      2.71321201
B        11.84341812     29.57434654      2.04208136
H        12.16006565     28.97056389      7.17500734
H        12.25508308     30.23794937      5.83657837
H        10.72814846     28.95128632      5.91231775
H        10.66543484     30.22492409      7.25699997
B        11.48202324     29.68855858      6.55093908
H        12.53850365     29.17908859     12.15253735
H        12.61708450     30.49201012     10.83412170
H        11.06690311     29.18242645     10.91604042
H        10.96188450     30.51511002     12.25421619
B        11.73718834     29.90941429     11.54590130
H        12.18575478     29.07954597     16.71654129
H        12.26067352     30.47848129     15.30227947
H        10.82413101     29.07913971     15.37679100
H        10.75213528     30.47596550     16.78894234
B        11.56671143     29.82332039     16.00597954
B        11.59443760     29.57969284     20.55723190
H        12.34218502     28.94058418     21.37587166
H        12.27823067     30.17532730     19.84506798
H        10.83652210     28.94285965     19.78338814
H        10.84232330     30.23120499     21.36779594
B        11.12547207     29.74720764     24.94672203
H        11.95470524     29.05480766     25.62972260
H        12.06790924     30.35189056     24.32520676
H        10.53496170     28.94294167     24.32654572
H        10.52400398     30.36150742     25.75254440
B        11.56659317     29.73217773     29.65272903
H        12.18083191     29.02286148     30.35515213
H        12.27266788     30.40116310     28.96862221
H        10.87778091     28.96518707     29.00278473
H        10.88541317     30.35936928     30.40519524
B        16.03430748      2.49963975      2.16180301
H        16.71201897      1.83402193      2.97741771
H        16.75664902      3.17312121      1.38269341
H        15.36494350      1.84349620      1.43679750
H        15.34360790      3.14035177      2.98927855
H        15.47968674      2.92294145      7.11010599
B        16.16347122      2.28714633      6.41512156
H        16.64226151      1.51025164      7.15759039
H        16.74625015      3.07441545      5.66441870
H        15.42855358      1.50660360      5.76475954
H        15.43373680      3.08433771     11.99365234
B        16.05312157      2.43606520     11.31606483
H        16.62681198      1.73663747     12.00626087
H        16.75761223      3.22774577     10.69247913
H        15.35606289      1.67157257     10.75821400
H        15.27858448      3.24013877     16.59214973
B        15.96890736      2.61096835     15.87204266
H        16.68410110      1.87491679     16.65566063
H        16.72791481      3.34746528     15.05898762
H        15.28436375      1.94420779     15.17209435
H        15.37625694      2.96853614     21.36562157
B        16.19895744      2.31653118     20.64786720
H        16.85133553      1.42670619     21.28565788
H        16.93427658      2.97151399     19.78639793
H        15.58358097      1.55406749     19.99670029
H        15.39079571      2.92423749     25.97992897
B        15.98518944      2.15078425     25.15666008
H        16.78473282      1.56464684     25.88509178
H        16.82642174      2.87108946     24.55541229
H        15.30693913      1.38595283     24.41840744
H        15.29558945      1.66618884     28.75136566
H        15.26028824      3.05117536     30.32245636
B        16.02127457      2.32076311     29.51526642
H        16.74869347      1.70935810     30.24398422
H        16.73527527      2.95928788     28.80795288
H        15.10815430      6.09434986      1.70775580
H        15.28369331      7.42466497      3.19946361
B        15.97530746      6.72352505      2.39377952
H        16.71450233      6.17538309      3.29396868
H        16.75070953      7.55537748      1.75258172
H        15.39266968      6.17251825      6.16858959
H        15.44899082      7.54955339      7.47311878
B        16.15129662      6.88337088      6.67556524
H        16.76825523      6.19317865      7.50877953
H        16.91078758      7.72774744      6.04671764
H        15.19298744      6.13514233     10.55269146
H        15.23875332      7.67574263     12.05976486
B        15.85853672      6.87310171     11.27808666
H        16.51474190      6.20984364     12.03082848
H        16.51009369      7.64215755     10.63204193
H        15.24612617      6.30500603     15.16086960
H        15.36920738      7.85920811     16.53390884
B        15.94998169      7.12619448     15.75820923
H        16.64116669      6.47169113     16.49030685
H        16.72730064      7.90173817     15.24142170
H        15.56502724      6.29330206     20.00354958
H        15.52077007      7.83138990     21.38866997
B        16.20032883      7.03871489     20.66898346
H        16.90552521      6.32326221     21.31445503
H        16.87106705      7.72271395     20.06796837
H        15.27867126      6.28960896     24.28184700
H        15.36588955      7.72604704     25.63906097
B        16.08747482      6.97531128     24.94850349
H        16.79475975      6.32376909     25.69212151
H        16.75257301      7.73691893     24.35819435
H        15.16182041      6.07079601     28.88435364
H        15.09117699      7.50657988     30.16135406
B        15.89118099      6.73590803     29.64312172
H        16.53724480      5.89391661     30.26758957
H        16.41120148      7.48677349     28.83351517
H        15.29534531     10.82317352      1.52273667
H        15.26342487     12.31811810      2.90267515
B        16.03846359     11.47537518      2.27713561
H        16.80406952     10.69436741      2.99956155
H        16.66864777     12.27958393      1.52935183
H        16.80643845     12.06186295      6.04600525
H        15.58980465     10.65236092      5.98831272
H        15.58278561     12.12657452      7.42101192
B        16.22568893     11.30369377      6.75554419
H        16.93703461     10.57945824      7.48689604
H        16.68923569     12.51867199     10.86729717
H        15.18820286     11.26230335     10.83267784
H        15.14177322     12.59972095     12.31542015
B        15.90163994     11.95566845     11.54600906
H        16.74349403     11.24266434     12.28862953
H        16.77850533     12.13771248     15.43719101
H        15.40100002     10.73001766     15.51353645
H        15.36672020     12.09564590     16.74514580
B        16.26988983     11.39978218     16.26523972
H        16.84389496     10.58828354     16.85260201
H        16.31953239     12.24955273     19.87839127
H        14.76500416     10.84344673     19.81907845
H        14.82885647     12.24501038     21.08360100
B        15.58571148     11.49320126     20.52450752
H        16.38756561     10.83472633     21.15617561
H        16.54743195     12.14515591     24.28016663
H        15.04499340     10.81140518     24.45952606
H        14.90685749     12.10392952     25.85538864
B        15.76432133     11.50005913     25.14737892
H        16.53245926     10.64701653     25.88164330
H        16.85190010     11.55251217     29.10983467
H        15.46452045     10.30877495     28.96171188
H        15.44902229     11.71613216     30.61613464
B        16.11102486     11.00262547     29.79062653
H        16.94964027     10.35915852     30.55025482
H        16.39492416     16.47579575      1.47659898
H        15.19368458     14.97247505      1.52904367
H        15.21292686     16.40410995      2.70793867
B        15.87401962     15.65194321      2.18537712
H        16.45788002     14.85707378      2.84258032
H        16.62835121     17.04588699      6.42787218
H        15.21698189     15.44992352      6.42480278
H        15.38544750     16.88049126      7.75194407
B        16.06296921     16.14294434      7.05601168
H        16.58529663     15.49604797      7.87428474
H        16.61818695     16.87243080     10.89604568
H        15.34218407     15.42234421     10.83207607
H        15.26926422     17.00932121     12.22486305
B        15.88283348     16.15495491     11.55983734
H        16.66372681     15.44077396     12.13351440
H        16.42832565     15.12732887     16.84837723
H        16.55059242     16.56140900     15.38603687
H        15.17736244     15.14044380     15.52141762
H        14.98723125     16.61615944     17.02539444
B        15.71331215     15.97072983     16.19952202
H        16.38493729     15.23394680     21.43935585
H        16.53370094     16.89968109     19.94273376
H        14.99869156     15.23026276     20.08781242
H        15.09798050     16.65531349     21.34375000
B        15.86250401     16.01086998     20.63120651
H        16.62573242     15.15335083     25.86112022
H        16.65992737     16.64603615     24.48975563
H        15.26630020     15.13760185     24.50820160
H        15.19928932     16.69460106     25.94388199
B        15.91554260     15.99390411     25.18788147
H        16.96595955     15.28561592     30.15385628
H        16.83180046     16.51235580     28.95175552
H        15.25852108     15.24126530     28.77324486
H        15.30439758     16.64498711     30.15232849
B        16.01804352     15.80649853     29.48173523
H        16.84271431     20.04289627      2.86567521
H        16.99101639     21.44289970      1.41783893
H        15.48064709     20.02333450      1.54657936
H        15.41946888     21.37533760      2.94641614
B        16.24074554     20.79144478      2.09893727
B        15.72318649     20.66699219      6.87305403
H        16.46062660     19.85597610      7.53504276
H        16.41361427     21.37893295      6.11387587
H        15.07467365     19.94228554      6.15317345
H        15.04341984     21.37088776      7.47998619
B        15.89690495     20.67485809     11.49780655
H        16.75181389     20.00263405     12.19537830
H        16.68841934     21.27780914     10.74608040
H        15.21531868     20.04531670     10.72536564
H        15.16450500     21.34933662     12.20351028
B        15.91906166     20.47337341     16.12504768
H        16.55163956     19.72138596     16.88919449
H        16.54618073     21.21222305     15.43448734
H        15.16327190     19.78386307     15.49150372
H        15.16388035     21.15459824     16.82610893
B        15.94881916     20.26212311     20.78648186
H        16.51381874     19.57528496     21.46755981
H        16.51252747     21.08013916     20.07284164
H        15.31667042     19.57003784     20.06630516
H        15.29396152     21.10938454     21.49551582
H        15.17990685     20.81541634     25.98540115
B        15.91979694     20.04001999     25.24411583
H        16.76218987     19.25372314     25.90521431
H        16.69993210     20.67297173     24.57823181
H        15.26330471     19.25693512     24.51918602
H        15.04999924     21.16216850     30.31424904
B        15.73108292     20.35585403     29.62281418
H        16.48800468     19.69099808     30.35023880
H        16.45826149     21.16841316     28.92958450
H        15.02985382     19.70684433     28.91568756
H        15.57999039     25.65757179      2.68772459
B        16.41850662     24.98576164      2.12443781
H        17.18227959     24.36935616      2.84481239
H        17.11097145     25.74335480      1.55907726
H        15.49518013     24.44163322      1.56004941
H        15.31768131     25.80591202      7.51482916
B        15.97824764     25.20497704      6.73147964
H        16.75796509     24.65147591      7.41943407
H        16.89739037     25.84994316      6.24347782
H        15.21912479     24.45752525      6.18895102
H        15.20549011     25.90834045     12.24233150
B        16.02880669     25.19117355     11.58051586
H        16.65768433     24.46990967     12.21292782
H        16.69892311     25.92017555     10.90256023
H        15.23478508     24.46980095     10.94369125
H        15.14801979     24.52740479     15.07047367
H        15.03569508     26.02736092     16.52139091
B        15.70691490     25.28401184     15.76428413
H        16.40970612     24.48826599     16.44820595
H        16.40207481     25.94654655     15.03896618
H        15.18164349     23.83551216     19.59488678
H        15.31973743     25.16684341     20.94980431
B        15.88531113     24.54183960     20.25273132
H        16.49440765     23.88233948     21.04106903
H        16.53779793     25.30150032     19.59832573
H        15.34204769     24.71261787     24.39429665
H        15.30811977     26.13088799     25.82432365
B        16.00468826     25.44699287     25.10228348
H        16.82643890     24.67426872     25.82874298
H        16.77971077     26.08858109     24.40267372
H        15.19073582     24.31709671     28.99223709
H        15.14208698     25.64209938     30.36867332
B        15.97906303     25.09130669     29.58492661
H        16.54998970     24.37473869     30.26238251
H        16.74282455     25.72864342     28.85704422
H        15.44689465     29.07595825      1.11896992
H        15.43923187     30.48721695      2.50247359
B        16.18074799     29.72582436      1.77404547
H        16.96502304     29.05885696      2.51191115
H        16.92840195     30.46003151      1.13849163
H        15.40143204     29.16440773      5.65035295
H        15.36604118     30.43279076      7.08444309
B        16.20646667     29.72619629      6.44529724
H        16.98262787     29.01913643      7.19432449
H        16.80365753     30.36370087      5.68405294
H        15.17397118     29.18819046     10.53416729
H        15.34234142     30.52355194     12.01570797
B        15.91812992     29.80264664     11.28029346
H        16.61019897     29.30916595     12.06310272
H        16.62277985     30.58352852     10.64256096
H        15.25919151     29.21985245     15.31270313
H        15.35079575     30.65641975     16.72371674
B        16.01485825     29.92016792     16.05233192
H        16.69765663     29.29626083     16.73891449
H        16.78882408     30.76278496     15.29794502
H        14.95985031     28.84841919     19.72863960
H        14.95853424     30.25712204     21.07476616
B        15.72576523     29.46025848     20.38083458
H        16.46197319     28.84292793     21.07894135
H        16.42638779     30.22570992     19.75873566
H        16.75863266     30.17861366     24.13764381
H        15.36985016     28.80170059     24.14929390
H        15.37147236     30.16533852     25.55486107
B        16.18229485     29.46449280     24.97241402
H        16.82428551     28.72439575     25.63378906
H        16.71552849     30.38797569     29.11259842
H        15.34435177     28.97972679     29.09953880
H        15.25228596     30.49309921     30.50648117
B        15.98441887     29.68757057     29.81193542
H        16.76045418     28.94785881     30.44628334
H        21.21336174      3.23984122      1.22017014
H        19.84399033      1.83604646      1.13590765
H        19.87881660      3.28927732      2.69907236
B        20.47842979      2.61907887      1.89014184
H        21.15917397      1.97449505      2.59544969
H        20.99352837      2.96037245      6.15995264
H        19.74524689      1.63524699      6.29999256
H        19.62324715      2.94233084      7.62414312
B        20.32652092      2.29217863      6.97966099
H        20.99653625      1.49219847      7.64519358
H        21.30023384      2.80294967     10.93666363
H        19.93843842      1.43403447     10.94153118
H        19.93913078      2.79738998     12.30920696
B        20.62728500      2.13496137     11.60058784
H        21.37040901      1.35899222     12.38494110
H        21.19544601      3.19138336     15.32617950
H        19.87911987      1.61247194     15.25691414
H        19.97358513      3.16618323     16.66446304
B        20.50279427      2.38871026     15.94322872
H        21.22433090      1.65285075     16.71854973
H        21.57197189      3.06688380     19.97789001
H        20.10455132      1.58849978     20.03028870
H        20.06838226      3.05065680     21.29517746
B        20.83351326      2.34351492     20.64739799
H        21.53711700      1.57096052     21.27654648
H        21.15392113      3.01693296     24.40350914
H        19.84166527      1.71638083     24.43323517
H        19.78291512      3.04596066     25.96738625
B        20.44091988      2.39450932     25.17488861
H        21.12838554      1.71219277     25.91282463
H        21.25050545      2.86906123     29.12376785
H        19.84692955      1.43508625     29.23916054
H        19.73348236      2.86711574     30.57046509
B        20.59685707      2.19472980     29.86700249
H        21.26907539      1.30112290     30.59098053
H        21.31241417      6.21933889      3.17118311
H        21.18990898      7.58236456      1.62089384
H        19.84257698      6.25966549      1.53871405
H        19.89457512      7.61254597      3.07885838
B        20.52027321      6.83853054      2.37679315
H        21.05690002      6.13115454      7.73012209
H        21.17615128      7.69367313      6.29901695
H        19.77785873      6.04662561      6.33373880
H        19.79796600      7.63884354      7.79454327
B        20.41191673      6.89099550      6.94380283
H        21.20473289      5.93292379     12.34802151
H        21.21649933      7.39257956     10.73634052
H        19.88120651      5.99404383     10.80922794
H        19.91346169      7.28743792     12.25464630
B        20.57529831      6.73527002     11.51276112
H        21.20063019      6.22146320     16.91230583
H        21.22740555      7.60268593     15.34721184
H        19.74936676      6.28933287     15.44185543
H        19.75358963      7.50381804     16.84021187
B        20.54122162      6.86187696     16.14488792
H        21.53219223      6.11122179     21.58067894
H        21.52397156      7.25547743     20.08517647
H        20.16423416      6.12681532     20.09254646
H        20.07869339      7.33364677     21.65062523
B        20.79439926      6.71158695     20.86932755
B        20.86280251      6.82159567     24.71182632
H        21.42728996      5.90426874     25.36603737
H        21.44482613      7.50542831     23.90028191
H        20.22019958      6.00389147     24.01744080
H        20.11150169      7.49696779     25.37511253
B        20.67036438      6.90925026     29.65596199
H        21.31412697      6.30018282     30.36635590
H        21.42442513      7.67717028     29.01963043
H        19.86835861      6.24427080     29.07401657
H        19.89401245      7.59712553     30.39661217
B        20.51764679     11.56526947      2.16765118
H        21.07762909     10.86878777      2.90398288
H        21.32748222     12.17556477      1.35554469
H        19.76527214     10.79843521      1.53504443
H        19.74106979     12.02026558      2.99853611
B        20.74665833     11.38908768      6.80644894
H        21.32144165     10.61727142      7.55959702
H        21.38949394     12.18501377      6.11697435
H        19.96694183     10.61420536      6.18195915
H        20.05017853     12.03679085      7.47942448
H        19.61148643     12.23037338     12.26219559
B        20.28712654     11.57157040     11.66470623
H        21.00988579     10.77476025     12.28066158
H        21.01214790     12.25110245     10.87499714
H        19.63887978     10.82062054     10.92311954
H        19.49537849     12.47954845     16.69159698
B        20.30116463     11.80865955     16.06455421
H        21.05706787     11.03004169     16.77483559
H        20.95303345     12.45875359     15.24116516
H        19.58550644     11.20341110     15.31050014
H        20.03706741     12.27619743     21.44956398
B        20.77077103     11.58358574     20.71323204
H        21.27326393     10.83205795     21.43151855
H        21.38769913     12.37258911     19.94738770
H        20.06693268     10.84387875     20.07364655
H        19.66657639     11.86987019     25.76149559
B        20.51296806     11.21963692     25.25493622
H        21.14080238     10.44279861     25.88663483
H        21.07497597     11.92918301     24.42052841
H        19.73938560     10.64074707     24.55265236
H        19.89372063     12.24163818     30.27677917
B        20.69594002     11.56169796     29.56623650
H        21.45103836     10.92358494     30.23628998
H        21.46038628     12.21049595     28.74012566
H        19.99217606     10.98155022     28.80743790
H        19.93400955     15.00894737      1.59802091
H        19.99494362     16.48904419      2.97831321
B        20.67880058     15.67825127      2.47543454
H        21.47779274     15.02324677      3.02494717
H        21.39796829     16.45585632      1.69214451
H        19.64136314     15.24398804      5.81768322
H        19.73319626     16.63488770      7.25066662
B        20.48386383     15.90332508      6.53567743
H        21.13479042     15.32871532      7.25777149
H        21.14055443     16.64775658      5.89664698
H        19.85959625     15.58925343     10.89432621
H        19.89258766     16.95192528     12.20868492
B        20.62680244     16.23913956     11.62828159
H        21.32057953     15.52084446     12.31008530
H        21.22274780     16.95549202     10.92374992
H        19.72904205     15.37461853     15.43023586
H        19.85755539     16.58600426     16.89156532
B        20.59856606     16.01866722     16.17300224
H        21.25831985     15.39857006     16.99612617
H        21.26120949     16.69345474     15.45129776
H        19.69737434     15.07729530     19.99230766
H        19.66837502     16.66649055     21.34209633
B        20.38923454     15.84858227     20.71236420
H        21.21175194     15.09350872     21.29688454
H        21.12895393     16.53848076     20.09131813
H        19.87899399     14.98696995     24.52112579
H        20.03344727     16.46006012     25.84010887
B        20.67261314     15.72177601     25.14577866
H        21.35395813     15.02495193     25.95657730
H        21.32765579     16.55022621     24.58541107
H        19.65763283     15.19311810     28.72453690
H        19.68047523     16.60846710     30.21567535
B        20.31815147     15.90599823     29.44505501
H        21.01571465     15.22149658     30.21013641
H        21.02945709     16.61667252     28.73917198
H        19.97639656     19.57873344      1.57919097
H        20.09237671     20.90872383      3.01785731
B        20.81055641     20.37057686      2.22050476
H        21.50978470     19.72160530      2.99096751
H        21.63729095     21.00934219      1.59455323
H        20.11360550     20.01515770      6.15725279
H        19.98055458     21.39917374      7.61933565
B        20.74226761     20.64055634      6.90473938
H        21.43260384     19.92855835      7.57288456
H        21.39236832     21.31248665      6.11088943
H        21.20478630     21.52686310     10.85627937
H        19.71354866     20.10521317     10.80125999
H        19.83236122     21.46306992     12.14889812
B        20.60079765     20.74918365     11.47090816
H        21.24445343     20.12056541     12.25236034
H        21.34262085     21.07265282     15.33576107
H        19.79513931     19.81477547     15.34625816
H        19.72020531     21.13709068     16.76011658
B        20.54251099     20.58890343     16.01013565
H        21.24308968     19.90380859     16.59614754
H        21.04094124     20.80080223     19.65627289
H        19.60422325     19.41699409     19.74558830
H        19.61766434     20.69804573     21.10447502
B        20.42070007     20.02394104     20.39789391
H        21.01165009     19.35697174     21.17793846
H        21.62796021     21.06497192     24.32020187
H        20.04584694     19.73494339     24.44140434
H        19.97124863     21.01836586     25.74352837
B        20.84444427     20.47895813     25.08858109
H        21.63727951     19.60441971     25.79945564
H        21.23211288     21.01822853     29.08757019
H        19.91145325     19.69048500     29.16498947
H        19.83682442     21.01543808     30.59272575
B        20.58968163     20.32184982     29.89276886
H        21.23906708     19.60611153     30.60246849
H        21.17663383     25.61308479      1.40539038
H        19.85301208     24.31420517      1.48528516
H        19.74612808     25.64007187      2.87504148
B        20.54621887     24.96718979      2.16426563
H        21.21272278     24.19821930      2.88414335
H        21.38789940     25.70642471      6.04265833
H        19.97984123     24.48360825      5.94429398
H        19.91863251     25.86599731      7.48010731
B        20.64263535     25.14471245      6.76848507
H        21.48373032     24.48614120      7.41636705
H        21.23033905     25.77902222     10.37503719
H        19.62235451     24.53112793     10.34089947
H        19.61745644     25.81805801     11.80488205
B        20.42466164     25.19457245     11.12788105
H        21.29256058     24.50304794     11.82806683
H        20.95127487     25.96966934     15.33897591
H        19.55418015     24.58125877     15.34656715
H        19.60126877     25.91499138     16.82602310
B        20.32124138     25.30628967     16.11018944
H        20.96126938     24.56367302     16.89069748
H        21.23954773     24.20767784     21.12157249
H        21.16721916     25.60317612     19.62910080
H        19.86646461     24.22500038     19.57409668
H        19.79633141     25.72831345     21.17438507
B        20.46415520     24.93423843     20.43440247
H        21.21848488     24.39686584     25.77953529
H        21.24724388     25.70804214     24.44996071
H        19.73404121     24.28415871     24.36601067
H        19.76922417     25.75680733     25.85706139
B        20.43665695     25.08528519     25.11342239
H        21.42665482     24.30016708     30.39713097
H        21.34473419     25.73364449     28.90724945
H        20.04696083     24.41875839     28.94392204
H        20.01929283     25.72464371     30.30620766
B        20.85334396     25.06642532     29.66282654
H        21.16964531     28.95025635      2.77675152
H        21.32162285     30.44487000      1.40758848
H        19.74305725     28.92852402      1.53783631
H        19.72176743     30.33591080      2.81977224
B        20.50862885     29.73960304      2.11533165
H        21.11171722     29.15538406      7.53084517
H        21.16271400     30.63408661      6.06784105
H        19.55933380     29.15829659      6.12175035
H        19.69429398     30.44521904      7.39297152
B        20.39313889     29.82523155      6.68937445
B        20.41942787     29.79645920     11.26170731
H        21.14259911     28.94222260     12.00572014
H        21.18658638     30.58661270     10.68760300
H        19.80880547     28.94918633     10.73855400
H        19.80327225     30.54119492     12.00428963
B        20.34455490     29.91607475     15.85616875
H        21.14398003     29.34736061     16.51443100
H        21.17194557     30.55947685     15.19847775
H        19.59490585     29.24498367     15.12406635
H        19.66170311     30.56709099     16.55001068
B        20.37733841     29.78210831     20.40569496
H        21.01529312     29.09477806     21.14891243
H        21.07636642     30.51578522     19.82336807
H        19.52493858     29.00884247     19.79851151
H        19.64109802     30.42448235     21.11868477
B        20.63783455     29.91977692     25.23778534
H        21.44730377     29.31205750     25.96625900
H        21.34129715     30.61130333     24.60477829
H        19.89348793     29.30163193     24.48834801
H        20.02856255     30.59266281     25.84161186
H        20.01704216     30.53104973     30.39299774
B        20.77483940     29.74545288     29.79899406
H        21.59959030     29.10634995     30.40171242
H        21.55186844     30.49204445     29.24385643
H        19.95102882     29.04905128     29.13883591
H        24.37094498      2.91057849      3.10172963
B        25.19803429      2.23936701      2.46120095
H        25.95980263      1.45591497      3.10856795
H        25.94805527      2.90567040      1.76698959
H        24.39238167      1.48418880      1.78351653
H        24.53429985      2.97444463      7.62388039
B        25.11871338      2.17626953      6.89602804
H        25.90836525      1.55556893      7.57794285
H        25.96492958      2.98507118      6.29500580
H        24.43776321      1.41309607      6.20909739
H        24.38250160      2.97639918     12.46770191
B        25.12149429      2.33027601     11.70586967
H        25.89795685      1.47331679     12.42861652
H        25.93697166      2.97632718     10.97819424
H        24.46938133      1.52111185     11.06500244
H        24.18455887      2.95489216     16.65506363
B        24.87305260      2.20962739     15.93021297
H        25.62858582      1.43009639     16.64846039
H        25.61394310      2.93364668     15.19770336
H        24.13704109      1.37597752     15.12894058
H        24.64368248      1.46616459     19.85473824
H        24.70535851      2.88518715     21.28469276
B        25.32896423      2.18035269     20.54670525
H        25.97016716      1.52228117     21.29025269
H        25.97702980      2.89760995     19.90399170
H        24.71398926      1.53483176     24.32475281
H        24.73833656      2.95663118     25.77197266
B        25.44934845      2.28338623     24.98797989
H        25.95365906      1.54038882     25.79076195
H        26.03143120      3.05319238     24.25253868
H        24.37998581      1.69502914     28.74520874
H        24.26103592      3.21004128     30.26493263
B        25.16796494      2.50374293     29.52569008
H        25.76543236      1.59093428     30.25007629
H        25.71709251      3.14684463     28.68945312
H        24.48194504      5.92836905      1.44097733
H        24.50306320      7.38305235      2.88638735
B        25.12895393      6.62344027      2.13284731
H        25.78157616      5.97718668      2.85868883
H        25.84900284      7.42278004      1.42236876
H        24.36501312      6.14158916      5.97847366
H        24.29263496      7.52466202      7.45015144
B        25.08425903      6.83307076      6.71167564
H        25.76846123      6.11326981      7.40609169
H        25.76041794      7.47255850      5.95819759
H        24.47463608      5.95421505     11.02422047
H        24.53493309      7.46720600     12.47574043
B        25.17495346      6.59826374     11.74543095
H        25.94199371      6.00891209     12.48134136
H        25.92100906      7.45181990     11.09990311
H        24.65835953      5.96825123     15.34841061
H        24.56159210      7.23645353     16.67844772
B        25.40064240      6.70180607     15.98524570
H        26.03569412      5.86019325     16.68973541
H        26.03504753      7.24709606     15.24099922
H        24.57493210      6.04607153     19.86739731
H        24.53772163      7.49766827     21.35126495
B        25.24566078      6.70156622     20.67033005
H        26.00809860      5.94109774     21.41902924
H        25.88492584      7.44226027     19.88559532
H        24.68132401      6.09241056     24.54740524
H        24.77125549      7.71970367     26.02108383
B        25.37326813      6.92255688     25.31873512
H        25.93004036      6.20311356     26.00031281
H        25.94784737      7.71674013     24.64029884
H        25.51375198      7.41742325     29.03296089
H        24.18655396      5.92754793     28.98358727
H        24.19392395      7.45942545     30.47698402
B        24.83587265      6.67457247     29.72611618
H        25.52581024      5.96486187     30.44704056
H        25.83996773     12.37277222      2.00261664
H        24.39165878     10.84797382      1.83777320
H        24.41470337     12.51457024      3.36654305
B        25.06240654     11.72669125      2.64589643
H        25.85715866     10.99562645      3.24193668
H        26.04061127     11.95350552      6.05259848
H        24.62187767     10.47972107      6.12525320
H        24.65142822     11.85130024      7.46559381
B        25.36434746     11.20594501      6.77205086
H        26.02774811     10.41992855      7.55493784
H        25.85782623     12.27734375     10.59316635
H        24.59310532     10.99967480     10.67974567
H        24.32634735     12.45752430     12.22103500
B        25.12959862     11.74063778     11.50417233
H        25.83925056     10.93167305     12.02227783
H        25.99018669     12.11116791     15.02654076
H        24.56907082     10.56818485     15.07505989
H        24.55926132     12.07246017     16.54682732
B        25.21860504     11.34815121     15.68671417
H        25.88223648     10.62761688     16.47758484
H        25.81703377     12.59214497     20.15281487
H        24.31548882     11.06190300     20.14813042
H        24.41060257     12.50171185     21.60718536
B        25.05551910     11.69328499     20.83775330
H        25.79039955     11.09322262     21.67098236
H        25.97210693     12.23368931     24.30989456
H        24.58971405     10.70824528     24.31054878
H        24.58215523     12.24059296     25.67586136
B        25.34743690     11.48899841     24.98867989
H        25.98861122     10.69108391     25.68546104
H        25.77664948     12.08453274     29.08873558
H        24.26305389     10.68416119     29.12145996
H        24.24063492     12.07422733     30.53820992
B        25.00094795     11.29650784     29.78637123
H        25.78149605     10.64659405     30.55335999
H        25.86490822     16.68899536      1.69982660
H        24.43525505     15.32159901      1.66147709
H        24.54502487     16.61757469      3.16344380
B        25.24908257     15.84880829      2.51043916
H        25.92300606     15.30184937      3.29296374
H        25.73836136     15.47828579      7.47934771
H        25.82629776     16.83772659      5.99542952
H        24.47543335     15.40051556      6.00559521
H        24.53662872     16.76636505      7.49592209
B        25.17103004     16.17396927      6.63658714
H        25.89365005     15.35168839     12.33957672
H        25.94679832     16.70103073     10.79378986
H        24.60626411     15.34911251     10.84436321
H        24.55900383     16.69771957     12.38941479
B        25.21407890     16.09778595     11.48497391
H        25.88202858     15.21404743     16.91134262
H        25.90355682     16.75160599     15.46483517
H        24.34543800     15.32585621     15.59817219
H        24.30677986     16.65692520     16.83818817
B        25.16187859     16.07542038     16.24239159
H        25.90981293     15.43077087     21.18152046
H        25.83293152     16.75620079     19.81073761
H        24.47383499     15.44671345     19.74980164
H        24.37669373     16.91427612     21.26271629
B        25.11442947     16.16617584     20.47052002
H        25.74943161     15.49547005     25.81853104
H        25.64897728     16.82907867     24.54172516
H        24.20018387     15.40120602     24.34700584
H        24.25179291     16.97218704     25.86118507
B        24.95260620     16.11332703     25.10497665
B        24.83773422     15.73469162     29.94644547
H        25.50833130     15.11547947     30.63771057
H        25.59735107     16.50831604     29.28794861
H        24.12106895     14.98565483     29.24714279
H        24.21989250     16.45029449     30.66870880
B        25.38964462     20.43983841      2.07215214
H        26.15481758     19.80965233      2.94275308
H        26.22878838     21.17302513      1.63558900
H        24.64479065     19.60984612      1.50975144
H        24.80217552     21.14147758      2.98517466
B        25.09629250     20.57835197      6.76670647
H        25.83596039     19.85636139      7.49877119
H        25.87980652     21.17488670      5.99834585
H        24.35852814     19.87668228      6.06251383
H        24.33593178     21.13331604      7.50104618
B        25.22641373     20.61128426     11.44999886
H        25.74995995     19.70211411     12.18985271
H        25.89459419     21.27810860     10.68151474
H        24.51534081     19.75712013     10.88115501
H        24.43173409     21.16207504     12.21845245
H        24.21987534     20.95031357     16.76222610
B        24.98328590     20.34001160     16.11138916
H        25.63650703     19.57365990     16.78296471
H        25.70044708     21.03498840     15.35116577
H        24.15055275     19.52507401     15.36652088
H        24.56631660     21.41996574     21.24435806
B        25.13137627     20.68013763     20.62001419
H        25.94399452     20.02085114     21.22621918
H        25.93585968     21.39369392     19.90870667
H        24.49857330     19.93497467     19.81469154
H        24.37958145     21.17501831     25.82778740
B        25.07033157     20.43226814     25.26464844
H        25.72732735     19.81315231     25.95613670
H        25.63404274     21.21008492     24.47026443
H        24.28653526     19.84845352     24.41228485
H        24.54304123     21.22764397     30.53052139
B        25.21598434     20.58273697     29.79052925
H        25.82760429     19.84983444     30.54221725
H        25.90075684     21.31248856     28.93564987
H        24.58800888     19.90649796     29.06546211
H        24.39242935     25.84278870      2.95980024
B        25.08121681     24.93307686      2.26297045
H        25.90165520     24.28385353      2.84407306
H        25.84879303     25.67420006      1.54718447
H        24.49192619     24.26762581      1.47809219
H        24.45400047     24.52635956      6.10942888
H        24.39276123     25.83437538      7.54440784
B        25.13499832     25.18737793      6.90506458
H        25.90583801     24.46088409      7.54864311
H        25.91364098     25.84641075      6.03615093
H        24.23880959     24.47742653     10.78104115
H        24.33489609     25.98415947     12.07320404
B        24.93229103     25.32700157     11.40590286
H        25.61827278     24.67673683     11.96998024
H        25.77952766     26.04219055     10.81909752
H        23.98795128     24.26754761     15.05568886
H        24.00439453     25.76745605     16.52423668
B        24.69382477     25.08652496     15.73263168
H        25.37247467     24.32259178     16.48563576
H        25.41641045     25.77279091     15.06679630
H        23.99599075     24.68739891     19.80590439
H        24.13043213     25.87530327     21.16862869
B        24.84267044     25.24609756     20.43819427
H        25.62871552     24.76325798     21.22721291
H        25.63317680     25.93834877     19.87730217
H        24.36639786     24.50941277     24.32131195
H        24.38007927     26.07118797     25.70251656
B        25.05056572     25.33377075     24.97933006
H        25.87903404     24.56248093     25.66312981
H        25.92100525     26.07376862     24.33240891
H        24.33423424     24.58128166     28.87026978
H        24.45277023     26.10578918     30.25144768
B        25.02330780     25.31299210     29.66193199
H        25.84309387     24.69296265     30.25830650
H        25.77921486     26.04876709     29.04582977
H        24.58812523     29.02377129      1.69397783
H        24.53281593     30.47817612      3.16405559
B        25.22144890     29.68656731      2.44553494
H        25.85738373     29.04264641      3.08987451
H        25.87682915     30.42344093      1.69340622
H        24.44640160     28.87696457      6.38873339
H        24.39907074     30.23919678      7.82204866
B        25.12358856     29.62455940      7.13310337
H        25.90838051     28.82299042      7.82869196
H        25.96137047     30.29883194      6.28176832
H        24.29280472     28.84388733     10.61856174
H        24.24347305     30.30191612     12.09728527
B        24.89078903     29.66285706     11.35950565
H        25.52019501     28.88290405     12.00893688
H        25.61934471     30.31271744     10.55842781
H        25.69446373     30.41883278     15.26143169
H        24.37514305     29.14756584     15.14040470
H        24.34831429     30.56668663     16.60266876
B        25.04563713     29.74699974     15.94032288
H        25.82193756     29.14111710     16.58228683
H        25.67164421     30.17704773     19.97574997
H        24.41821098     28.88183784     19.90239143
H        24.33293915     30.33567810     21.30155754
B        24.94550323     29.61575699     20.60745239
H        25.74817467     28.87866402     21.21945763
H        25.87999535     30.50238228     24.42711449
H        24.31993294     29.13920403     24.23926735
H        24.41028976     30.59987068     25.65289497
B        25.08375168     29.89031982     24.96530724
H        25.90846252     29.29858398     25.58387184
H        25.50010490     30.69699097     29.08215523
H        24.03808784     29.29057503     28.97592354
H        24.05313683     30.78817177     30.33103180
B        24.83312035     29.98803711     29.66156197
H        25.55629158     29.34061813     30.29603767
H        30.35971832      3.08961558      1.87307429
H        28.96854591      1.65588999      1.91940904
H        28.92263794      3.08918667      3.19250250
B        29.73760796      2.36155438      2.51478195
H        30.35477638      1.61449718      3.18798923
H        30.29825592      3.24494147      6.10132217
H        28.87582016      1.72020614      6.11907721
H        28.90867996      3.19432735      7.59869719
B        29.52249146      2.52649665      6.82950592
H        30.26931000      1.73139954      7.62036228
H        30.53294945      3.53546047     10.51924992
H        29.01819420      2.05266309     10.57907104
H        29.08798218      3.40585041     11.97255993
B        29.68180656      2.79161453     11.12852573
H        30.40578651      2.12000537     11.97500610
H        30.64508057      3.04145479     15.11302948
H        29.23323822      1.60144973     15.23187733
H        29.15705490      2.99879074     16.62458038
B        29.87652969      2.27978563     15.78004646
H        30.52765274      1.60003018     16.54981613
H        30.32366371      3.18796229     19.75237656
H        29.01642418      1.67530358     19.82176971
H        28.96029091      3.17470002     21.24708176
B        29.67259979      2.41252351     20.58742142
H        30.32444763      1.60512459     21.26113129
H        30.38073921      1.21811974     25.95987892
H        30.57875824      2.72712421     24.46885872
H        29.26466560      1.10786045     24.55661964
H        29.34972000      2.55430865     25.98508453
B        29.85860062      1.96632302     25.10711861
H        30.54799080      1.68245769     30.71284294
H        30.57627106      3.07003117     29.29240227
H        29.09226036      1.71496177     29.35318947
H        29.05641174      3.04509449     30.71618843
B        29.86486816      2.44505930     29.99650764
H        30.11654854      6.01145506      3.14076328
H        30.10114288      7.44841909      1.70834231
H        28.84776115      6.05087137      1.73235357
H        28.78970146      7.48246717      3.15940666
B        29.46508408      6.74818039      2.53548360
H        30.42917633      6.14140129      7.64658260
H        30.45433235      7.54862547      6.34542751
H        28.90056419      6.00417566      6.23335743
H        29.10295296      7.45830679      7.58142090
B        29.76553726      6.79407358      6.89148045
H        30.37751961      6.08582067     12.17240334
H        30.32137489      7.58799791     10.64705563
H        28.99918938      6.22873735     10.73382759
H        28.92599297      7.57442188     12.10268307
B        29.68459320      6.93499184     11.45567322
B        29.93447304      6.85358047     16.08954430
H        30.47856331      6.11943388     16.77638054
H        30.51903152      7.51583004     15.27801609
H        29.16554451      6.11888123     15.31793404
H        29.08694649      7.55450916     16.85552979
B        29.83407021      6.63713598     20.63359451
H        30.62579536      6.08128977     21.29269028
H        30.58501625      7.41390562     20.05838394
H        29.18259048      5.91672754     19.85304260
H        29.31089592      7.49094057     21.32894707
B        29.79057121      6.58068085     25.35209656
H        30.49112320      5.82157135     25.99706459
H        30.54433250      7.22602940     24.62612915
H        29.24749565      5.77989244     24.63765907
H        29.21233368      7.24965954     26.07390404
B        29.94408607      6.67257643     29.90939903
H        30.48350334      5.92088556     30.62226486
H        30.57969856      7.45564461     29.29511833
H        29.18316460      5.87179852     29.34222603
H        29.18932343      7.40237761     30.66519165
H        28.67808533     12.10478306      3.08328462
B        29.39319420     11.44362068      2.44477057
H        30.16501617     10.76216984      3.04069424
H        30.17175484     12.06893253      1.66438210
H        28.69333267     10.73482513      1.64377785
H        28.88979340     11.87765980      7.64257336
B        29.54362297     11.17280197      6.92901516
H        30.27786064     10.47136497      7.63636637
H        30.16423607     11.75782967      6.20095062
H        28.90502739     10.48039436      6.09635544
H        29.05298996     12.25435066     11.88471127
B        29.83085060     11.44981003     11.27272892
H        30.56000328     10.72465611     11.92828369
H        30.54878044     12.28670406     10.68334007
H        29.02909279     10.74433327     10.69179630
H        28.89839935     11.99953938     16.63033295
B        29.55428696     11.16036987     15.92983913
H        30.40436172     10.65935230     16.65205193
H        30.31720352     11.93410397     15.39306068
H        28.78187180     10.56454563     15.21109676
H        28.91248894     12.23178101     21.29414368
B        29.69526672     11.48144531     20.64628410
H        30.38630104     10.72346497     21.37655830
H        30.34775543     12.27565289     19.86260033
H        28.89175987     10.78515339     19.88574409
H        28.82386780     10.59685802     24.36080551
H        28.72264671     12.16034508     25.79900169
B        29.43052101     11.39859962     25.12430000
H        30.30946732     10.68958473     25.60505295
H        30.33259583     11.98952675     24.43040276
H        28.61547470     10.95321941     29.22594261
H        28.62910080     12.14916801     30.68211555
B        29.41344261     11.57333088     29.95981407
H        30.08895493     10.88365650     30.76530457
H        30.07600975     12.21941280     29.16932487
H        29.04685974     15.12661362      1.63369036
H        29.13662529     16.62577629      3.06645942
B        29.85100746     16.03241730      2.29376078
H        30.34612846     15.20098209      3.08185673
H        30.55026245     16.84530830      1.50392497
H        28.90049744     15.32780361      6.21092176
H        28.85247040     16.75320625      7.46850967
B        29.52141571     16.00903511      6.85257483
H        30.20062828     15.27688503      7.47140169
H        30.18708611     16.74255371      6.17354679
H        28.82397842     15.34252644     10.69009018
H        28.89083672     16.72042084     12.05851173
B        29.61585617     16.01637268     11.39307213
H        30.39251709     15.29833889     12.16955566
H        30.32285690     16.76180649     10.71556187
H        28.97135735     15.11346149     15.35845757
H        28.99315453     16.78160477     16.68151283
B        29.58984566     15.89712620     15.99513245
H        30.46493912     15.18502235     16.63175011
H        30.39631462     16.66321945     15.49864101
H        29.25913429     15.19457436     20.02997398
H        29.18288612     16.62801743     21.41517830
B        30.04854202     15.76522446     20.70374298
H        30.61076736     15.08141518     21.45208740
H        30.60150146     16.65565872     19.92608070
H        28.94718361     15.14449883     24.49127007
H        28.95751953     16.51743507     25.93365097
B        29.57971191     15.72295570     25.22568512
H        30.35637474     15.15600300     25.93248177
H        30.35634804     16.51623535     24.50280571
H        29.10877228     15.19703770     29.33043289
H        29.05783272     16.35650253     30.76772690
B        29.82652473     15.83818245     30.06611824
H        30.49392891     15.15725136     30.75657272
H        30.58284760     16.43426895     29.20172501
H        30.41278648     21.14525414      1.68837154
H        29.20269012     19.60151863      1.63292623
H        29.08868790     21.31470299      3.22918248
B        29.73918343     20.44561005      2.42703700
H        30.44652748     19.62322235      3.09347558
H        30.22904015     21.07297516      6.25267601
H        28.76709366     19.73888779      6.18162346
H        28.81231499     21.09880638      7.57114840
B        29.51391029     20.39607620      6.90036583
H        30.31442070     19.72456169      7.63069582
H        30.22763824     21.41093063     10.49099731
H        28.76729965     20.05907059     10.50809860
H        28.84361076     21.31751633     11.87399769
B        29.58876610     20.63622665     11.17547798
H        30.25025368     20.01935387     11.99002743
H        30.11271858     21.02119827     14.97049046
H        28.87637711     19.65934944     14.92443752
H        28.83634377     21.10728455     16.35979462
B        29.52439308     20.33393860     15.74540997
H        30.24098969     19.57713127     16.40197945
H        30.38577652     21.29706955     19.61837387
H        28.81455612     19.81505966     19.69625854
H        28.88358688     21.15015602     21.07884979
B        29.63624001     20.47285080     20.37279701
H        30.31695747     19.80599594     21.15694427
H        30.26873016     21.19786835     24.34543991
H        28.81236267     19.77749825     24.25624275
H        28.92979813     21.16962814     25.72857285
B        29.43806458     20.44824791     24.97313118
H        30.24000168     19.89542007     25.72808647
H        30.50224876     21.37309074     29.03661156
H        29.03331184     20.14979744     29.04381371
H        28.95380402     21.44539261     30.35206413
B        29.66148376     20.82246971     29.74745941
H        30.51500130     20.12984085     30.29251289
H        30.50856972     25.64867973      1.73331630
H        29.13879013     24.35982132      1.55367780
H        29.09798050     25.86912727      3.13583612
B        29.72693825     24.99927711      2.41992497
H        30.65221214     24.39581680      3.05903268
H        30.39317513     26.00826263      6.36325121
H        29.03534508     24.47835159      6.42490625
H        29.03545761     25.94649124      7.70208502
B        29.72858047     25.21160316      6.96808100
H        30.32515717     24.48471642      7.69583511
H        30.21024895     24.54931831     12.01019001
H        30.23069763     25.94633484     10.56287670
H        28.89043045     24.53308105     10.56708717
H        28.95744896     25.87510681     11.95940971
B        29.61133003     25.16776276     11.33865833
H        30.23495293     24.20505142     16.58872223
H        30.10003090     25.63101768     15.19046593
H        28.71124077     24.27380562     15.12429523
H        28.73602676     25.67240334     16.49518394
B        29.46829224     24.93195915     15.85397720
H        30.20092201     24.36922264     21.22625542
H        30.20236588     25.97583389     19.73124313
H        28.93601608     24.37696648     19.74043274
H        29.09951973     25.80314255     21.05500984
B        29.65235710     25.09805298     20.33517647
H        30.65279007     24.42597198     25.75761795
H        30.69520950     25.81824493     24.43056297
H        28.98266792     24.35217094     24.39918518
H        29.04142761     25.79086304     25.77265739
B        29.75556374     25.13821983     25.08702087
H        30.40307236     24.65692902     30.45971680
H        30.30786705     25.99409103     29.15260124
H        28.88165283     24.63256454     29.03303337
H        28.92819023     26.06712341     30.43754387
B        29.69792366     25.24838638     29.79859734
B        29.61318207     29.63175201      2.43630338
H        30.39658737     28.84783936      3.19264150
H        30.34862900     30.27391243      1.59736156
H        28.89598465     28.94594574      1.64751315
H        28.87344933     30.24629593      3.11707139
B        29.44534302     29.77725410      6.90646791
H        30.23951912     29.22525215      7.65902281
H        30.26856041     30.40427971      6.32230377
H        28.83596230     29.08360863      6.20969915
H        28.90348816     30.44935799      7.73314190
B        29.84108925     29.67750359     11.54758358
H        30.51938629     29.03270531     12.22342396
H        30.63435173     30.45631218     10.83325100
H        29.15658951     28.90682411     10.82233524
H        29.17965698     30.44416237     12.32623959
B        29.84296036     29.61281013     15.63092422
H        30.69800758     28.84556198     16.23223495
H        30.60783005     30.24113655     14.93262959
H        29.20626068     28.81602859     14.81291771
H        29.12873459     30.43837547     16.33929443
H        29.07194519     30.44996262     21.05946159
B        29.63135338     29.65745926     20.46899033
H        30.36220551     28.87879372     20.94697571
H        30.34090805     30.31618118     19.74018097
H        29.11003304     28.80439568     19.64448738
H        28.85962868     30.09803200     25.50827408
B        29.59137917     29.38041496     24.87050438
H        30.18903160     28.65912628     25.70817566
H        30.10818863     30.21709061     24.07988930
H        28.80539513     28.80479431     24.14471436
H        28.99396896     30.14599800     30.85825157
B        29.69981956     29.52935600     30.06044197
H        30.41264915     28.98146629     30.94695854
H        30.40427971     30.22633362     29.34902382
H        28.88864899     28.96485138     29.32403946
