3075

Na        0.32172072      0.04108528      2.36120367
Na       -0.19770668     -0.10448445      6.99688530
Na        4.50497103     -0.02860637     15.92085361
Na        2.22530532      0.18855418     18.19333267
Na        2.30845666      0.07746948     23.42209244
Na        4.44233465     -2.07023787     27.21287727
Na        2.01883149     -0.18106036     31.71817207
Na        2.12367535      4.41549921      9.44166565
Na        2.13032579      4.23937941     13.81398582
Na        2.11754775      4.77068138     18.29714584
Na        0.24268565      4.87747765     20.57866859
Na        6.78591299      4.72368288     27.46559525
Na        2.15520287      4.77356052     31.94148254
Na        4.79104948      6.83619308      4.15558624
Na        4.04367304      7.05938005      9.42640209
Na        2.05179358      9.13985157     13.77133942
Na        2.21305156      9.15952396     18.42757416
Na        2.56249118      9.38587761     23.24303055
Na        0.00225312      9.25309849     25.06489754
Na        4.28603554      9.47221947     29.59243011
Na        2.27418137     14.04702187      4.30142546
Na        2.55059862     13.96911716      9.13046265
Na        4.66249180     13.75057697     16.07563210
Na        2.37162566     13.74923229     18.22124672
Na        2.36472392     13.73727417     22.91012001
Na        4.62390947     13.76455975     29.52357674
Na        0.21192247     13.86177349     29.68235779
Na        2.22512388     18.15775299      4.15717125
Na        2.46453595     18.17964554      9.09720898
Na        0.17335603     20.85843086     14.00215626
Na        2.04655743     18.09651566     18.12120628
Na        2.78647542     18.31951141     23.02516937
Na        4.39768839     20.51526070     27.55280304
Na        2.29750967     18.23249245     31.86109161
Na        4.40550232     20.41390610      4.14960003
Na        4.14852428     25.23213005      4.40385151
Na       -0.20437287     23.40132713     11.45532322
Na        2.45260692     23.14482117     18.27041245
Na        2.22744346     22.73532295     22.81492233
Na       -0.13889873     20.54705429     27.51792526
Na        4.63474989     25.37228203     31.95673752
Na       -0.15891558     29.90209770      4.77158833
Na        2.06405950     27.51703262      9.10709667
Na        2.16291809     27.48656845     13.51976109
Na        2.25352097     27.60977364     17.97120285
Na        2.34977388     27.73542404     22.76263237
Na       -0.16636153     27.52653122     29.88383293
Na       -0.31411883     27.51912689     34.16478729
Na        4.38893414      0.51725888      2.02933216
Na        8.98602676     -2.28023815      9.36200237
Na        6.52329111     -0.06289251     13.67447281
Na        6.94097519      0.11796576     18.40280914
Na        6.88487530      0.06716626     23.00106239
Na        9.05473804     -2.17050385     27.73413849
Na        6.64723539      0.35687172     31.93034172
Na        9.34030628      4.51235962      2.56347132
Na        9.16796875      4.62733507      7.03760672
Na        6.60095882      4.74533224     13.69458294
Na        6.81699562      4.51600218     18.20171356
Na        4.68897390      2.35855269     22.73882675
Na        4.59540129      4.89604855     25.04846001
Na        6.84331036      4.46115160     32.10830307
Na        9.39166737      7.06185436      4.76264620
Na        6.83600807      9.50247192      8.97241306
Na        6.87958717      9.40911674     13.85366535
Na        6.89352083      9.53693485     18.57967949
Na        4.62963343      6.83995724     18.32206154
Na        8.93380737     11.58766365     27.58218575
Na        7.00896358      9.17859554     31.91599274
Na        6.68767023     13.74772167      4.63872576
Na        6.93564844     13.45410728      9.51389885
Na        6.74960661     13.62104416     13.71671772
Na        6.87861919     14.00880146     18.34285736
Na        4.83915710     11.41198540     23.05940437
Na        6.87610245     13.60373974     27.37787819
Na        6.93105650     13.54537868     32.22565842
Na        9.23324966     15.89999008      4.71975756
Na        7.04834223     18.41382408      9.52213478
Na        6.94054747     18.21839523     13.73166466
Na        6.53018856     18.81003380     18.22272301
Na        7.04018021     18.41199112     22.67059135
Na        9.19595814     16.07419205     22.87293434
Na        7.03204823     18.34283447     32.04838562
Na        4.64154482     27.52478409      2.15614033
Na        6.72107458     22.96459198      8.89911461
Na        6.59534550     22.67818642     13.37396431
Na        4.40601921     20.71575165     18.19619751
Na        4.82340813     20.84326744     23.11124039
Na        6.61504650     22.80391693     27.42995834
Na        6.84898949     22.80984879     32.27294540
Na        9.21327496     27.42072296      6.99634933
Na        6.77195597     27.49615288     13.78272057
Na        6.75266027     27.83787727     17.90515900
Na        6.68506622     27.36857605     23.04644585
Na        6.99152613     27.72918320     27.44082832
Na        2.25010252     27.57174110     31.84529114
Na       13.91681576     -0.41358432      2.24802661
Na       11.44987679      0.20450711      9.40833950
Na       11.37992764     -0.20669413     13.60752773
Na        8.99736595     -0.05966450     15.81388474
Na       13.35182095      0.19660847     25.18680000
Na       11.44252110      0.20058157     31.99110031
Na       13.61560631      2.31830406      4.44744492
Na       13.49106312      6.96441746     13.95516586
Na       11.32811737      4.30469799     13.86413670
Na       13.62224770      4.78027010     16.14059448
Na       11.22333145      4.67363644     22.88224602
Na       11.43862820      4.62603045     27.57204628
Na        9.30009460      2.34213066     32.25266647
Na       11.39487743      9.38175297      4.85854053
Na        9.15878010      7.08407688      9.38325977
Na        9.30603600      6.79020643     13.86424732
Na       15.92917633      9.30501175     18.21798897
Na        9.51400280      7.01449251     22.98862267
Na       11.41117859      9.04961014     27.73601913
Na       11.46177673      4.82999563     32.27688217
Na       11.33959579     13.55128098      4.65833998
Na       11.48046589     13.62388134      9.20589447
Na       11.53934097     13.81083488     13.78367996
Na       13.94357681     14.05920982     16.15215302
Na       13.61692142     13.43910503     25.44475174
Na       11.20466518     13.60593414     27.09942055
Na       11.47135544     13.84854126     32.22244263
Na       11.47420597     18.17029762      4.42177391
Na       11.42469311     17.75776482      8.98989391
Na       11.30951309     18.19675827     13.22248459
Na       11.12238884     18.69524002     17.89554214
Na       11.45710087     18.57548332     22.86651421
Na       13.35104656     15.96789455     27.49378586
Na       11.56772327     18.17387772     32.09805298
Na       11.28736019     22.75205231      3.99166942
Na       11.36649132     23.21447182      8.96348095
Na       11.33736229     23.14874077     13.43780136
Na       11.46474648     22.88860512     17.90712738
Na       11.56302929     23.39403152     22.61736870
Na        8.96964455     20.77499771     27.16321182
Na       11.47128868     22.72698975     31.73731422
Na       11.35708332     27.49921799      4.42855072
Na       11.30521488     27.54415321      9.19587040
Na       13.83962440     27.76932144     16.02070045
Na        9.08279896     29.72916603     18.03928566
Na       11.41926575     27.36352158     22.67172813
Na       11.21346378     27.19910049     31.66512680
Na       13.40124512     27.47947311     29.33392143
Na       15.99069118     -0.05977324      4.86608982
Na       16.19720078      0.15086925      9.21636486
Na       15.78234673     -0.01029930     13.59728718
Na       15.91596508      0.06046553     18.19424820
Na       17.98843575     -0.08891868     25.10642433
Na       18.08152199     -0.14179365     29.81632614
Na       18.30719376      2.43667150     32.12362671
Na       13.92414856      7.09021664      4.83105898
Na       18.40258980      2.43337607      9.38294888
Na       13.71976376      6.74570179      9.22680378
Na       13.75549030      2.27907920     18.07919693
Na       15.75363827      4.42658615     22.60465622
Na       13.53849030      4.56274080     24.98042870
Na       18.41792107      4.56271458     34.70779037
Na       15.93378830      9.09778881      4.29749107
Na       15.95456219      8.97910881      9.35948944
Na       13.25930309      9.17849445     11.59167576
Na       18.09337425     11.50223637     18.32368660
Na       15.94200897      8.89274979     22.83688736
Na       18.14697266      6.86175442     27.71317863
Na       13.63724709      9.44180679     29.80231476
Na       15.97097206     13.48558235      9.33387947
Na       17.76012611     15.82376575      8.76203346
Na       15.98429298     13.74745750     13.53336430
Na       18.14861488     16.04973793     18.33573341
Na       18.16530609     13.76120090     25.05755997
Na       15.90634632     13.72177792     27.30451584
Na       15.97323418     13.93294525     31.55476189
Na       18.17263031     20.67344856      4.55420017
Na       15.93988514     18.83452225      8.83438778
Na       15.92340755     22.60348129     13.56732464
Na       15.90671921     18.56422043     18.21385002
Na       16.06376266     18.09146690     23.08526802
Na       13.90923786     18.10085869     25.30555153
Na       16.08305168     18.52769852     32.07434464
Na       15.69190788     22.95626831      4.00695086
Na       15.91065121     22.64156342      8.69684505
Na       15.72897625     22.89071465     18.18588829
Na       17.74440193     22.73530579     16.11382484
Na       15.95123577     22.91563797     22.62061119
Na       13.82510757     22.75768089     25.14180374
Na       16.13063431     22.74380112     31.72505760
Na       15.93671227     27.40728569      4.83525324
Na       15.84287167     27.35050392      9.21787834
Na       18.40418243     24.83475685     13.96017742
Na       16.06474495     27.76554871     18.17340088
Na       13.85286140     25.10655022     27.15653610
Na       16.15876579     27.50661278     27.66437149
Na       15.78813648     27.30647469     31.79266739
Na       23.12618065      2.41098213      4.77039623
Na       18.63027382     -0.03441243      6.95455074
Na       22.87204361     -2.17294717     13.76040363
Na       22.60930634     -2.29484224     18.32136154
Na       20.35640907     -0.45208696     22.77215385
Na       22.74881363     -2.27339482     27.91196632
Na       22.96559715     -2.59509778     31.75532341
Na       20.47332573      4.48480606      5.24812365
Na       20.58799171      4.47271299      9.38320255
Na       18.06360054      4.75439453     16.27274513
Na       18.42514038      2.54861474     18.07858658
Na       23.12542152      6.81080008     22.97610664
Na       20.57163811      4.52286148     27.63548660
Na       20.62302780      4.44359684     32.38177872
Na       18.09724045     11.26565361      4.67995262
Na       20.49258995      9.54490185      8.95155907
Na       20.29087448      9.31886673     13.69753647
Na       17.83084869      9.07352638     15.95553303
Na       20.46849823      8.55588245     22.72538376
Na       20.44356346      9.14819527     27.04732132
Na       22.80551529      8.97577763     34.21460342
Na       18.08548164     16.07857895      4.33515930
Na       15.98736572     13.35863495      4.71106386
Na       20.47462463     13.61729813     13.69050312
Na       20.64093781     13.66006947     17.99313354
Na       20.76037025     13.94251442     22.58352470
Na       20.60098076     13.71185112     27.68785477
Na       22.90816498     11.22267723     31.89959335
Na       18.03382683     17.96650124      6.76887226
Na       22.57059860     18.05044746      6.36834764
Na       15.83714485     18.12222862     13.49112797
Na       18.50239372     18.37075615     16.14640617
Na       18.10345268     18.34083939     21.00672531
Na       20.56368446     18.49047852     27.52548027
Na       20.73040009     18.34884834     31.81600761
Na       20.51715469     22.93427467      4.65476990
Na       20.38894463     22.78282738      8.89607143
Na       20.47857666     23.11056137     13.61951160
Na       20.30669594     23.04468918     18.12575531
Na       25.25314903     23.09174919     22.68730736
Na       20.56648445     23.03664589     27.45579147
Na       20.48103714     23.02162361     32.21806335
Na       20.72835159     26.98979950      4.70035505
Na       20.55755234     27.42037964      9.20329666
Na       22.90381432     27.28870201     11.53491879
Na       22.93150139     25.23707962     18.55552864
Na       22.60065269     27.91111755     25.37050438
Na       18.57902145     29.46497726     27.50295448
Na       20.51756477     27.49111557     32.39101410
Na       24.88249779      0.11842618      4.81024599
Na       25.27967834      0.69429874      9.50051689
Na       22.72888374      0.20040345     11.42791080
Na       25.10560226     -0.50374627     18.74391937
Na       27.66693687     -2.09419036     23.15534592
Na       25.15441704      4.46312523     27.23307800
Na       22.74909210      0.21641468     34.45608521
Na       23.01680946      2.30778933      9.26277161
Na       22.66413307      4.42125034     16.12500381
Na       22.88628387      6.99064827     18.57627869
Na       27.68830490      4.62179613     20.68514442
Na       22.49623871      4.53024149     29.72624969
Na       24.97156715      4.56994915     31.92185402
Na       25.18386459      9.10912323      4.60935307
Na       25.23706627      9.21207619      9.41434765
Na       27.68360710      8.95100880     16.05444908
Na       25.20522690      9.28056908     18.14150429
Na       25.09822655      4.70636368     22.93825150
Na       25.03172302      9.39583969     27.60159492
Na       24.97325325      8.89925861     32.11489868
Na       27.46805382      9.03695583      2.47788858
Na       25.08460045     13.64291191      9.22464371
Na       25.23079491     13.62286282     13.69824600
Na       25.23071289     13.70400620     18.28428078
Na       27.40863037     11.39540100     22.68991089
Na       27.10423470     13.58631897     25.04849434
Na       22.58481598     15.88518620     32.16728592
Na       27.09119034     20.33230019      4.73563910
Na       27.46548271     18.63844872     11.55338001
Na       22.76728821     15.91357708     13.69938850
Na       27.30978203     16.25765610     18.36817551
Na       22.68325806     18.39544487     20.68004608
Na       25.43907928     17.89962769     27.63562202
Na       27.29959869     15.92331123     32.11464310
Na       24.98846626     23.04787064      4.12912941
Na       25.01452065     22.71640396      9.24081993
Na       25.11020470     22.97385216     14.02265644
Na       25.29236603     22.98570442     18.51263046
Na       23.57916069     20.48379898     27.31360245
Na       25.32289696     22.86646271     27.42464066
Na       24.97328568     23.01332474     32.10268021
Na       27.30921364     27.49135971      6.87548447
Na       27.34805107     29.43602562      9.24335575
Na       24.91545868     27.36170578     13.82615662
Na       20.58548546     27.34517479     18.25944138
Na       27.69540405     25.43783188     22.75652885
Na       25.32277298     27.48473167     27.71504974
Na       24.97452736     27.14835930     32.20644379
Na       29.78855324      0.32161528      0.02217044
Na       31.74547577      0.20726775     11.64061069
Na       31.91155243      2.61336684     13.63804436
Na       27.31729698     -2.11722064     18.28178787
Na       30.11723709      0.06003253     23.00621986
Na       27.51347733     -2.32798576     32.20379639
Na       27.78175735      0.10526442     29.77064896
Na       32.07215500      4.81262112      2.30470395
Na       27.35396576      4.55473661     11.70955849
Na       27.23107910      2.15410066     13.88535023
Na       27.18884850      2.31398129     18.22309685
Na       31.83420372      4.60140038     25.16224098
Na       29.68545532      4.69172621     27.40786362
Na       32.25352097      7.04693460     36.57735062
Na       31.84242630      9.44678974      2.10744619
Na       27.67410851      9.30217075      7.00887489
Na       29.78861618      9.62334538     13.42477894
Na       27.66990089      6.94320726     18.73070145
Na       29.77048492      9.41715050     22.65731049
Na       34.27029037      9.32002163     27.29447746
Na       29.64041519      9.10208607     31.85223007
Na       29.66730499     14.36054516      4.54482841
Na       29.35621262     13.83856964      9.20999336
Na       29.54725266     13.66632557     13.43013954
Na       29.72059250     13.78409672     18.46423531
Na       24.93088341     13.61724567     22.81464386
Na       27.54509735     15.89973545     22.97246170
Na       27.63910675     11.35415745     31.91077042
Na       27.04833984     18.20550346      6.91256952
Na       29.45681381     18.46652222      9.42430496
Na       29.81127930     19.12018585     13.98791218
Na       29.71571922     18.45478058     18.54656982
Na       26.95266914     18.22429657     20.64430809
Na       29.55747414     18.33105469     26.94546890
Na       29.59084702     18.39770889     31.75252342
Na       27.06644630     22.85634232      6.79613972
Na       32.01021957     18.41735649      6.72046995
Na       27.48542404     25.32729721     14.14416599
Na       29.84894371     23.19331741     18.45378494
Na       29.89651871     23.02296448     22.78181076
Na       29.82333755     23.10776138     27.18771362
Na       29.46206093     22.73289490     31.75372505
Na       29.44948196     27.39410019      4.76360273
Na       29.58382607     27.21981239     13.63420677
Na       27.25014496     25.39817429     18.34821892
Na       29.95296860     27.66136360     22.88892174
Na       29.86100388     27.64369774     27.33030701
Na       29.74526787     27.38654137     31.74253845
Na       -5.05531836      4.78278208      2.41921687
Na       -0.19944306      2.45942879      9.40727329
Na        2.16887450      0.01497464     13.84440422
Na       -0.23903522      2.22073388     18.22650528
Na        0.14306881      1.96632671     23.31151199
Na        1.99460340      4.80963755     27.33653831
Na        0.00386213      2.38839674     32.16059494
Na       -0.46388626      9.44062805      6.84813738
Na       -0.07998540      6.81237364      8.86923695
Na        0.08596537      7.15025806     13.73482800
Na       -0.09864711      7.08884382     18.00752068
Na        0.07848868      6.92360592     22.96667671
Na       -0.17024800      7.08017731     27.25948715
Na        0.03118079      9.33425522     29.57673454
Na       -0.15680739     11.53122807      4.80838776
Na       -0.15195131     11.69905376      9.13363457
Na       -0.03927307     11.67296314     13.76287174
Na       -0.25109017     14.08436680     15.82903290
Na        0.15354449     11.41519451     22.24049377
Na       -2.17437553     13.71702957     26.84050941
Na        2.30359530     13.53537941     32.34032822
Na       -0.16306633     16.05479240      4.67697573
Na        0.17932677     16.04273987      8.99957085
Na       -0.41115972     16.30932426     13.73861790
Na       -0.07601579     15.95027542     18.52265739
Na       -0.00688969     15.89088058     22.51267815
Na        0.17581281     15.88356876     27.22521019
Na       -2.41993213     13.84580612     31.72127151
Na       -0.16534115     20.74838066      4.74786758
Na        4.53312540     22.94552040      6.73335838
Na       -2.50502753     23.06974411     13.75240135
Na       -0.02745937     20.67695427     17.92142296
Na        0.31536663     20.48719978     22.75909233
Na       -0.11457603     18.04884529     29.67653847
Na        2.10642719     22.86829185     31.99013710
Na       -0.32088220     22.82957840      7.00984192
Na       -0.02005374     20.39950752      8.66277504
Na        0.15223071     25.32362747     13.67137623
Na       -0.03312482     25.21757507     18.48698235
Na        0.09598116     25.32990456     22.98846245
Na        0.11279346     27.26236534     25.11169243
Na        0.14799622     25.15517807     31.89585876
Na       -0.15635563     25.23114014      8.68591881
Na       -0.33248252     29.69644165      9.20679092
Na       -2.45686626     31.98398781     13.64234352
Na       -0.17318550     29.68809128     18.26721382
Na        0.67762935     29.87223434     23.03054428
Na        2.50723791     32.17513657     27.38628578
Na       -0.00818606     29.82114792     32.01087189
Na        4.25633144      2.37881184      4.54171562
Na        4.35468531      2.14721823      9.49648952
Na        4.61070490      2.09499598     13.34854221
Na        4.40061855      2.30181313     18.46475601
Na        6.76450968      4.84265184     22.65572929
Na        4.55096722      2.46658993     27.62732124
Na        4.28587627      2.26565027     31.89312363
Na        4.61320496      9.29511070      6.90602636
Na        6.62730980      4.95104074      9.28055573
Na        4.54865742      6.79807329     14.11435986
Na        4.50194502      4.83781958     20.53023148
Na        2.14624953      4.88148069     22.80959320
Na        4.74448395      6.83304119     27.59888268
Na        4.54808092      6.73974133     31.66801071
Na        4.31714296     11.65322113      4.48356199
Na        4.62838459     11.37648010      9.12143898
Na        4.40523672     11.43491554     14.05200863
Na        4.52835560      9.37820530     20.65018463
Na        6.87559462      9.09063721     27.60321426
Na        4.84112406     13.87042236     25.10468483
Na        2.37730885      8.87767982     32.10868835
Na        4.79198408     18.23851395      6.72148657
Na        4.39020395     16.04708862      9.03014374
Na        4.28026342     16.10405540     13.83936310
Na        4.51141691     16.25039864     17.92735672
Na        4.50906658     16.11675072     23.00838661
Na        4.73429632     16.06723404     27.43701172
Na        4.78648853     15.81985378     32.05783463
Na        6.79411888     22.64542389      4.38059902
Na        4.37269974     23.08419609     11.25708771
Na        2.32074547     18.63131332     13.50378704
Na        4.96657085     22.82666206     20.97188568
Na        4.41076374     22.88860893     25.36915207
Na        4.60340452     17.94044113     29.92683983
Na        4.21341896     20.62002182     31.69794846
Na        4.33102274     29.98381996      4.51108408
Na        4.52426291     25.13735771      8.81304073
Na        4.75942469     25.09004784     14.14686394
Na        4.93885326     25.43803978     18.02852631
Na        4.25826931     25.21260071     22.97273636
Na        4.39936304     25.50262642     27.19760895
Na        4.57280016     27.50740814     29.49153519
Na        2.07779980     27.62749290      4.45800877
Na        2.02196622     31.78743362      9.78894711
Na        4.60633659     29.77781868      8.84815598
Na        4.48446655     29.87185669     18.34949493
Na        4.65730429     29.78299522     22.74546051
Na        6.87913752     31.92633629     27.27859688
Na        6.57968283     27.63118362     31.98374176
Na        8.73784924      0.17422955      2.33367634
Na        8.91792297     -0.11984164      6.93148327
Na        8.84168243      2.44637871     13.79534626
Na        9.14944839      2.52992654     18.07904243
Na        8.83673191      2.54249287     22.74125481
Na        9.36253166      2.45830870     27.36042976
Na        8.85144329     -2.37036395     32.17449570
Na       11.71912193      4.80488586      4.92535830
Na       11.38257504      4.36889410      9.08310699
Na        9.16131878      4.82666588     11.37734222
Na        9.15134048      4.80782270     15.99303436
Na        9.50770187     11.62469101     22.77156639
Na        8.97617245      6.93830776     26.99106979
Na       13.61487865      4.67428732     34.70871353
Na        6.88049364      9.28008461      4.95582390
Na        9.01597691     11.51775169      9.31462193
Na        9.24758148     11.52615070     14.17987347
Na        9.09916687     11.52617741     18.25594521
Na        9.19028378      9.63780689     20.74696922
Na        8.92384148      9.55397034     25.07726097
Na        9.02253532     11.72737885     31.93351936
Na        9.01726437     13.80570316      2.52303290
Na        8.86590385     16.14354706      9.16694641
Na        8.94426727     15.93019962     13.58332348
Na        8.98803520     16.20767784     18.31435966
Na        9.06716156     13.80199623     20.60384750
Na        9.03706455     16.06288719     27.40138626
Na        9.36153698     16.22452736     32.08341980
Na        9.17383099     20.70791626      4.50704432
Na        9.14229679     20.50466347      8.89561176
Na        9.14688683     20.67030907     13.73528385
Na        9.05942535     20.67763138     18.59759521
Na        9.24614239     18.48830986     24.98315620
Na        9.08382416     18.36228943     29.71729469
Na        9.02357960     23.22872162     29.78932571
Na        9.34339523     25.41142273      4.76106071
Na        8.99240875     25.29109764      9.17833519
Na        9.05816650     24.99313164     13.78520489
Na        8.80401325     25.18900871     18.21491432
Na        8.61081886     24.91356659     23.13379097
Na        9.52400208     22.80431938     24.92463493
Na        8.78633404     25.31295776     31.98638916
Na        8.78450012     29.84802437      4.25579309
Na        6.60572100     27.25617218      9.30961895
Na       11.37811375     27.94487953     13.81237602
Na        9.01081276     29.83430481     22.81101036
Na        9.16735554     27.26838303     25.43840790
Na        8.89161777     27.60911942     29.76909637
Na       15.83820534      4.34148788      0.24717405
Na        8.94801903      2.38741851      8.88942909
Na       15.89922714      4.62135363     13.85336018
Na       13.71915150      0.10000684     20.63707733
Na       13.12463188      4.46999645     20.56068039
Na       14.00292969      2.28161955     27.51811218
Na       13.78797436      6.96616602     32.01356125
Na       13.54739952      9.42882442      2.34584570
Na       11.42703342      9.33028698      9.60364819
Na       11.24863434      9.33530998     13.80549335
Na       13.48091888      6.84098768     18.55750465
Na       13.52848339      6.85838795     23.20276451
Na       13.90368176      9.15532875     25.47186661
Na       11.45917988      9.12131691     32.13981628
Na       13.53834152     11.39556885      4.61491537
Na       13.99313927     11.35931778      9.00046730
Na       13.77693939     11.42806149     13.74848366
Na       13.70622253     14.23251534     20.50019455
Na       13.69960499     11.51100063     23.17202377
Na       13.62450504     11.60900021     27.63894272
Na       13.67684841     11.54773617     32.12892914
Na       14.03409576     16.04102135      4.66059732
Na       14.06965065     15.81234550      9.19003868
Na       13.33404160     15.73719120     13.53568268
Na       13.46903038     16.28713226     18.40396690
Na       14.05791950     16.06492233     23.01967049
Na       13.73815536     16.19226074     32.12147522
Na       13.84874249     20.64360237      4.82108593
Na       13.28004074     20.52634048      9.26972771
Na       13.54965973     25.06159782     17.91267967
Na       13.42369366     20.58464241     18.26341248
Na       14.01490688     20.61612129     23.00025368
Na       11.22444153     18.44295120     27.50508308
Na       13.66190624     20.79575539     31.57072449
Na       13.55319595     25.05638313      4.62468386
Na       13.67712593     25.27563477      9.18793678
Na       13.84544754     24.98241615     13.43132114
Na       13.66694832     27.67508316     20.49581146
Na       13.74658585     25.14974022     22.80060387
Na       16.01387787     23.08455467     27.44457245
Na       13.98830414     25.05486298     32.06033707
Na       13.57712078     29.54977798      4.33470774
Na       13.86808300     27.44762230     11.43506145
Na       13.55519867     32.25675583     11.37635612
Na       13.54516029     29.88279533     18.47916412
Na       13.71014404     29.68161964     22.71660233
Na       11.27861881     32.33274841     27.46798706
Na       13.60637474     29.35391235     32.05663300
Na       17.95083809     -0.00078777      2.66373992
Na       18.16518021     -0.24909005     11.59228039
Na       18.43558311      7.06771278     13.86617947
Na       17.99891281     -0.37054107     15.93912983
Na       17.96636772      0.06713768     20.35236931
Na       18.09919739      2.17319894     27.89574242
Na       18.01766205      4.70532656     29.97377205
Na       18.21780396      6.78308201      4.57708263
Na       17.98009872      4.65109015      7.10209179
Na       15.94388294      9.10754108     13.79082394
Na       18.00208664      4.30471373     20.70291519
Na       18.13705826      9.50794411     20.47041512
Na       15.85205460      4.52311993     27.35736084
Na       20.46835136      8.92590141     31.67861748
Na       18.46491241      9.18024158      6.85078669
Na       18.40412140     11.55441475      8.98183632
Na       18.07181358     11.45318985     13.64629841
Na       13.72350788      9.14367008     16.05447388
Na       18.50737190     11.35863304     23.05403709
Na       18.27338982     11.57987022     27.46997833
Na       18.01870918     11.41644669     31.81184196
Na       17.94654274     13.54545593      2.43178606
Na       18.12045860     20.59025764      9.28276825
Na       18.30648994     16.04322243     13.54632568
Na       18.20351601     20.59934616     18.13801956
Na       18.50150299     16.05505371     22.91262627
Na       18.47705650     20.66267204     27.13827324
Na       18.65810585     15.81808281     31.79226112
Na       20.51508904     18.17478943      4.21921206
Na       18.03765106     22.73894882      6.91584635
Na       18.04672432     20.43408966     13.86176586
Na       18.39448357     22.73370743     20.40055656
Na       18.29403496     18.18793297     25.19038773
Na       22.87644196     15.85207844     27.30600166
Na       18.43012810     20.78375626     31.71156311
Na       18.13435555     27.40316010      6.95641279
Na       18.28329468     27.21124840     11.50937462
Na       18.27552414     22.87668610     11.43148899
Na       13.82126808     27.35398483     25.03244591
Na       18.62361717     25.28769875     27.38800430
Na       18.15502930     25.29930687     32.19810486
Na       18.22155380     29.56535530      4.71206570
Na       18.40292358     29.44526100     13.88960075
Na       20.43111038     32.29912949     18.30782890
Na       18.01879120     29.73062325     22.88337135
Na       18.31749535     27.49328995     25.16862679
Na       18.25394249     29.83121109     32.35207367
Na       25.12395859      4.50667191      4.82543135
Na       20.45133018      4.71488380     13.82415771
Na       20.63484001     -0.04655455     13.76766586
Na       22.94021988      4.46824360     20.61966705
Na       20.36013412     -0.14764585     27.85446358
Na       23.15141678      4.34224892     34.41554642
Na       22.72799492      6.87172651      4.62244749
Na       23.00190544      7.01766491      9.00534439
Na       22.69012642      4.69085503     11.45000172
Na       20.51784706      4.32745647     22.80038834
Na       22.86938477      8.97655106     25.09031677
Na       22.77083015      6.70157194     27.70685387
Na       22.78447723      6.63109875     31.94264603
Na       22.77085495     11.45393372      4.44019604
Na       22.65720558      9.13090324     11.74945068
Na       22.43811035     11.35196781     13.84303665
Na       22.65082741     11.51092625     18.71888351
Na       22.47901917     11.34733582     22.72408867
Na       27.50397110     11.48816395     27.47033501
Na       22.84173965     13.80010605     34.41089249
Na       22.66736412     15.82888031      4.75461864
Na       22.43670654     15.93433571      8.89834690
Na       20.35466003     18.00053215     13.46159172
Na       23.44609070     16.17913818     18.39489937
Na       25.05564308     18.08819580     22.81955719
Na       22.56417465     13.99835396     29.74677467
Na       25.42202187     18.21911621     32.09042740
Na       25.01535988     18.19408417      4.63009596
Na       22.27655029     20.23507690      9.01415825
Na       22.47381210     20.60234833     13.57452774
Na       23.30427361     20.75724602     18.14543152
Na       23.24363136     18.06723213     25.08758163
Na       20.60284615     17.94095993     22.73911476
Na       23.20353699     20.48691750     32.03609467
Na       22.90610313     27.60558319      6.82331753
Na       27.46902275     29.92135811      4.71663666
Na       22.89398956     25.05871391     13.49593163
Na       22.78766060     23.19666672     20.66625786
Na       20.56053543     22.83932304     22.67566299
Na       23.12851143     25.38189125     27.07949448
Na       22.41913605     25.08696365     32.04793549
Na       25.26294518     27.25473213      4.19319582
Na       22.83990479     29.91633606      9.38960361
Na       23.04245186     34.25783920     13.78122997
Na       22.45198441     32.01871109     20.56617165
Na       23.01831627     29.79527473     22.86993790
Na       22.69126892     31.70478821     25.05245209
Na       25.21199226     32.02519608     32.07645035
Na       29.70828247     -0.14097424      4.56667089
Na       27.38819695      2.44522476      9.11702156
Na       25.11271667     -0.11429515     13.86321163
Na       25.06855965      4.53217793     18.41779900
Na       27.72794533      2.59494853     22.88006592
Na       27.38930321      2.06122947     27.43330956
Na       27.15575409      1.98473811     32.02803040
Na       29.71288872      4.54913616      4.39885187
Na       27.43273544      4.47533941      6.90488529
Na       24.95666885      5.04061317     14.09768391
Na       27.36251068      4.86522245     16.14364052
Na       27.49451065      6.86498785     22.79284477
Na       27.36006546      6.83999777     27.20927048
Na       27.30380440      6.77741385     31.81350899
Na       29.80459023      9.15755272      4.53669214
Na       27.33865929     11.53572655      8.91794682
Na       22.70690536      6.82355070     14.07347965
Na       29.62746620      9.30366993     18.74895096
Na       25.25197411      9.21755886     22.58503723
Na       26.95720291      8.97035313     29.80765343
Na       27.42729759     13.94237041     29.45488548
Na       27.41154099     13.65280151      2.32174563
Na       27.24142456     16.02859497      9.03593349
Na       27.59835625     16.15411186     13.47336864
Na       27.46626663     13.48893261     20.56157684
Na       27.22325134     18.50876427     24.93511391
Na       27.76459694     15.94187737     27.20557594
Na       27.30791283     16.07060623      4.67722034
Na       27.24502563     20.59956360      9.22157669
Na       27.42938995     20.86036682     13.81637192
Na       22.62285042     18.14844704     16.09885406
Na       29.42571259     18.62461281     22.74272346
Na       27.56654549     20.49580765     27.29107475
Na       27.44131279     18.29837608     34.32166672
Na       27.73054504     22.67668152      2.12939930
Na       27.34724808     24.95461655      9.32757378
Na       27.29081917     27.31698990     11.52151585
Na       27.56465149     27.65785408     20.69333267
Na       22.97625732     22.86192894     24.87148094
Na       27.16899872     25.23867607     27.37709236
Na       27.31592941     25.17673492     32.14944077
Na       27.30390930     31.89060783      2.65408635
Na       29.77046013     32.18810272      9.45380974
Na       27.20938492     29.70642853     14.23526669
Na       26.95595551     27.82681847     16.02752876
Na       27.69355583     32.29736710     25.20279312
Na       27.37197876     29.71453094     27.17981529
Na       27.43811417     27.42825699     34.04076385
Na        0.21808834      2.21011806      4.35095882
Na        2.10710073      0.06911631      5.00790596
Na        0.07098368     -2.03989649     13.87241745
Na       -0.20872551      0.17563346     16.07485962
Na        0.23058616      0.52007234     20.70856476
Na        0.15974978      2.13665724     26.98828697
Na       -0.00127365     -0.01759911     29.74627304
Na        2.25149822      4.88136005      4.89025974
Na       -0.29501590      4.27754259      6.78062677
Na       -0.32995948      4.98236513     11.36643600
Na       -0.16209620      4.79437542     16.12393379
Na       -2.35280657      4.67678118     22.95571709
Na       -0.02891499      4.49965000     29.66039276
Na       -0.06882879      6.75154543     31.62105560
Na        2.23797345      9.35767460      4.94165468
Na       -2.33087540      9.29114151      9.49989796
Na        0.31087878      9.10061359     11.42618084
Na       -0.43328583      9.39314938     15.66003895
Na        0.26338041      8.94799900     20.34669495
Na       -0.00857134     11.24000168     27.51140594
Na        0.43605947     11.41763306     31.91376686
Na       -0.20055912     13.54752254      2.25678968
Na       -0.09472509     13.50619888      7.04841614
Na        0.33414301     14.15184593     11.52911854
Na        2.23959136     13.74314308     14.01085281
Na        0.04829203     11.62887955     18.56954956
Na        0.16261032     13.63030910     25.19018364
Na       -0.17896870     15.84696007     31.92187500
Na        0.02948770     20.54507828     -0.26931712
Na        0.06391113     18.17694092      2.12190938
Na        0.13011472     18.82353020     11.45694256
Na       -0.20029859     18.27293587     15.93856716
Na        0.31633556     18.07829094     20.45743752
Na       -0.21811128     18.31701088     24.97247505
Na        2.06392074     18.21996117     27.50350952
Na       -0.14343712     22.65999222      2.31218791
Na       -2.47638440     22.83789062      4.66492128
Na        4.51019955     20.45720291      8.89854717
Na       -0.12755452     23.28421593     16.06921005
Na       -0.02035522     22.93276978     20.64097786
Na       -0.07038980     22.65452194     25.12076187
Na       -0.14665475     23.08041191     29.74514961
Na       -0.23515293     25.18262291      4.43425226
Na        2.06452823     22.50197411      9.16175079
Na       -0.08729142     27.56636047     11.39609051
Na        0.02366380     27.41724014     15.88381195
Na        0.27890947     27.91004944     20.42759514
Na        0.12570646     29.73704147     27.41480255
Na        0.02494013     24.98240471     27.49552155
Na        4.42801857     -2.19451666     -0.01654717
Na        4.69813108      0.19106239      6.73748016
Na        6.45375824      0.25430712      9.01635551
Na        4.58624697     -2.28765273     13.34072590
Na        4.51479387      0.12618764     20.60607338
Na        4.71484613      0.37885407     25.17978668
Na        4.49761295     -0.00344457     29.59396744
Na        4.83438015      4.46725225      2.16439509
Na        4.78627825      5.04316282      6.73571157
Na        4.68469667      4.68937159     11.43248558
Na        4.38688803      4.29880476     15.94139290
Na        7.02854919      9.33690453     22.83267212
Na        4.75551128      6.95363808     22.75008392
Na        4.36159515      4.60967016     29.82455444
Na        4.65741253      9.15264988      2.46260524
Na        2.18405581      9.38438129      9.11635208
Na        4.74397850      9.07325554     11.72239017
Na        4.38904476      9.47245789     15.97773457
Na        4.57320356      9.24118614     25.55266762
Na        9.27741623      8.96384335     29.85642624
Na        2.53746843     13.51991367     27.22348404
Na        4.69553232     16.07920837      4.48250198
Na        4.75786686     13.59611416      6.95961142
Na        4.26554203     13.92633343     11.62573814
Na        4.64505053     11.75524330     18.72174072
Na        4.39709520     13.98162079     20.54387093
Na        6.96701622     13.73521519     22.90539551
Na        4.49216127     11.30677128     32.16949844
Na        4.55320740     18.27736855      2.22147012
Na        6.84516573     18.68718338      4.60907650
Na        4.46252632     18.21373749     11.52531338
Na        4.70824814     18.32127190     16.08763123
Na        4.17866850     18.64964676     20.55742645
Na        4.85375452     18.08529282     25.19528008
Na        6.88253641     18.49342346     27.63755608
Na        4.24971628     23.03027344      2.22372150
Na        2.07033253     22.80570984      5.16719770
Na        2.35638332     23.03746986     13.81467152
Na        4.82747984     20.67113495     13.80481148
Na        6.88554430     22.79187012     18.48973656
Na        2.18563342     22.57824707     27.24831581
Na        4.27187014     23.21343803     29.78748894
Na       -0.06587141     27.59125710      6.90249443
Na        4.14153099     27.32830811      6.77534437
Na        4.16294765     27.40033150     11.19779873
Na        4.58161545     27.85124779     15.82115841
Na        4.55146837     27.32878494     20.61017799
Na        4.54547691     27.50169373     25.05821800
Na        2.35066819     27.44255066     27.22361565
Na       11.44846725     -0.16934793      4.42779636
Na        6.64153767      0.47042811      4.39292860
Na        9.08626080      0.54051626     11.46934032
Na        9.04938507     -2.20037603     13.49930954
Na        9.00036907     -0.06529908     20.52396774
Na       15.91753769     -0.18511604     27.11882591
Na        9.28345490      0.26209328     29.75170135
Na        9.74545383      2.34115839      4.78302574
Na        7.04632521      4.67830372      4.68679476
Na       13.86498165      4.22552919      7.03415871
Na       11.21677303      4.78701544     18.09591103
Na        9.39461327      4.42448139     20.41555405
Na        8.91548157      4.60271311     25.14346313
Na        8.96113110      4.38277626     29.78468513
Na        9.32501507      8.73347855      2.51594377
Na        9.11158371      8.95298195      7.17839718
Na        8.94556141      9.20589733     11.57309818
Na        8.76126194      9.26231766     16.06866264
Na        9.33576965      7.20942640     18.40292931
Na       11.35954666      9.38590622     23.13499260
Na        9.28571701      6.80764008     31.84419441
Na        9.17324257     11.45738316      4.52714396
Na        9.28874588     13.51116753      7.06055164
Na        9.16516304     13.31773758     11.62759781
Na        9.28125858     14.15277195     16.21441269
Na       11.54365444     13.62394238     18.59160805
Na        9.11941814     13.84524632     25.15029144
Na        9.19474602     14.21403980     29.73206329
Na        9.10630989     18.39523697      2.40517282
Na        9.13159752     18.22938347      6.76719475
Na        9.26798344     18.27667999     11.42506027
Na        8.84157372     18.65418243     15.97478294
Na        9.10577106     18.56503105     20.46264648
Na       11.73422718     14.06550026     23.07283211
Na        9.29354954     20.73873138     31.91936302
Na        9.05394363     23.42956352      2.28174782
Na        8.85980892     23.08807755      6.70807791
Na        8.91655827     22.91685295     11.25381851
Na        8.75468445     22.68865204     15.86158180
Na        9.08610725     20.80969238     23.07536125
Na        9.14918137     22.87636185     20.78586388
Na        8.98036194     25.30904961     27.39464188
Na        9.15295601     27.44314003      2.26262856
Na        6.73454189     27.25614548      4.53529215
Na        9.19425869     27.32694244     11.52230930
Na        9.13957119     27.14104080     16.09215355
Na        8.82408905     27.17579079     20.61345100
Na        9.23609638     32.19439316     25.12970734
Na       13.54482460      2.34563971      0.10447396
Na       13.33303356     -0.07372704      6.99876165
Na       13.61785412     -2.11467266      9.25933647
Na       11.48496628      0.10831940     18.45300674
Na       11.26215172      0.23721935     22.76021194
Na       15.90060234      0.11529929     22.67081070
Na       13.60295391     -2.15092897     27.01341629
Na       16.18979645      4.38705349      4.77569389
Na       15.92652130      4.63882160      9.26391029
Na       13.54804420      2.40558171      8.97745228
Na       13.66203117      2.19737267     13.75801563
Na       13.50469303     -0.10085689     15.80735493
Na       13.55985641      2.43130159     23.09357834
Na       13.36810112      4.42435455     29.88422394
Na       15.81554222      9.19504452      0.23321152
Na       13.71109104      9.10608959      6.92702818
Na       13.64182091      4.69637775     11.70285702
Na       11.35440254      9.47023392     18.42299461
Na       13.81423378      9.40279579     20.85557938
Na       15.73948574      9.29632854     27.50105858
Na       13.62059879      6.96102905     27.66209793
Na       13.76349163     13.89728832      2.32277799
Na       13.80263329     13.44820786      6.62074614
Na       13.61463070     13.27578545     11.46480751
Na       13.84409142     11.66310787     18.41463852
Na       15.96819115     14.10235691     18.38125801
Na       16.18592262     13.23609257     23.08586121
Na       13.61154747     13.78743553     29.89670563
Na       13.91839504     18.56331825      2.59991241
Na       13.34383678     18.33830261      6.80481005
Na       13.67875862     18.29704666     11.25235939
Na       13.38403130     18.15727615     15.83103848
Na       13.55524158     18.49740982     20.61535835
Na       13.36873913     20.60470390     27.55785942
Na       13.96563435     18.28538132     29.49863243
Na       13.71113586     22.57696915      1.97716939
Na       13.53177929     22.71693230      6.90060616
Na       13.65336704     22.88596916     11.31453800
Na       13.39466000     22.48272324     15.62006760
Na       13.76712894     23.09879112     20.35210037
Na       11.31493282     22.86590958     27.26271820
Na       13.59177208     23.35887718     29.46350479
Na       13.41883183     27.24803925      2.35506225
Na       13.47291374     27.55633736      6.75484896
Na       13.71318913     29.71921539     13.45686913
Na       11.31551933     27.60127068     18.52776146
Na       16.00197411     27.08101082     22.64864159
Na       11.42802238     27.61474228     27.10685158
Na       15.98920059     32.25809097     32.22149658
Na       13.59775925     -0.19864392     -2.31382203
Na       18.29113197      2.17959356      4.87616968
Na       18.07137299     -2.20146179      9.23484039
Na       18.13882637      2.26540375     13.57211781
Na       18.40406227     -2.15181637     18.13126564
Na       18.05634308      2.18431282     23.05410385
Na       20.40450478     -0.09456062     32.56518936
Na       18.15035820      6.91008711      9.02891541
Na       23.13357353      9.39383698      6.94951057
Na       18.42469406      5.07345104     11.49170780
Na       15.63276482      4.72094965     18.45721245
Na       17.95958328      6.36249352     22.80866623
Na       18.21476364      4.43699884     25.30047035
Na       18.23927116      6.85238552     31.98768616
Na       18.23766327      9.20231628      2.34041238
Na       18.13221741     13.45237637      6.78962612
Na       18.22637177      9.26383209     11.40304089
Na       20.32155228      9.42640305     18.05922699
Na       18.02383041      7.00490904     18.73263931
Na       18.21947861      9.01668262     25.24572754
Na       18.24014091      9.18811703     29.62671280
Na       20.50450325     13.49080849      0.51212811
Na       20.48718834     13.69071770      4.75504684
Na       18.67401695     13.82736778     11.20575333
Na       18.51941109     13.81825638     15.85893726
Na       18.33599854     13.57209206     20.31083298
Na       17.85574150     15.89360523     27.46460533
Na       18.35267448     13.73936939     29.66288757
Na       18.29450226     18.32687569      2.19104481
Na       16.20556831     18.27389336      4.49777508
Na       20.39766312     17.95093346      9.03464508
Na       13.35075188     20.33168983     13.21023941
Na       18.42480850     20.36747551     22.73023033
Na       18.09840393     18.38845253     29.61032295
Na       15.76552963     18.59891319     27.08552361
Na       18.10010719     22.54423523      2.15118361
Na       18.24115372     25.32081223      9.06964207
Na       18.09247780     18.18441582     11.51609993
Na       17.98407364     25.18458176     18.03216362
Na       18.52995300     25.22756004     22.92297745
Na       18.43967819     22.84314919     24.90090179
Na       18.40033913     22.94084549     29.46962166
Na       18.25096130     27.28685188      2.44290853
Na       18.28744507     25.02682686      4.62602329
Na       16.22195816     27.19061661     13.55205536
Na       18.22014046     27.41646957     16.17160416
Na       18.14752960     27.33992958     20.45079613
Na       20.52863884     27.78272247     22.64634895
Na       17.86812973     27.43559837     29.86214828
Na       20.33130646     -0.47983408      4.75624561
Na       22.76021767      0.19484188      6.98756838
Na       20.75388718      0.00065231      9.38808250
Na       22.76863480      0.10569711     16.03125572
Na       22.79921341      2.37726402     18.52811432
Na       25.25385284      0.23879257     22.75205994
Na       25.31771469      0.02844342     27.52811813
Na       22.63562393      2.18970728     -4.04678059
Na       23.07347679      4.80628252      7.04416656
Na       27.39445686      0.32705843     16.05719185
Na       20.37544823      4.71123219     18.16260910
Na       22.59297752      2.26370692     22.86977386
Na       22.80376434      4.68315315     25.29937553
Na       22.72926521      2.13120675     31.88415909
Na       20.57648087      9.05971813      4.41077614
Na       22.73423004     11.53197193      9.25480938
Na       27.04508209     11.47368431     13.65584564
Na       22.97177124      9.63671398     15.95115566
Na       22.70681381      9.52537823     20.58823967
Na       22.90682793     11.15014935     27.22515297
Na       22.70284462      9.12993813     29.66257668
Na       24.86626434     13.41506767      4.55935955
Na       23.00887871     13.46740818      6.88155985
Na       22.54603958     13.88878632     11.30501747
Na       23.37574959     13.58704853     16.09683037
Na       22.98394012     14.20683575     20.32327652
Na       24.90500450     13.43713856     27.23147774
Na       22.45670128     13.68868160     25.30047417
Na       22.81149673     18.09693527      2.09749508
Na       22.60331154     20.38841629      4.46844912
Na       22.50806427     18.11877823     11.75252819
Na       24.92421532     18.53557587     18.29640579
Na       20.42754745     18.19559097     18.23172188
Na       23.11793137     15.99432755     22.82829857
Na       22.87957191     18.22487831     29.63885307
Na       22.60458374     22.80002594      2.37297916
Na       23.16331482     22.64157104      6.75697374
Na       22.93877983     22.96422577     11.60619545
Na       22.87281799     23.18547058     16.04728699
Na       22.43569374     20.34709740     22.74324608
Na       22.72277832     25.47926712     22.83653259
Na       22.70043373     22.85304832     29.77419662
Na       23.10775948     27.10764313      2.27938485
Na       22.89256477     29.94697762      4.32534456
Na       23.03793526     25.31534767      8.97668648
Na       20.55025482     27.05343819     13.82717037
Na       25.01727295     27.30973434     18.74732399
Na       25.09026527     27.84310532     22.75819206
Na       22.40664101     26.63916779     29.81128120
Na       27.27369118      2.31054854      4.70106554
Na       27.26412964      0.15059325      7.26033974
Na       27.16802406     -0.35427266     11.59005260
Na       29.81609726     -0.00276267     18.60850334
Na       27.68232727      0.04268048     20.54241371
Na       29.76708031     -0.01844465     27.60548592
Na       22.73057747     -0.24579440     29.94388580
Na       29.48914146      4.88361740     -0.05351543
Na       29.55446815      4.63403082      9.28282833
Na       25.16061783      4.80216122      9.26318169
Na       29.63264847      4.59315586     14.14818859
Na       29.60905838      4.27363348     18.32726288
Na       27.43605042      4.61559057     25.12731552
Na       27.28783035      4.29324579     29.80800056
Na       27.44205284      6.76800108      4.92686462
Na       27.34860039      7.10981226      9.28148746
Na       27.13986588      9.29322338     11.56541634
Na       27.26794243      6.95222759     13.64632130
Na       27.28695107      9.23725891     20.47203064
Na       27.44794464      9.36993408     25.03662682
Na       29.25868607      8.88726997     27.89385986
Na       27.70450783     11.61456490      4.43899679
Na       27.28422928     13.55074120      6.64298058
Na       27.18815994     14.00207615     11.53393650
Na       27.54745674     14.08993149     16.16210556
Na       27.64571190     11.50019073     18.16170883
Na       30.00591469     13.89743900     22.77392197
Na       24.95196724     13.75919724     31.53106308
Na       29.73608017     18.40465736      4.81803656
Na       24.64704323     18.06984711      9.56298161
Na       25.37749100     18.61536789     13.65062428
Na       27.38812256     18.41004372     16.00177765
Na       27.52571869     20.69151688     18.18156052
Na       27.43835068     20.88076401     23.06076431
Na       27.70101547     18.25166893     29.58219719
Na       27.24781036     20.51912880     -0.14867353
Na       29.55832481     22.66395187      9.22254658
Na       27.53425407     22.94427490     11.29975128
Na       26.93646622     23.05711174     16.00791168
Na       27.63858795     23.22129440     20.50464439
Na       27.64173317     22.99369812     25.08833504
Na       27.49167252     23.10734558     29.74061966
Na       27.09638023     25.02468109      4.53124714
Na       29.40341949     27.13498688      8.98148060
Na       25.13011932     27.54718399      9.18705750
Na       29.81631851     27.23354340     18.35985565
Na       22.96030807     27.76503563     15.86601257
Na       27.43497467     27.24323463     25.08483505
Na       27.35586739     27.43562508     29.96359253
O        -0.08357853     -0.15561835      4.64508009
O        -0.08770045     -0.13314313      9.42223358
O        -0.15349758      0.13904537     13.84680557
O        -0.08881807      0.07912371     18.29471016
O         0.29981744     -0.02660786     22.78265381
O         0.16775154     -0.13597147     27.70505524
O         0.00614067      0.08598744     32.06176758
O        -0.03608105      4.69448471      4.75473738
O        -0.25820816      4.60249615      9.21114254
O         0.11158524      4.79394102     13.71882439
O        -0.13861668      4.50143051     18.24615097
O        -0.11600590      4.80292177     22.88492012
O        -0.17524180      4.44725084     27.37061882
O        -0.02400111      4.54592896     31.84115601
O        -0.11798339      9.27396965      4.42557096
O         0.10231572      9.37604332      9.11201286
O        -0.04895024      9.49500275     13.58600426
O        -0.20725183      9.13908195     18.05970192
O         0.22521456      9.18728352     22.70817757
O        -0.10876388      9.22529793     27.51427460
O         0.20182537      9.18563843     31.90736771
O        -0.03383865     13.88823605      4.41398335
O         0.15131253     13.72129154      9.22781372
O        -0.21152778     14.07645416     13.54099178
O         0.21359916     13.65064526     18.09067345
O         0.11649055     13.58761597     22.74727058
O        -0.01492029     13.51352978     27.40286446
O         0.20822053     13.65196800     32.00237274
O        -0.04590129     18.22774696      4.63413143
O         0.00591863     18.51397514      8.96148300
O        -0.12029877     18.56905746     13.83083153
O        -0.13939148     18.17327118     18.26754189
O        -0.23738816     18.25728798     22.57685661
O        -0.02865970     18.43583870     27.34571457
O         0.03816237     18.28480911     31.81826401
O        -0.08066849     22.98222160      4.77465630
O        -0.04811158     22.94497871      9.30444527
O         0.00196481     23.04443932     13.71634769
O         0.06480668     22.93675804     18.43991470
O         0.11593898     22.97063446     23.00598335
O         0.15873563     22.85268784     27.46955490
O        -0.21129248     22.73522377     32.00809860
O        -0.18355086     27.40435791      4.60164261
O        -0.37261823     27.49059677      9.10091305
O        -0.13086763     27.59975433     13.68825531
O        -0.00195110     27.48809242     18.19496155
O         0.25587943     27.67511749     22.69832420
O         0.05594593     27.42824554     27.52580070
O         0.07743498     27.58537292     31.96788979
O         4.28384495      0.17367655      4.42186642
O         4.25243807      0.05565898      8.91811657
O         4.42975378     -0.05619650     13.82123661
O         4.31859589      0.09970585     18.25633240
O         4.69221497      0.08688469     22.81073189
O         4.54308558      0.31348833     27.52201271
O         4.31202030      0.22297208     31.84030914
O         4.67150211      4.48642921      4.48255253
O         4.40499306      4.86059523      9.31337357
O         4.33473396      4.53616905     13.68566227
O         4.52251482      4.49902058     18.12967110
O         4.38685751      4.70603228     22.75117493
O         4.59632683      4.82613277     27.39676666
O         4.46379423      4.52446270     31.83337402
O         4.55827236      9.23281479      4.72822189
O         4.55924273      9.33782196      9.35972404
O         4.54291439      9.02036953     13.81730366
O         4.52582121      9.06437778     18.40349197
O         4.58554983      9.39817905     23.01691628
O         4.60676003      8.97465420     27.62724686
O         4.58028793      8.85532951     32.07509232
O         4.58032990     13.79777336      4.76704025
O         4.68632793     14.07214355      9.28084087
O         4.70049286     13.68482208     13.80744839
O         4.61969471     13.90320778     18.37900734
O         4.51491880     13.80321980     22.88857079
O         4.76395655     13.78775024     27.17554092
O         4.69019890     13.74356937     31.82694626
O         4.75480938     18.35037041      4.32393885
O         4.65340948     18.13421440      9.24966145
O         4.62858105     18.13639450     13.80529976
O         4.41256571     18.50216484     18.30250740
O         4.86594248     18.51579094     23.06551361
O         4.57047606     18.17406082     27.57891464
O         4.54149437     18.07568550     32.17397690
O         4.38798141     22.92667389      4.57070112
O         4.27087498     22.66764259      8.87722683
O         4.54664326     23.00997734     13.42354584
O         4.65392303     22.77534103     18.80321693
O         4.39927959     23.05799294     23.06396294
O         4.32012701     22.92009163     27.58273697
O         4.41678715     22.98757172     31.89410019
O         4.50126028     27.37096405      4.20904064
O         4.33098745     27.29571533      8.95736885
O         4.44076204     27.50107193     13.62134457
O         4.63984966     27.65534019     17.88275337
O         4.61202621     27.24338913     23.04789925
O         4.66247272     27.69011116     27.40286827
O         4.52466249     27.55669975     31.91780281
O         9.03607941      0.04802643      4.73834753
O         9.36551094      0.29609770      8.91716671
O         9.00328350      0.14702813     13.64940929
O         9.02745819      0.22133164     18.01703262
O         8.98043156      0.47033262     22.79091454
O         9.34114170      0.21005829     27.46521378
O         9.03492260     -0.08353160     32.12583160
O         9.28184605      4.62114477      4.80271101
O         9.07127094      4.61547613      9.11545944
O         9.20696449      4.70281887     13.68508911
O         8.94345951      4.89975739     18.28775597
O         8.95409679      4.77576208     22.78794289
O         8.98948002      4.67617798     27.48462677
O         9.11706734      4.43758535     32.27773285
O         9.18757820      9.22874546      4.60102749
O         9.01633072      9.40208912      9.18625736
O         9.05434513      9.37985039     13.93259335
O         9.10187817      9.44751358     18.50864029
O         9.25356483      9.54578209     22.83106995
O         9.11068439      9.00204945     27.33887863
O         9.25321579      8.98892593     31.99575424
O         9.06935215     13.63355827      4.67345428
O         9.05316544     13.65226364      9.40147972
O         9.26279068     13.79247093     13.72851372
O         9.23245907     14.02556324     18.42700005
O         9.36108589     13.66858292     23.06429291
O         9.10139561     13.76253605     27.64400673
O         9.18394661     13.96792793     32.17012787
O         9.29127502     18.43433762      4.53630638
O         9.28574848     18.27140045      9.26123047
O         8.95050812     18.17278481     13.50554180
O         8.96141720     18.53426361     18.25735474
O         9.24573612     18.45822716     22.89214516
O         9.12989044     18.23608208     27.23460388
O         9.30171299     18.54055786     31.89339638
O         9.02316475     23.08616447      4.36058474
O         8.99298859     23.00976944      8.98905563
O         9.00513744     22.84208488     13.70625401
O         9.02309799     22.69116211     18.14579201
O         9.69147205     22.93377113     22.80974388
O         9.02152634     23.27435112     27.11103821
O         9.00271416     22.96891594     32.22570038
O         9.11952496     27.65483093      4.59410191
O         9.09670830     27.48987007      9.22999096
O         9.21685123     27.51301765     13.67046452
O         9.14189339     27.35779381     18.17549706
O         9.14848137     27.37965775     22.92205620
O         9.33655834     27.52004814     27.47173882
O         8.76969910     27.41033173     32.02845383
O        13.75858593     -0.07675193      4.68347263
O        13.59623718      0.09202003      9.28041744
O        13.73897266     -0.08611424     13.74532604
O        13.78052139      0.03993438     18.29392815
O        13.69541168      0.06290336     22.89785576
O        13.61426163     -0.05113975     27.55412102
O        13.54790688      0.13120770     32.32820892
O        14.20459080      4.58218718      4.85947752
O        13.67353249      4.44335270      9.26191044
O        13.50072575      4.42857838     13.94898891
O        13.38414860      4.64249659     18.22272110
O        13.37594318      4.63778687     22.86540794
O        13.57297039      4.46422100     27.64073753
O        13.86853981      4.69768906     32.07009506
O        13.89068604      9.23884773      4.53257227
O        13.60807705      9.05289459      9.13511181
O        13.54499149      9.21466541     13.69945049
O        13.79381752      9.30857182     18.26715851
O        13.62030125      9.23220158     23.26619720
O        13.54859924      9.12148190     27.70118523
O        13.66355896      9.42711735     32.23506546
O        13.64764786     13.71818256      4.43472576
O        13.70638371     13.67974854      9.33497429
O        13.56475353     13.66083241     13.92056179
O        13.68579388     14.02040958     18.31490517
O        14.06323338     13.69122028     23.22548676
O        13.72109318     13.90984249     27.55590248
O        13.71862698     14.12362385     32.01881027
O        13.69718742     18.35353470      4.76300240
O        13.69664574     18.24238396      8.96517849
O        13.57254982     18.26270485     13.57500362
O        13.34532547     18.47835541     18.36718750
O        13.96278095     18.34158516     23.10819244
O        13.55482769     18.23329163     27.38752174
O        13.69737434     18.41260719     31.81535530
O        13.49975586     22.83776665      4.31847954
O        13.55648136     22.90069771      9.07962132
O        13.55208874     22.69269753     13.48736858
O        13.63842678     22.79815483     18.27042961
O        13.87748528     22.79291344     22.72991753
O        13.59368515     22.80303955     27.37795067
O        13.85189629     22.83563805     31.71586609
O        13.57495880     27.25890350      4.50446939
O        13.43169975     27.38319206      9.26473331
O        13.48112679     27.49666405     13.59730339
O        13.72685051     27.51816177     18.11972618
O        13.72065353     27.49703217     22.73217583
O        13.72434807     27.67990112     27.16664886
O        13.62514019     27.24022484     31.78948021
O        18.22865868     -0.02692568      4.77154779
O        18.34780884     -0.06563143      9.08190918
O        18.28755379      0.05453193     13.79464722
O        18.21001434      0.26557708     18.08538628
O        18.07656288      0.08969564     22.92986870
O        18.21015167     -0.01210737     27.48526955
O        18.12858009      0.27493414     32.48764420
O        18.41309166      4.69143152      4.88074970
O        18.27972031      4.86877680      9.39938641
O        18.18536186      4.77385235     13.62326908
O        17.94080734      4.82308531     18.61681175
O        18.10003090      4.26342010     23.07098961
O        18.15938950      4.49092102     27.67338562
O        18.22573090      4.57243633     32.16009903
O        18.31329918      9.12840557      4.51924181
O        18.20010376      9.30292225      9.06527519
O        17.95464516      9.17928886     13.66840839
O        18.16728401      9.26096439     18.23536491
O        18.21149635      9.06842518     22.61964607
O        18.21399879      9.20845032     27.45166779
O        17.96868706      9.11542511     31.87436676
O        18.03363609     13.63611794      4.62302828
O        18.11265373     13.61905766      9.08407688
O        18.37691498     13.52965450     13.55550671
O        18.15704918     13.78885746     18.30972862
O        18.41337013     13.86192608     22.88159943
O        18.26297188     13.82922363     27.52414513
O        18.49046707     13.71123123     32.07224655
O        18.31848335     18.28441238      4.32844353
O        18.05884933     17.99871063      9.23128223
O        18.21969414     18.19665527     13.74417019
O        18.21311378     18.38731384     18.22201347
O        18.28615761     18.32696915     23.01559639
O        18.36157227     18.08588028     27.24360466
O        18.29210472     18.55675316     31.70791245
O        18.21441460     22.71341896      4.59524965
O        18.11236572     22.86079025      9.06461716
O        18.19935226     22.72072220     13.65495300
O        18.01814651     23.03527641     18.42645645
O        18.42700005     23.17597198     22.69134903
O        18.31654358     23.15560341     27.41220093
O        18.34182167     22.82512093     32.00932693
O        18.21559143     27.34458923      4.70235491
O        18.23416901     27.55739212      9.04527760
O        18.37758446     27.17722321     13.74392223
O        18.26468468     27.42671394     18.29069519
O        18.18224716     27.46446609     22.83140945
O        18.28658485     27.40537262     27.34300613
O        18.15716171     27.31322670     32.12560272
O        22.73724365      0.09503063      4.55719519
O        23.03185081      0.05668286      9.26692963
O        22.91318321      0.06627531     13.70294952
O        22.85605240      0.11008371     18.31426239
O        22.84118080     -0.01571295     22.70430756
O        22.66962242     -0.08958196     27.84770393
O        22.81883430     -0.11530453     32.12512970
O        22.91672325      4.73150301      4.81509829
O        22.82054138      4.55024576      9.37612724
O        22.66183472      4.58397961     13.88050556
O        22.73782539      4.71880198     18.38955879
O        22.95167732      4.54929781     23.12061691
O        22.85832787      4.48341942     27.53183174
O        22.84291458      4.37009287     31.97635269
O        23.06092644      9.20240498      4.46925354
O        22.92784500      9.24573421      9.35299015
O        22.66626549      9.26960468     13.95668793
O        22.60055351      9.38072681     18.32991409
O        22.69445229      9.00805378     22.72243309
O        22.74483871      9.00698566     27.44317627
O        22.81482697      9.00232887     31.84412193
O        22.69274521     13.55282402      4.63185787
O        22.82744408     13.71010590      9.04916000
O        22.80865288     13.53799820     13.78534222
O        22.98625946     13.62167263     18.09002495
O        22.94056129     13.62343216     22.59646606
O        22.70584869     13.72709942     27.49541283
O        22.85249901     13.73134804     32.17681122
O        22.62584496     18.14227676      4.23651457
O        22.44029999     18.00153542      9.49005699
O        22.64278603     18.47759056     13.87803459
O        22.70529366     18.40525627     18.36684418
O        22.93800926     18.18387413     22.82558060
O        22.96507072     18.20670128     27.29780579
O        22.99755478     18.17871284     31.76355743
O        22.80898476     22.40856361      4.41035986
O        22.56494904     22.83747292      9.13827801
O        22.72595024     22.78853989     13.70268726
O        22.87932014     23.05207253     18.50530624
O        22.78580284     22.73189926     22.85406113
O        23.01774597     22.90603256     27.51641655
O        22.79482460     22.67996216     32.02199554
O        22.81869316     27.52153778      4.36969423
O        23.05045319     27.58138466      9.21491814
O        22.73217201     27.67459869     13.75789165
O        22.91875648     27.50376511     18.05493164
O        22.63793373     27.69690514     23.19732475
O        22.93427658     27.30353737     27.66603851
O        22.80556870     27.35550499     32.04804611
O        27.48082352      0.26112166      4.77397633
O        27.23193359     -0.09335610      9.50181580
O        27.24347878     -0.10259140     13.88093853
O        27.33234596      0.10593943     18.34657478
O        27.82199097      0.16536109     22.96315765
O        27.52604866     -0.00134988     27.47353172
O        27.54543304     -0.05641012     32.08946609
O        27.46353912      4.62791729      4.66649771
O        27.37545204      4.59579659      9.23905754
O        27.32249832      4.71894407     14.00193310
O        27.50158882      4.54658794     18.48756027
O        27.28033638      4.70854235     22.98210716
O        27.26098061      4.47627211     27.39035225
O        27.26018906      4.50167990     32.09798431
O        27.42210388      9.26534271      4.82590628
O        27.46565819      9.32281303      9.14244747
O        27.67296600      9.22470570     13.80614281
O        27.46488953      9.00372314     18.31736183
O        27.43992996      9.17736435     22.86124420
O        27.09717369      9.09748268     27.50824356
O        27.41901207      8.94172382     32.02098083
O        27.39268494     13.74726772      4.31405401
O        27.27191544     13.78862190      9.04673576
O        27.34716606     14.00830460     13.91182041
O        27.39755058     13.89450455     18.34136963
O        27.05615044     13.68235683     22.59016037
O        27.57744408     13.66066742     27.38057518
O        27.38043594     13.51095390     31.84125328
O        27.41800880     18.26580048      4.72295952
O        27.20882034     18.29616737      9.35459232
O        27.61871910     18.45986366     13.72780228
O        27.29809570     18.47337532     18.34994698
O        27.25260162     18.46756172     22.90018463
O        27.63703537     18.19695473     27.36559105
O        27.58443642     18.44598198     31.87789345
O        27.26600456     22.76108360      4.45046997
O        27.26389122     22.71773911      9.13159657
O        27.43899155     23.20228577     13.68208122
O        27.43300056     23.16220474     18.34228706
O        27.40191460     23.24767685     22.74876976
O        27.50403404     23.04216576     27.44153214
O        27.30487633     22.64941597     31.94368935
O        27.42284393     27.45605659      4.49677324
O        27.50972176     27.27885246      9.16778946
O        27.39660072     27.52906418     13.92381668
O        27.17647743     27.71395683     18.36358070
O        27.56002045     27.56417084     22.84379768
O        27.60490990     27.44427872     27.55302811
O        27.31664848     27.42604637     32.00785828
H         1.58777738      1.94414318      1.57756054
H         1.53487241      3.37536168      2.81834173
B         2.28956294      2.58717895      2.27834320
H         2.99538827      1.83550417      2.87407565
H         2.90466595      3.34037375      1.55964398
H         1.47254288      1.60630667      6.25390244
H         1.58442652      2.95922446      7.77877235
B         2.21174955      2.26623726      6.96748734
H         2.80962181      1.67783260      7.81913042
H         2.82095933      3.01091981      6.31409073
H         2.93397117      2.90320230     10.72276211
H         1.45837736      1.50851941     10.80559635
H         1.39308274      2.88566256     12.19579792
B         2.20705819      2.23633075     11.38905144
H         2.81444550      1.54521072     12.09381294
H         3.18499017      2.69117713     15.37807274
H         1.63769126      1.46822917     15.39983463
H         1.57020092      2.73690510     16.88375092
B         2.39587402      2.10720181     16.13060570
H         3.11190534      1.51955211     16.76493835
H         3.14320683      3.44658804     19.86639214
H         1.61158538      1.96839070     19.86473656
H         1.61917782      3.44064975     21.35724831
B         2.39765668      2.71997285     20.52989006
H         3.05551767      2.05773401     21.27549744
H         3.30166340      3.37373877     24.40292358
H         1.76819789      2.00007725     24.38739967
H         1.74374688      3.41371560     25.67597771
B         2.49453402      2.72093821     24.89174652
H         3.24606228      2.07120395     25.58040047
H         2.77709222      3.23795152     28.89698029
H         1.33318281      1.65795481     28.67609978
H         1.48890722      3.30310726     30.23571396
B         2.07459068      2.53476906     29.60473824
H         2.83066249      1.82526469     30.22412872
H         3.17161369      7.89598179      1.67206895
H         1.66622591      6.40538788      1.77022147
H         1.62644851      7.83760691      3.24170899
B         2.34391642      7.24373388      2.42648029
H         3.02373433      6.45511532      3.15220451
H         3.05688429      7.92875481      6.18016148
H         1.66634512      6.66575575      6.25477648
H         1.54469001      7.97579527      7.53996992
B         2.35213089      7.29114723      6.92937374
H         3.18018222      6.46784353      7.61622715
H         3.03122306      7.72899389     10.89439011
H         1.70442700      6.31593418     10.83675194
H         1.74803078      7.74302816     12.18411160
B         2.38558722      6.97039270     11.57019424
H         3.07658458      6.32821178     12.21543789
H         2.92664790      7.40862274     15.15231323
H         1.45248008      6.03648901     15.03802776
H         1.47794700      7.49744320     16.50461960
B         2.20362520      6.76884460     15.76693249
H         2.91495633      6.16246748     16.40410805
H         3.08815765      6.19709253     21.01618958
H         3.11186767      7.74353695     19.62744713
H         1.81166804      6.21771479     19.67177963
H         1.71311176      7.79776096     21.09412384
B         2.42146778      7.03357983     20.35082436
H         3.18076849      6.21885252     26.28832626
H         3.27148938      7.57334757     24.66754913
H         1.86368740      6.22404671     24.76346588
H         1.84185088      7.49926853     26.30496788
B         2.51124978      6.90481663     25.48303032
H         2.56154299      6.34285212     30.51582336
H         2.57701755      7.68866682     29.11887741
H         1.17131078      6.25188684     29.04338646
H         1.21785152      7.71761703     30.56024742
B         1.82718146      6.96650934     29.76118088
H         3.07077861     10.70470715      3.02137160
H         3.17229104     12.20810032      1.86205900
H         1.70523620     10.63428020      1.89314461
H         1.67359960     12.20865154      3.12343502
B         2.35618544     11.45065594      2.42420816
H         2.86136580     10.90816975      7.73197317
H         2.80460262     12.16020584      6.20933867
H         1.38464093     10.90680122      6.15120602
H         1.46210325     12.14087677      7.65587997
B         2.08660221     11.44293594      6.90342474
B         2.36916566     11.63720798     11.59274101
H         3.03271985     10.88582993     12.35351562
H         2.91754985     12.28036022     10.77091789
H         1.73970985     10.93690586     10.70682335
H         1.69515514     12.38900757     12.34699345
B         2.20005107     11.68926525     16.01464081
H         2.95390987     10.98938274     16.62470055
H         3.02804589     12.52068710     15.30996895
H         1.48366451     10.83472443     15.22944832
H         1.57480907     12.51006413     16.68821335
B         2.47595978     11.42476463     20.79810333
H         3.17822504     10.69313908     21.40196037
H         3.22542977     12.05607891     20.09175110
H         1.81124794     10.67128181     20.11709595
H         1.72492063     12.11706066     21.51014519
B         2.32551765     11.48776913     25.28611565
H         3.08147883     10.84539032     26.09455872
H         3.04875064     12.19675255     24.63653564
H         1.55910361     10.84326172     24.60168076
H         1.59128439     12.19942760     26.06450653
H         1.65569508     12.22067928     30.22381592
B         2.43882608     11.45358467     29.68478012
H         3.06288195     10.69153690     30.30949783
H         2.99091482     12.23439407     28.88551712
H         1.63147807     10.75300217     28.87501526
H         1.63995540     16.76180077      2.81626439
B         2.31222296     15.97553062      2.12480402
H         2.98877525     15.25084019      2.83717132
H         3.01649833     16.81043053      1.57500970
H         1.59143102     15.22322273      1.57511532
H         1.75973201     16.73585129      7.33763504
B         2.35492873     16.05460930      6.66811514
H         3.07170033     15.36129761      7.48052645
H         2.98705721     16.79409790      5.85185242
H         1.64882338     15.39328003      5.79919147
H         1.94771874     17.04024315     12.11596584
B         2.43700814     16.41470718     11.32604313
H         3.09412551     15.55609322     12.23187160
H         3.08897829     17.15100288     10.68252182
H         1.83817351     15.56245422     10.68373680
H         1.33383012     16.76852036     16.86055946
B         2.07922173     16.08777809     16.21452332
H         2.86257195     15.37578392     16.73170090
H         2.85297036     16.63006020     15.44043350
H         1.44378102     15.35687637     15.41192436
H         1.88725281     15.90876675     19.48217773
H         1.95270479     17.29761124     20.86660957
B         2.62446451     16.55247879     20.19302559
H         3.26471639     15.94270515     20.89812279
H         3.28099275     17.34540176     19.49983978
H         1.29311788     15.20036507     24.45679474
H         1.24440968     16.81004333     25.73353004
B         1.85813093     15.91942501     25.15980911
H         2.73987412     15.17919445     25.70599174
H         2.64125657     16.68388748     24.53424072
H         1.59423709     15.32960129     28.69572639
H         1.54507279     16.75733566     30.23577118
B         2.30335855     15.95301723     29.63682938
H         3.09188843     15.26119995     30.25500870
H         2.90510511     16.58979034     28.81410599
H         1.46470141     19.65112305      1.43628073
H         1.34851193     21.15113258      3.02025461
B         1.98779297     20.33740044      2.31889606
H         2.86655021     19.58222580      2.97296333
H         2.74683928     20.98412895      1.48709357
H         1.34489954     19.72477722      5.40092421
H         1.26015985     20.95227814      6.93554592
B         2.04350376     20.36768913      6.17956018
H         2.72108960     19.74323654      6.83234835
H         2.79847574     20.92646599      5.34199572
H         1.59358180     19.95097542     10.61756134
H         1.57567823     21.28546524     12.02361488
B         2.30799174     20.51576614     11.49359703
H         3.26761174     19.92882347     12.02786446
H         3.15017056     21.17227364     10.71284866
H         1.52558374     19.61217499     15.08926582
H         1.59648132     21.05699730     16.51959419
B         2.20255971     20.29506111     15.84012127
H         2.78009033     19.68461037     16.51805687
H         2.82603383     21.10140228     15.11575699
H         1.60340345     20.01304245     19.85706520
H         1.54659307     21.49704742     21.16376305
B         2.21235156     20.67693329     20.55181694
H         2.88844562     19.96169853     21.15829659
H         2.87020707     21.47334099     19.82395935
H         1.73360920     19.66206169     24.49006844
H         1.68912995     21.18362808     25.92290497
B         2.40181255     20.50320625     25.15558434
H         2.97954726     19.76348114     25.77700806
H         3.13838863     21.19657135     24.43264961
H         2.97523761     21.41447639     28.93037415
H         1.51918662     19.89708900     29.00223160
H         1.43651700     21.42528915     30.35781670
B         2.18062401     20.76101112     29.57319832
H         2.85642624     19.94404411     30.22819328
H         2.79388046     25.87710190      1.48707509
H         1.30970013     24.56595993      1.49837816
H         1.25231624     25.92318153      3.04534316
B         2.07888198     25.21957397      2.32137537
H         2.81907415     24.52946281      3.02445579
H         2.66774273     25.98538971      6.17256594
H         1.34031355     24.65051651      6.17887354
H         1.30678904     26.01260567      7.54214478
B         2.07811713     25.27105713      6.97690344
H         2.77199149     24.53996086      7.61917686
H         2.91696215     25.76832390     10.22105885
H         1.43858504     24.38801575     10.32047653
H         1.43395162     25.67354012     11.88413048
B         2.08484983     25.11761665     11.00635719
H         2.76174045     24.44382095     11.82369232
H         3.20594788     25.93128777     15.46720028
H         1.70620775     24.55720711     15.41941643
H         1.81462383     25.87065506     16.67627144
B         2.48937559     25.10063744     16.09823036
H         3.31939554     24.49154282     16.85035133
H         3.19236946     25.96435165     19.83477592
H         1.70087993     24.62298012     20.04148674
H         1.60998249     25.84854126     21.60886955
B         2.34458685     25.42853546     20.68568039
H         2.90632391     24.70231438     21.43863678
H         2.73164487     25.75193596     24.42973518
H         1.27584934     24.46892357     24.49044228
H         1.15349841     25.81358147     25.92771721
B         1.93495238     25.23593521     25.09390831
H         2.69327378     24.44658852     25.82770157
H         3.03367925     25.98589516     29.18549919
H         1.50963640     24.29642868     29.25897026
H         1.55907321     25.86298752     30.66201782
B         2.28604841     25.09937668     29.88857651
H         2.90438533     24.35224915     30.65563011
H         3.13933778     30.60171700      1.57800579
H         1.66760683     29.08078575      1.56462860
H         1.71513152     30.56756783      2.94582534
B         2.35491228     29.89532089      2.25008202
H         3.05294204     29.18055916      2.89357710
H         3.14135528     29.04086113      7.89415598
H         3.00463796     30.38635826      6.62559175
H         1.65326178     29.06404114      6.51205635
H         1.60398841     30.54916763      7.92024803
B         2.14177084     29.72290039      7.30595350
H         2.69682360     28.81206894     11.94425106
H         2.58233380     30.22508049     10.79829884
H         1.23736858     28.76398468     10.63572502
H         1.28442276     30.34060097     11.94528103
B         1.89946496     29.53964043     11.31704235
H         2.68874002     29.09719086     16.79386711
H         2.56102538     30.43598747     15.35986042
H         1.32520652     29.17167664     15.30663109
H         1.27033508     30.54408646     16.77425385
B         1.97528446     29.74294090     16.17668152
H         3.36724567     28.89774704     21.47731781
H         3.46837234     30.35455704     20.09463882
H         2.02930450     28.72400856     20.02202797
H         2.15432262     30.30215073     21.52603722
B         2.71041346     29.54912949     20.69064713
H         3.25997591     29.10749245     25.66286278
H         3.19449830     30.53500557     24.41651726
H         1.97967160     29.17926979     24.42281532
H         1.82016695     30.68821335     25.75059128
B         2.53462815     29.91757774     25.13738441
B         1.91751981     29.73789406     29.52330780
H         2.61963010     29.13119316     30.41919899
H         2.69326735     30.58851242     29.04325867
H         1.11422598     29.03787422     29.02357674
H         1.29113328     30.43128777     30.33561134
B         6.87409067      2.44660807      2.19431877
H         7.55443954      1.81052935      2.92526603
H         7.63829374      3.26396346      1.52641678
H         6.24908543      1.63535142      1.43509269
H         6.41667271      3.18769956      2.93285632
B         6.95764637      2.41112041      6.93033123
H         7.57874441      1.58144653      7.65051651
H         7.57010889      3.08963752      6.01139450
H         6.26158619      1.71518636      6.13649940
H         6.13742352      3.08869553      7.64093876
B         6.48712063      2.69963193     11.57412910
H         7.24325848      2.03585029     12.25977898
H         7.16675949      3.48030543     10.94459152
H         5.71526146      2.05933595     10.89157772
H         5.82831764      3.42026305     12.12323761
H         6.07929564      3.20788932     16.87892532
B         6.72130489      2.49429607     16.18732262
H         7.40647936      1.76259172     16.93849754
H         7.37063408      3.23161411     15.51260090
H         6.01260900      1.75547421     15.46963882
H         5.86908579      2.73303413     21.17507362
B         6.62262392      1.96751297     20.61435699
H         7.40190077      1.35821140     21.17896843
H         7.32665062      2.66167951     19.93914032
H         5.91151142      1.40453303     19.91021156
H         6.21661282      3.37883115     25.67591286
B         6.82019567      2.62323666     24.99177933
H         7.55046797      1.90389383     25.63658714
H         7.52802896      3.31706524     24.33422089
H         6.23366404      1.88161802     24.28950691
H         6.36277342      2.71119165     30.51546860
B         7.10297966      2.10601568     29.86793709
H         7.73694944      1.32619011     30.52849388
H         7.73797083      2.72523737     29.06118202
H         6.41417837      1.39061940     29.12663269
H         6.31018019      7.78641701      2.80690336
B         7.09146595      7.04994488      2.16343927
H         7.86369038      6.24744034      2.87916732
H         7.78624678      7.78123713      1.52749527
H         6.26830196      6.27782631      1.48043692
H         6.38418245      6.36776590      6.18900442
H         6.25309420      7.83806372      7.49843884
B         7.05154943      6.97280645      6.96775293
H         7.84747887      6.22352600      7.51159048
H         7.69221592      7.69595289      6.20002842
H         6.29977989      6.10059357     11.10219288
H         6.24279165      7.56372261     12.52508926
B         7.01896667      6.93838549     11.77243614
H         7.68435955      6.18548870     12.38320637
H         7.83282852      7.57030725     11.03861904
H         6.31158304      6.17775106     15.47196770
H         6.35660219      7.74735212     16.86948586
B         7.00348091      6.78988409     16.21318817
H         7.72704554      6.19604111     16.89621353
H         7.65670586      7.70374107     15.56059837
H         6.15409613      6.58892441     19.94819260
H         6.11968184      7.99930906     21.33248711
B         6.84931755      7.35885429     20.64271355
H         7.41747379      6.57383633     21.31316185
H         7.51370382      8.07621288     19.83687401
H         6.37239361      6.23418093     24.29371452
H         6.35662889      7.65673685     25.74345589
B         7.03389549      6.91883755     24.99021339
H         7.81825924      6.17180014     25.79007149
H         7.73675871      7.62185287     24.31283379
H         6.24490404      6.07344294     29.08445930
H         6.15509892      7.49152327     30.40519142
B         6.92335272      6.96851683     29.63533211
H         7.49406147      6.12806177     30.26076698
H         7.69578028      7.54881811     28.93736076
H         6.14897919     10.54141045      1.55085492
H         6.27503300     11.93871212      3.21863222
B         6.80958462     11.24502754      2.33575940
H         7.45475054     10.70082855      3.18526840
H         7.47407007     11.92466831      1.69095302
H         6.52567816     10.75831985      6.06338882
H         6.51048088     12.16633892      7.43115473
B         7.19661140     11.52926350      6.80361128
H         7.99454355     10.69704723      7.47722864
H         7.92418146     12.14205074      6.07247925
H         6.00081873     10.79172611     10.97783279
H         5.96771908     12.08291149     12.32059002
B         6.66388702     11.41385174     11.69223309
H         7.44577885     10.75414181     12.32507515
H         7.38053560     12.02215481     11.00549126
H         7.54041481     12.36410046     15.38263512
H         6.15792131     10.97180271     15.39212799
H         6.10214901     12.41037941     16.85525322
B         6.87845802     11.68635273     16.20282555
H         7.60952902     10.89319515     16.87808800
H         7.36193037     12.25469780     19.83649445
H         6.01444626     10.55545044     19.83009338
H         6.09304380     12.18250084     21.24581146
B         6.64728642     11.47069263     20.48511124
H         7.25064135     10.67314053     21.20671844
H         7.57716227     12.20593548     24.60339355
H         6.33810186     10.87233925     24.68182564
H         6.19927025     12.26633549     26.11815071
B         6.92009258     11.59563637     25.46548271
H         7.61636496     10.75470543     26.09695435
H         7.75694275     12.19803429     29.33165359
H         6.32177258     10.70479584     29.30145073
H         6.33049107     12.21952057     30.64537239
B         7.05887842     11.37671947     29.97675133
H         7.84638214     10.64556122     30.71332550
H         7.90009880     16.79452133      1.41177988
H         6.44793510     15.25853825      1.47449064
H         6.41777134     16.76197243      2.88629651
B         7.10002327     16.12444687      2.06941557
H         7.73404217     15.36188412      2.75278687
H         7.67926025     16.78074646      5.96233511
H         6.27315855     15.29529858      5.98210907
H         6.33084822     16.70328331      7.24760675
B         7.05076218     15.96266937      6.65050316
H         7.67043209     15.28435326      7.31624126
H         7.51517773     16.70067978     10.81481838
H         6.10086107     15.46982002     10.76099777
H         6.02747440     16.82788849     12.39134407
B         6.78894281     16.16299438     11.58112621
H         7.50511503     15.53370380     12.25407410
H         7.38183880     16.76975060     15.56809711
H         6.12544107     15.39546490     15.49587631
H         6.22975063     16.73766136     16.88973427
B         6.78024054     15.99178219     16.25847816
H         7.50945759     15.34006691     17.04944229
H         7.55557823     17.01615524     20.22417641
H         6.16868353     15.78626347     20.11271286
H         6.21988630     17.07641602     21.64572334
B         6.76391506     16.41018677     20.88886642
H         7.62400341     15.82930279     21.65388870
H         7.67976379     15.28683949     25.65623093
H         7.67132854     16.67975044     24.36299133
H         6.24444532     15.19300365     24.26072121
H         6.38420057     16.64226532     25.61031151
B         6.88647890     15.80964279     24.92420959
H         7.58015871     15.35155678     30.61104584
H         7.59661245     16.62009430     29.22657585
H         6.16150045     15.34389496     29.23536873
H         6.10769796     16.66510391     30.67251015
B         6.85086441     16.05011559     29.91551018
H         7.81319571     19.92828941      3.03389859
H         7.78946543     21.34460449      1.82711303
H         6.36421633     19.86852455      1.74361670
H         6.32571507     21.46660042      3.13216615
B         6.99355268     20.58534241      2.48187256
H         7.48823214     19.79372215      7.26549911
H         7.53998327     21.24606514      5.84008455
H         5.99211216     19.86465073      5.96276379
H         5.89695120     21.21854782      7.28973150
B         6.71860266     20.59636879      6.57073641
H         7.53969336     19.89077950     11.90962696
H         7.56650877     21.41031456     10.54876041
H         6.08042431     19.95940781     10.64420319
H         6.08365774     21.31163979     11.83776569
B         6.81431484     20.65418053     11.22996998
B         6.74820137     20.41018486     15.99563408
H         7.53288174     19.88162613     16.68357086
H         7.37340736     21.22270966     15.53189564
H         5.97102261     19.82767868     15.31847382
H         6.15260506     21.25454903     16.55593681
B         6.95417595     20.58404732     20.72871017
H         7.70666504     19.94697189     21.46117210
H         7.65237427     21.33337402     19.96788216
H         6.35780478     19.96500587     19.93162537
H         6.35667086     21.37076569     21.44427490
B         6.90465736     20.74491310     25.37685013
H         7.58895540     19.96784592     26.07707405
H         7.57062960     21.64056969     24.74379158
H         6.21001482     20.01365280     24.77127266
H         6.24658585     21.57651711     25.99469566
B         6.92847633     20.82289696     29.80670166
H         7.62701559     19.94366646     30.43465805
H         7.60389566     21.41959381     28.98072624
H         6.15697384     20.08056641     29.09450912
H         5.96599579     21.49679184     30.48873520
H         6.18162870     25.88741493      2.80011535
B         6.79265690     25.23240662      2.00362492
H         7.45208645     24.60351944      2.86596060
H         7.44326973     25.94444275      1.40348005
H         6.03232384     24.52005959      1.31120384
H         6.00252485     25.79958534      7.72823429
B         6.79388523     25.09693146      6.94974136
H         7.54725361     24.49496841      7.67136383
H         7.61408710     25.80954742      6.14377546
H         6.04408026     24.47965240      6.19529390
H         6.10976934     25.90739441     11.93021202
B         6.87727594     25.10510063     11.44293213
H         7.64976120     24.37606239     11.99594784
H         7.53056860     25.85393906     10.72737694
H         6.11998129     24.45200920     10.68413258
H         6.21767092     25.76727295     16.74044800
B         6.93402052     24.95806503     16.02367210
H         7.75506067     24.30681419     16.72126579
H         7.65769434     25.65072250     15.42382717
H         6.20073032     24.27069092     15.29033661
H         6.10646343     25.85986519     21.32559395
B         6.68751526     25.36053085     20.49262047
H         7.27313042     24.73921394     21.32030869
H         7.39833450     25.97978592     19.70937347
H         6.05506325     24.68252754     19.77789307
H         6.00645685     24.52494431     24.80969429
H         5.98536444     26.16269493     26.15881348
B         6.68151474     25.37977600     25.56847763
H         7.48514175     24.59586334     26.06680298
H         7.52586365     26.11140442     24.83988953
H         6.10340452     24.88379478     28.86509514
H         6.02737141     26.23195648     30.15739059
B         6.78596640     25.59648895     29.53380966
H         7.48984337     24.76716423     30.19799042
H         7.47348356     26.25619507     28.76482201
H         5.99086571     29.36818314      1.66739070
H         5.96246338     30.58496666      2.91197443
B         6.78504801     29.96623230      2.30183530
H         7.36487865     29.17856407      3.07319283
H         7.33038330     30.71168900      1.51226616
H         6.00876331     29.23017311      5.77176189
H         5.96959400     30.65191841      7.10797262
B         6.65964842     29.89256859      6.51416588
H         7.42870855     29.15927696      7.13969851
H         7.28511190     30.54004669      5.84446383
H         6.36158323     29.04075050     10.59030914
H         6.42098951     30.38788223     11.91765213
B         7.11197090     29.72420692     11.23802471
H         7.77216578     28.98908424     12.02872467
H         7.76208115     30.48887253     10.54872799
H         6.01407194     29.08562851     15.40738869
H         6.14393377     30.42850876     16.62332344
B         6.83992720     29.81632042     15.93738461
H         7.50151587     29.19451141     16.64430618
H         7.66367531     30.61164856     15.35410881
H         6.23568630     28.94202042     19.67393112
H         6.21156120     30.39918709     21.26245308
B         6.82526588     29.70857811     20.48337936
H         7.50363827     28.98281479     21.19753075
H         7.59057093     30.42119789     19.62779427
H         6.14548635     29.08217812     24.18712807
H         6.17545557     30.71127319     25.74560547
B         6.84180260     29.90555573     25.04080582
H         7.51585722     29.14740372     25.71034813
H         7.48555088     30.64570808     24.28265953
H         6.24116182     29.29303741     29.07793617
H         6.17986488     30.70907974     30.28322220
B         6.88307285     29.95349121     29.67186165
H         7.56077433     29.18051529     30.33444405
H         7.55355692     30.75308609     28.97263145
H        12.50642967      3.29486036      2.01012683
H        10.77735901      1.72630823      1.96334827
H        10.99603176      3.12296605      3.26409197
B        11.59210205      2.47868133      2.56459999
H        12.36883545      1.91068113      3.29839158
H        12.05917645      3.03561449      6.24513721
H        10.81981277      1.56841719      6.08615017
H        10.89050770      3.12390566      7.52155447
B        11.42183018      2.31095815      6.89492512
H        12.16051579      1.62606537      7.53460169
H        11.82148075      3.27667928     10.97553253
H        10.57911015      1.88288915     10.95132542
H        10.55485344      3.32514286     12.29667187
B        11.22836590      2.53615880     11.69681454
H        11.93415737      1.79441857     12.36088467
H        12.08844376      3.03836584     15.35833549
H        10.66951656      1.61220932     15.26461315
H        10.62654686      3.17505550     16.70361328
B        11.32043648      2.41141176     15.95914745
H        12.11776447      1.67660928     16.59624290
H        11.96673775      3.28368378     19.63762093
H        10.48264217      1.77096260     19.82555389
H        10.52049637      3.05789542     21.01232147
B        11.32770634      2.51950979     20.34190750
H        11.93058205      1.61918223     21.20195580
H        11.81945038      3.51319718     24.44141197
H        10.53741360      2.23242545     24.46159172
H        10.47157192      3.55885625     25.80986404
B        11.26202297      2.78104949     25.24870872
H        11.93212986      2.09956479     25.87688255
H        11.85087109      3.15985131     29.04623032
H        10.30881310      1.78034914     29.04865456
H        10.38826180      3.07797909     30.42797470
B        11.11211872      2.53142309     29.70838165
H        11.80565834      1.82313836     30.46463585
H        12.39687347      7.33907461      2.05110431
H        11.11240196      6.09327364      1.97115481
H        11.13025856      7.40116596      3.63870549
B        11.68553257      6.75391054      2.82532859
H        12.45749474      6.11260176      3.63723516
H        12.35187244      7.70983934      6.33054543
H        11.02212334      6.26838493      6.31561041
H        10.98922348      7.75767422      7.81529999
B        11.72315788      6.96582747      7.17117453
H        12.41951942      6.21567249      7.83511305
H        11.95131111      6.31198215     12.36537266
H        11.93977928      7.80978823     10.83487225
H        10.53114033      6.30560207     10.81696033
H        10.65767288      7.70116711     12.24522018
B        11.27589321      6.97340393     11.57392883
H        12.25532150      6.36570072     16.84766197
H        12.24617481      7.86485720     15.36862183
H        10.81445217      6.40013981     15.39391422
H        10.89062214      7.76339579     16.73705292
B        11.53616524      7.02092123     16.10659981
H        12.15146637      6.51178837     21.27734375
H        12.15206432      7.88815832     19.93158531
H        10.72475529      6.48601007     19.90640640
H        10.72016525      7.91792917     21.30771255
B        11.47911835      7.16697359     20.53865814
H        12.19069290      6.09044218     25.77770805
H        12.11686993      7.37267160     24.48998833
H        10.68643093      6.07288933     24.39861488
H        10.67612743      7.47435188     25.80556488
B        11.36977005      6.80056238     25.03795052
H        12.00818062      6.20688009     30.88694382
H        12.05580711      7.64267635     29.35533333
H        10.72399807      6.17641544     29.37249374
H        10.81979942      7.52971315     30.82160759
B        11.52002621      6.85479546     30.03017616
B        11.12022400     11.43614197      2.23643160
H        11.84426212     10.67150211      2.91424489
H        11.72675037     12.24291992      1.58221018
H        10.50556564     10.70290470      1.49610043
H        10.53790760     12.29668713      2.85049987
B        11.52468300     11.31289387      7.04565287
H        12.23993111     10.63273525      7.73902178
H        12.26444721     12.07986832      6.34940004
H        10.80229664     10.58987141      6.33105087
H        10.86312008     12.03739452      7.72106314
B        11.57843781     11.55008698     11.70668888
H        12.24486160     10.75379467     12.36782932
H        12.20688248     12.15013409     10.81350517
H        10.94770241     10.92261410     10.94434547
H        10.69834328     12.26865196     12.44836712
B        11.28829479     11.61567116     16.58298302
H        11.99101257     11.00677395     17.27815819
H        11.93914413     12.31328964     15.93906784
H        10.50034904     10.99522495     15.87564945
H        10.57007599     12.30698013     17.21998215
H        11.00994205     12.51038551     21.46544647
B        11.61946201     11.64815998     20.77576447
H        12.31228447     10.86703014     21.41801834
H        12.27724934     12.42792320     20.06762886
H        11.10249138     10.91215038     20.07771683
H        10.62767982     12.07635307     26.33855438
B        11.27702713     11.40066814     25.64202881
H        12.01636505     10.66742039     26.27325439
H        12.04591560     12.04060555     24.80371284
H        10.67940903     10.65385151     24.81969452
H        10.69605255     12.40035534     30.28997421
B        11.37083912     11.59137440     29.66791153
H        12.17269325     10.91964436     30.41777229
H        12.07306004     12.42852306     28.98893356
H        10.65249157     11.00388432     28.97353935
H        10.75295734     16.93532372      2.96998334
B        11.44869804     16.26027107      2.14444041
H        12.11025715     15.50264645      2.93352890
H        12.20693970     16.99555016      1.56434059
H        10.77738953     15.49062443      1.64900136
H        10.55380726     16.23972321      7.46322107
B        11.32453251     15.59701920      6.78986597
H        12.01837254     14.88345432      7.43936205
H        12.11243248     16.30992508      6.07420683
H        10.53040123     14.83618927      6.12100124
H        10.77001286     15.17062855     10.46545982
H        10.87720871     16.77149010     11.79961777
B        11.50385094     15.84875107     11.12871838
H        12.25164890     15.15286064     11.92458153
H        12.16310215     16.80790901     10.53623962
H        10.56635857     15.19898796     15.11741924
H        10.55262089     16.79662704     16.53090858
B        11.29484463     15.92418003     15.75451946
H        11.92474842     15.25274277     16.46341515
H        11.89500046     16.69938660     15.20092201
H        10.67458916     15.30460072     20.20302391
H        10.74929047     16.68931198     21.63709259
B        11.42142296     16.01483917     20.91885376
H        12.07604790     15.36532593     21.65106773
H        12.11217690     16.73941803     20.22761917
H        10.58898544     15.36687946     24.71014023
H        10.56545830     16.61054993     26.01587105
B        11.33628559     15.96925735     25.37776947
H        11.91756535     15.28773785     26.07148361
H        11.93388462     16.68248367     24.61468124
H        10.89846516     15.66321278     28.91651154
H        10.90143013     17.13244438     30.49479103
B        11.59497643     16.52368927     29.73730850
H        12.11980629     15.72795105     30.43301582
H        12.21456528     17.16543007     28.88649178
H        10.73629570     20.00901604      1.17285180
H        10.70175076     21.29912758      2.72119403
B        11.44793320     20.56948662      1.99227703
H        12.29235458     20.00687027      2.68879437
H        12.17481041     21.14918327      1.28825033
H        10.74592495     19.84858513      6.15280819
H        10.74692917     21.16813850      7.64085722
B        11.40527821     20.55707550      6.88543844
H        11.97004223     19.80376434      7.68668461
H        12.02752495     21.27145004      6.05050230
H        10.41584206     20.14585876     10.43042374
H        10.30351448     21.57121468     11.98481750
B        11.02806473     20.83672523     11.25070667
H        11.78891277     20.02466202     11.99368572
H        11.69161892     21.48278809     10.40652180
H        10.76114178     19.65181923     15.03771114
H        10.70716667     20.97579575     16.43821335
B        11.47625065     20.36770439     15.82117558
H        12.21056175     19.64552879     16.39052963
H        12.24411201     20.96166420     14.99787045
H        12.17679024     21.45749092     20.16072845
H        10.65288544     19.81003380     20.19762611
H        10.76585102     21.30762482     21.35511208
B        11.56459427     20.61818886     20.70467186
H        12.14601707     19.80390930     21.47420311
H        12.22309875     21.25888443     24.35051727
H        10.93280983     19.78464699     24.45155334
H        10.82995415     21.26070404     25.96844101
B        11.46879387     20.60498238     25.20661545
H        12.10607052     19.80064011     25.84959221
H        11.52369690     21.46036339     28.97098541
H        10.22566223     20.12164116     28.85943031
H        10.30931377     21.48826408     30.38510132
B        10.88731480     20.76702499     29.63135910
H        11.54655361     20.21033859     30.38005257
H        12.18442726     26.27409554      0.99823856
H        10.77427292     24.72577286      1.05291140
H        10.78993320     26.20376015      2.64856625
B        11.37347889     25.57669640      1.78982806
H        12.04971790     24.80581093      2.58419061
H        12.11671829     25.86492157      6.22421074
H        10.60173035     24.40990448      6.04228497
H        10.67678261     25.97179794      7.66565371
B        11.20832920     25.27190399      6.80376720
H        12.06303310     24.64551544      7.50509310
H        12.01491737     25.85317802     10.82038403
H        10.63749886     24.20243073     10.70190048
H        10.85039520     25.75876427     12.14527225
B        11.30637169     24.91454887     11.38053799
H        11.94711971     24.38871002     12.17188549
H        12.19168377     25.45020866     15.20252323
H        10.58302212     24.11946106     15.26060486
H        10.59924984     25.37590027     16.63358116
B        11.34430218     24.70787048     15.80288792
H        12.13317966     24.11988449     16.64938354
H        12.36346817     25.99555016     19.66449356
H        10.94238663     24.70716858     19.68116188
H        10.97658825     25.94467735     21.12868690
B        11.69176483     25.36649323     20.32166481
H        12.29409409     24.75987434     21.11018372
H        12.08464336     25.97081757     24.58520508
H        10.70259666     24.53329086     24.53582001
H        10.84032917     25.88246918     25.96923637
B        11.40950680     25.13114548     25.28303337
H        12.11170101     24.55561638     26.08464050
H        11.79187202     24.42717171     30.23246193
H        11.88512230     25.96626091     28.81720352
H        10.40165138     24.37765694     28.86093712
H        10.45145130     25.87272644     30.23217773
B        11.17097378     25.15008545     29.63451576
H        11.87360287     29.09661293      3.05434632
H        11.88694954     30.59838104      1.59972858
H        10.47066689     29.11940765      1.63587070
H        10.45868778     30.57421875      3.04353023
B        11.05465412     29.89866257      2.31910276
H        12.10898209     28.98967361      7.37500334
H        12.20475292     30.43883514      5.93827915
H        10.83002567     29.05160904      6.09598637
H        10.76698875     30.34416389      7.37610483
B        11.55856800     29.84791565      6.72643614
H        12.19815254     28.85556030     12.01019096
H        12.26437092     30.32387352     10.65660095
H        10.82948589     28.92284393     10.79010391
H        10.72001266     30.29984283     12.05237865
B        11.55421638     29.68573570     11.37513733
H        12.03932953     29.12430763     16.98736191
H        11.96872902     30.61906624     15.55150986
H        10.64280319     29.16544533     15.52204800
H        10.65633488     30.63499641     16.93269157
B        11.26790905     29.86738777     16.18967056
B        11.40438843     29.89796066     20.78137398
H        12.07787037     29.13929939     21.45723724
H        12.03747368     30.63495255     19.98866844
H        10.60518837     29.14605904     19.95503235
H        10.64478779     30.62899017     21.41087532
B        11.59264565     29.89413261     24.88359070
H        12.17060184     29.11291122     25.70916367
H        12.26529884     30.59153175     24.20179367
H        10.81734085     29.18889427     24.37247276
H        10.80766201     30.43053055     25.64285851
B        11.55567360     29.57252312     29.91476059
H        12.29509354     28.87121201     30.49500084
H        12.38291168     30.03662491     29.09775162
H        10.93787289     28.80653381     29.12089348
H        10.81160450     30.13975143     30.68594742
B        15.98719883      2.54719305      2.60687351
H        16.64183426      1.77374649      3.33302832
H        16.69630432      3.37974882      1.92463624
H        15.33212757      1.79570377      2.00106335
H        15.40698338      3.22846603      3.23621535
H        15.24380970      3.10036445      8.01245403
B        15.95396805      2.27114773      7.33886909
H        16.75799561      1.60279942      8.02469444
H        16.71327972      3.06788969      6.74698591
H        15.16485500      1.53608322      6.63555479
H        15.22071743      2.98736882     12.33802795
B        15.74958038      2.30613589     11.58573341
H        16.70150948      1.67729974     12.17699814
H        16.71170235      2.83653259     10.97714710
H        15.21184635      1.50739825     10.81744003
H        15.00331497      3.43406916     16.75736427
B        15.85707188      2.68901920     16.05525780
H        16.51557350      1.90745139     16.71786880
H        16.49193764      3.37093949     15.30237770
H        15.17519569      2.03983808     15.41112900
H        15.09977436      2.88038731     21.22872353
B        15.77743244      2.17604733     20.43363762
H        16.49334335      1.52166998     21.23205566
H        16.48334122      2.87371778     19.76261711
H        15.09992218      1.52515054     19.75609589
H        14.83718109      2.95622087     25.58402824
B        15.59804535      2.19678545     25.01541328
H        16.40839386      1.52978218     25.54823685
H        16.33998299      2.85201597     24.40835190
H        14.85210323      1.50890994     24.31906891
H        15.04968643      1.30522239     29.10174561
H        15.04703236      2.89901900     30.48355865
B        15.75597382      1.98876882     29.73863602
H        16.54561615      1.38761199     30.39851570
H        16.52465057      2.79300952     29.20510101
H        15.24363422      6.11860180      1.41861153
H        15.22363377      7.53995609      2.92354250
B        16.00717545      6.92868567      2.17276502
H        16.76798439      6.11130476      2.91083813
H        16.74736023      7.50662756      1.43193924
H        15.08927917      6.07098675      6.49067974
H        15.33341980      7.26755047      7.92596722
B        15.91296673      6.70601606      7.16343737
H        16.54015541      6.20229435      8.03880024
H        16.64213181      7.48235941      6.52001190
H        15.08113766      6.34876490     10.99597549
H        15.12833977      7.86133480     12.34080029
B        15.70715904      7.16317368     11.67919922
H        16.56616592      6.40587044     12.33089733
H        16.58228874      7.86755466     11.03695774
H        15.16377449      6.23963022     15.09776211
H        15.26354980      7.56514406     16.54613495
B        15.94863033      6.83941174     15.80145645
H        16.60297585      6.24205065     16.64348984
H        16.55285835      7.61237955     15.15030098
H        14.86694050      6.30824518     20.39053154
H        14.84920502      7.69973707     21.79848289
B        15.56106091      7.03002977     21.02665329
H        16.33494186      6.41365099     21.67534256
H        16.39103127      7.63268423     20.43984985
H        15.03155518      6.12190485     24.79819107
H        14.92130852      7.61500645     26.04660797
B        15.75881386      6.74822474     25.51589394
H        16.64542961      5.99899387     26.05927277
H        16.49654007      7.47877979     24.82417107
H        15.33879566      6.13016224     29.14841652
H        15.44569111      7.59307337     30.55007172
B        15.93967247      6.91813946     29.83961868
H        16.50727844      6.19492531     30.59220505
H        16.55034447      7.67827177     29.17011261
H        15.31741810     10.81686783      1.56272078
H        15.31207848     11.97240353      2.95559049
B        16.07359314     11.41117954      2.27794528
H        16.69482422     10.78047466      2.98664498
H        16.75711250     12.06574631      1.46403956
H        16.75351906     11.97979164      5.88926172
H        15.53944111     10.46410751      5.97190714
H        15.46088123     11.97570705      7.48499441
B        16.18205070     11.18335247      6.80994463
H        16.79748726     10.33749485      7.53304672
H        16.60821533     12.09321690     10.68218136
H        15.15132713     10.69867325     10.64742184
H        15.15128803     12.12801647     12.07255745
B        15.75252342     11.53100777     11.23994446
H        16.54312325     10.79852676     11.97266388
H        16.93217850     12.21258068     15.28535461
H        15.41371155     10.75995445     15.34856606
H        15.37174034     12.19134140     16.65624428
B        16.18004227     11.52766991     15.90804005
H        16.88371658     10.74520683     16.62902260
H        16.57515526     12.29203415     19.53864670
H        15.21649742     10.91800404     19.55783463
H        15.28958702     12.19975567     21.01077461
B        15.99028206     11.55890179     20.31752205
H        16.60551834     10.86845207     21.13341522
H        16.74514580     11.80876446     24.56463432
H        15.45721149     10.46782589     24.55926132
H        15.34099483     11.93035603     26.10650444
B        15.94749451     11.21387005     25.32576370
H        16.73179817     10.48654747     25.97156525
H        16.94840431     12.27908897     28.88049507
H        15.39696884     10.78219223     29.04589272
H        15.32216167     12.18849564     30.42193413
B        16.06517792     11.54742336     29.67367554
H        16.77779198     10.78740501     30.34191322
H        16.97503281     16.74052429      1.33909380
H        15.40307617     15.29744434      1.31502247
H        15.41041279     16.75725746      2.65093160
B        16.22732925     16.06431580      1.98395276
H        16.92137527     15.37517357      2.58053851
H        16.50946617     16.46842384      5.97675705
H        15.09088421     14.90849400      5.89920616
H        15.21970463     16.41715622      7.24249887
B        15.87125874     15.62749195      6.58816576
H        16.50594139     14.98957253      7.29024172
H        16.75872993     16.62505722     10.62364864
H        15.28609848     15.21182346     10.78513241
H        15.19657898     16.55309296     12.11342812
B        16.08032417     15.94582176     11.38070869
H        16.74685669     15.06221294     12.17351818
H        16.58404922     15.21160126     16.63443565
H        16.48344612     16.59929466     15.08580971
H        15.21398926     15.44055843     15.21416283
H        15.03468800     16.65024376     16.58477974
B        15.86906910     16.08901787     15.95222664
H        16.93390656     15.74102592     21.26309776
H        16.83706093     17.20438004     19.81605721
H        15.45851612     15.80501270     19.78319931
H        15.49192524     17.20382881     21.16570091
B        16.18481827     16.41119194     20.50759697
H        16.92580795     15.10962963     25.83086395
H        16.87636757     16.48268127     24.29731560
H        15.29937172     15.15744877     24.29569626
H        15.35620403     16.42746925     25.72620964
B        16.20207214     15.76841927     25.05388451
H        16.88303947     15.38558960     30.27424622
H        16.82566643     16.80523872     28.89463615
H        15.47118473     15.45145893     28.90313339
H        15.45898438     16.80894279     30.22057915
B        16.19156075     16.15345573     29.67572403
H        16.44721031     19.72778511      2.90943527
H        16.46872139     21.25907707      1.35856342
H        15.05117035     19.79766655      1.44995725
H        15.06180000     21.15705299      2.82892203
B        15.80796051     20.50605011      2.13747382
B        16.04681206     20.64981270      6.79815006
H        16.69376755     19.85618019      7.42793083
H        16.71700287     21.24908638      6.04284620
H        15.28380775     20.06271744      6.27261877
H        15.03764534     21.26547623      7.46755552
B        15.88706398     20.24574280     11.37659264
H        16.80276680     19.58275032     12.07086754
H        16.68662262     20.88729095     10.76446247
H        15.19851398     19.58562851     10.65119648
H        15.23248959     20.96658134     12.03401184
B        15.94985580     20.50327873     15.80736256
H        16.58801079     19.89700127     16.62228394
H        16.62181473     21.36416435     15.17000198
H        15.18966007     19.80046844     15.10727501
H        15.40672684     21.20982361     16.50174713
B        15.84295940     20.61653900     20.83376122
H        16.51268196     19.89326668     21.52907562
H        16.50958443     21.15879440     20.02276802
H        15.22281075     19.92525864     20.05166435
H        15.14194775     21.21076584     21.57794762
H        15.45134544     21.66806602     25.82338905
B        16.25323105     20.87986755     25.26931381
H        17.01652336     20.12887573     25.87413788
H        16.94225121     21.64454269     24.37951279
H        15.54837418     20.27665329     24.45301628
H        14.99344254     21.31049156     29.96014786
B        15.76296520     20.55793762     29.42971230
H        16.59318352     19.86839676     30.11087990
H        16.34234810     21.21038818     28.72193909
H        15.00703144     20.03271484     28.63542175
H        15.21157932     25.74276924      3.06306863
B        15.94953251     25.04835510      2.22070742
H        16.63855362     24.28417015      2.94228721
H        16.72837257     25.71180534      1.67081594
H        15.28451252     24.23632240      1.71278644
H        15.02753162     25.76645279      7.56100225
B        15.84828854     25.14767075      6.85302114
H        16.51188087     24.51167679      7.61594296
H        16.51743889     25.82695389      6.21089220
H        14.99867153     24.53775597      6.24253130
H        15.37789154     25.75258255     12.45890141
B        15.95377731     24.98071098     11.65554810
H        16.69021416     24.32983971     12.36104393
H        16.76601982     25.73052979     11.14321041
H        15.30639744     24.16048622     11.04966450
H        15.07276917     23.93095016     15.28549957
H        15.18782330     25.64218140     16.63645554
B        15.75403309     24.82225800     15.93922138
H        16.42981148     24.11896706     16.56349182
H        16.53735352     25.67676163     15.36597252
H        15.55396557     24.67884636     19.45034409
H        15.45769501     25.95657730     20.94002914
B        16.26142883     25.18130875     20.26214218
H        16.97517014     24.51585007     21.00675774
H        16.78549576     25.83362961     19.47702026
H        15.20886421     24.45737076     24.62082481
H        15.24342442     25.67400742     25.88722610
B        15.94789791     25.11362648     25.16076469
H        16.64894867     24.43099403     25.94816589
H        16.77873039     25.86472893     24.46466637
H        15.25111961     24.42031288     28.95126343
H        15.24378395     25.77246857     30.44915581
B        15.93021297     25.17070580     29.74597740
H        16.68946838     24.39668655     30.46544647
H        16.62227249     25.72156334     28.99483109
H        15.02796078     29.07886505      1.89728212
H        15.20994759     30.60335159      3.26577473
B        15.87499046     29.81929016      2.58635092
H        16.51317978     29.16800880      3.35861611
H        16.48797035     30.67098427      2.01163602
H        15.06511402     28.87916565      6.23742008
H        15.00649452     30.40971947      7.69607496
B        15.74946785     29.61709976      7.01526594
H        16.46397400     28.89183426      7.62478542
H        16.46528435     30.33974266      6.24877787
H        15.42657852     29.00368881     10.61345387
H        15.45556927     30.58532715     12.23580456
B        15.88068295     29.70282936     11.54372215
H        16.71703720     29.04841423     12.22006893
H        16.58159256     30.43414879     10.79362488
H        15.48562431     28.87922859     14.76820469
H        15.58177280     30.43312073     16.17507172
B        16.21472740     29.52420235     15.61983967
H        16.98143959     28.90051079     16.24993706
H        16.81457520     30.34112549     14.95634937
H        15.06118774     29.13941765     19.72743416
H        15.02079773     30.50846672     20.98796844
B        15.69434166     29.86436462     20.36742592
H        16.46670341     29.07434464     21.01265335
H        16.49829102     30.56473732     19.63077545
H        16.47517395     30.54249573     24.32065964
H        15.20536041     29.16614342     24.34392166
H        15.17192459     30.55267143     25.77160835
B        15.89280510     29.85581017     25.17097282
H        16.58762741     29.03042984     25.87388420
H        16.57623863     30.40545082     29.06786728
H        15.13699150     28.98702049     29.06668091
H        15.11202049     30.43160629     30.49734306
B        15.86909389     29.75128365     29.85359001
H        16.57859612     28.98584938     30.47354317
H        21.42907906      3.32150030      1.89844930
H        20.16076660      1.74779260      1.87128603
H        20.18490410      3.32452464      3.25471187
B        20.88118744      2.57026863      2.57037950
H        21.50073051      1.70330524      3.32333803
H        21.12284088      2.91730237      6.32163048
H        19.58908844      1.77379942      6.27270603
H        19.53878403      3.01653314      7.72223997
B        20.46743965      2.35625005      7.08277655
H        21.19453812      1.75102735      7.69470549
H        21.13442421      2.82987714     11.06034088
H        19.95753098      1.33235908     11.05558968
H        20.00968742      2.78246999     12.36580276
B        20.63082123      1.93098629     11.77546692
H        21.21952248      1.25201178     12.49830818
H        21.14920425      3.53063893     15.36214066
H        19.76486015      2.25158310     15.35122204
H        19.74871063      3.55770469     16.90017891
B        20.46458435      2.83877897     16.21589851
H        21.23026276      2.18144345     16.95417213
H        21.16602516      3.08216548     19.92247772
H        19.86166382      1.72283280     19.96515656
H        19.88115311      3.01999903     21.48925018
B        20.58063889      2.39981198     20.70071983
H        21.11302567      1.73315513     21.49841690
H        21.17565155      2.67128778     25.15280724
H        19.86447334      1.24838948     25.12047768
H        19.83681488      2.73127437     26.45111656
B        20.48234367      1.90016210     25.81211090
H        21.24136734      1.21500182     26.45684433
H        20.98292160      2.80553484     29.28022385
H        19.64631271      1.37863648     29.21924400
H        19.68312836      2.82970023     30.63395119
B        20.37285805      2.08628035     30.01986885
H        21.03805161      1.38449061     30.66491508
H        21.07774162      6.37925291      2.86615252
H        21.19877815      7.77671719      1.50381839
H        19.64765930      6.31114244      1.55674398
H        19.72854424      7.64290762      2.85337877
B        20.42007256      7.00390434      2.07930040
H        21.34114075      6.06679344      7.78312778
H        21.25156403      7.49154902      6.36814690
H        19.93912697      6.24176264      6.45353889
H        19.88113403      7.46415091      7.66615200
B        20.67229652      6.75164652      7.18642950
H        21.12231636      6.56794119     12.04444122
H        21.23230743      7.76391745     10.46642685
H        19.70003319      6.45669889     10.46517658
H        19.76869965      7.69650126     12.08701611
B        20.49335098      7.13134861     11.26863194
H        20.92433548      6.19867992     16.50418854
H        20.94224930      7.72128725     14.98707581
H        19.57813835      6.21776438     15.02407551
H        19.57024765      7.69217777     16.49299431
B        20.37844849      7.01034784     15.81581593
H        21.21755600      6.05100298     20.95513916
H        21.13791466      7.49361944     19.47552490
H        19.83334923      6.17219353     19.51707458
H        19.71931267      7.56610489     20.94798470
B        20.50222969      6.84692430     20.22212219
B        20.57794952      6.62656641     25.13922882
H        21.31527710      5.99700069     25.84651947
H        21.22682571      7.40388536     24.39200401
H        19.75131035      6.05124617     24.35779762
H        19.79602623      7.39337730     25.74756050
B        20.25567818      6.95690680     29.67849731
H        20.95890236      6.20483923     30.30131149
H        21.00166512      7.59026384     28.87956429
H        19.66153145      6.14436626     28.86185265
H        19.60750008      7.66200447     30.41581345
B        20.41488647     11.28962231      2.42483377
H        21.16938972     10.56511211      2.96239352
H        21.23271561     11.76457024      1.64109707
H        19.68056488     10.61799049      1.75730288
H        19.58226967     11.74666214      3.00781298
B        20.60226250     11.47559166      6.58466339
H        21.35333633     10.84993744      7.27538252
H        21.36337852     12.12983322      6.01151609
H        19.86775208     10.77381897      5.94544268
H        19.86865616     12.19500351      7.35059690
H        19.85063934     12.18821907     12.30200481
B        20.51621056     11.47067261     11.43305397
H        20.97844887     10.83815002     12.29350567
H        21.05753899     12.25881004     10.69500923
H        19.81297112     10.79198170     10.72793293
H        19.94352341     12.28521061     16.80372047
B        20.48691750     11.54490566     15.97881317
H        21.03014755     10.85611343     16.70532799
H        21.18466377     12.34133434     15.31041813
H        19.90190887     10.71610451     15.32492733
H        19.55175591     12.02508068     21.18800163
B        20.05964088     11.35315228     20.34900284
H        20.83956337     10.71448135     21.10920334
H        20.82208252     11.92880058     19.77164268
H        19.48717308     10.57110214     19.61078072
H        19.94249153     12.42408085     25.93157959
B        20.61396217     11.54772186     25.22096062
H        21.42435646     10.80908298     25.98010445
H        21.20421791     12.25246811     24.65710449
H        19.91284370     10.82796001     24.45584297
H        20.01267624     12.04868126     30.34767914
B        20.65383530     11.29874134     29.72365379
H        21.40229034     10.55351734     30.41809845
H        21.31110764     12.02791786     29.00930977
H        19.99424362     10.60550404     28.97011375
H        19.65192032     15.40360165      1.69274247
H        19.59414291     16.68242264      3.15886426
B        20.30828094     16.06115723      2.39661455
H        21.20279694     15.41304684      3.09164023
H        21.17018700     16.58258820      1.73479855
H        19.55515289     15.32588482      6.11274338
H        19.56672859     16.51259232      7.41419077
B        20.32043076     15.84727001      6.85364914
H        21.05926323     15.21803951      7.53361177
H        20.95667076     16.52942085      6.10749054
H        19.74407005     15.35697556     10.53387451
H        19.74711800     16.76889610     12.04357624
B        20.42510986     16.02341652     11.28667736
H        21.01278305     15.36045456     12.04314613
H        21.03683662     16.79251671     10.51330280
H        20.09497833     15.31960011     15.10741901
H        19.99347305     16.74094772     16.59890747
B        20.64428520     15.98032093     15.90515232
H        21.36688423     15.31222630     16.50477600
H        21.41497421     16.69490623     15.05195332
H        19.80333710     15.29098511     19.62515450
H        19.78467751     16.76215363     21.27302361
B        20.44947815     16.03668785     20.43057060
H        21.20362282     15.40770054     21.13764763
H        21.26229095     16.68544579     19.68320274
H        19.91430855     15.11778355     24.42603302
H        19.96064758     16.57856369     25.65606499
B        20.62374687     15.93161297     24.88506126
H        21.26412582     15.25613403     25.56405449
H        21.43562126     16.65804863     24.39288902
H        19.65607071     15.21197510     29.19152641
H        19.71451569     16.49321175     30.54045868
B        20.42649269     15.93190479     29.86472893
H        21.06514931     15.19968510     30.61119270
H        21.11269569     16.61149025     29.13169479
H        19.68343163     20.00320435      1.48519099
H        19.63993835     21.37774658      2.87045622
B        20.38639641     20.63744164      2.20342660
H        21.07439423     19.97196960      2.85819674
H        21.06884003     21.35993004      1.45951331
H        19.60371780     19.50480270      6.39235830
H        19.56953049     20.86609268      7.75783396
B        20.33269691     20.23819351      7.03561783
H        21.04212570     19.53765106      7.69080114
H        21.11108208     20.86801720      6.35624838
H        21.41184235     21.50401115     10.70514774
H        19.91119766     20.09292030     10.78067589
H        19.92828751     21.41139030     12.14819527
B        20.63916206     20.76823044     11.40996265
H        21.31826401     20.11097145     12.14723396
H        21.12507629     21.30221748     15.15083027
H        19.61926460     19.73938179     15.13805962
H        19.67859840     21.25565338     16.47806358
B        20.43665504     20.50418091     15.79189682
H        21.08210182     19.79512787     16.48165321
H        21.13881302     20.98676491     19.71141052
H        19.80552101     19.78229332     19.69235229
H        19.79226494     21.01907921     21.37654686
B        20.36887360     20.43690491     20.46571159
H        21.12305450     19.81710625     21.32847404
H        21.13000679     21.54291916     24.53141785
H        19.73065948     20.04759407     24.41229439
H        19.83297348     21.55972672     25.92992592
B        20.38822365     20.74474716     25.21170425
H        21.16932678     20.12739563     25.95243835
H        20.94837189     21.45530510     28.75746918
H        19.73161316     20.01754951     28.73899078
H        19.79505920     21.41033745     30.33509445
B        20.37979126     20.71098328     29.57377434
H        20.94500542     20.03939438     30.37669563
H        21.26095772     25.95694542      1.67945576
H        19.77316856     24.57855797      1.64951611
H        19.79795647     25.96209717      3.08595562
B        20.59587288     25.20960236      2.42621326
H        21.31601715     24.55343628      3.13586426
H        21.55380821     25.35777473      6.31888628
H        20.23609543     24.06863213      6.33434582
H        20.14093781     25.43747139      7.85697842
B        20.88780975     24.83972931      7.17901230
H        21.55451393     24.05246735      7.77798605
H        21.33983231     25.68298912     10.74334049
H        19.84543610     24.21306229     10.59669399
H        19.99747849     25.67759132     12.00532913
B        20.58416367     24.94772148     11.33210087
H        21.41245270     24.28708649     12.08334637
H        21.24027634     25.83678818     15.28273487
H        19.92833328     24.54775047     15.43546486
H        19.82880211     25.78358650     16.79791641
B        20.51989555     25.15661240     16.13542747
H        21.19631004     24.43898582     16.80715370
H        21.17745781     24.83214378     21.59936333
H        21.22498703     26.13926697     20.09842682
H        19.67922592     24.69334793     20.00716019
H        19.87408447     26.03567505     21.54330063
B        20.44566154     25.36251450     20.76728058
H        21.60807228     24.22641754     26.03594017
H        21.44054794     25.73606682     24.45208549
H        20.07496262     24.28061104     24.33875465
H        20.18840599     25.73595619     25.86830711
B        20.81000328     24.92370987     25.14206886
H        21.13667107     24.31784058     30.50095177
H        21.07721519     25.70948601     28.98863029
H        19.98382568     24.37973976     28.99107552
H        19.88577271     25.80509186     30.53710175
B        20.52673531     25.10496902     29.82465553
H        21.15684700     28.89425468      2.92689490
H        21.00953293     30.14813995      1.68458092
H        19.51830864     28.85781479      1.50082958
H        19.55903244     30.29116440      2.92260933
B        20.25931931     29.44633865      2.40280795
H        21.31141663     29.10679436      7.91711187
H        21.45067978     30.45137024      6.46907377
H        20.02146149     29.02068710      6.52222824
H        20.01766396     30.40201569      8.00701809
B        20.67088699     29.76457405      7.17940950
B        20.40546799     29.48664093     11.50648212
H        21.19573593     28.95359039     12.20321751
H        21.34686089     30.17934608     10.95694828
H        19.65500641     28.65320015     10.80768108
H        19.82672691     30.15689278     12.33189011
B        20.24556160     29.83967781     16.01460075
H        21.09448814     29.01573181     16.84893799
H        21.02681732     30.47659874     15.34488678
H        19.63555908     29.06101799     15.32250118
H        19.57358360     30.56096077     16.86562920
B        20.14987183     30.01732063     20.38527679
H        20.83506775     29.32810020     21.04208755
H        20.79914284     30.50531578     19.64899445
H        19.48559570     29.39242935     19.67739677
H        19.31328011     30.64922714     21.15007210
B        20.52436256     29.73482895     25.08191490
H        21.14912415     29.16056824     25.93523598
H        21.19306564     30.45633125     24.45527458
H        19.88886642     28.99937820     24.33802414
H        19.96728134     30.49516487     26.01801109
H        19.66638756     30.19010925     30.69478035
B        20.44338226     29.41024780     29.97395515
H        21.06994438     28.71011162     30.58214951
H        21.06304169     30.07057762     29.20894623
H        19.78342247     28.71451378     29.20644760
H        24.88953400      3.16486406      2.76139569
B        25.50961685      2.55580020      1.97868025
H        26.25823402      1.80135620      2.79930568
H        26.30386353      3.24840379      1.27617705
H        24.81740761      1.76713872      1.28758907
H        24.56211472      3.17939854      7.85486841
B        25.12687683      2.46284914      7.14856863
H        25.92819405      1.82506752      7.83664370
H        25.86901855      3.10199547      6.51592207
H        24.52742195      1.77215004      6.40382624
H        24.28964615      3.31027317     12.52971363
B        24.97830582      2.53866243     11.72699833
H        25.72688675      1.85398877     12.38510990
H        25.81527901      3.25406051     11.09326363
H        24.33601379      1.75575328     11.08341980
H        24.23502541      3.04159641     16.60805130
B        24.88897324      2.40149903     15.91812325
H        25.49023438      1.63628161     16.58743095
H        25.63038826      3.16113162     15.26980209
H        24.18728256      1.56791818     15.34159470
H        24.45939064      1.50121939     19.82046700
H        24.48051071      3.03258896     21.29634857
B        25.11986160      2.27704716     20.59143448
H        25.83497238      1.53270102     21.28598595
H        25.79594231      2.98319721     19.89097977
H        24.15723038      1.56489718     24.50787163
H        24.14675713      3.04228950     25.74436569
B        24.96030426      2.21115541     25.21083641
H        25.57918739      1.49213493     25.80665588
H        25.53130150      3.05669332     24.48299408
H        24.45844078      1.65171838     29.15613365
H        24.46501160      3.01115489     30.55446053
B        25.09450531      2.33741975     29.83625221
H        25.76379395      1.65264213     30.56010628
H        25.75199509      3.00500512     29.16885376
H        24.27510452      6.46145630      1.60379386
H        24.23264694      7.73723793      3.07984042
B        24.91647911      7.19878769      2.29034543
H        25.61109924      6.49995804      2.99888062
H        25.70963478      7.75481415      1.54375994
H        24.53454781      6.20977688      6.04459333
H        24.43828583      7.68624163      7.37025166
B        25.18307304      6.89971352      6.71464777
H        26.11149216      6.03776979      7.44599581
H        25.94117928      7.59167147      6.04289961
H        24.03304100      5.90294886     10.64420033
H        24.13643456      7.11434031     12.03505898
B        24.87335777      6.34621811     11.42214489
H        25.64497566      5.84573269     12.19566631
H        25.51230240      7.14227581     10.71965599
H        24.34830666      6.28612614     15.36992741
H        24.32543564      7.67971325     17.01453209
B        24.95392609      6.96102285     16.20075798
H        25.62709045      6.32185555     16.95592880
H        25.56105232      7.55507421     15.47169590
H        24.71011162      5.98456240     19.90433311
H        24.63779449      7.58092022     21.27223396
B        25.26672173      6.77882719     20.55951881
H        26.00848770      6.02561855     21.15885735
H        26.01489639      7.47395182     19.93898201
H        24.71221352      6.36945105     24.01718140
H        24.62413216      7.67973185     25.39018250
B        25.36487770      6.96157789     24.75917053
H        26.12216949      6.29316521     25.37838554
H        26.06525803      7.61102629     23.99780464
H        25.54445457      7.27916718     29.04731750
H        24.19213867      5.75622082     29.02924347
H        24.16549110      7.32388687     30.46246529
B        24.81683350      6.55079269     29.74502945
H        25.53617287      5.78257656     30.40946198
H        25.90899277     11.94034386      1.31998348
H        24.43849754     10.46321201      1.41003406
H        24.44163704     11.84715271      2.74296999
B        25.13865471     11.14250088      2.04132509
H        25.82391548     10.45824051      2.75108337
H        25.72463036     12.16831017      5.88896513
H        24.36656380     10.93838215      5.97407436
H        24.24699783     12.20276737      7.35912991
B        25.15548897     11.51953697      6.76099634
H        25.85244751     10.72545433      7.45249128
H        25.62990952     12.05534840     10.60646725
H        24.18454361     10.77801132     10.56793308
H        24.19581032     12.08261681     12.15398121
B        24.86898232     11.32513332     11.34502411
H        25.62764359     10.81881142     12.12444782
H        26.37665176     12.08141422     15.32480717
H        24.89379883     10.60728836     15.29754353
H        24.89720345     12.10527420     16.72231293
B        25.63759995     11.42836380     15.85130310
H        26.33285904     10.67834377     16.65465927
H        25.83008575     11.93384361     19.59788322
H        24.22818756     10.48319340     19.59906006
H        24.26650238     11.89435101     21.13430786
B        24.98242378     11.26136971     20.28808022
H        25.65719414     10.65490627     21.00090981
H        25.47125435     12.17415714     24.32891655
H        24.07411766     10.71641254     24.35067749
H        24.08527374     12.14124203     25.73940659
B        24.80360603     11.33224297     25.02883530
H        25.51560783     10.65029812     25.81667328
H        25.61885262     12.27144909     29.03196716
H        23.98666954     10.94516945     28.97044563
H        24.15222168     12.16741657     30.30013275
B        24.85341644     11.58993816     29.59344673
H        25.57153130     11.05401039     30.35684395
H        25.85262871     16.52958298      1.58442783
H        24.47415924     15.10518360      1.61129355
H        24.50845146     16.46842575      2.98034430
B        25.17063141     15.79574394      2.29598379
H        25.76992226     15.16102505      2.95879531
H        25.63928795     15.28549862      7.48767614
H        25.63879204     16.75984383      6.03278685
H        24.24446487     15.31101036      6.05780363
H        24.23974800     16.73954391      7.46688175
B        24.85750008     15.97910213      6.73580933
H        25.54313087     15.34464836     12.50121880
H        25.70356560     16.80681992     11.11338043
H        24.30238533     15.21809006     11.14725685
H        24.34940910     16.72591782     12.58075237
B        24.90794373     15.99604225     11.77742290
H        25.84487343     15.13466549     16.61326027
H        25.90695953     16.53917503     15.33875751
H        24.33803940     15.12089920     15.38707733
H        24.35033607     16.47855759     16.61472893
B        25.09524155     15.89213562     16.00697517
H        25.66903114     15.26525402     21.27522087
H        25.57705879     16.58337212     19.82563019
H        24.52343750     15.27519798     19.74359894
H        24.49576187     16.69307709     21.29294968
B        24.99954224     15.88472080     20.58110237
H        25.76992607     15.27895069     25.90052223
H        25.76853943     16.75013924     24.39537811
H        24.45696068     15.31482601     24.42986870
H        24.49346352     16.67914772     25.82814407
B        25.23826790     16.01015091     25.18655396
B        25.25845146     15.56587696     29.28445053
H        25.99994087     15.05320930     30.07492256
H        25.96514702     16.42688942     28.67189026
H        24.35979652     15.05484676     28.63873291
H        24.54642677     16.27341461     29.88665581
B        25.21583748     20.49710083      2.20200348
H        25.85516548     19.77512932      2.91925883
H        25.87952042     21.16400719      1.53395820
H        24.47471428     19.78771782      1.57090247
H        24.46533775     21.13643837      2.91604710
B        25.06488800     20.66546822      7.03077698
H        25.83592415     20.08327484      7.76528120
H        25.80348778     21.31997871      6.25180960
H        24.35591507     20.02070045      6.15679884
H        24.37142754     21.39947891      7.81234407
B        25.12188530     21.09344292     11.64827061
H        25.89692879     20.33477783     12.48309517
H        25.83210182     21.68873787     11.00800419
H        24.42873955     20.37473679     10.98313713
H        24.45537567     21.68696976     12.41650105
H        24.40698051     21.56351089     16.75356674
B        25.01487160     20.75328636     16.01177025
H        25.86320496     19.97480392     16.57297325
H        25.88390923     21.40362167     15.41361332
H        24.47804070     19.86526680     15.32478428
H        24.55397606     21.55315781     21.47968102
B        25.20414734     20.87640953     20.63055992
H        26.00689507     20.20492363     21.33341408
H        26.07277489     21.47277069     19.96940041
H        24.59453392     20.09921455     19.92956924
H        24.62418938     21.60489464     25.73470116
B        25.07068062     20.80340767     24.88537407
H        25.80525208     20.25173759     25.74276733
H        25.72809792     21.53580666     24.31519890
H        24.46988487     20.10550117     24.09181023
H        24.83023262     21.34375381     30.33253098
B        25.57434654     20.71154022     29.57435799
H        26.20533371     20.27705574     30.30781174
H        26.31300163     21.42670631     28.78816223
H        24.79071617     20.21282005     28.83159828
H        24.18295097     25.64991570      2.97065949
B        24.99700928     25.10054779      2.27121544
H        25.72020721     24.24110985      2.76930022
H        25.81797981     25.54632759      1.50743818
H        24.41539955     24.27219772      1.63629997
H        24.80981064     24.50938416      5.83307552
H        24.91287994     26.09137344      7.06980801
B        25.47550201     25.24228477      6.37777662
H        26.15674210     24.57208061      7.11017895
H        26.12564278     26.10064316      5.92687368
H        24.18907166     24.64067459     10.49465561
H        24.05504036     26.07144165     11.89399910
B        24.79427910     25.38953972     11.19309521
H        25.62997246     24.47272301     11.92791748
H        25.48362350     25.95901108     10.47305202
H        24.35457802     24.68848801     15.04198360
H        24.38842201     26.02430725     16.66603279
B        25.00343323     25.31035805     15.85433483
H        25.61874390     24.68912697     16.69923782
H        25.60752296     26.04629135     15.05384064
H        24.38251305     24.60213089     20.05257416
H        24.57141304     26.05933762     21.51068687
B        25.16264153     25.36458206     20.76894569
H        25.87729073     24.71961975     21.58209801
H        25.88981247     26.14327240     20.15753937
H        24.45766258     24.28920174     24.24113655
H        24.44330788     25.73179626     25.63218880
B        25.27840805     24.97193527     25.01471710
H        25.89615440     24.21754837     25.68948936
H        25.79547501     25.68841743     24.27016640
H        24.61902618     24.25939369     29.12486267
H        24.66271210     25.65778542     30.55595970
B        25.30452156     24.92955589     29.82789230
H        26.02362633     24.20199203     30.65704727
H        26.00907326     25.74432182     29.08201408
H        24.75296593     28.96241570      1.67070246
H        24.81917191     30.27365494      3.03177023
B        25.39866829     29.65474319      2.37309957
H        26.18752670     28.99980164      3.06059122
H        26.20550346     30.32045364      1.69011045
H        24.70622826     29.18736458      6.17832136
H        24.52118111     30.66079521      7.71476841
B        25.23586273     29.99650002      6.99792480
H        25.98633575     29.14176178      7.57532310
H        25.96268463     30.49770164      6.15637064
H        24.30588150     29.09749222     10.78331470
H        24.18594170     30.51054001     12.16626072
B        25.09622192     29.82500839     11.53816986
H        25.58292770     28.91297340     12.23083973
H        25.52104568     30.51323509     10.66067886
H        25.77289963     30.72602081     15.33788300
H        24.50406075     29.30138206     15.22058487
H        24.47677612     30.87060547     16.69741440
B        25.18199539     30.04065323     16.04693413
H        25.89240456     29.29917717     16.67233467
H        26.02959061     30.16865349     20.05849266
H        24.47082901     28.87869263     19.99174500
H        24.47938347     30.22684669     21.24294472
B        25.32041740     29.38652229     20.67386818
H        26.19725037     28.77778244     21.35240746
H        25.99898911     30.72705841     24.46369743
H        24.80904198     29.16821861     24.57882881
H        24.64758682     30.77338028     25.98398972
B        25.35099602     29.97910690     25.27441597
H        25.97655678     29.07551765     25.91523552
H        25.79366302     30.33517265     29.20903015
H        24.32891655     28.98586845     29.18478966
H        24.25143814     30.43689346     30.74562263
B        24.92936897     29.76576805     29.87766075
H        25.71158409     29.09219360     30.56182289
H        30.34310532      3.52130461      1.83128703
H        28.82307053      1.95691812      1.94498730
H        28.89424133      3.33643579      3.03513861
B        29.69672966      2.68095732      2.38132477
H        30.26130867      1.92501259      3.13821244
H        30.40144539      3.13541937      6.25744677
H        29.11648750      1.68248510      6.24101067
H        29.19902229      3.06931996      7.79503155
B        29.66900063      2.44314075      6.90296364
H        30.32464218      1.77572441      7.78432751
H        30.00688362      2.87858057     10.93497753
H        28.68727493      1.45787024     11.02794266
H        28.65954590      2.81334329     12.33698654
B        29.39428139      2.11919999     11.59310722
H        29.95110893      1.42068064     12.34644699
H        30.71717644      3.16507196     15.27386951
H        29.18411827      1.59255672     15.29894257
H        29.24851036      3.07560849     16.59769249
B        29.89128113      2.39133930     15.85635757
H        30.62563705      1.65902472     16.59561539
H        30.49416542      3.13983440     19.98618698
H        28.95622444      1.70109439     20.04711533
H        28.98652649      3.04860020     21.26726151
B        29.82693291      2.36113954     20.61512375
H        30.45691109      1.67741752     21.32124138
H        30.50811958      1.79730618     25.59069824
H        30.54129219      3.28863692     24.29834366
H        29.14339256      1.89950430     24.43371391
H        28.90339279      3.39326453     25.72850037
B        29.72407532      2.62329745     25.11021614
H        30.61181831      1.61573172     30.51400375
H        30.50045204      2.98533630     29.15134430
H        29.02494240      1.56305826     28.98730469
H        29.11132622      3.06299138     30.48029518
B        29.73921967      2.32751870     29.78672218
H        30.42066002      6.37163401      2.90114474
H        30.52980423      7.83386660      1.40575910
H        29.00015450      6.21182585      1.35509634
H        29.15496826      7.72971725      2.90614057
B        29.86468506      6.97148514      2.00519896
H        30.19063568      6.31174946      7.37557793
H        30.37104988      7.72464705      5.77141285
H        28.95597267      6.26325846      5.90333605
H        29.00151253      7.54718447      7.37853003
B        29.70401573      7.06036139      6.58253670
H        30.10835266      6.45172548     11.98439693
H        30.30135155      7.77966261     10.73349857
H        28.93330193      6.28766489     10.76243687
H        28.90270805      7.78131723     12.17905045
B        29.50557137      7.12909937     11.37337589
B        29.77824783      6.84637022     16.08997917
H        30.52017403      6.17185736     16.82765007
H        30.49835777      7.60075378     15.41622448
H        29.04108238      6.19918060     15.42173100
H        29.00957489      7.62675571     16.83183670
B        30.02205658      6.83193445     20.63096809
H        30.74576950      6.18374395     21.36536789
H        30.79908752      7.63436604     19.95758247
H        29.15542603      6.15683508     19.98398972
H        29.27578354      7.48760128     21.27191734
B        29.58893204      7.34322405     25.12752342
H        30.31765938      6.76188993     25.82296753
H        30.41311073      7.88108444     24.44694710
H        28.87211418      6.64520741     24.42571831
H        28.85011482      7.92431450     25.96165085
B        29.82679176      6.94155455     29.55695534
H        30.42981720      6.37179852     30.30997467
H        30.57744217      7.65864754     29.00460243
H        28.98169708      6.23240805     29.01283646
H        29.09674072      7.53536892     30.33432007
H        29.12986374     12.21696758      2.92109442
B        29.91341782     11.53568840      2.18185306
H        30.59607887     10.75628567      2.94269943
H        30.65743637     12.29993153      1.38675690
H        29.14083862     10.78886604      1.48069632
H        28.77282715     12.26382542      7.59274006
B        29.54864693     11.59165764      6.90368271
H        30.17216873     10.81562328      7.63753128
H        30.15693092     12.29337597      6.08203650
H        28.77978134     10.86736774      6.11854076
H        28.61261368     12.50578594     12.10413933
B        29.32161331     11.73501205     11.37781143
H        30.12335205     11.04851055     12.12503052
H        30.07386208     12.47718716     10.81777859
H        28.54855347     11.00533867     10.72511768
H        29.03187752     12.28616333     16.62238312
B        29.66951370     11.41886616     16.00713730
H        30.44465828     10.76857376     16.64852715
H        30.35656357     12.22421169     15.24953842
H        29.03414345     10.79698181     15.18985081
H        29.10616112     12.38351822     21.36804199
B        29.82484055     11.60463238     20.72446251
H        30.46240234     10.87711620     21.47052956
H        30.36815453     12.39175701     20.06153107
H        29.11802483     10.99146748     20.08163452
H        28.90966988     10.49015999     24.40927315
H        28.85255623     11.92574501     26.00791931
B        29.47228813     11.09000778     25.33008003
H        30.28068733     10.36962318     26.07134247
H        30.07959366     11.78807449     24.48983002
H        28.74014473     10.88856316     28.77857590
H        28.69819832     12.17242336     30.12498474
B        29.53238297     11.51595497     29.38577461
H        29.99630356     10.88672161     30.08487892
H        30.11629486     12.25230980     28.65674210
H        29.14429474     15.07742596      1.46524549
H        28.98457146     16.47732353      2.75418019
B        29.79007721     15.66985798      2.17595434
H        30.52515030     14.87505436      2.79682875
H        30.41799736     16.41281700      1.37002730
H        28.54253769     15.19250679      6.09541655
H        28.62546349     16.66577530      7.41449118
B        29.31494522     15.78961372      6.79350042
H        30.01550674     15.14239597      7.54752779
H        29.98720551     16.77050972      6.07360649
H        29.13884735     15.71966839     10.52667427
H        29.05015373     17.09167480     11.91066360
B        29.87961388     16.49737740     11.19710636
H        30.46082497     15.68905544     11.85258389
H        30.54619980     17.11897278     10.41068363
H        29.03867340     15.58535957     15.29231834
H        29.04863358     17.11410522     16.81908989
B        29.61572647     16.21523857     16.13237190
H        30.49442673     15.61827087     16.79613876
H        30.34833717     16.94506264     15.47132015
H        28.90559387     15.42026997     19.85720634
H        28.82302666     16.97621727     21.36239433
B        29.34844589     16.32506561     20.53080559
H        29.99454880     15.52329350     21.17680550
H        30.09978867     16.89587212     19.85498619
H        29.39003944     15.36192703     23.86930275
H        29.38063622     16.84913635     25.31252098
B        30.07806587     16.14234734     24.63063431
H        30.71526337     15.37776184     25.28728485
H        30.73621750     16.84485435     23.86418343
H        29.13163948     15.25399685     28.74417877
H        29.12549973     16.63379288     30.33317947
B        29.78222847     15.92952347     29.48931694
H        30.31679726     15.30482578     30.27621078
H        30.39193153     16.65195656     28.71987343
H        30.37471771     21.33498192      1.50733042
H        28.90446281     19.88628006      1.38179219
H        29.07586288     21.28912163      2.91005826
B        29.67450714     20.48629189      2.21964574
H        30.43209457     19.95443916      3.01329780
H        29.89614677     21.41617966      6.37329531
H        28.54255104     20.11231422      6.36044550
H        28.52256584     21.44901466      7.92877865
B        29.35994911     20.64387703      7.18694115
H        29.98433304     20.03697777      7.98412943
H        30.50364494     21.59496117     10.94386864
H        29.03794861     20.03651237     10.85728264
H        29.08957481     21.62991905     12.29947281
B        29.77755737     20.77500343     11.53230190
H        30.49549294     20.13124657     12.25636292
H        30.39529800     21.64785385     15.62051964
H        28.96436882     20.03017044     15.64350319
H        28.99545288     21.59378433     16.86192322
B        29.71936607     20.86106491     16.23074722
H        30.36836052     20.03412437     16.88905525
H        30.42386818     21.38834953     20.07169342
H        29.04655266     20.10976601     19.95126152
H        28.99710083     21.55822945     21.46589851
B        29.72615433     20.68103600     20.86132050
H        30.55849648     20.09556770     21.43064690
H        30.46076012     21.48961067     24.27328873
H        29.04765129     20.14098358     24.38618088
H        29.04640770     21.37796211     25.74997139
B        29.81255341     20.78862190     25.09250450
H        30.42102432     20.06782341     25.82188606
H        30.16501236     21.07050705     28.80723381
H        28.92196083     19.82128906     28.78017235
H        28.87169647     21.14783478     30.20675468
B        29.62137794     20.40158463     29.53627968
H        30.30857086     19.70479393     30.27298546
H        30.13779640     25.86370659      1.24392319
H        28.83636856     24.22625732      1.37115729
H        28.76900482     25.80383492      2.68205309
B        29.53801918     25.07348251      1.92890370
H        30.04574394     24.19107628      2.64987206
H        30.32881165     25.74422264      6.18620872
H        28.77498436     24.26361656      6.19871998
H        28.93875504     25.56793976      7.69606209
B        29.54836655     24.77708435      6.89119196
H        30.21091080     24.36900520      7.75444555
H        30.17184258     24.52285004     12.16840649
H        30.12741852     25.78879547     10.84735394
H        28.63742256     24.46616936     10.74624729
H        28.70021629     25.82710838     12.16229343
B        29.31997871     25.15010262     11.48858833
H        30.40591240     24.56029129     16.65208817
H        30.38698006     25.79714203     15.39344788
H        29.11333275     24.46623421     15.28045559
H        29.05056572     25.97290230     16.80891418
B        29.61959076     25.26487541     16.01658821
H        30.51570129     24.58782578     21.20927048
H        30.66942978     26.09204483     19.83643150
H        29.18680763     24.57428551     19.97661781
H        29.10135078     26.03731346     21.30826950
B        29.88287354     25.35597229     20.57509613
H        30.48308563     24.47539520     25.65889168
H        30.41857529     25.90598679     24.25968361
H        29.08788681     24.64612389     24.36590004
H        28.89837074     25.98928642     25.67767906
B        29.85135078     25.31911659     25.07255554
H        30.62560081     24.53131866     30.13155556
H        30.61116028     25.93263435     28.81116676
H        29.24188423     24.51976585     28.78517342
H        29.18258095     26.01793098     30.20241165
B        29.86450386     25.30894279     29.50790977
B        29.68169022     29.68952370      2.49973392
H        30.35448837     28.90830231      3.36916065
H        30.34399605     30.41034317      1.80139923
H        28.95448303     28.96301460      1.84561658
H        29.00546455     30.31514549      3.26346779
B        29.56909752     29.79763985      7.02428770
H        30.38449478     29.10685539      7.56012774
H        30.43113327     30.32331276      6.28535175
H        28.83438683     28.96059990      6.18573427
H        28.82288742     30.43442917      7.71788359
B        29.33790016     29.71875763     12.06938171
H        30.12857819     28.95919228     12.61354637
H        30.06302643     30.45131302     11.26791000
H        28.78062630     29.01439667     11.25756264
H        28.71994400     30.52234077     12.61902428
B        29.71677399     29.41022873     16.13728142
H        30.41520500     28.78511620     16.87364197
H        30.44675064     30.22101021     15.54899597
H        28.84937668     28.72036171     15.51578903
H        28.96339226     30.14020348     16.82438087
H        29.03652382     30.36064339     21.39941406
B        29.74353790     29.74167061     20.59829903
H        30.43821907     29.10355949     21.29650688
H        30.56599236     30.38550758     20.01076317
H        29.05547905     29.01960945     20.05458260
H        29.28875923     30.55863953     25.86105347
B        29.99267769     29.96559143     25.02857208
H        30.71346283     29.37217903     25.85028267
H        30.81724739     30.65165520     24.48197937
H        29.18309975     29.25574684     24.46933365
H        28.85008812     30.29498482     30.57401085
B        29.50215912     29.57844734     29.71192932
H        30.16482544     28.89451981     30.31579018
H        30.28960991     30.16154861     28.98692131
H        28.87063599     28.65684700     28.87403297
