3075

Na        2.13252974      0.31268564      0.48247170
Na        4.33319712      2.10296345      9.58768654
Na        2.27537847      4.32164383     13.40125370
Na        4.20631027      2.43371010     18.43535042
Na        2.37948799     -0.26631737     28.04719925
Na        4.65702534     -2.30262709     22.98871994
Na        6.96670055     -4.26102448     32.14623260
Na        4.41756296      6.69628429      9.37565517
Na        0.11559436      4.37950754     16.28098297
Na        2.44465327      4.82534647     18.18551636
Na        2.05593729     -0.14780405     22.80042648
Na        4.13095188      2.22232580     27.36363029
Na       -0.02729301      6.97722912     32.39035797
Na        4.33977365      8.75117016      7.11449194
Na        0.05336543      6.90112066      9.44758797
Na       -0.21190950      9.34729767     11.55704594
Na        4.60945511      9.11959076     16.17817879
Na       -0.04163799      4.43508911     20.90576744
Na        4.55858183      6.94781017     27.66634560
Na       -6.95952702     14.22114372     32.10374832
Na        2.28242350     13.66164017      4.74284554
Na        4.55977583     13.55744648     11.61233044
Na       -4.44102764     13.99876881     11.51806545
Na        4.51030159      9.64763546     20.68462181
Na        2.24790144     13.71572113     22.72457123
Na        4.32526588     18.46056175     25.04761696
Na        4.50845575     14.11841106     25.27104759
Na        6.58484554     22.87795639      4.94544220
Na        4.51362705     13.40663147      6.87670231
Na        2.19020200     18.54377556      9.59854031
Na        4.74800634     18.29982948     16.07061577
Na        5.22477293     15.87128830     18.03297615
Na        6.96693850     22.86350632     22.89876938
Na        4.91357231     18.17731476     34.42531586
Na        4.72643852     23.19425774      7.17269611
Na        2.45383406     23.47065735      9.01698875
Na       -0.17945980     20.72887611     13.72642517
Na        2.09592772     22.76841545     18.46170616
Na        0.02474358     18.34143448     20.71222305
Na        5.07349062     25.13067818     28.01698875
Na        4.73281384     20.53936768     27.62447929
Na        4.50408745     25.35277367      4.89921188
Na        2.01046157     27.15674973      4.82990599
Na        4.69949007     30.05010414     13.99345970
Na        4.91893959     24.98596954     18.51092911
Na        0.09695302     27.25550461     20.38170242
Na        4.72628927     27.48509789     25.36682320
Na        2.37435174     27.96291351     32.48871231
Na        6.89151335      0.59910780      9.51807880
Na       11.43693829      0.62676495      4.66380835
Na        6.60500956      0.21753640     18.46591187
Na        9.03606987     -4.30575466     16.20783234
Na        6.83648205     -0.19677302     23.45748329
Na        4.76446199      6.97794914     32.05295181
Na        8.90213776      0.20963937     29.86372566
Na        4.73221445      7.06216431      4.85985851
Na        9.32208824      9.43207455      7.05777740
Na        9.30772018      4.49505806     11.56332493
Na        6.72029734      4.61854267     13.68508530
Na        6.77341366      4.67106533     22.95308876
Na        6.62136221      4.76748133     27.34617996
Na       15.71025658      4.31914854     31.96927834
Na        9.05210114      7.08158636      0.07618179
Na        2.33610129      8.95572472      9.42510128
Na        9.40417385     13.55661964     15.58145046
Na        4.72053528      7.12827826     18.48587036
Na        8.98608112     13.53757286     24.98768616
Na        4.58502007     11.26456928     27.76828957
Na        2.53046918      9.17555904     32.34862900
Na        6.99134111     13.46307945      4.91993189
Na       11.52509212      9.30754757      9.23196888
Na        2.50191879     18.47345161     13.62293530
Na        9.06172752     16.00995636     22.71039009
Na       13.80212116     13.39006042     20.86833000
Na        6.61117744      9.23905849     27.85601807
Na       11.39387131     13.81198788     27.61714935
Na        6.76604080     18.55586815      4.60244083
Na        6.71963644     18.20107460      8.94236469
Na        9.61056232     20.78020096     13.75362587
Na        6.87277317     18.14819717     18.23857498
Na        8.96365452     18.20750046     24.93327141
Na        2.17834163     18.53879356     27.66683388
Na        4.62896252     18.19999504     29.99517059
Na        6.75833035     27.70722580      4.92881012
Na        8.93716049     25.65482903      4.35307312
Na       13.60056305     27.19031334     16.07337761
Na        6.80039978     22.64168549     18.68757820
Na        2.30033970     17.87143707     22.96722221
Na       11.27540207     27.61259842     27.68578720
Na       15.66686630     23.17958832     27.42994118
Na        9.16835117     20.74501801      9.09361076
Na        6.68285704     27.77807617     13.84050751
Na        4.53153944     25.15406418     14.06940937
Na        9.43242168     29.91776657     27.78557205
Na        9.26856327     25.41865921     27.41329765
Na        9.11026096     29.92238617     32.08816910
Na       13.43463135     -4.56905270      2.39352489
Na        8.66034317     -1.95232618      9.62151241
Na        9.07986355      2.49482632     13.91497993
Na        6.72969389     -4.42872858     18.55667686
Na       13.15964413      0.09745078     25.22191429
Na       15.86454582     -0.03450314     32.38571167
Na       16.15990448      4.75178671     -4.07265663
Na       11.50500011      4.87674475      9.22017002
Na       11.41416740      4.42873192     13.88005066
Na        9.08472538      6.87121487     22.98047066
Na       13.85039711      4.90674591     20.69046974
Na        8.87142086      2.42685127     27.25074005
Na       13.72573948     11.49011803     27.28687096
Na       13.46722031     11.28727531      4.76522923
Na        9.43588161      6.71656036      9.12086868
Na        9.15191650      6.90757561     14.11514378
Na        9.00947762     13.63209248     20.27569389
Na       13.76296520      9.14033031     20.43562508
Na        8.74515629      9.52439308     29.90136528
Na       13.62619114      6.86489725     27.64454460
Na       15.86953926     18.11685753      0.18371354
Na       13.67924595     18.03389740     11.56287289
Na        9.35936069      9.08399200     11.41925335
Na       11.55399895     13.69639874     18.32640457
Na       13.81885338     11.55093575     18.20335579
Na       13.46727276     16.09365845     27.78685379
Na       13.46839333     11.45244980     32.01878738
Na        9.02124214     18.10619354      2.47412348
Na        9.10648727     16.09077644      8.99126720
Na       11.41652107      9.35361004     18.30208969
Na       11.58590984     18.39172173     18.45607185
Na        9.26507092     18.07019806     20.55882454
Na       13.40922260     18.49278641     25.14036560
Na        4.58802414     16.22068405     27.63819313
Na        9.30397701     23.42203712      2.68643355
Na       11.50421906     22.66866684      9.22110462
Na        2.33549857     18.39775848     17.98930168
Na        9.24075031     22.72853851     20.50927544
Na        4.61863470     25.09685326     22.82987785
Na       11.13971615     18.14890671     26.99822235
Na       17.84756279     20.93702126     27.50770187
Na       11.32077122     27.60505867      5.01244783
Na        9.55277538     27.65729332     11.65578842
Na       13.77161312     27.48022461     11.45240116
Na        9.14602947     27.46036339     20.81365204
Na       11.26842022     27.77244759     22.87277031
Na       13.81455994     27.37651253     20.42866325
Na        8.78971958     27.34675980     29.93707657
Na       18.45883369      0.29247591      2.41197658
Na       16.08513069      4.64605331      9.23930359
Na       18.24066734      2.30599236     13.56741142
Na       13.92987823     -7.11492205     18.01044273
Na       13.58793449     -2.15619922     23.28168869
Na       13.72264481      4.76013517     25.36771011
Na       16.05517960      0.23340131     36.94731140
Na       13.43895245      2.50494266      9.04635143
Na       18.02365685      4.57719851     11.90980530
Na       18.37055397      2.56703520     17.86265564
Na       13.94284916      6.90974474     18.19482231
Na       15.86300755      4.63135862     23.24296379
Na       11.07937050      4.95535183     27.44253922
Na       20.26461029      4.90371656     32.14230728
Na       16.23395920      9.01006699      4.95379782
Na       13.74041748     13.60930252      6.99741077
Na       18.26968384      6.91578913     18.65816307
Na       18.35613060     11.60056496     18.53281784
Na       15.94407368      9.45889187     22.92833138
Na       15.73527336      9.12093639     27.57060051
Na       13.64453888      9.10177326     34.46558380
Na       18.22456741     11.16851616      0.07546898
Na       18.19551659     11.34147835      9.16002178
Na       20.47787285      5.12968493     13.90680218
Na        9.40793610     16.03327751     13.90260220
Na       15.96662521     13.77952194     22.82349205
Na       22.68379974     11.37407494     27.75605965
Na       18.19478989     15.80145645     36.46241379
Na       11.48355389     18.12036133      9.09596348
Na       13.82859898     20.72419548      4.78440237
Na       18.04787254     17.68318939     11.53829193
Na       18.41828728     18.41866112     16.24704933
Na       14.18390274     16.08753586     23.27807236
Na       17.95422363     22.89585114     25.28352165
Na       11.26179218     18.53055763     32.00104523
Na       13.78442478     22.58808708      6.73642063
Na       16.13872147     22.64966393      9.24379921
Na       13.65901566     22.53846169     16.05834961
Na       13.69373512     20.59488487     13.73882008
Na       18.47362137     22.85541725     15.89708519
Na       13.80301762     23.43340492     29.56318092
Na       13.45854855     20.60985184     27.49583054
Na       17.71215630     29.93386459      0.14251998
Na       13.73644733     29.95118904      9.53156471
Na        9.02017403     29.92215538     14.03666878
Na       13.71419430     30.01974869     18.50026131
Na       13.77249527     22.53186035     20.74709511
Na       13.63050842     25.58576584     27.44606781
Na       13.56035614     29.55891418     32.34934616
Na       18.05824280      4.58310843      2.29039025
Na       20.47362328      0.91614544      8.79870033
Na       20.65646744      0.21770822     14.34505081
Na       22.67809677      2.53589225     18.75971413
Na       20.17703438      0.11950213     18.39674377
Na       20.45097923      4.53991222     27.45166969
Na       20.45126915     -0.13392851     31.92225456
Na       22.82092667      4.18190622      2.39740133
Na       25.11790848      0.08222388      9.44019985
Na       22.43597984      5.00194693     11.60376263
Na       22.95022011      2.43757415     23.09238434
Na       22.78126526      4.75253201     20.59594345
Na       22.73070145      4.66199350     30.05702782
Na       17.92482376      2.56248832     31.83178711
Na       18.11317825      9.08233643      2.26251054
Na       22.66436577     11.37025642      8.79105091
Na       20.56394005      9.54566288     14.06950092
Na       20.61679077      9.42355728     18.56018829
Na       22.32958984      6.83957148     27.62890053
Na       17.85079956      6.73332453     32.20754623
Na       22.63516808      2.14684033     32.14043045
Na       22.76250839     16.06911659      4.89088154
Na       22.95474625     13.97559071     11.43237114
Na        9.36987495     16.04161263     18.04117775
Na       22.85774612     13.72195816     20.71593475
Na       22.72761154     15.99708080     27.55145073
Na       18.40927505     14.27968502     29.58356285
Na       18.55807877     13.56853485     34.08982468
Na       18.74222565     20.55899239      4.84526968
Na       20.15857506     18.33325958      9.18885708
Na       22.81837273     22.98961830     15.91678143
Na       22.81627846     16.09188461     13.51725578
Na       18.51179314     20.72778130     18.13442993
Na       18.23582840     18.61211205     25.33184624
Na       20.46574211     18.39483070     32.16455078
Na       20.49747467     27.65069199      3.88815737
Na       20.73135376     22.90828514     13.83900738
Na       22.61740875     22.91921043     11.35111904
Na       22.58341408     25.11830902     18.25806427
Na       23.02583313     22.91154099     20.61129570
Na       22.98127365     25.36050034     27.52837753
Na       20.55912781     22.63667488     32.27761841
Na       20.74426079     22.86895180      4.91315556
Na       15.90669918     27.63784599      8.93938637
Na       22.94949532     29.94215012     18.62830162
Na       20.58235550     27.62708473     18.95574570
Na       20.54673004     27.45368767     23.06391716
Na       22.64279366     27.73322105     25.23377800
Na       22.58297348     25.03038406     32.30294800
Na       22.56229973     -2.23101711     -0.10707444
Na       27.30708504     -2.20266247      8.84080982
Na       22.71999168      0.17459698     16.09935379
Na       25.30900955     -0.31520897     23.08102417
Na       27.60060310      0.51948726     25.38886642
Na       27.21064949      2.22483277     27.98036766
Na       27.50351334      0.06196668     34.51454926
Na       32.03897476      5.06838179      2.48111606
Na       20.41919518      4.64878225      9.45387936
Na       27.29247856      4.74945641     20.83085442
Na       29.80174446      9.07606983     23.08587837
Na       25.19900894      4.97494411     27.76814842
Na       25.13409233      4.57184839     36.48297501
Na       27.70265198      6.91541815      5.01251078
Na       23.22585487      9.46962833     16.04306602
Na       25.39171410      9.33205605     13.85515594
Na       25.30305672      9.45799065     18.70125961
Na       29.66562080      9.28964520     27.74744987
Na       27.46360397     13.70494556     25.42408180
Na       27.54239273     11.65855312     32.26399994
Na       24.91497803     13.87727928      4.83999109
Na       29.82454300     14.06464005     13.98336887
Na       20.61873817     13.72353172     13.49722672
Na       27.76331520     16.17804146     18.39972115
Na       24.82772255     13.99874020     27.31497383
Na       31.94919777      4.49755049     25.50566292
Na       22.96490860     11.27575684     32.37922668
Na       27.41953468     20.62363815      4.77305269
Na       27.26552582     20.68678284      9.20678806
Na       29.72494698     18.25258255     14.06422138
Na       22.59884071     13.60464573     15.96819973
Na       22.83421516     18.40331459     25.56068230
Na       20.40195656     18.97810364     27.70668793
Na       24.94420242     18.24269867     32.43503189
Na       25.02810287     23.22496414      4.84077835
Na       23.33494568     25.05294800      9.33192921
Na       25.15589333     23.21461868     13.37374496
Na       29.73752403     23.07643509     18.76276398
Na       25.36748123     22.84484863     27.50559616
Na       27.65806007     20.67267418     27.26531982
Na       25.00751877     23.10258484     32.03964615
Na       27.35914993     27.42746925      2.55348253
Na       24.89762115     27.38714981      9.34129429
Na       27.36837387     28.01737785     11.50014114
Na       27.32029152     25.29770279     22.94733238
Na       22.69608879     25.29657364     23.01123238
Na       27.76321983     27.80164719     25.18936539
Na       27.64674568     24.98831367     31.81321526
Na       27.52959442      2.16509223      4.52693939
Na       31.91997528     -2.23266888      9.12164402
Na       29.58575058     -0.17118824     13.84185123
Na       32.03728485      0.51520288     16.18102264
Na       31.87099648     -0.10599509     25.21321487
Na       31.75323296      0.10302823     30.10437584
Na       29.54300499     -4.73604155     32.53026199
Na       29.70372009      4.48167610      4.42910004
Na       27.40761375      7.07590771      9.33909893
Na       29.80184937      4.48304605     13.93871117
Na       27.42090607      2.29377699     18.90647507
Na       29.71388054     -0.20830442     22.75682259
Na       27.47335434      9.39745331     25.34312630
Na       29.61292648      0.15857971     32.53831863
Na       32.17126465      7.17091036      4.81952763
Na       29.71189880      4.67489624      9.14126968
Na       27.34272575      9.55384827      7.25062704
Na       31.94224167     11.44418812     13.94523430
Na       20.58615875      0.17503639     27.81996346
Na       27.35734749      5.02009010     29.98774719
Na       36.66100311      9.00265026     25.24149323
Na       27.17099571     11.65168190      4.68395376
Na       29.87656784     14.07885075      9.40630531
Na       31.92244339     16.21689415     13.55457973
Na       27.38553810     17.94776726     20.72371483
Na       27.30202293     11.69679165     23.17200089
Na       27.83741379     13.76725483     20.42424393
Na       27.07034111     16.13555717     31.77519608
Na       27.11227036     13.71316338      6.96426392
Na       32.12828827     18.22691536      6.75851631
Na       25.25900650     18.53103828     13.88095951
Na       24.90946579     18.30554962     23.26098061
Na       27.04164124     20.31743050     23.35225868
Na       29.86396027     18.22029686     27.90719223
Na       29.47581673     18.22809601     32.26060867
Na       27.41117096     25.41175079      9.30462646
Na       29.85173607     22.98206711      9.28283215
Na       32.18376541     23.05826378     15.97350979
Na       27.82364845     22.74998283     16.04285622
Na       22.80011940     15.95735550     23.05693054
Na       31.84152794     23.07620430     29.79837608
Na       27.51577568     20.78833008     31.94010544
Na       29.50258827     27.33130836      4.96390867
Na       31.91967583     27.91164398     11.74765110
Na       29.48680496     27.65457153     18.18297386
Na       29.56526375     27.44212532     22.93951225
Na       29.76852798     27.79867554     27.63927650
Na       32.12438202     27.20645142     34.46846771
Na        2.33462858      0.10314206      4.89379883
Na       -2.55927730      0.11960611      9.19619942
Na        2.14736080      4.45672894      8.89907360
Na       -0.16937424     -2.23853779     18.28353310
Na       -0.15759745      2.05430913     22.85075569
Na       -2.47623754     -0.01451948     27.53610802
Na       -0.23472059     -2.14193249     32.62606049
Na       -2.15740800      9.03215504      9.01904583
Na        4.86875105      4.32513142      7.18227339
Na        2.35077071      9.14321995     13.55999565
Na       -4.46241999      9.20421219     20.70542336
Na        2.08532143      4.90132236     27.69309044
Na        0.00249448      9.00837326     25.48635864
Na        0.00134677      9.33151150     20.69738388
Na       -0.36594698     11.72931194      4.48175192
Na       -6.85503531      4.60680580      9.34181023
Na        0.12362351     13.91442680     11.79671860
Na        0.28146973     13.96696091     20.69055939
Na       -2.29074550      8.87508965     18.48110199
Na        2.31980753      9.09490395     22.83975220
Na        0.22433621     13.99406624     34.27600098
Na       -2.46956062     18.39506531      4.48721886
Na       -0.24212247     13.52282333      6.83633566
Na        4.14268446     11.46404648     13.77978230
Na       -0.10631857     16.06303024     18.36384773
Na       -0.38324630     16.11825562     23.00342560
Na       -0.19256647     18.23676682     29.88474655
Na        2.69418931     13.68102455     32.67193604
Na       -0.07082289     20.66821480      4.67582417
Na       -2.11168432     18.33713341      9.01146793
Na       -2.36410236     27.72731209      9.62337971
Na       -1.92230356     18.32313919     18.47236061
Na       -0.18272470     20.54905319     18.23797607
Na        0.16452178     18.33043289     25.45037651
Na       -0.29576352     20.65756416     31.89661407
Na        0.39236218     31.96545410      2.66597033
Na       -0.52628911     29.82814217      4.72870827
Na        0.12073852     25.37818146     13.97676754
Na       -0.09016048     25.44543076     18.01910400
Na       -0.10845267     22.90099907     20.71169662
Na        0.20283355     25.47378159     27.54798126
Na        4.30877972     20.44422340     32.53640366
Na       -4.32049370     29.66285515      4.82437611
Na        2.38142419     31.98293304      9.33016205
Na        2.22116852     32.50809860     14.13215637
Na        2.39331841     27.95175743     18.36177063
Na       -2.26013899     36.53842545     27.80205917
Na        0.12581535     25.30653572     32.33168411
Na        0.04378340     27.56463242     39.08445740
Na        7.15445900      4.61603546      9.16452026
Na        5.00554991     -2.34092760      0.17657304
Na       -0.08738799      2.32570934     13.88886166
Na        1.90560472     -0.24792741     19.37878609
Na        4.69612598     -4.33170795     20.37038231
Na        4.19459057     -0.01658755     25.47109413
Na        9.42930698      2.54859877     36.39074326
Na        6.91609621      9.29858685      4.77788305
Na        6.85666704      4.59487200      3.99038076
Na        6.90440226      9.10368347      9.15644646
Na        4.71643162      4.89258337     16.26311874
Na        7.02116013      9.05192566     22.85935211
Na        6.76535082      4.74992895     32.40557098
Na        4.70477104      9.14300156     34.75463486
Na        4.98870182     13.65734959      2.48938227
Na        6.60975647     13.74130535      9.13187790
Na        4.37702847      6.85629940     13.89469147
Na        7.05292845     13.78691673     17.90036774
Na        4.69090652     13.68121910     29.86974716
Na        0.14948864     11.38867283     27.85066223
Na        6.64914465      9.46291733     32.14883804
Na        4.21254492     18.11726570      6.58731651
Na        8.48423100     13.79802227     11.50752640
Na        7.15122509     18.43616867     13.83011627
Na        2.51718616     14.16328812     18.48310280
Na        2.33496761     13.53150368     27.61008263
Na        7.01485300     14.14252281     22.75556183
Na        4.71199226     15.93921089     32.17941666
Na        4.50782394     25.22722244      0.36116734
Na        9.05697632     25.17856979      9.02325058
Na        7.28823090     23.19600296     13.30784893
Na        4.18390512     16.15132141     23.43399429
Na       -0.16286334     20.57129478     23.08538246
Na        4.55351019     20.75117302     23.64888000
Na        2.31563139     18.19604492     32.35596085
Na        4.21819353     29.65894699      4.84119034
Na       -0.18696965     25.37942696      9.47746563
Na        9.64289665     23.27802658     11.47261143
Na        4.51419687     22.42802238     20.55868721
Na        9.21615696     27.85580826     25.38799667
Na        2.30057096     22.97481537     27.78914452
Na        6.88163805     22.81184959     32.37710190
Na        4.24665070     36.92274857      2.37606788
Na        4.93092585     29.65474129      9.38712502
Na       -0.35742295     31.99864388     11.52427101
Na        4.31412315     31.93251419     16.41197968
Na        2.41589212     27.37547874     22.75567245
Na        2.25913858     27.47036743     27.37895966
Na        4.66060734     32.25161362     29.77156258
Na       11.34321022      4.93580389      4.84269667
Na       13.88605404      9.33600140      6.79293585
Na       13.73060703      0.21169025     20.77360153
Na        9.25939560     -1.95157552     18.45507240
Na       11.23381424      0.12969376     27.54874039
Na        6.90382147      0.05389137     27.16447830
Na        2.14994717      4.92697287     32.22232437
Na        9.36721325      6.86823988      4.89561033
Na        4.77949524      9.22950935     11.69897079
Na        9.18085003     11.57256699     18.12228775
Na        6.89267302      4.50226164     18.05228233
Na        8.75621605      4.67880106     25.22014618
Na        9.23415565     11.43305588     22.54188347
Na       11.40971088      9.01911449     31.99585533
Na        9.14600086     11.59223080      4.44060373
Na       11.25964260     13.23635101      9.03376198
Na        4.70212936     14.01709747     20.81179047
Na        9.16088390     11.51283741     13.36147594
Na        6.78904104      9.65324783     14.08579445
Na        6.89069653     13.55987358     31.87214088
Na       11.40162563     13.77182674     32.08349991
Na        9.31625175     16.00839043      4.76749563
Na        9.16623783     18.23442459      7.15065384
Na        4.48607063     14.15987587     16.34374809
Na        4.87930632     11.72669029     23.07072258
Na        9.24798107     11.49911594     27.45403862
Na       11.11953354      9.23289204     27.53441811
Na        7.12217903     18.10715485     32.29517746
Na        9.19414616     22.55746651      6.95086050
Na        9.27250576     18.30722046     11.68063068
Na       18.52148628     23.08144188     11.47046661
Na       13.75338173     18.60231209     16.02959061
Na       13.45933342     22.83417130     25.14587784
Na       18.05037498     22.67511940     29.92594528
Na        9.30768108     27.92145157     34.25624466
Na        9.36958790     32.00271988      2.47313213
Na       11.48693371     27.96259308     13.80974865
Na        2.47775817     22.79349518     13.86644650
Na       11.48186588     27.61808586     18.63861847
Na        9.03327084     25.21417427     22.82600021
Na        9.07072067     22.70625877     29.76557350
Na        9.20980072     20.73222542     32.32599640
Na        4.51496983     23.09562111      2.33873940
Na        6.68156242     27.06860352      9.68964100
Na        9.22319603     31.94198418     11.71288395
Na        6.59224319     27.38778114     23.28086662
Na        8.97878075     34.54650879     22.89369202
Na        7.15518904     32.23031235     37.01760101
Na       14.03832436      2.64086294      4.50817490
Na       13.92809105      0.26165527      7.01346684
Na       13.75221157      2.21587563     13.95640278
Na       15.86220932     -0.02541896     22.84400940
Na       13.46764088      2.53650284     22.89667130
Na       15.97343349     13.78769493     27.35200500
Na       11.23636723      0.25349945     32.04469299
Na        9.24359608     11.49247360      9.50525379
Na       15.90484524      4.39188910     14.31154633
Na       13.90555382      6.98977375      9.32078934
Na       13.76045513      2.67823362     18.54006577
Na       18.76365662     -1.82728064     23.12521362
Na        9.11471272      9.25043583     20.56686020
Na       14.02949810      0.14874148     34.39542389
Na       22.66132355     11.50069237      4.64279747
Na       13.97501087     11.46319771      9.09302521
Na       18.28622627     16.04889107     14.00523090
Na       18.02231789      9.29844379     11.72725677
Na       11.46905231     13.88973141     22.99681854
Na       13.39263153     11.52862263     23.23728943
Na       13.32728386      4.35164165     29.77387810
Na       13.61110401     16.04780197      4.59392738
Na       11.52916431     22.89995193      4.82648849
Na        9.34952927     18.15512085     16.19140244
Na       14.01519680     14.05361557     16.03830910
Na       13.66739082     13.61757469     25.40684319
Na        9.01746082     18.18783951     29.91510010
Na       16.23468781     22.59651566      4.18284416
Na       13.64277172     20.61117935      9.35002518
Na       11.39642334     23.16366768     13.59588909
Na        8.90711308     20.65072823     18.15215111
Na       18.18282890     15.98543262     18.16272163
Na       11.43653297     22.98501778     27.94215012
Na       13.87708187     18.53675842     30.03469086
Na       16.04832077     27.38228035      4.71393776
Na       13.61769676     25.35352898      8.80339336
Na        8.99763680     25.36715126     13.73017788
Na       14.21995258     22.93880463     11.53013802
Na       16.19103050     18.35333252     23.12315369
Na       13.29122829     27.36695099     25.19622803
Na       13.63959599     25.27880478     36.60136414
Na       13.74871254     27.61440659      7.05773067
Na       15.94692993     32.33375931      9.41633701
Na        8.81250095     30.07891464     22.44676399
Na        9.35099125     32.06238174     16.49561310
Na       11.23269176     32.53675079     18.45173645
Na       13.58105850     29.90719414     27.41667175
Na        8.89550400     25.30001831     32.11927414
Na       18.02023125     -0.20417395      7.32200575
Na       13.63834476      4.67316961     11.79620171
Na       13.69573116      6.89774275     13.87322998
Na       18.03577232      4.74511147     16.30593491
Na       17.95563889      2.60455608     22.93666077
Na       18.56202316      0.28338456     25.52391052
Na       17.85549927     -4.77108669     34.22185898
Na       18.67504883      6.84541655      4.32660961
Na       18.40046120      0.16854604     11.57264519
Na       22.72622490      4.47414494      7.06862164
Na       20.67527771      4.89253235     18.00410080
Na       17.83093643      6.94511366     23.10738373
Na       17.88969612      8.84519577     29.69177246
Na       13.22116852      2.19891500     32.29106903
Na       20.56265831     18.38281822      4.78161907
Na       18.25027275      9.22704792     16.30028534
Na       17.96170425      7.29574251     13.97794437
Na       18.08604050      9.06484032     20.91230011
Na       22.98330116      6.99287891     22.67532730
Na       20.41514206      9.15402603     27.43124390
Na       18.12813187     11.52246475     27.60952187
Na       15.83233738     18.31110573      4.93168545
Na       18.16728973     15.92355537      9.02792168
Na       18.54340363      7.12555647      9.57653236
Na       16.10017967     18.40865707     18.50142670
Na       13.99874878     18.19836998     20.74878693
Na       15.55771351     18.22629929     27.45558929
Na       18.21410179     15.91148949     31.96800423
Na       18.08007050     18.36772537     -2.15371919
Na       18.44993401     20.84423065      9.75776482
Na       22.62257957     18.23346901     15.87574482
Na       18.11923218     13.45401192     11.64761829
Na       18.18560982     20.89380074     22.92215347
Na       17.88824081     25.32300949     22.71310234
Na       18.23226929     18.63616753     34.52064133
Na       18.31035805     22.75869560      2.15966225
Na       20.58510590     27.30955505      9.18409252
Na       20.80186272     22.51707077     18.71502686
Na       15.78055477     27.76249123     23.09927750
Na       18.26043892     20.40345001     32.11949539
Na       17.87989044     25.05946922     31.96343613
Na       22.15105057     27.33913612      6.94472218
Na       20.23981857     27.97613144     13.86333942
Na       23.07157326     20.65785980     18.37222672
Na       18.27694893     27.78239250     20.64285469
Na       18.16333199     29.94189072     27.61829567
Na       20.13895226     32.80943680     36.74853134
Na       20.40656662      4.47188330      4.39690399
Na       25.31744766      4.98782635     13.79257774
Na       15.98807335      0.09613365     13.96822357
Na       20.75658226      5.07083178     23.06755638
Na       18.42902946      2.54562545     27.92210197
Na       22.67396355      0.03960007     34.11730957
Na       20.39290810     13.71139145      4.49491453
Na       27.38728142      4.98141146     11.55883598
Na       23.50224113      4.69712973     16.28746033
Na       22.84558105      9.30668545     20.60983467
Na       20.50901413      9.12243843     23.39763260
Na       18.73446465      7.11419010     27.26230812
Na       22.91540527      6.86598730     32.50068665
Na       20.62666702      9.27208614      4.61331129
Na       23.13144112      9.06662941      6.78805828
Na       18.47156334     13.90590668     16.09773827
Na       22.78175735     11.26049900     23.08359528
Na       20.65138626     13.57944012     22.55093002
Na       22.44301796     13.45354939     25.23418045
Na       27.48129272      4.78093910     25.50105476
Na       22.71021652     13.48352623      2.59231853
Na       22.55969048     16.13462830      9.08609867
Na       18.13041115     11.49244118     14.03537560
Na       22.99424744     11.38046360     18.07608795
Na       27.72611046      9.25323200     11.66876888
Na       22.63681221     18.26061630     29.89903259
Na       22.90389252     15.95664024     32.17281342
Na       23.36095238     20.50576019      4.44330740
Na       22.38648224     23.06816292      6.96829987
Na       27.47275162     18.42030525     15.94333649
Na       17.97363091     25.14885712     18.42258072
Na       20.53709602     18.52842903     23.23319054
Na       20.48909378     23.37506104     27.73972130
Na       22.69095421     20.52260971     32.03623962
Na       22.80935097     28.06884575     11.66956997
Na       27.93553162     22.88184738     11.43735790
Na       22.61439896     25.39457893     13.79606152
Na       22.93445778     18.21009254     20.70376205
Na       25.03562355     23.16312027     23.49791908
Na       20.56168365     27.32037163     27.29421616
Na       25.09283829     27.24238777     32.13129807
Na       31.74697876     25.06151772      4.71228313
Na       27.08321762     32.14032745     11.51140594
Na       27.79687119     34.50259399     13.52199459
Na       22.74195099     27.50508499     16.26969910
Na       22.60476112     32.49496460     25.42657471
Na       23.00999451     29.95545959     23.19512558
Na       22.77610397     27.47935867     34.38366699
Na       29.73337936      9.29505253      4.92106438
Na       27.20693970      4.24927616      6.84663343
Na       22.83120155      2.61481786     14.14106274
Na       18.16516876      0.05752853     21.02607918
Na       27.66793823      2.06306219     22.85617256
Na       25.15921402      4.71323013     23.14720345
Na       20.19139481     -4.83346939     31.89312172
Na       22.57979965      6.83241367      4.78200006
Na       22.82670784      7.08241510      9.19334888
Na       32.14845657      4.61860514     11.47441006
Na       18.23625755     11.43088531     22.57555008
Na       22.79342651      4.40773869     25.35185242
Na       27.67460823      4.79587078     34.55069733
Na       25.13426971      4.51753616     32.48799896
Na       29.99891090      9.24483013      0.00224397
Na       25.27576256      8.77735615      5.01602316
Na       29.90169525      8.99821949     14.21288204
Na       32.52165985      9.23521900     15.96166897
Na       31.62425613     11.63734341     22.97589493
Na       31.93180656     13.45768833     25.44627762
Na       29.47527885     13.69661331     27.83856392
Na       29.33494949     13.63815784      4.52791500
Na       32.01612091     11.48827648      9.32674217
Na       27.33820915     11.56184769     13.80554295
Na       23.01542091     20.68838882     13.66315079
Na       27.22735214     17.71975517     25.57613564
Na       27.51905251     16.05113983     22.87767982
Na       25.15095901     18.32949829      5.04932499
Na       27.77510834     18.57769012     11.64387512
Na       27.36381721     20.78495979     13.86597157
Na       34.12556076     22.71252251     22.63396454
Na       25.05727959     18.26153564     18.24950409
Na       27.32881546     18.46909904     29.95721817
Na       27.50504875     16.12356758     27.85742569
Na       25.15348434     27.57050896      4.60445070
Na       27.15624046     25.16893768      4.97022295
Na       26.82352638     29.97872925     13.82836151
Na       27.18596649     25.22025681     13.76392174
Na       25.09387398     27.82567596     23.20819855
Na       27.67313004     25.22426033     27.41397667
Na       29.55245399     23.01337051     32.18135071
Na       22.81682968     25.32038879      4.69696712
Na       26.90245819     27.44087029      6.88678789
Na       25.15452766     32.59064102     13.95773983
Na       25.03158188     27.31250000     17.98210716
Na       20.38850975     32.74760818     22.88338089
Na       25.28640366     27.40072060     27.50095558
Na       26.92166328     32.01265335     29.87895966
Na        6.85893631      0.30310595      0.36433208
Na        0.12114598      2.60275102      4.67242193
Na        0.05170829     -2.10163784     13.76278591
Na        0.06170545      2.18670440     18.59029770
Na       -2.44008088      0.04571737     18.62257004
Na       -0.17987493     -2.20283103     27.77835274
Na       -0.05623721      2.53314209     32.42765808
Na        4.34324837      2.31183839      0.16898899
Na        0.02955146     -0.03646832      7.09399414
Na        2.16296554     14.04729557      9.03366470
Na        0.48229310      6.74083471     14.02567101
Na        2.59050512      4.51928759     22.95011711
Na        2.54154563      9.26475334     27.41544914
Na        0.11192821      7.06356573     27.82176399
Na        2.30185914      9.32275391      4.78854275
Na       -0.12816478      2.29254818      9.27358246
Na        0.06435308      4.55842113      6.85180855
Na        0.26747000      6.81537104     18.99882889
Na       -0.29972705      6.77140141     23.11239433
Na       -4.82954168      6.85295916     23.21513367
Na       -0.00898834      4.28479385     29.94009018
Na        0.04776639     11.47819614     -0.01813456
Na       -0.02814952     16.15500450      8.94579983
Na       -4.37241554      7.01849413     13.93408680
Na        0.12529482     13.75422859     16.28005600
Na       -2.08822536     13.72051239     18.50019073
Na       -0.00230052     11.27738285     18.70318985
Na       -2.33400011     13.93613625     32.33794403
Na       -4.40976763     18.01856041      2.30554843
Na       -0.10348477     15.94403648      4.38262558
Na        1.95453680     17.98816490      4.21143866
Na        0.27176523     18.04676056     15.83788490
Na       -2.32082629     22.98741722     22.71166801
Na        0.14848676     20.62975311     27.71042824
Na        0.42883071     16.15186501     32.28787613
Na       -0.19935380     18.32695198      2.35271311
Na        0.16012846     22.91957283      6.95297623
Na        0.32895985     22.86482811     11.47501087
Na       -4.65434551     28.09914970     16.19083023
Na        0.42607200     25.01355171     23.10962296
Na       -2.04348350     22.60635376     27.44634628
Na       -0.04017654     22.72103119     34.29674911
Na        2.15669298     22.97193146      4.70155621
Na        4.28062725     27.70121956      7.27649736
Na        2.24789357     27.23079109      9.47888947
Na        0.41466463     27.79402161     16.02916908
Na        0.17947674     34.22837830     27.60538483
Na       -0.41230643     27.38442421     25.41270447
Na       -0.10728972     27.76248360     30.07274628
Na        4.38271093      2.40417171      4.76743889
Na        4.69931269      4.24711800     -2.46578693
Na        4.72183704      0.40914688     11.89458656
Na        4.16003942     -4.16325617     11.58362579
Na        0.13973938     -2.59315491     22.58532524
Na        4.85098600     -4.57102871     29.93120575
Na        7.13338280     -4.45773077     27.49298286
Na        2.19337010      4.91008759      4.84181356
Na        4.79239845      4.61278629     11.56274700
Na        9.13156605      2.16551924      9.63504887
Na        4.51897669      2.59160995     14.19728947
Na        4.65098095      2.34754467     23.35227776
Na        4.42990017      4.70897341     25.38148689
Na        4.80561924      0.20428981     34.50249100
Na        0.06400233      9.18182659      2.82306981
Na       -0.03762281      9.24905777      7.10491228
Na        2.30894566     14.17419243     14.29894257
Na       11.46840191      9.28533745     13.70507050
Na        4.88229990      4.92467022     20.76266479
Na        4.63658094      6.89910269     22.65730286
Na        0.24787125     15.85940456     27.88014030
Na        4.65332079     11.45248985      0.27193367
Na        4.12540865     11.69481277      9.43984413
Na        4.70585680     16.08240891     13.62480259
Na        5.07167196     23.02219963     11.58260059
Na        2.16361070      9.17852974     18.59848404
Na        0.36263970     14.00579643     30.08552551
Na        9.20023251     13.70945644     29.94745445
Na        4.76218987     15.95685863      4.60241413
Na        4.42908144     16.03241158      8.74616814
Na        5.04687452     18.28735924     11.54729652
Na       -0.29815993     18.52982903     11.45374489
Na        4.29871225     11.45794392     18.28911591
Na       -4.35183430     23.30510712     25.30697060
Na        6.77503395     18.02079391     27.78507042
Na        4.28698826     22.83396339     -2.02947283
Na        0.18247925     20.85652733      9.05151272
Na        2.32960176     27.88221931     13.71747684
Na        4.25472593     17.98645592     20.53284836
Na        4.71045208     20.58783722     13.96846485
Na        2.37687802     23.00968933     32.28628540
Na        4.65260792     23.28676605     25.28525352
Na        4.60394287     27.44924164      2.41921377
Na        4.82732201     25.37447929      9.80769539
Na        4.63282251     20.74641800      9.39719772
Na        4.91021347     22.84680557     16.14390945
Na        4.86382437     20.44255066     18.40046883
Na        4.77786398     29.83731651     27.90666771
Na        4.48460531     20.72469330     36.38595581
Na       11.46520996     -4.60167503      9.15599823
Na        8.97475815      0.10892666      6.90074062
Na        4.91565847      0.42014673      7.05735302
Na       11.53295231      0.35236269     13.99375820
Na        8.94480419      2.44554377     18.38280487
Na        4.39348555      0.13206695     21.03351402
Na        8.92730904      2.53089547     32.20597076
Na        9.43413925      4.67301941      2.34056950
Na        9.22283745      4.64579248      6.87351704
Na       11.81697750     -0.09255089      9.06806374
Na       11.26335049      8.94857025     23.07069016
Na        8.42779541      4.76522875     20.52696991
Na       11.36610126     -0.04621401     22.77371025
Na        9.07905102      4.63606977     29.92387390
Na        4.77897930     11.32387066      5.11230135
Na        9.24150181      9.19255829      2.37267017
Na       13.81559372      9.35534954     11.53106117
Na        9.30758858      7.16703796     18.51691818
Na       13.38122559      9.21920776     25.33301926
Na        8.65042019      9.43546867     25.55483055
Na        9.30657101     11.61570549     32.06688309
Na        8.81421089     13.50257301      2.25696182
Na        9.18021393     13.61410618      6.94073153
Na       16.04345703      9.25021267      9.58632660
Na       13.67416286     13.67957973     11.60547733
Na        9.20748138      9.10529709     15.91227722
Na        6.93253469     13.63421249     27.06554413
Na        9.29537487     15.85706806     31.99045753
Na       11.35332870     23.16651726     -0.04090169
Na        9.20472622     20.51454926      4.63622284
Na        7.11380768     22.76121330      9.27857590
Na       11.53231049     18.44174576     13.80445766
Na       11.54862881     18.23451042     22.78489304
Na        6.83680725     18.42667580     23.05086136
Na        8.94357967     15.80071163     27.55258179
Na        9.26801395     30.00842667      5.07464647
Na       11.53504753     18.35596085      4.65437984
Na        9.26854515     25.05363083     18.36866570
Na        9.38494873     22.79584885     15.93076992
Na        9.12984467     20.60166740     22.80955696
Na        9.28032494     23.02307129     25.27188873
Na        9.18839931     20.68364143     28.05364418
Na       11.24883747     36.38337708      0.10893455
Na       11.36401939     27.22480583     -0.32273838
Na        6.92649460     32.09349060     13.93850803
Na        4.61335325     27.36195946     15.88358402
Na        9.72021484     31.90443802     24.98100853
Na       16.04961777     27.36931610     27.53026581
Na       13.47483921      0.06770585     -2.22340584
Na       13.80322933     -1.95936263      4.47362280
Na       13.68800259      0.13871992     11.62656116
Na       15.91697311      0.72433794     18.64782333
Na        9.27203178      0.42826524     20.77742767
Na       11.23164845      4.66286564     22.99945831
Na       15.95846748      0.19959281     27.36109161
Na       13.96259594      7.08302975      4.71124172
Na       13.81534672      4.76834869      7.04706383
Na       13.61262417      4.68785477     16.27973747
Na        8.97694016      5.06179237     16.30999374
Na       11.37207890      4.78078747     18.61169243
Na       13.62588501      6.89551306     22.96860504
Na       13.46196175      6.83220863     32.21059799
Na       13.49681377      4.68338537      2.31522870
Na       13.72070503     13.59426975      2.27296638
Na       15.82318115      9.06522560     14.02429962
Na       16.35177803     13.71397781     14.00612259
Na       13.52244377      9.15924740     16.26403046
Na        8.84187984      6.83564329     27.59663963
Na       13.78908348      8.95820141     29.82111740
Na       15.93004036     13.19786835      0.27668336
Na       11.43233871     13.78802967      4.64619493
Na       13.72781372     15.93646145      9.43606567
Na       13.36291313     16.19614983     18.55332184
Na       11.54149532     13.69533730     13.61250210
Na       13.94048023     13.77013302     29.73726082
Na       18.41113091     13.67156124     25.04981613
Na       13.70050812     23.34844971      2.07762504
Na       13.90953827     18.09962082      6.72699738
Na       11.54419994     22.91540718     18.23028755
Na       20.33316422     18.24703217     13.55270958
Na       18.24073601     22.86747360     20.81583405
Na       13.75151443     20.53205109     18.61986732
Na       13.30643082     16.17914391     32.16408157
Na       13.81354618     21.00914383      0.04911388
Na       18.09180450     22.65132332      6.88931036
Na       13.85271358     25.15176582     13.75533009
Na       13.60105801     16.16263771     13.81466961
Na       16.07240105     22.52971458     18.27346611
Na       11.23967838     22.92390060     22.78937912
Na        6.87010860     22.56797791     27.71384048
Na       13.63698387     27.73815918     -2.13691950
Na        9.05666256     27.91904449      7.01019001
Na       15.80582142     27.21143532     13.96480751
Na       13.68333340     29.95891953     14.09905624
Na       15.96004009     27.32401085     18.02458191
Na       13.97168159     25.07151604     22.93351936
Na       15.72932625     27.60087585     32.12544250
Na       18.45090866     -2.20147610      4.77527809
Na       22.74196815      2.10340381      4.96333122
Na       18.51191139     -2.16529822      9.86923027
Na       17.87478638      0.14675063     16.35124397
Na       13.69711018      0.22033314     16.17617989
Na       18.37956810      4.95595741     29.77709389
Na       18.09505463      0.18311177     29.86317062
Na       16.05844116      4.76585150      4.55153990
Na       18.56831169      4.61466312      6.63480234
Na       18.25016975      8.95640755      6.80507946
Na       17.99445152      2.24929142      9.46184731
Na       18.37891769      4.79880810     20.53726959
Na       18.39018631      4.61188745     25.22642517
Na       13.77321243      2.19809985     27.75484848
Na       18.33733749     11.35051823      4.75890923
Na       20.55956841      9.25714779      9.67325401
Na        6.67815113     13.35841846     13.74817657
Na       16.17814064      9.29735661     18.44289398
Na       18.43902969     14.13121796     20.65021515
Na       17.86570930      9.22039795     25.15136337
Na       15.75651550      8.90657520     32.10958862
Na       16.06866646     13.69819450      4.44829559
Na       15.92138672     13.67247105      9.19946098
Na       14.07286930     11.52052879     14.15550709
Na       18.19498253     13.59493065      6.94249678
Na       15.87184334     13.93791199     18.18259811
Na       25.08062363      9.02067184     23.11379814
Na       18.28082275     16.26670837     27.41644096
Na       13.93366337     18.29997253      2.37075496
Na       16.08730125     18.31129265      9.11909294
Na       18.29327965     20.72343636     13.78376389
Na       15.96998882     18.28708076     13.96903515
Na       20.57821274     18.25308418     18.40609169
Na       13.78769970     20.50428963     23.05278397
Na       20.52083588     13.88663578     27.46322823
Na       20.36138916     13.83228397      0.51076579
Na       18.23237419     18.44355392      6.92287159
Na       18.19964600     25.24696922      8.43656158
Na       16.08432007     22.84993172     13.86589909
Na       18.52623558     29.99546623     13.94586945
Na       18.05536652     25.22785187     27.50240707
Na       13.83092499     25.50324821     32.13368607
Na       18.52628899     25.21272469      4.59679174
Na       18.43541527     27.59082603      6.65604591
Na       22.18424416     29.96648026      9.24789143
Na       18.14156342     27.34148026     16.19059753
Na       18.04304314     29.82880402     18.06461716
Na       18.04298973     27.66523743     25.43438148
Na       18.29731750     27.48340416     29.88731003
Na       27.70360947      2.48654485      0.39779314
Na       22.72964859      0.31371972     11.83333492
Na       22.84692764      2.32674479      9.41833878
Na       24.91699409     -3.95409417     13.97311974
Na       22.59459496      0.09803415     20.72511864
Na       25.21372795     -0.12933993     27.46770859
Na       22.93255806      0.13133837     29.63820076
Na       22.87005806      9.02739716      2.42089272
Na       22.66873360     -0.30151299      6.70202875
Na       23.06804466      9.10601997     11.60545158
Na       22.68775749      7.02181196     14.00871563
Na       29.82424927      4.44529724     18.41622734
Na       27.59825706      7.08941126     27.32538605
Na       24.95899582     -0.16697218     32.13048172
Na       23.06918526      9.34153175     -2.08335638
Na       25.25789070      9.03004456      0.59712946
Na       22.80097580     11.51314163     13.67645550
Na       23.02288246      6.86484575     18.78420830
Na       22.91697311      9.23755455     25.37430763
Na       29.65800285     13.83564663     22.96412277
Na       20.78896141      9.26453781     31.69835854
Na       27.34041214     13.59045506     -2.08110023
Na       20.46681595     13.67360497      9.08180428
Na       22.74502563     13.70806980      7.03149414
Na       22.78787804     16.04530525     18.15625572
Na       20.45207596     14.02280617     18.34525108
Na       18.44608498     15.86484623     22.83667946
Na       22.65508080     13.61538506     29.77314568
Na       22.76410675     18.13042831      2.56931400
Na       22.83553886     18.60278130      7.08711767
Na       25.10380745     18.54330826      9.34114456
Na       22.61588860     18.12384415     11.51428032
Na       18.26104927     18.28897667     20.75194359
Na       22.45537376     23.37551117     25.35085106
Na       25.05099297     18.02382278     27.77027702
Na       23.03594017     23.16158867      2.40848684
Na       22.80573273     20.78750038      9.45926285
Na       20.58838463     23.29612160      9.01816845
Na       25.06359100     22.86350250     18.22585297
Na       23.18359947     20.65338898     22.81506348
Na       20.71255875     22.61753273     22.67903709
Na       22.65084076     23.02844238     29.87960052
Na       22.73654747     29.78358459      4.35375071
Na       18.19519234     27.25038719     11.49685955
Na       22.97737312     29.98397636     14.19481087
Na       18.59618759     25.39316559     13.71227169
Na       27.14676285     27.42603111     20.60613251
Na       23.28769112     27.31536102     20.82245255
Na       22.47097206     27.81607246     29.89019203
Na       25.04582787     -0.11028799      4.43312216
Na       27.16558456      0.22685218      6.79125500
Na       27.22119141      2.39830780      9.41392517
Na       26.95519638     -2.20953512     18.46725655
Na       25.01527023      0.26773208     18.45812225
Na       27.53030014     -2.30001354     27.64472771
Na       23.06338310     -2.24194264     27.45781136
Na       27.06795502      7.16381264      0.28943914
Na       25.11445618      9.37567997      9.69981098
Na       27.56735802      4.53491259     16.11297607
Na       27.41260529      6.83898592     18.61814117
Na       25.23214340      4.70748091     18.71073532
Na       29.72184181      4.41655350     23.24192429
Na       29.58452606      4.93777943     32.12664413
Na       27.80919456     11.54491901      9.48424244
Na       27.49271393      9.31486988      2.35143471
Na       25.02507782     14.05412960     13.63167095
Na       27.26246452      9.22394085     16.34387970
Na       27.44639778     11.47424889     18.68302727
Na       25.06230927     13.40932465     22.87946892
Na       31.95444679      9.10153198     30.14633179
Na       27.09613419     13.92369556      2.30870557
Na       24.88576317     13.92017555      9.10252666
Na       27.11537743     16.26420784      9.05253124
Na       27.38492012     13.97222233     16.08082962
Na       25.25749969     13.79391670     18.09837914
Na       25.03782654      8.95071030     27.86967468
Na       27.33501816      9.33604908     29.94476891
Na       27.23952484     16.02223206      5.30297136
Na       27.57076645     18.46713257      7.17693233
Na       27.50312042     16.16783714     13.69370270
Na       27.35093498     20.63667870     18.48851395
Na       29.72089577     18.49362946     23.54807281
Na       23.00098419     20.71600723     27.48915863
Na       26.92473412     11.46498489     27.85941505
Na       27.26069260     22.82546234      2.42507815
Na       29.67726135     22.52689743      4.46144533
Na       25.16314888     23.14013672      9.38088131
Na       29.69106865     23.15976906     14.04919052
Na       27.40775871     23.38606453     20.72290230
Na       32.16579819     22.97196198     25.26391602
Na       27.67617226     22.69841957     29.67599869
Na       27.34693336     29.52587700      0.10699615
Na       27.50833893     22.90172195      6.94150162
Na       27.57515907     32.18474579     16.23027611
Na       29.39319611     27.67737007     14.04204369
Na       26.96003723     24.94050980     18.55095673
Na       27.39470100     29.61741829     22.96846771
Na       27.38603210     27.06784630     29.81359291
O         0.00053456      0.13039830      4.73670435
O        -0.14649542     -0.10506739      9.34134960
O         0.01723658      0.23053429     13.82770920
O         0.06983111     -0.12572324     18.35030746
O         0.00199431     -0.24947326     23.10344315
O         0.03392974      0.11287065     27.94685555
O        -0.05787851      0.17278501     32.57181931
O        -0.10182960      4.75038719      4.68160725
O         0.08875686      4.70202065      9.27295685
O         0.07730744      4.63658810     13.92866611
O         0.07974584      4.68848038     18.54074478
O        -0.06891473      4.58888721     23.09777451
O         0.10459975      4.54293776     27.64347839
O         0.06031329      4.73429775     32.18641663
O         0.02985545      9.32370281      4.80385780
O         0.08592811      9.18172646      9.38010216
O         0.01957742      9.07490635     13.78112125
O         0.05437526      9.11920929     18.38871384
O        -0.00580952      9.01970577     23.01061058
O         0.22214901      9.25260353     27.70594597
O         0.14158744      9.26949024     32.30869675
O         0.01653122     13.98260403      4.63645792
O        -0.08986151     13.93423176      9.24444103
O         0.08069712     13.80162144     13.91285992
O         0.25451449     13.58688736     18.50490952
O        -0.08763032     13.76078224     22.99902344
O         0.01228378     13.64946270     27.72355843
O        -0.07673032     13.84954548     32.15103149
O        -0.07014505     18.57577896      4.48593044
O         0.05552300     18.34688759      9.32498932
O        -0.13107939     18.43846321     13.58643246
O        -0.02858264     18.36592102     18.27033234
O        -0.23623738     18.13795853     23.08921242
O         0.03387826     18.35043907     27.63089180
O        -0.26685545     18.40275764     32.23329926
O        -0.03841889     22.71406174      4.62144995
O         0.01613891     23.06541443      9.34872723
O         0.18997437     23.05168343     13.87759399
O        -0.06634585     23.01249123     18.15575981
O        -0.09797868     22.92603683     22.96888924
O         0.14870659     22.98778725     27.50126648
O         0.06439323     22.89071274     32.11380386
O        -0.17114639     27.20045853      4.76955175
O        -0.22980534     27.52724266      9.62260246
O        -0.08349183     27.68536377     13.75824451
O         0.06659442     27.57830048     18.06920242
O         0.15157135     27.11418724     23.18110847
O        -0.00304237     27.62902069     27.36918449
O        -0.19095026     27.44239807     32.29442978
O         4.53290606      0.08748421      4.80287457
O         4.84647274      0.17642789      9.49633121
O         4.56199503      0.30780753     14.14476585
O         4.28527069      0.26733840     18.55844498
O         4.49377155      0.07612712     23.16552544
O         4.68137407      0.04068723     27.56158638
O         4.57699823      0.23722605     32.25882721
O         4.78602839      4.70725822      4.67343712
O         4.34112167      4.30550241      9.28354454
O         4.23414421      4.76116753     13.97260475
O         4.79624557      4.94790888     18.40208626
O         4.70149803      4.68699074     23.29402351
O         4.19949627      4.62862396     27.47455788
O         4.51636887      4.61702394     32.07485580
O         4.42223597      9.20113754      5.08491468
O         4.68731356      9.04413891      9.25217628
O         4.47767210      9.06535912     13.76216316
O         4.20514393      9.19619370     18.54500580
O         4.53768158      9.15520000     22.79579735
O         4.58767509      8.96679306     27.51799011
O         4.47330379      9.21076298     32.47390366
O         4.54514122     13.68327904      4.67026806
O         4.49527931     13.87605762      9.21623230
O         4.55710077     13.70112705     13.73614407
O         4.49934006     13.81879234     18.55307388
O         4.71486902     14.11077023     22.86385727
O         4.57820654     13.70216370     27.37178421
O         4.74074364     13.73669338     32.23565292
O         4.60052204     18.36191559      4.53153610
O         4.60113335     18.29775429      9.29507732
O         4.76830959     18.37482834     13.69653797
O         4.73686600     18.27082825     18.29030228
O         4.46977854     18.34095383     22.89299011
O         4.59918833     18.16942787     27.35335922
O         4.52022600     18.49369812     32.21880341
O         4.54971981     23.01559448      4.70571184
O         4.74351311     23.05470848      9.49740887
O         4.95995808     23.05220222     13.77965641
O         4.65622807     22.55222893     18.51742363
O         4.55017519     22.83829498     22.98290443
O         4.81736135     22.69333649     27.81890106
O         4.49926662     22.79495811     32.15202713
O         4.50418234     27.65269852      4.83192682
O         4.56668377     27.65023422      9.34061432
O         4.62246847     27.63666153     13.73269081
O         4.41081047     27.18265915     18.20222092
O         4.62451935     27.55472374     23.13650322
O         4.88740873     27.58999252     27.86329651
O         4.62942171     27.72506714     32.14837646
O         9.40925884      0.28111067      4.81561518
O         9.02276421      0.07183399      9.39741611
O         9.32828045      0.05711718     13.90301895
O         8.98703003      0.22635169     18.54022217
O         8.99300575      0.41183552     22.95911026
O         8.98420525      0.14405362     27.70247078
O         9.11220837      0.31265211     32.32248306
O         8.99748993      4.66566992      4.61638880
O         9.35584354      4.55915165      9.40307903
O         9.20766354      4.74245548     13.88438034
O         9.00679398      4.66185236     18.35956573
O         8.98091888      4.66846323     22.86587524
O         8.63978767      4.74092245     27.53765106
O         9.00242996      4.59111166     32.09960938
O         9.23049355      9.22171688      4.86139870
O         9.14920902      9.11640930      9.27643394
O         9.30363750      9.20189857     13.72135258
O         9.41004944      9.28629398     18.41443253
O         9.04813766      9.26030922     22.93382263
O         8.86830902      9.25957203     27.61695290
O         9.23834991      9.32104301     32.07652664
O         9.09762192     13.76587200      4.71383715
O         8.87295341     13.42768097      9.18116856
O         8.94754124     13.79770184     13.45840168
O         9.34382248     13.93317795     17.96208763
O         9.22052479     13.77550983     22.81259918
O         9.02504730     13.60062599     27.23639679
O         9.27244568     13.65766621     32.02789307
O         9.14046955     18.14412689      4.58628893
O         9.08541965     18.31458473      9.37604618
O         9.39109325     18.22933006     13.83100605
O         9.17314339     18.28354073     18.43310547
O         9.32645607     18.08159447     22.78506470
O         8.85012341     18.27557945     27.58399963
O         9.09876251     18.47444725     32.21077728
O         9.04548836     22.63622093      4.74049520
O         9.35994339     22.88023949      9.13928699
O         9.36110497     22.98278236     13.71320152
O         9.36993885     22.80373573     18.32616234
O         9.08210659     22.95679283     22.82453346
O         9.14834976     22.83090019     27.63532448
O         9.22045040     23.01629066     32.34907150
O         9.24761677     27.57694626      4.96217012
O         9.16723728     27.39087677      9.49817181
O         9.28438187     27.65694237     13.99735737
O         9.38780403     27.53463936     18.66891289
O         9.20165443     27.56620598     23.02540779
O         9.31657124     27.77912521     27.82386589
O         9.13307190     27.67457771     32.15205765
O        13.99930286      0.20546091      4.61162329
O        13.82210827      0.13529480      9.40034866
O        13.55743027      0.17721304     14.05690765
O        13.74722862      0.46248993     18.43491936
O        13.37147141      0.34729999     22.99516296
O        13.36858654     -0.00189851     27.36600304
O        13.61592579      0.08290386     32.20387268
O        13.79418564      4.87950087      4.73280859
O        13.86517429      4.58172512      9.39303398
O        13.56102180      4.66395569     14.10652828
O        13.58612156      4.94012213     18.56095886
O        13.46502113      4.79848242     23.26622963
O        13.22433376      4.49396467     27.64362526
O        13.42591667      4.46351719     32.15024948
O        14.17510223      9.29638004      4.66218805
O        13.71896553      9.15367413      9.16720772
O        13.68047905      9.34449673     14.04855537
O        13.78381538      9.48409939     18.28774834
O        13.69689751      9.12329102     22.84587479
O        13.48141670      9.02740765     27.54788780
O        13.63252354      9.15126610     32.21664429
O        13.78049088     13.84341145      4.76640797
O        13.54999161     13.72087383      9.29757214
O        13.82456207     13.66742420     13.78690815
O        13.74013996     13.90319538     18.62461662
O        13.84070683     13.66740513     23.01246262
O        13.82294846     13.85458374     27.64459801
O        13.58297539     13.58372784     32.10286713
O        13.78643990     18.31907082      4.39520836
O        13.85702515     18.27168465      9.34268284
O        13.82036686     18.34779739     13.59463215
O        13.89127827     18.41997719     18.29264641
O        13.88794327     18.19962883     23.08589745
O        13.41840553     18.37029076     27.32905960
O        13.63275909     18.41567993     32.18775558
O        13.72041607     23.07173920      4.77017164
O        14.00622749     23.08719635      9.02717018
O        13.56646061     22.83509827     13.51639748
O        13.92870331     22.67229843     18.32343292
O        13.57221413     22.90226936     22.79364967
O        13.54408836     23.07485008     27.45232582
O        13.50754452     23.36485863     31.92535782
O        13.69969273     27.67273712      4.73830128
O        13.77476025     27.69949341      9.09343624
O        13.68920231     27.43693542     13.81310081
O        13.83386707     27.14475632     18.29564476
O        13.47744465     27.33715248     22.99560928
O        13.44206524     27.71106339     27.49598694
O        13.65376854     27.48071480     32.07009506
O        18.03503418     -0.07771728      4.66611290
O        18.34295273      0.19824520      9.41902733
O        18.12268639      0.24060111     14.01962280
O        18.11001968      0.61578619     18.28775024
O        18.10326004      0.29695168     22.92686653
O        18.23861313      0.23349185     27.76991653
O        18.17995071      0.18105070     32.24888611
O        18.19940376      4.89334488      4.32719326
O        18.28476715      4.89246464      9.27357197
O        18.21798706      4.89298582     14.08532143
O        18.40787506      4.93222475     18.38653564
O        18.12872887      4.76702976     23.06025887
O        18.14572906      4.65990257     27.36722946
O        18.13232422      4.71180010     32.18380737
O        18.41566086      8.99425507      4.50774956
O        18.28037262      9.30164242      9.43302250
O        17.96496964      9.37020493     13.98126221
O        18.36068535      9.25090981     18.64907455
O        18.24068642      9.09134197     23.09954262
O        18.18431282      9.07705784     27.32560921
O        18.29851341      8.76495075     31.96075439
O        18.21768570     13.76191998      4.66112566
O        18.30187988     13.73637104      9.32192516
O        18.39335060     13.75646973     13.89699459
O        18.26708603     13.85860252     18.39904213
O        18.45771599     13.64848518     22.95869064
O        18.23472595     13.75082397     27.47968102
O        18.08278656     13.65688419     31.98350334
O        18.37101555     18.20049667      4.72734785
O        18.11687851     18.32275581      9.37740612
O        18.25584412     18.26182747     13.94642448
O        18.23229218     18.07220268     18.39582443
O        18.30359268     18.19635773     23.08182335
O        18.33168221     18.71630859     27.46919250
O        17.89680481     18.31352997     32.08624649
O        18.44507027     22.78546524      4.80174017
O        18.29931068     23.21951485      9.17284012
O        18.50374985     22.93516541     13.86348343
O        18.54977798     22.84601784     18.41827393
O        18.08977509     23.05336571     22.90293694
O        18.00455856     23.05408287     27.37102890
O        18.47298622     22.88493729     32.13637161
O        18.22912216     27.45931625      4.40627670
O        18.38598633     27.57528114      9.03386879
O        18.15111351     27.48479462     13.89306641
O        18.04142761     27.61152077     18.36983490
O        18.32466316     27.77130508     23.03403091
O        18.29809380     27.58662033     27.56481552
O        17.95160294     27.37274551     31.95788574
O        22.43976593      0.13256983      4.43112135
O        22.88096046      0.35140273      9.26163292
O        22.82472229      0.49305367     14.00713348
O        22.67235756      0.19810870     18.47093582
O        22.96471405      0.12832057     22.65190506
O        23.10214996     -0.03768399     27.38629913
O        22.70382690     -0.03693746     32.00217438
O        22.82239151      4.46825361      4.57238150
O        22.82240868      4.71986437      9.30048561
O        22.87716866      4.84068632     14.01629734
O        23.05948067      4.80154705     18.38614464
O        22.87001419      4.65443468     23.13615227
O        22.74316978      4.80455923     27.48859787
O        23.00370407      4.46276712     32.12771225
O        22.90044212      8.86247826      4.65673304
O        23.05054855      9.37915897      9.26491737
O        22.87939835      9.26823616     13.85135365
O        23.16469765      9.06776333     18.43861198
O        22.84502220      9.12609386     23.23762894
O        22.70588684      9.14481544     27.60319328
O        22.95231819      9.14651394     32.12443161
O        22.82434082     13.73003864      4.79360008
O        22.81423378     14.01865864      9.15172863
O        22.72835159     13.87780285     13.78647327
O        23.01972771     13.84589481     18.11985016
O        22.83681679     13.62820816     22.89700127
O        22.56393051     13.60998249     27.42100334
O        22.54212189     13.66398239     32.14710236
O        22.96097565     18.36873245      4.81190538
O        22.51108742     18.34040260      9.33669949
O        22.86043549     18.33725357     13.58177090
O        22.80819130     18.26860619     18.25527191
O        22.92410851     18.36537743     23.04883003
O        22.82307625     18.42484283     27.85199547
O        22.56393623     18.15908623     32.22120667
O        22.76599884     23.03016281      4.82063627
O        22.91985703     22.93015099      9.14771843
O        22.91058540     23.07535172     13.76229095
O        22.84890747     22.95508766     18.49744797
O        22.82872963     23.10835266     23.18312073
O        22.72088432     23.11628914     27.67173004
O        22.70154953     22.85266876     32.27473450
O        22.82229424     27.59621048      4.65820074
O        22.61801529     27.47608948      9.37024879
O        22.47203827     27.76257896     13.87503147
O        22.85110092     27.43897247     18.66875839
O        22.78061295     27.42060661     22.93553543
O        23.07247353     27.56905365     27.63735962
O        22.99937439     27.46253395     32.17766953
O        27.32859421     -0.19274451      4.67587614
O        27.18377876      0.03248700      9.23625088
O        27.35325050      0.18571909     14.09792900
O        27.28503799     -0.18791611     18.25652122
O        27.33894730     -0.10837765     23.19039154
O        27.53537560      0.01204305     27.54928780
O        27.32860184      0.33259627     32.22907257
O        27.45706177      4.78862476      4.72024298
O        27.32983017      4.61599541      9.30378151
O        27.60901451      4.78819942     13.83621693
O        27.40027046      4.52002382     18.42882538
O        27.43007660      4.54111814     23.06921959
O        27.44722939      4.57018137     27.66109657
O        27.36384964      4.97935915     32.34914780
O        27.56775284      9.37386227      5.01394892
O        27.50190353      9.41226768      9.41302586
O        27.57912064      9.32362843     13.99041843
O        27.44511223      9.37520885     18.49298859
O        27.39488602      9.20831108     22.98448944
O        27.45743179      9.36242390     27.67154312
O        27.51275826      9.37555313     32.08653641
O        27.10145569     13.83439255      4.62393045
O        27.34223175     14.01043224      9.00898361
O        27.48362541     13.75404549     13.73524952
O        27.46572495     13.72560692     18.33441544
O        27.53832817     13.73004627     22.75690651
O        27.36925125     13.72999382     27.56668091
O        27.52480125     13.88234615     31.99877930
O        27.34527779     18.58677483      5.03521013
O        27.50084114     18.44017220      9.40224266
O        27.49221420     18.33319283     13.81271648
O        27.69821548     18.48606110     18.31147003
O        27.23938751     18.25475693     22.90613937
O        27.61809540     18.41142464     27.81512451
O        27.26489449     18.23713303     32.09065247
O        27.30679893     23.10678673      4.79053736
O        27.43972015     23.25581741      9.05490971
O        27.48160934     22.89678383     13.73640060
O        27.41856575     22.91109467     18.60818291
O        27.36121941     22.98185921     22.73896217
O        27.78231812     22.92672920     27.59306145
O        27.29447746     22.88742638     32.29061508
O        27.27739525     27.40185165      4.74093676
O        27.18896103     27.73260880      9.22432899
O        27.29751015     27.84350395     13.95820427
O        27.18385315     27.38532639     18.20332909
O        27.36703873     27.58472824     22.91073227
O        27.67195320     27.21218681     27.30303574
O        27.39957809     27.14167976     32.25761032
H         1.44773245      1.45268190      1.67915177
H         1.63076591      2.80485821      2.88992286
B         2.31902337      1.96426678      2.34104061
H         3.06641245      1.41369367      3.11194468
H         2.90165448      2.86212254      1.80492151
H         1.39045358      1.79620457      6.04703188
H         1.30790150      3.09715605      7.52243710
B         2.10057521      2.44624925      6.83392715
H         2.97045922      1.74544406      7.49064541
H         2.95367193      3.04857755      6.01305866
H         2.68629527      3.05025291     10.89931011
H         1.27353024      1.44033301     11.04871082
H         1.25246620      2.92191601     12.22318840
B         2.08391285      2.33013988     11.57484531
H         2.57485056      1.40237701     12.24008083
H         2.69259262      3.30091262     15.35414886
H         1.49555099      1.94460762     15.44760323
H         1.39504778      3.30796099     16.83959961
B         2.21940613      2.63023996     16.14242554
H         2.72380829      1.81993723     16.86376572
H         3.31245661      3.42848611     20.04611397
H         1.76353431      2.00476503     19.96099281
H         1.84405339      3.43308830     21.32759094
B         2.65421152      2.73189139     20.67226219
H         3.40045714      2.00188613     21.41098785
H         2.79016948      3.10999846     24.48785973
H         1.26844847      1.44445121     24.45983887
H         1.33556926      3.07089877     25.67151070
B         2.06182075      2.27886772     24.99087143
H         2.75500441      1.50763774     25.67544556
H         2.88543367      2.87134624     29.23280144
H         1.53330791      1.52624726     29.14671516
H         1.51967549      2.97106385     30.71967888
B         2.15943575      2.18895888     29.97445679
H         2.88971424      1.60805178     30.62424278
H         3.22024632      7.75575972      2.13510442
H         1.77441430      6.32775116      2.05872393
H         1.86367464      7.74287987      3.53992367
B         2.38081455      7.13971043      2.78035140
H         3.25325131      6.37112617      3.58580852
H         2.53611565      7.57550240      6.17013597
H         1.23868144      6.12284040      6.12061882
H         1.24949837      7.61420298      7.52692890
B         1.86659634      6.75208521      6.90316677
H         2.59051180      6.11796141      7.54262495
H         3.19274545      7.28925753     10.82271767
H         2.00295329      5.99136019     10.62869358
H         1.89902639      7.58720779     12.22638607
B         2.53888702      6.70195580     11.61605263
H         3.39451528      5.98361349     12.13020611
H         3.18555117      7.55740309     15.73742104
H         1.64346540      6.34777308     15.77923679
H         1.57176113      7.58729029     17.20690155
B         2.35572624      7.01951504     16.53864861
H         3.17020369      6.32130384     17.16166687
H         3.06308699      6.14639235     21.43837547
H         2.97185159      7.66927671     20.14434814
H         1.56181145      6.23083210     20.13755417
H         1.53468466      7.70319891     21.38106346
B         2.31299114      6.91624689     20.81713867
H         2.65982199      6.02917337     26.05987358
H         2.64982438      7.48297882     24.66231346
H         1.26276135      5.95339108     24.57653427
H         1.39624536      7.43527508     26.00217247
B         1.97276402      6.70256519     25.31051636
H         2.99168658      6.12542057     30.58347321
H         3.15473604      7.81354952     29.45992470
H         1.55142045      5.97726870     29.47482491
H         1.60755813      7.74251366     30.67548752
B         2.31272244      6.98532772     29.94184113
H         3.08389497     10.66122723      3.33152723
H         2.84393382     11.87466621      2.03831339
H         1.51450574     10.71945477      1.85657859
H         1.35291851     12.21798801      3.43488765
B         2.14075923     11.29976749      2.77592516
H         2.73623991     10.62788963      7.81383514
H         2.63653922     12.09641552      6.37420416
H         1.38373649     10.80757809      6.45419121
H         1.27150655     12.12865925      7.74637794
B         2.00578332     11.45024681      7.10507059
B         2.18548131     11.69099617     11.53754425
H         2.93556738     10.97479248     12.29305840
H         2.80055547     12.40474701     10.91036892
H         1.57433391     11.04935551     10.84992027
H         1.52418983     12.51533985     12.26863861
B         2.43526649     11.56572723     16.07552147
H         3.04099488     10.91554165     16.78963852
H         3.06079555     12.22588730     15.31868649
H         1.66701329     10.92493439     15.34787941
H         1.65078580     12.21292210     16.79647446
B         2.50404525     11.55593777     20.79500008
H         3.01676917     10.73252487     21.50913811
H         3.06605220     12.30866146     19.90563965
H         1.84675097     10.78260803     20.00500488
H         1.80297351     12.25307369     21.50283241
B         2.60253525     11.30317593     25.05710602
H         3.20246673     10.75951195     25.93586922
H         3.20238447     12.12240505     24.37618065
H         1.78431463     10.74483204     24.36141777
H         1.92306888     11.99841309     25.81179428
H         1.66019964     12.38891315     30.70691299
B         2.38693976     11.58146667     30.08885384
H         3.14238453     10.76917744     30.67329216
H         3.13646960     12.34937668     29.37799072
H         1.68939924     10.76475620     29.36765289
H         1.68241048     16.49980164      2.98353910
B         2.46917510     15.81692028      2.31238031
H         3.15660882     15.04931259      3.00600839
H         3.15918922     16.52485275      1.66438198
H         1.71746337     15.10683537      1.72448468
H         1.42302978     16.89310265      7.36025906
B         1.96635962     16.09274483      6.67909575
H         2.64383483     15.55733013      7.43979979
H         2.60338068     16.93218994      6.10493708
H         1.23620963     15.45005131      5.95720387
H         1.61344469     17.00599670     12.23607349
B         2.32586217     16.36049271     11.52049637
H         3.00477314     15.59762192     12.27533913
H         3.04597878     17.08646584     10.87071514
H         1.56694603     15.59038830     10.90468693
H         1.60410595     16.90183830     16.68589783
B         2.42664456     16.30711937     16.08101654
H         3.10581374     15.57880878     16.71676445
H         3.12361789     16.95050812     15.26237488
H         1.66311204     15.66868114     15.37005138
H         1.23187411     15.44677448     20.13284683
H         1.14951468     16.76630592     21.69054222
B         1.71731710     16.22575569     20.90032578
H         2.36702871     15.41664982     21.63830757
H         2.43792939     16.78497124     20.03182030
H         1.52094543     15.28817558     25.01700401
H         1.52718937     16.63867569     26.37802887
B         2.24674892     16.03308868     25.51449013
H         2.74108052     15.38051319     26.29193497
H         2.92355800     16.73505974     24.92686272
H         1.79541993     15.33816147     29.15231895
H         1.70212269     16.98286819     30.65736389
B         2.42255092     16.15501976     29.88370323
H         3.02606153     15.38524055     30.51698875
H         3.09162807     16.90805817     29.13383102
H         1.27546883     20.04603577      1.68727350
H         1.35991883     21.41103554      3.01988029
B         2.08045626     20.63014603      2.33241272
H         2.77945447     20.01962280      3.13074446
H         2.76214337     21.50458908      1.67817044
H         1.63378978     20.12998772      6.48826122
H         1.60274506     21.42911720      7.78790569
B         2.39851785     20.77523422      7.14940214
H         3.13624239     20.05972862      7.82711983
H         3.04339743     21.37548447      6.51084661
H         1.96820247     20.24083900     10.90944386
H         1.89691019     21.74888611     12.47818279
B         2.59371233     20.98166275     11.67439747
H         3.36139965     20.24659729     12.40113258
H         3.33095026     21.64138794     10.94565105
H         1.39215112     19.65258217     15.04362392
H         1.40580547     21.24285698     16.54829025
B         2.10621858     20.42571640     15.70257473
H         2.85766554     19.79682159     16.41770363
H         2.87525606     21.12986183     15.17027283
H         1.51228631     19.96453857     20.04814339
H         1.46710491     21.41912842     21.36032295
B         2.24317122     20.65335846     20.70457268
H         2.91963220     19.84855652     21.43112373
H         2.88251233     21.45281029     19.96928215
H         1.59792328     19.77672577     25.02281761
H         1.76919043     21.29649353     26.23297119
B         2.34273887     20.55524445     25.55854797
H         2.92729616     19.81758690     26.36337662
H         3.01182652     21.51142883     24.97915077
H         2.92600489     21.06275558     29.19465065
H         1.43266714     19.73645592     29.22531891
H         1.34571326     21.11903954     30.60420990
B         2.10039949     20.44965935     29.90382767
H         2.88993263     19.74185753     30.51185417
H         2.97956085     25.61357498      1.80417669
H         1.71471870     24.04932022      1.91618371
H         1.67977738     25.53651047      3.28023934
B         2.39574146     24.90704346      2.56842399
H         2.85216188     24.06471252      3.22990632
H         2.93898630     26.23174477      6.46988821
H         1.85746002     24.98679161      6.47009373
H         1.73288059     26.35612106      7.85995150
B         2.42744493     25.55209923      7.23484898
H         3.15234923     24.77322197      7.94894075
H         3.26804996     26.06497955     10.88995075
H         1.59600031     24.58193970     10.96841908
H         1.67804635     25.90446472     12.31162071
B         2.36857986     25.42040443     11.50322819
H         3.06760478     24.70391655     12.27169037
H         3.11647463     26.02778244     15.69717121
H         1.77224803     24.33626366     15.42066574
H         1.96694326     26.10959053     16.96052361
B         2.50014782     25.21642494     16.26628876
H         3.21263123     24.51661301     16.97487259
H         3.02850485     26.01914597     19.64812088
H         1.97226000     24.59540367     19.57668304
H         1.90962827     26.15321732     21.00634193
B         2.49055505     25.25137520     20.42696762
H         3.26779270     24.42755508     21.11155891
H         3.26127386     25.95838165     24.46056938
H         1.90023530     24.74577332     24.55194092
H         1.79269540     25.97454834     26.10115051
B         2.49305654     25.45001602     25.15309143
H         3.09699607     24.81867981     25.92070580
H         2.93818164     25.84948730     29.06947136
H         1.71255386     24.45987320     29.16802406
H         1.55705738     25.90643120     30.54303741
B         2.28820825     25.31094551     29.84898567
H         2.96356010     24.33594322     30.51147270
H         2.89913273     30.37532043      1.89762843
H         1.39022923     28.96565247      2.08025622
H         1.33060980     30.25231171      3.36839604
B         2.17367601     29.71664810      2.65401959
H         2.75061321     28.93154335      3.34288549
H         3.26370811     29.67017937      7.77325535
H         3.28987360     30.93207359      6.47280169
H         1.84753489     29.55643272      6.38522053
H         1.83836317     31.02882767      7.89617348
B         2.48599792     30.31588554      7.00166750
H         2.72389579     29.26028824     12.24171543
H         2.79244947     30.80556488     10.67698956
H         1.31414390     29.23452187     10.71977615
H         1.46101820     30.61590576     12.12060738
B         2.05269814     29.99067307     11.33352470
H         2.83395505     29.19405937     16.17903900
H         2.93147707     30.37586212     14.76364326
H         1.54118633     29.11780739     14.78491402
H         1.41921341     30.47656441     16.37726212
B         2.13295484     29.92313385     15.44007969
H         2.93525004     28.72571182     21.20758057
H         3.05676222     30.11662292     20.08758736
H         1.33304811     28.71375656     20.19714355
H         1.29325140     30.04686165     21.25933266
B         2.19889784     29.44450188     20.68777466
H         3.33996224     29.08626556     25.84922028
H         3.25133824     30.48239708     24.40131378
H         1.81474495     29.07451439     24.30093956
H         1.84575212     30.55176544     25.82996368
B         2.46128869     29.78771782     25.05862427
B         2.18206811     29.43814468     30.01905251
H         2.97290277     28.88814354     30.68197441
H         2.92619681     30.07050133     29.22465134
H         1.51958370     28.79252625     29.08232689
H         1.53741956     30.19499016     30.75975609
B         6.88498688      2.23932505      2.79531550
H         7.53901243      1.42332470      3.36787724
H         7.57943916      2.84276414      1.99687922
H         6.21269226      1.49765611      2.11163712
H         6.11953497      2.82116437      3.38670397
B         7.00069666      2.40532708      7.07131100
H         7.93471575      1.89175868      7.61182642
H         7.82189608      3.12645888      6.35678864
H         6.18374252      1.89740252      6.24961329
H         6.20380497      3.21357131      7.58612013
B         6.72493887      2.54315257     11.88189030
H         7.46091175      1.72803712     12.61033535
H         7.36367273      3.34353042     11.06044769
H         5.98975563      1.74191749     10.97708893
H         6.12515974      3.29148531     12.46105194
H         6.31762600      3.20056319     16.59778786
B         7.02824116      2.39659524     15.90312481
H         7.83016586      1.70161307     16.66258812
H         7.73652077      3.17171884     15.12334347
H         6.37917280      1.82795978     15.15604401
H         5.99489212      2.76215172     21.31687164
B         6.63503742      2.07118845     20.56596947
H         7.38357258      1.37738836     21.34792900
H         7.36454010      2.77417660     19.94678497
H         5.90699434      1.32054806     19.87091255
H         5.88552427      3.00671697     26.01365471
B         6.73422003      2.28915381     25.30372429
H         7.23891544      1.42250466     25.96240044
H         7.30916500      3.02571249     24.67917824
H         5.97351122      1.45923734     24.78616142
H         6.18696356      3.32023215     30.74136162
B         6.72696114      2.54774475     29.91184616
H         7.41501474      1.82675993     30.68197441
H         7.38875198      3.23458004     29.17861938
H         6.25268078      1.83308721     29.15868378
H         6.09913540      7.65718842      3.13280869
B         6.51421928      6.94218302      2.38386440
H         7.24086571      6.35864496      3.12838960
H         7.34432697      7.75623035      1.65726078
H         5.90319347      6.15828419      1.56036091
H         6.40332413      5.81341267      6.16999006
H         6.42101812      7.42062140      7.61958313
B         6.98046732      6.65932178      6.87395763
H         7.65664339      5.91582632      7.53486347
H         7.69552135      7.37477922      6.23352575
H         6.01417732      6.29632092     11.12506962
H         6.02828836      7.81035709     12.56613350
B         6.65586424      7.07869959     11.84932804
H         7.30855083      6.31680393     12.55976105
H         7.30200434      7.79744005     11.15209866
H         6.18458080      6.24092436     15.40460300
H         6.11871147      7.72192955     16.56965065
B         6.79982376      7.03716707     15.96299744
H         7.46146917      6.22331619     16.52138901
H         7.51549101      7.72769022     15.33297253
H         5.70383120      6.67333841     19.97121048
H         5.63606977      7.97187901     21.34118080
B         6.42800140      7.34082842     20.71095085
H         7.04351330      6.56343889     21.38331795
H         7.04817200      8.01867676     19.85665131
H         6.43487263      6.24350548     24.52757454
H         6.38353491      7.94214153     25.72791672
B         7.14303112      7.10466146     25.03238869
H         7.72253323      6.21933031     25.70075226
H         7.76800776      7.96045446     24.45792389
H         6.09479618      6.29947376     29.27960205
H         6.11077738      7.82985210     30.61722946
B         6.70569801      7.02145863     30.01242447
H         7.39633179      6.30525827     30.62742615
H         7.40896702      7.85268402     29.27275276
H         6.03518057     10.58302116      1.97548497
H         6.00226784     11.89415169      3.31331944
B         6.65280199     11.42983627      2.45289350
H         7.29147816     10.65452099      3.20890689
H         7.48440361     11.98266315      1.85405946
H         6.09310818     10.59098530      6.30079317
H         6.17714405     12.00408745      7.65426159
B         6.81839466     11.28170300      6.98599529
H         7.54708481     10.68563175      7.64365053
H         7.61650848     12.06290054      6.32601643
H         6.15194273     10.56715393     10.71547413
H         6.02118731     11.96476650     12.04978752
B         6.77997494     11.23805714     11.42669106
H         7.50137854     10.37166500     12.11452198
H         7.37671280     11.90483379     10.64465046
H         7.17688656     12.43336868     15.19862175
H         5.58296394     10.89749050     15.19393826
H         5.66166973     12.35934544     16.41104698
B         6.39634466     11.59552288     15.70917988
H         7.11615419     10.96290493     16.42433929
H         7.65497446     12.22393608     19.28566933
H         6.29838133     10.79967117     19.40841484
H         6.21868134     12.18088818     20.96266365
B         6.91696358     11.50774956     20.12414551
H         7.56687784     10.76502037     20.91761398
H         7.39876652     12.19371223     24.54052162
H         6.03431225     10.75336647     24.70421791
H         5.90261221     12.16171551     25.86278915
B         6.84854794     11.59146118     25.32011795
H         7.30214167     10.68629456     25.79816055
H         7.29649210     12.42602253     29.41813469
H         5.85780716     10.90288162     29.39704514
H         5.97237110     12.33254719     30.74250793
B         6.61360025     11.64816189     30.09252357
H         7.25628328     10.96417713     30.79577255
H         7.21946764     16.51589966      1.55447614
H         5.99468756     15.31438065      1.50028145
H         5.86895037     16.69583130      3.26565313
B         6.60766363     15.91548538      2.36353278
H         7.30136395     15.28668022      3.16761708
H         7.91533613     16.35190010      6.29018164
H         6.35127831     15.01787758      6.36124468
H         6.33776808     16.29434776      7.83475780
B         7.09682322     15.67276192      7.05254221
H         7.80004692     15.06210327      7.77702188
H         7.41387701     16.35750389     11.04449749
H         5.95149708     14.98242092     10.91028023
H         6.10731649     16.33590126     12.37884235
B         6.61072540     15.73238564     11.62979031
H         7.39539814     15.13511753     12.38196468
H         8.00830078     17.02252769     15.09745979
H         6.60430622     15.48127460     15.19234848
H         6.52789640     17.00404739     16.43708038
B         7.30899906     16.18118477     15.81410789
H         8.03571892     15.35896873     16.48297691
H         7.56442547     16.88970947     19.67365646
H         6.17887354     15.61198139     19.75660515
H         6.10633516     16.87929726     21.11579323
B         6.86123610     16.21313858     20.48346519
H         7.72954416     15.36391354     21.29132462
H         7.48001671     15.44489384     25.74544144
H         7.34332132     16.77182198     24.34105873
H         6.06696939     15.49467278     24.25414085
H         5.93176365     16.99394417     25.83087158
B         6.58697367     16.19503784     25.17959213
H         7.69987154     15.11628342     30.54949570
H         7.90168047     16.60789490     29.13494301
H         6.46233368     15.01264763     29.23311424
H         6.48272848     16.48932838     30.63273621
B         7.12954998     15.87335110     29.76972771
H         7.59052658     19.90299225      3.11005497
H         7.65351677     21.28182983      1.55906928
H         6.25798130     19.80506897      1.52413678
H         6.40176725     21.17297554      3.06419182
B         6.98880100     20.49634171      2.24169111
H         7.53567839     19.68376160      7.85022974
H         7.50593805     21.04183006      6.58616781
H         6.17500210     19.55003166      6.42269945
H         6.17714977     21.20315170      7.98181057
B         6.78130484     20.35197639      7.25744581
H         7.80925560     20.03818893     12.15070248
H         7.91319227     21.36420822     10.83848286
H         6.52018833     19.98341370     10.88764477
H         6.37220478     21.46303177     12.35346031
B         7.05922031     20.74651527     11.50083447
B         7.24648237     20.70572853     15.84528828
H         7.91952562     19.88428307     16.53961945
H         7.95147371     21.52637672     15.22492886
H         6.57843256     19.85915184     15.23174572
H         6.54476881     21.55322456     16.59841537
B         7.11573601     20.42580986     20.62947845
H         7.81379414     19.68707848     21.33784676
H         7.75002050     21.16764069     19.91744041
H         6.38390779     19.76565742     19.93224525
H         6.37213039     21.16461182     21.27104378
B         6.92728710     20.49001503     25.23248482
H         7.62653780     19.70834541     25.92918205
H         7.50077868     21.26679420     24.56564331
H         6.34724998     19.79669571     24.52823448
H         6.27505255     21.37639999     25.91302872
B         6.56242037     20.14522743     29.83743668
H         7.23199606     19.51597786     30.56968307
H         7.36875916     20.74805450     29.19230270
H         5.78782511     19.33868599     29.15177155
H         5.81873751     20.75767136     30.71606445
H         6.19251299     26.18233109      3.45492053
B         6.98964596     25.48426056      2.73927212
H         7.61521816     24.63326263      3.24946237
H         7.77134609     26.13300133      1.98465896
H         6.41475773     24.65004730      2.15757442
H         6.12114859     26.03503799      7.84794664
B         6.77293825     25.28895187      7.06874657
H         7.42891836     24.58561134      7.83369541
H         7.46955395     26.06142426      6.31230021
H         6.14855957     24.59877205      6.36609554
H         6.40145540     26.17846298     12.26640797
B         7.08578968     25.40994263     11.58520508
H         7.84373665     24.69820595     12.14631844
H         7.85024548     26.06488419     10.91935062
H         6.41077328     24.58743477     10.81508827
H         6.21373558     25.89481354     16.62641335
B         7.07651997     25.27236557     15.92580128
H         7.57451200     24.49187088     16.68070602
H         7.61330509     25.98789978     15.13882732
H         6.26882219     24.60124969     15.28699970
H         6.05105639     26.08763695     21.45060158
B         6.83114719     25.28623772     20.97927094
H         7.53863478     24.53292084     21.50125313
H         7.48123074     26.08088684     20.20574379
H         6.10710573     24.63962364     20.25504112
H         6.19686079     24.83137131     24.64043808
H         6.18184853     26.02968025     26.01044464
B         6.99599934     25.42739105     25.31873512
H         7.66030502     24.72608566     26.10071754
H         7.64994240     26.10959244     24.54551315
H         6.23949575     24.37648201     29.44240570
H         6.17567921     25.69556427     30.81947327
B         6.91596556     24.97730637     30.16349602
H         7.68068695     24.23344421     30.89869690
H         7.57510233     25.66920090     29.40495110
H         6.24626923     28.98252296      1.48298860
H         6.02004528     30.37540245      2.94928551
B         6.84235048     29.69632149      2.28391623
H         7.55845785     28.84494209      2.86064029
H         7.46967363     30.19797325      1.43419397
H         6.39130068     29.17204285      6.42259598
H         6.25289965     30.78383636      8.11223984
B         7.08382034     30.03773499      7.14704084
H         7.73005533     29.26416588      7.88171530
H         7.80662632     30.62988281      6.43814850
H         6.19898272     29.18341446     10.83066463
H         6.20712709     30.79767990     12.38188076
B         6.84517622     30.04211235     11.57403660
H         7.48632860     29.35677528     12.21666431
H         7.57822466     30.72435951     10.91212940
H         6.53116465     29.11330032     15.63705635
H         6.59287596     30.55377769     17.03468323
B         7.12443161     29.73388672     16.41153526
H         7.82778120     29.08866501     17.12103081
H         7.77889585     30.59123993     15.66130543
H         6.19203329     28.92185402     20.00621986
H         6.10622692     30.19206047     21.35920715
B         6.77493954     29.46748161     20.74639893
H         7.57041359     28.80107689     21.39417648
H         7.45488691     30.11150360     20.00097084
H         6.03055668     29.14402390     24.79806328
H         6.07102728     30.43013573     26.00702858
B         6.81810760     29.78209686     25.43858910
H         7.70089531     29.13475418     26.05676842
H         7.61020327     30.38918495     24.87948608
H         6.25674915     29.12200546     29.05536652
H         6.17646694     30.33698082     30.63679886
B         6.91621208     29.70880127     29.85348511
H         7.53299809     29.03176880     30.64675140
H         7.60080576     30.41474152     28.89732361
H        12.19259739      3.32488346      1.88995755
H        10.82177353      1.96409178      1.83083177
H        10.84597301      3.35980940      3.20195603
B        11.56425190      2.61919689      2.66959214
H        12.30913639      1.90667892      3.28356862
H        12.46931744      2.89365411      6.43584871
H        10.88037968      1.54551852      6.41657686
H        10.89867783      2.89462781      7.65160942
B        11.65535736      2.16596889      7.00624704
H        12.44508743      1.58902109      7.62640524
H        12.21816826      3.00872207     10.61952209
H        10.96354294      1.40274203     10.57116318
H        11.08293533      2.93768716     12.17938900
B        11.62698174      2.30231166     11.27452087
H        12.06616020      1.60310996     12.09841537
H        12.39345551      2.88683891     15.40997219
H        10.91761112      1.38570976     15.42099953
H        10.98623371      2.80718946     16.88326645
B        11.64956760      2.16414928     16.15847778
H        12.29665184      1.47148776     16.86611176
H        12.30037880      3.15372872     19.72670555
H        10.94798565      2.10403895     19.90872955
H        10.74253559      3.17715430     21.12403488
B        11.65289688      2.54382014     20.62307167
H        12.38134193      1.84105122     21.18157387
H        11.91697025      2.99052763     24.31906319
H        10.80204010      1.58509278     24.16958046
H        10.85723972      3.08481288     25.91211891
B        11.40756798      2.30888796     25.21333885
H        12.03325939      1.61828876     25.93412209
H        11.92946911      2.81822467     28.73078918
H        10.64998245      1.29494822     28.73755646
H        10.70905876      2.75238156     30.22703171
B        11.19032478      1.98609185     29.42650414
H        11.86742592      1.35022449     30.23083115
H        11.66134739      7.32662344      1.41254914
H        10.41876984      6.03717375      1.40073538
H        10.34494877      7.41225815      2.99278998
B        11.03207111      6.79982471      2.27920890
H        11.74658394      5.96375084      2.99239206
H        11.90199566      7.88104296      6.17257881
H        10.59555340      6.42786503      6.19936085
H        10.53924561      7.91056824      7.71859169
B        11.22097015      7.19438553      6.93102551
H        11.89061165      6.41246557      7.67768383
H        12.07655716      6.24303436     12.65652275
H        12.20254993      7.68874788     11.18757439
H        10.63479042      6.23062754     11.30116081
H        10.63576603      7.57418585     12.66795444
B        11.41168880      6.87276363     11.95527172
H        12.13112545      6.59348726     16.82291603
H        12.21313667      7.92474318     15.33139229
H        10.91794395      6.54610205     15.36602020
H        10.90859699      7.89946222     16.87964821
B        11.55861950      7.24856520     16.14304924
H        11.91815948      6.34240484     21.42957115
H        12.01567841      7.74723101     19.87733459
H        10.57893753      6.33874798     19.97119904
H        10.52784348      7.70446301     21.48431969
B        11.28297329      7.10416365     20.68123627
H        12.15375996      6.32799387     25.91746712
H        12.18095016      7.58900070     24.47918510
H        10.76490784      6.19451904     24.37290001
H        10.89733315      7.56285954     25.91851616
B        11.44052124      6.88161802     25.14228439
H        12.12594986      5.98707914     30.57964897
H        12.27459145      7.58813143     28.95509911
H        10.87137413      5.95896006     29.07562256
H        10.85298157      7.48600149     30.62615967
B        11.57572556      6.68610764     29.74419785
B        11.29268265     11.71100903      2.45662689
H        12.07004929     11.01916218      3.18913436
H        12.12320518     12.28813457      1.74483228
H        10.56048012     10.87335205      1.65217876
H        10.59869576     12.34257221      3.29672813
B        11.41895580     11.42253971      6.97584248
H        12.20127773     10.80485725      7.70111942
H        12.20126247     12.20828629      6.18841648
H        10.81907940     10.77164459      6.15518904
H        10.83920383     12.22138882      7.71420717
B        11.20368195     11.15323734     11.32971668
H        11.87665176     10.50267792     12.07169247
H        11.83394527     12.00223637     10.67454624
H        10.42551708     10.53385067     10.66301346
H        10.53029728     11.90898895     11.93573761
B        11.37408924     11.55917835     16.08552551
H        12.21570110     10.94106960     16.81511307
H        12.20662212     12.25076103     15.41725731
H        10.68887711     10.86545849     15.33256721
H        10.73294830     12.29138088     16.84665489
H        10.83091450     12.48055935     21.47474480
B        11.45782948     11.73070812     20.86512947
H        12.29467964     11.04267311     21.46363831
H        12.17782211     12.35259628     20.19033051
H        10.83754539     11.03819847     20.06900024
H        10.99105167     12.00481129     26.26393509
B        11.57070637     11.37647724     25.49328995
H        12.32219315     10.53824234     26.22888374
H        12.39588451     12.04345417     24.77789688
H        10.97472763     10.48686886     24.80021286
H        10.90612411     11.95007610     30.45164490
B        11.67525578     11.23547935     29.83905220
H        12.37509346     10.47067356     30.39809990
H        12.36686516     11.88830185     29.04117966
H        11.05332375     10.56432819     29.12660599
H        10.98688984     17.07194519      2.96682501
B        11.62722969     16.23263741      2.42453957
H        12.39134502     15.45546627      3.03146815
H        12.25216770     16.99741173      1.76459587
H        10.96821785     15.50143814      1.67138922
H        11.07671928     16.76559067      7.63537598
B        11.67785740     16.02116966      6.92457390
H        12.32276440     15.26577854      7.76961470
H        12.28414726     16.86121178      6.20492697
H        10.97640800     15.29970741      6.20023632
H        10.59394264     15.52025604     11.04213238
H        10.61071873     16.73356247     12.26094055
B        11.47551918     16.13291931     11.62637997
H        12.27267075     15.43247986     12.36549282
H        12.23779964     16.80324364     10.98922825
H        11.03334999     15.46061134     15.26285744
H        11.13166428     16.91217422     16.50649834
B        11.74705505     16.20065308     15.82231426
H        12.37486649     15.54052162     16.52490234
H        12.48126221     17.03697205     15.23637199
H        10.88766384     15.57175636     19.96346855
H        10.94885635     17.02180099     21.47481537
B        11.48269463     16.35962486     20.69293594
H        12.32306385     15.63262558     21.47513962
H        12.29393101     16.99299240     20.05346870
H        10.61423111     15.13436699     24.85251808
H        10.72894001     16.35540009     26.10249519
B        11.48531532     15.77692699     25.33874893
H        12.03702831     15.09135056     26.26022148
H        12.16526699     16.64136505     24.68126106
H        10.82587528     15.23898602     29.25294685
H        10.83780384     16.80989075     30.62435722
B        11.49026012     15.90327168     29.96705627
H        12.16540718     15.27122402     30.60404968
H        12.12966633     16.75384140     29.32092476
H        10.67759037     20.24692917      1.53814209
H        10.69054604     21.61476517      2.81191397
B        11.44034863     20.80393410      2.23816824
H        12.24501991     20.16698265      2.90481591
H        12.22285175     21.68550110      1.48036301
H        10.55238819     19.60176659      6.34175634
H        10.79336739     20.95179558      7.93968344
B        11.34369183     20.25763321      7.16150713
H        12.04211712     19.86302376      7.91940880
H        12.09876823     20.98817253      6.54636002
H        10.82860947     20.05949974     10.39290428
H        10.98867798     21.54768753     12.13484669
B        11.51856804     20.88074112     11.23545074
H        12.38246346     20.30545616     12.04895878
H        12.39334393     21.47268105     10.62798119
H        10.70522785     19.51602936     15.64270782
H        10.77256107     20.83286285     16.98472786
B        11.49695969     20.24632072     16.20647049
H        12.19259357     19.52725220     17.04083633
H        12.32114124     21.01751709     15.52538586
H        12.14749050     21.28039932     20.11422348
H        10.76444149     19.91060638     20.13866997
H        10.71678829     21.30360413     21.59767723
B        11.32329845     20.62998199     20.85247040
H        12.03948975     19.99415970     21.46646881
H        12.13005066     21.08672523     24.33515930
H        10.53659725     19.68949699     24.41644478
H        10.47071838     21.07131577     25.68339348
B        11.31094837     20.51667023     25.08952141
H        12.06308365     19.67517662     25.63183403
H        11.99653244     21.29749489     29.46009064
H        10.66862202     19.86303139     29.40505600
H        10.61955547     21.40159416     31.00294113
B        11.23116779     20.59045982     30.29212952
H        11.98829460     19.92630005     30.89060593
H        12.11935329     26.27473831      1.43853462
H        10.86314392     24.91296387      1.33645988
H        10.79626369     26.44369316      2.89465022
B        11.40340424     25.64079285      2.07095885
H        12.18392086     24.95047379      2.79026246
H        11.95994091     25.56991005      6.13739014
H        10.61227131     24.14039612      6.24870014
H        10.47787285     25.59299660      7.53236866
B        11.29064083     24.90921593      6.87499142
H        11.95963192     24.02939415      7.50897169
H        12.22063446     25.99579048     10.38485336
H        10.87507725     24.58372879     10.36706066
H        11.05310917     25.83555222     11.92815399
B        11.60009098     25.22884369     11.01044178
H        12.10252285     24.71963310     11.97028160
H        12.37493229     25.63038826     15.32316780
H        10.83983326     24.26272774     15.39293575
H        10.79930782     25.60114861     16.65663528
B        11.68204784     24.87917328     15.95574760
H        12.38374424     24.18414688     16.69469070
H        12.18237782     25.61447144     19.59684944
H        10.71247578     24.27568054     19.65230179
H        10.62547779     25.64601707     21.14876175
B        11.40853977     25.02851295     20.38755417
H        12.12667465     24.27593040     21.06151390
H        11.81080341     26.21322632     24.52960587
H        10.45659351     24.56306458     24.34440422
H        10.71898270     26.13604164     25.98951149
B        11.05680847     25.32899857     25.19926262
H        11.76922798     24.78984261     26.02511978
H        12.03956509     24.76836205     30.46829987
H        12.04567528     26.29536247     29.01403999
H        10.62733650     24.78118706     29.03297424
H        10.71651745     26.18724823     30.36629486
B        11.41737938     25.48225975     29.56198120
H        12.25131512     28.93276596      3.35154819
H        12.27481556     30.38666916      1.86722684
H        11.04217625     29.01391602      1.97187710
H        10.87294388     30.45125198      3.43963170
B        11.59469318     29.70959091      2.66833425
H        12.20074749     29.14777184      7.76230097
H        12.16765881     30.48194504      6.26503325
H        10.94503689     29.18237114      6.26654339
H        10.87997818     30.54549217      7.79275942
B        11.59402370     29.77074051      6.96322203
H        12.36373425     29.33641052     12.54729748
H        12.41307449     30.79223442     11.10985279
H        11.06413841     29.32453537     11.14731884
H        11.08693027     30.73197556     12.53637886
B        11.78215313     30.03271866     11.75633621
H        12.28993988     28.72617912     16.93999481
H        12.33932877     30.25973129     15.45060158
H        11.00235844     28.83601379     15.60982704
H        10.86815166     30.23471260     16.96436691
B        11.63177490     29.55460358     16.30081940
B        11.28018856     30.03607559     20.72302055
H        11.83945465     29.21910667     21.40103149
H        11.97181416     30.73983574     19.94454193
H        10.53026009     29.31864166     20.17643738
H        10.42326355     30.61493683     21.40849113
B        11.38632774     29.71852493     25.25305367
H        12.21868992     29.15834236     26.06056213
H        12.15551281     30.40042114     24.63316536
H        10.63401890     29.21108627     24.62273026
H        10.67549801     30.36937523     25.96634102
B        11.26942158     29.89933586     30.30990982
H        11.97088337     29.16795921     30.89293480
H        12.01834011     30.63946533     29.70102119
H        10.53394794     29.09156227     29.67207909
H        10.56142426     30.64092827     30.94185448
B        16.05179405      2.38681173      2.12041593
H        16.80392075      1.71622181      2.96848202
H        16.84279823      3.19499111      1.59323120
H        15.08964348      1.69639051      1.61227608
H        15.22133636      3.04425383      2.85662127
H        15.21683502      3.20999813      7.83979607
B        16.09838676      2.46340656      7.16068029
H        16.73766136      1.78214824      7.90700912
H        16.72836304      3.26791239      6.34512472
H        15.25554276      1.88806915      6.44174671
H        15.04539585      3.30305982     12.54494667
B        15.88648224      2.59842157     11.78397179
H        16.63515663      1.94336522     12.51730919
H        16.57120705      3.21147203     11.05550671
H        15.11980438      1.99013615     11.03832626
H        15.35118198      3.25964236     17.11019897
B        15.91125393      2.45988798     16.42527962
H        16.73393440      1.81356573     17.18259239
H        16.72529793      3.32340050     15.69880295
H        15.25826263      1.79303956     15.66964149
H        15.05805779      3.12075186     21.89606667
B        15.80467606      2.49047422     21.13990211
H        16.44202614      1.75150573     21.99533844
H        16.40024948      3.17824554     20.31652451
H        15.06670666      1.85942423     20.38266563
H        15.33216953      3.35568261     26.22770500
B        15.94829273      2.53780365     25.43228340
H        16.77341270      1.90417528     26.21764946
H        16.69066238      3.26287436     24.82725906
H        15.29475975      1.85670817     24.69704247
H        14.98521042      1.25839424     29.08670616
H        14.99214458      2.79251313     30.53784180
B        15.63845348      2.02773929     29.77871704
H        16.36006927      1.33757496     30.46559715
H        16.40251350      2.76271176     29.12344360
H        15.02861500      6.07473278      1.45896864
H        15.13683987      7.18793821      2.94466925
B        15.78554440      6.67847967      2.13457465
H        16.50788879      6.08568335      3.04194331
H        16.53299713      7.31032133      1.44481015
H        15.40945244      6.17779255      6.50531960
H        15.51488972      7.53294468      8.14001846
B        16.16424942      6.81929302      7.25822592
H        16.83384514      6.28611469      8.13713360
H        16.91090012      7.60711336      6.53658819
H        15.22964573      6.40807152     10.96406651
H        15.22294903      7.94336510     12.32280254
B        15.91256809      7.14320278     11.71041203
H        16.59362602      6.36678600     12.35739136
H        16.51520729      7.89953470     11.00119972
H        15.41386414      6.08019209     15.59908581
H        15.55411434      7.66235161     16.94341278
B        16.16000366      6.90863562     16.20193291
H        16.77247810      6.18675709     16.97709656
H        16.83995247      7.76351166     15.63817692
H        15.17096043      6.32897758     20.25210381
H        15.12320900      7.83956242     21.51938248
B        15.78234959      7.00042248     21.06219292
H        16.61960793      6.18373775     21.61687088
H        16.39638329      7.71382713     20.33008766
H        15.21306705      5.99671125     24.71586800
H        15.15439415      7.39541054     26.05364990
B        15.80889511      6.68232775     25.39088058
H        16.52900124      5.91632366     26.07536697
H        16.50616837      7.39429474     24.65831184
H        15.08363628      5.68561316     29.55551529
H        14.97920895      7.14531136     30.99185562
B        15.70158291      6.41570663     30.28090477
H        16.70382500      5.60987616     30.96316338
H        16.63491249      7.04770994     29.54869080
H        14.91759300     10.61359787      2.14551544
H        15.01656342     12.08631611      3.49967027
B        15.66462326     11.30337906      2.88643146
H        16.51921272     10.70839310      3.50384593
H        16.52276802     12.09404755      2.23675513
H        16.69210243     11.84554768      6.13455963
H        15.46206665     10.64693165      6.17100096
H        15.34820271     11.92297077      7.68823481
B        16.12945175     11.22033596      6.98256540
H        16.78654289     10.51604939      7.70525265
H        16.61590767     12.45632648     10.69310188
H        15.31672955     10.92037296     10.68342495
H        15.23140049     12.55133343     11.97775459
B        15.97637558     11.74935627     11.39635468
H        16.74766159     10.79829502     12.01450253
H        16.93578148     11.88421726     15.44743252
H        15.46579170     10.40512085     15.27182484
H        15.57042408     11.95519161     16.89384270
B        16.17277718     11.22507095     16.04577827
H        16.88332367     10.63318825     16.77040672
H        16.78225327     12.23389339     20.07807159
H        15.43432713     10.80246258     19.89818001
H        15.56934357     12.27876854     21.22570992
B        16.22487640     11.37016773     20.58341026
H        16.94290161     10.82170582     21.34148026
H        16.67941666     12.08611584     24.58925247
H        15.15219402     10.71723366     24.60905647
H        15.06160069     12.15690327     25.90324211
B        15.83037853     11.48434162     25.23229027
H        16.63864899     10.73819637     25.79168701
H        16.90606880     12.26828098     29.13063431
H        15.53323746     10.82491207     29.14262581
H        15.49787903     12.29164791     30.52333260
B        16.22232056     11.54292774     29.72985077
H        16.88850594     10.83048344     30.48240471
H        16.93390656     16.54815865      1.49077940
H        15.54378796     15.26424789      1.50756478
H        15.50963497     16.56552696      2.78093100
B        16.26441956     15.86696434      2.15972471
H        17.11263466     15.06873226      2.94229341
H        16.71856308     16.28613663      6.16779232
H        15.33189392     14.83133984      6.14420652
H        15.35104847     16.29056549      7.60348797
B        16.04147720     15.63588142      6.91110992
H        16.64110947     14.93237782      7.52160549
H        16.44605064     16.57621574     10.75583935
H        15.11235809     15.04251099     10.76508141
H        15.22421932     16.45511436     12.22861767
B        15.74725151     15.87029743     11.39679432
H        16.33079338     15.14852715     12.23446274
H        16.59433365     15.45526791     16.79063034
H        16.58708954     16.76341629     15.19641209
H        15.25558090     15.47001266     15.20391273
H        15.19174957     16.81974602     16.83971405
B        15.86231804     16.16381836     15.97723293
H        16.81961060     15.10545254     21.59628868
H        16.78234863     16.43597603     20.15681076
H        15.29315186     15.21590805     20.23000336
H        15.22161484     16.43432045     21.55737114
B        16.05711174     15.92525101     20.92005157
H        16.64605331     15.10365582     25.86075974
H        16.71405792     16.69214821     24.38790512
H        15.26093197     15.11489582     24.46714973
H        15.19071484     16.68312263     25.91973877
B        16.02056503     15.99749565     25.13782692
H        16.66362572     15.33439636     30.21374893
H        16.61447525     16.53919983     28.91903305
H        15.25825119     15.40621758     28.94170570
H        15.10538769     16.66938972     30.29479027
B        15.81018066     16.08826447     29.68685341
H        16.67879677     19.63134766      3.28268218
H        16.62385941     21.04287148      1.79507840
H        15.21077251     19.76315689      1.87194932
H        15.23009109     20.94668198      3.13155532
B        16.14162445     20.38846588      2.54399610
B        15.86627388     20.40046883      6.73534298
H        16.62788010     19.77901077      7.45319843
H        16.64307404     20.95561981      6.09547377
H        15.06721020     19.73896408      6.07061911
H        15.01563454     21.03204918      7.54482031
B        16.23151016     20.31466103     11.84825230
H        17.09977150     19.83882904     12.54561424
H        16.99759102     21.05871201     11.20828724
H        15.47034740     19.80453491     11.07181263
H        15.59202576     21.07350922     12.45823097
B        15.70189667     20.51417923     15.93703175
H        16.49585915     19.98894310     16.53658867
H        16.55603600     21.08172035     15.16387844
H        14.99769783     19.85076332     15.08587551
H        15.01809597     21.13932800     16.65437126
B        16.13075256     20.86776352     20.63699722
H        16.87148666     20.25016785     21.40988922
H        16.81823540     21.63186836     19.99720764
H        15.49016476     20.15755272     19.85134125
H        15.59726429     21.67063332     21.39540482
H        15.57694626     21.29813957     26.40238190
B        16.02298546     20.55286217     25.49665451
H        16.82622147     19.99904251     26.25677681
H        16.86838722     21.19470024     24.95541000
H        15.44689751     19.72338867     24.72192383
H        15.46319675     21.69567490     30.38973045
B        16.06002998     20.77044487     29.91009712
H        16.88733482     20.24855042     30.47866821
H        16.63577843     21.53305435     29.19941139
H        15.39042759     20.26471901     28.96402168
H        15.41989326     25.88561630      3.06691933
B        15.98310947     25.09967995      2.26841283
H        16.67246819     24.36028099      3.03221393
H        16.62858009     25.80702019      1.39865613
H        15.46765995     24.37334251      1.36782908
H        15.36816120     25.88344193      7.35229826
B        16.09371948     25.01292229      6.49274921
H        16.65761566     24.37874603      7.26306200
H        16.76074791     25.89733696      5.96302462
H        15.36847782     24.28982735      5.97723675
H        15.36960888     26.01434135     12.09560585
B        16.08363342     25.24915123     11.58311176
H        16.94589615     24.41223145     12.12038326
H        16.80717468     25.90039444     10.68938351
H        15.48802948     24.55542755     10.69385815
H        15.50639725     24.19227028     15.39963436
H        15.52646732     25.69341660     16.60025215
B        16.11294556     24.88317490     16.11104774
H        16.96646690     24.21525002     16.59734344
H        16.92354774     25.64759064     15.46553421
H        15.12677097     24.47760391     20.19208717
H        15.04610920     25.79494858     21.51126289
B        15.93169022     25.17145348     20.76506996
H        16.53265572     24.50052452     21.40768242
H        16.72670746     25.88542175     20.02095413
H        15.17768860     24.98043442     24.34480667
H        15.17910385     26.32577133     25.79483414
B        15.90233612     25.73222160     24.95574379
H        16.58680916     25.06475449     25.71193314
H        16.72333336     26.37939262     24.29260254
H        15.10453701     24.69284248     28.92546844
H        15.23370171     26.37113380     30.24028969
B        15.70042133     25.54562378     29.67444420
H        16.54815865     24.84523201     30.21706200
H        16.52472878     26.32447624     29.10128975
H        15.32100582     29.06324196      1.87531924
H        15.35609627     30.53101730      3.26081395
B        16.07322884     29.82277679      2.60150576
H        16.78676414     29.04059029      3.31855345
H        16.76477051     30.56676292      1.87466335
H        15.38132095     29.01593018      6.41600895
H        15.51999378     30.20950508      7.84730482
B        16.31200218     29.61958504      7.08999014
H        17.01072884     29.04875183      7.95315599
H        17.01786041     30.32248688      6.44169998
H        15.29612827     29.09261131     10.87483215
H        15.37567902     30.42454529     12.24367809
B        16.06207657     29.73249626     11.60275173
H        16.79983330     29.08170319     12.33413792
H        16.82106400     30.53623581     10.84269428
H        15.19817162     28.66114616     15.21116734
H        15.25391769     30.03017235     16.61699867
B        16.03537178     29.40251541     15.95292473
H        16.77685165     28.57371521     16.76017761
H        16.70899963     30.10549927     15.19158554
H        15.30260086     29.43223953     19.96165848
H        15.25741291     30.68344879     21.43127823
B        15.94753551     30.05359077     20.77412605
H        16.58615685     29.32221031     21.49612045
H        16.55212593     30.71425819     19.88566017
H        16.67370987     31.01619530     24.41650009
H        15.07544041     29.64111710     24.39186478
H        15.14693832     30.96933365     25.81378174
B        15.87902069     30.29603958     25.08633232
H        16.62773895     29.71172333     25.81467247
H        16.56998253     30.84343338     29.06438828
H        15.04486561     29.40486908     28.97202301
H        15.10376930     30.87689590     30.43553162
B        15.82649517     30.01254082     29.74162102
H        16.65278816     29.41442871     30.48487282
H        21.23423576      2.95957565      1.64831340
H        19.93028069      1.69922197      1.66719508
H        19.86149979      3.00947666      3.05088258
B        20.65342331      2.35055733      2.45053005
H        21.32251740      1.59205890      3.08926296
H        21.50971794      3.51048684      6.19306421
H        20.08559227      2.18338990      6.24853134
H        19.99644852      3.54416227      7.70977116
B        20.82116890      2.84005284      6.96487665
H        21.51619530      2.12144542      7.68257236
H        21.16311646      3.04399419     10.52856636
H        19.70224380      1.59730291     10.68805599
H        19.58879471      2.99795270     12.07252502
B        20.41641808      2.31748986     11.31989002
H        21.04932594      1.55160379     12.00477600
H        20.90095520      3.44075990     15.12029362
H        19.50403404      1.99969614     15.24659824
H        19.47650528      3.34198451     16.43013382
B        20.23785973      2.58321381     15.77398682
H        20.87323189      1.90111399     16.50118637
H        20.82610703      3.45227408     19.99512672
H        19.44445229      2.01091051     20.19004059
H        19.32468796      3.37712383     21.55533409
B        20.14293289      2.72353816     20.86924934
H        20.78372383      1.85837853     21.58810234
H        21.18518829      2.86789393     24.60098267
H        19.83934784      1.63975155     24.71614647
H        19.74458313      2.84749341     26.26733971
B        20.47953796      2.30033493     25.45845222
H        21.12176514      1.58800972     26.22431755
H        21.05510139      3.08302784     29.27442741
H        19.88181686      1.62330198     29.11492920
H        19.85671616      3.26762414     30.74995041
B        20.20935440      2.30175686     30.02049828
H        21.15407181      1.68382871     30.66432190
H        21.30670547      6.17403269      2.81332493
H        21.35261917      7.57796669      1.53679395
H        19.73975372      6.18323755      1.59191227
H        19.71560478      7.54699850      2.82827044
B        20.50878906      6.96290779      2.28467774
H        21.52122498      6.01662540      8.00723553
H        21.45844460      7.44716930      6.63103151
H        20.19863701      6.02319908      6.57482529
H        20.14626884      7.55574417      8.05303001
B        20.80530167      6.84608793      7.26042557
H        21.23320770      6.43976068     12.18678284
H        21.34048271      7.71575928     10.86937904
H        19.94415092      6.49073267     11.02762604
H        19.70875168      7.79291010     12.37120819
B        20.59102631      7.20355225     11.66930771
H        21.64965248      6.67353630     17.11850357
H        21.58243561      7.92275715     15.76051521
H        20.17915154      6.64877224     15.66853523
H        20.11700630      8.07688332     17.20541191
B        20.76021576      7.32592154     16.52353096
H        21.30267143      6.21724749     21.57042885
H        21.37293625      7.49503803     20.31891060
H        20.00243378      6.04045820     20.21238518
H        20.06061172      7.54338455     21.68903542
B        20.62657928      6.84570837     20.84057808
B        20.53878784      6.71851826     25.02579117
H        21.37186241      6.08392096     25.74850464
H        21.31173325      7.49965239     24.43740654
H        19.67156982      6.07863379     24.37199211
H        19.74828148      7.48835659     25.67707825
B        20.82737923      7.13873911     29.84411621
H        21.61845207      6.44829130     30.34162712
H        21.49874115      7.94658899     29.22346306
H        20.02241325      6.50278807     29.15824890
H        20.01324081      8.02097607     30.29630470
B        20.53755188     11.33340168      2.33213377
H        21.24998093     10.61688995      3.12489462
H        21.18284798     12.23357773      1.75504076
H        19.84036255     10.55808258      1.62909961
H        19.93925858     12.26062012      3.08480144
B        20.42241478     11.25326157      7.11326122
H        21.11871910     10.49623203      7.81937885
H        21.07121086     11.98636341      6.36454010
H        19.66256332     10.58199501      6.40279722
H        19.61874390     11.99192524      7.77743530
H        19.80211258     12.37802410     12.01881599
B        20.43376541     11.85149193     11.17994499
H        21.01720428     11.01387691     11.97310162
H        21.12017441     12.43527985     10.48613262
H        19.88780022     11.05385113     10.62907600
H        19.85665703     12.41573238     16.96401978
B        20.53043938     11.63297558     16.31864738
H        21.20450974     10.93571281     17.07072830
H        21.10273743     12.42066860     15.73275852
H        19.77605438     10.96181774     15.65709019
H        19.89028358     12.19354820     21.31525803
B        20.51783752     11.47901821     20.62144470
H        21.18904686     10.83234024     21.36720276
H        21.11527824     12.17172432     20.01192856
H        19.77420235     10.76820469     19.87402534
H        20.02674294     12.09801292     25.95782661
B        20.52025795     11.37217617     25.17092323
H        21.23267746     10.75651932     26.01744080
H        21.24065399     12.16560173     24.50256729
H        19.90408897     10.69347763     24.44750023
H        19.72339630     12.20968437     30.39794922
B        20.43298531     11.44262409     29.70775414
H        21.22942543     10.89191723     30.46070862
H        21.18480682     12.22782707     29.15428352
H        19.65402985     10.88531017     29.10305786
H        19.82398033     15.21683884      1.66641843
H        19.68141937     16.73671722      2.96035624
B        20.33851433     15.91285896      2.38519883
H        21.15815735     15.10270405      2.93193054
H        21.02852249     16.57865715      1.68191874
H        20.13198853     15.15577126      5.95485067
H        20.09415054     16.87419891      7.35619211
B        20.61478996     15.98160744      6.74692631
H        21.33708954     15.06283188      7.41129208
H        21.22759819     16.81980896      5.97140312
H        19.32969666     15.21796703     10.69370747
H        19.40054321     16.48960304     12.19433212
B        20.07167435     15.85790443     11.46148586
H        20.83024979     15.31253433     12.17061329
H        20.87502480     16.51065636     10.74349880
H        20.19181252     15.22529697     15.14133453
H        20.09560585     16.69547462     16.88841629
B        20.56204796     16.02741241     15.99394798
H        21.36795425     15.45161438     16.56589317
H        21.43575668     16.44075394     15.29984760
H        19.75285912     15.53346920     19.84749603
H        19.75159264     16.95959854     21.28057289
B        20.43298340     16.15827942     20.57683563
H        21.23605156     15.54812622     21.26465034
H        21.13227654     16.83989906     19.96592712
H        20.33421135     15.14240837     24.61720085
H        20.40060997     16.98104858     26.04665756
B        20.98571777     16.13007927     25.33068275
H        21.82325745     15.36664963     25.88881493
H        21.77145004     16.77139664     24.89324951
H        19.55723190     15.53452587     28.88009262
H        19.54740143     16.98392296     30.29745102
B        20.24970818     16.16505432     29.65123177
H        21.06683350     15.50781345     30.31433105
H        20.97896957     16.91293907     28.94124413
H        19.73643875     19.55317879      1.68163908
H        19.72182465     20.90619659      2.95552206
B        20.55340958     20.37190247      2.37891388
H        21.27598000     19.45884895      3.03523636
H        21.24032402     20.95025635      1.62296534
H        19.71268463     19.83607864      6.28476048
H        19.55722237     21.17528915      7.86082172
B        20.32574081     20.56853485      7.02307987
H        20.78736115     19.74548149      7.79595518
H        20.90109062     21.22415352      6.08043480
H        21.30940247     21.40401649     10.69031811
H        19.72884560     19.76984215     10.64196396
H        19.80177307     21.37944412     12.13513184
B        20.43884468     20.57655144     11.36834335
H        21.23559761     19.89200211     12.08590031
H        21.33681107     21.68504333     15.60612583
H        19.78997040     20.26328659     15.44594193
H        19.90626717     21.72892761     17.00023460
B        20.54224777     20.87099457     16.26275063
H        21.36052132     20.39976120     16.98005676
H        21.37298203     20.88399315     20.05130577
H        19.93145180     19.57737160     20.02556992
H        19.97478104     20.86639977     21.38613129
B        20.71025848     20.19179726     20.67861938
H        21.40952110     19.56657028     21.44026566
H        21.13099861     21.90149689     24.61862564
H        19.61767769     20.30249977     24.61903000
H        19.79603004     21.72274208     25.91541100
B        20.52734756     21.05479622     25.05015755
H        21.09151649     20.34157562     26.05468559
H        20.84925270     21.32289696     29.33092690
H        19.59330368     19.91502571     29.24443436
H        19.56104660     21.44164658     30.84299469
B        20.14529037     20.61341667     30.10200310
H        20.91376877     19.93700218     30.78876305
H        21.22439384     25.79946327      1.73558950
H        19.86578560     24.36141014      1.56644833
H        19.88780022     25.94659042      3.06611347
B        20.51999474     25.05825806      2.32237387
H        21.32627869     24.42866516      3.02087235
H        21.08337021     25.97748756      6.01734161
H        19.68377304     24.64307022      5.90749502
H        19.73555565     26.03555107      7.30651951
B        20.39350700     25.17745209      6.67814302
H        21.18703842     24.64925003      7.35212469
H        21.62184906     26.14726830     10.67246246
H        20.18148994     24.67758560     10.80043221
H        20.25103951     25.94974518     12.11762810
B        21.12720108     25.29137039     11.45290756
H        21.58269501     24.58877182     12.27599430
H        20.99287796     26.01224709     15.43588161
H        19.77792740     24.56834030     15.39973927
H        19.72158623     26.10472679     17.03511810
B        20.32730865     25.27781868     16.22385216
H        20.99869728     24.59866142     16.94845581
H        21.46918488     24.50178337     21.09177017
H        21.41854477     25.99631119     19.75053787
H        19.87507629     24.60832214     19.80643463
H        19.79316902     26.02231979     21.06713867
B        20.71755219     25.20995903     20.45047951
H        21.00601006     24.59626389     26.13637733
H        20.95186234     26.20027351     24.54338264
H        19.62102509     24.85031509     24.74328613
H        19.47142410     26.14996910     26.03192711
B        20.39477348     25.49879837     25.38865471
H        20.90575600     24.48055840     30.49735069
H        20.93427277     26.03676987     29.03884125
H        19.42525864     24.37878227     28.96558380
H        19.65544510     25.87983513     30.36893463
B        20.35120583     25.11853218     29.68789864
H        21.07774544     29.37079430      3.14480853
H        21.14680099     30.59409142      1.56280041
H        19.70353699     29.32674217      1.58780468
H        19.64874840     30.62387466      3.24364543
B        20.38814926     30.02036476      2.38590002
H        21.49973488     28.99234581      7.81569719
H        21.47842026     30.35794640      6.50909853
H        20.22795296     28.88021088      6.37564754
H        20.23201180     30.48733711      7.92377138
B        20.73865128     29.62886047      7.11536264
B        20.65987015     30.20847702     11.86464119
H        21.47385979     29.54654884     12.59052944
H        21.52480316     30.87311172     11.20841408
H        19.87392426     29.44859314     11.16140079
H        19.94216156     30.85188484     12.62024689
B        20.39174652     29.85536385     16.37245369
H        21.01678085     29.27926254     17.16246414
H        21.03614998     30.73411560     15.80927277
H        19.48309135     29.27611732     15.82549667
H        19.61151695     30.58946419     17.03718185
B        20.41617775     30.08440399     20.79341507
H        21.18067932     29.44995689     21.50066757
H        21.16862488     30.77085114     20.05371094
H        19.88008690     29.46009254     20.05179596
H        19.84132767     30.81152725     21.52928925
B        20.75807953     30.03527069     25.38945580
H        21.43290138     29.35897064     26.09581566
H        21.36199379     30.72347832     24.69047356
H        19.81892014     29.38611794     24.64671326
H        19.81859207     30.76756668     26.06899261
H        19.48488045     30.41307449     30.63957214
B        20.00215912     29.65649605     29.91322517
H        20.75773811     28.95312691     30.49860573
H        20.86186218     30.37623405     29.14185905
H        19.54482460     28.87210655     29.16496086
H        24.57843208      3.27743077      3.23842597
B        25.15610123      2.50240731      2.41306639
H        25.78828621      1.89001393      3.22502661
H        25.86371231      3.33945799      1.87278199
H        24.46975708      1.76794088      1.82613564
H        24.26604843      2.69365811      7.98174524
B        24.79133034      2.14099479      7.07973814
H        25.49901581      1.54222810      7.81315994
H        25.66764450      2.69370270      6.61455727
H        24.13501549      1.24261022      6.48356867
H        24.41133499      2.97546887     12.42048645
B        25.01311302      2.26341367     11.57740021
H        25.81823349      1.66777647     12.20296669
H        25.84641075      2.78612733     10.84412289
H        24.49157715      1.53049695     10.73502254
H        24.29162216      3.16742992     17.16494370
B        25.03064346      2.49363089     16.51893234
H        25.84062576      1.86760211     17.21608734
H        25.77221298      3.15016341     15.85940933
H        24.26079559      1.88792193     15.81131744
H        24.42488289      1.76352739     20.18971252
H        24.45251846      3.25409532     21.72607422
B        25.02635574      2.50150585     20.91265678
H        25.77871895      1.82717454     21.69006348
H        25.72844124      3.16780591     20.30364037
H        24.60681725      1.61794710     24.50102425
H        24.65394592      3.12646556     25.97512054
B        25.13926697      2.48406768     25.12699699
H        25.81139946      1.76924121     25.87095451
H        25.89016724      3.10106802     24.57355118
H        24.29310036      1.43563378     29.45278358
H        24.58932114      2.85641432     30.66366005
B        25.19604874      2.19598365     29.86568642
H        25.94776154      1.52015817     30.87535667
H        26.05143929      3.17178869     29.43362999
H        24.63704681      6.16340208      1.92145181
H        24.60940361      7.80110312      3.37396717
B        25.32524300      6.89888954      2.60907269
H        26.05651474      6.24792814      3.26179743
H        26.08077621      7.71319437      1.98171675
H        24.46620369      5.91753531      6.35992670
H        24.47308159      7.36731625      7.80140448
B        25.09825325      6.58444500      7.12221384
H        25.82622719      5.94123697      7.78458357
H        25.77392006      7.29818821      6.43593550
H        24.45894241      6.35759354     11.00896645
H        24.48848915      7.64738321     12.31212711
B        25.35383034      6.97102499     11.67234707
H        26.01865578      6.24010468     12.45916367
H        25.95387840      7.72964191     10.95625401
H        24.85814476      6.50321627     15.28723145
H        24.79975319      7.93476868     16.84616852
B        25.56787682      7.20075607     16.08225822
H        26.22100067      6.42366600     16.86732483
H        26.12864876      7.86357641     15.30003166
H        24.35517693      6.21973753     20.05968666
H        24.40102005      7.61789656     21.23348045
B        25.07746696      6.78431940     20.69643021
H        25.79297829      6.11229944     21.38676071
H        25.72434998      7.70254946     20.02087593
H        24.27014542      6.46773434     24.93494225
H        24.33486366      7.53780079     26.24275398
B        25.28163910      7.07299566     25.53103447
H        25.87005997      6.45944881     26.31575966
H        26.02608871      7.76683569     24.77062607
H        25.79966927      7.80388641     29.09458542
H        24.30844879      6.37760162     28.97693634
H        24.43695450      7.79303074     30.41315269
B        25.09414864      7.02412224     29.73684120
H        25.85410118      6.44081545     30.47844124
H        25.65455246     11.98161411      1.96304500
H        24.19420242     10.55749607      1.95445764
H        24.15197563     12.03242779      3.44978786
B        24.80421829     11.32261658      2.66172361
H        25.58141899     10.63921738      3.32584023
H        25.33885765     12.21280575      6.33838511
H        24.13418198     10.83835316      6.26583099
H        24.09985733     12.31968307      7.71818352
B        24.72811699     11.51096439      7.07762623
H        25.49379349     10.75597095      7.76624298
H        25.82924843     12.44874668     10.48685551
H        24.52531433     11.22668266     10.44594669
H        24.52519798     12.48977184     11.76736450
B        25.22764397     11.77516556     11.17134476
H        25.95015526     11.14668465     11.84724617
H        25.71157265     12.52384090     14.93164349
H        24.44900131     11.27593327     14.88965225
H        24.40047073     12.61436367     16.40790749
B        25.04643822     11.89809418     15.70929432
H        25.77003098     11.25946712     16.37584305
H        25.57204819     12.18156528     19.88297081
H        24.30334473     10.87358665     19.96256256
H        24.22177505     12.18354416     21.40679359
B        24.95294571     11.47424793     20.73522758
H        25.71218491     10.65385818     21.54495049
H        25.82737923     12.05552959     24.36839676
H        24.36991310     10.64470673     24.49714661
H        24.37665749     11.92003345     25.89914703
B        25.10285759     11.38433266     25.07741737
H        25.70348358     10.63984966     25.91074944
H        25.88266563     12.33890724     29.08447456
H        24.26960564     10.85245609     29.10640144
H        24.25400925     12.33257771     30.49369240
B        25.02638245     11.57676411     29.77194405
H        25.79924583     10.91394901     30.41660118
H        25.39326286     16.62836647      1.78379059
H        24.00051689     15.33610821      1.70712113
H        24.11505508     16.59049797      3.09451437
B        24.78364563     15.82152557      2.49413848
H        25.53529549     15.27074242      3.27441764
H        25.71875381     15.46561432      7.96638680
H        25.52832794     16.73262405      6.45811462
H        24.18325233     15.57462788      6.37670183
H        24.12331009     16.87397766      7.91731596
B        24.88331413     16.09195900      7.29906845
H        25.67315483     15.53174973     12.18314457
H        25.63577461     16.88796806     10.77761555
H        24.26352501     15.49815655     10.70664310
H        24.27054787     16.95191574     12.20971203
B        24.97133255     16.23829460     11.40024185
H        25.65814018     15.60554600     16.80637932
H        25.69081306     17.03506279     15.33652496
H        24.31549072     15.72129440     15.48494720
H        24.18646049     17.01566887     16.81965828
B        25.00210953     16.44280052     16.13125229
H        26.28011894     14.99771118     21.47541809
H        26.32960892     16.30982208     19.97125053
H        24.72054672     14.94279289     19.96582413
H        24.80842018     16.22737503     21.44246292
B        25.54706001     15.64821053     20.72509384
H        25.88592720     15.14052391     26.26367760
H        25.70300484     16.46525764     24.81681252
H        24.22412109     15.25594234     24.74930573
H        24.20547485     16.55141068     26.16690636
B        25.00277519     15.78944397     25.63764572
B        24.94396782     15.80974674     29.67630005
H        25.60818100     15.09318066     30.34045410
H        25.69335938     16.57223320     28.97993851
H        24.24762344     15.04155636     29.01349068
H        24.22254181     16.56376266     30.41716194
B        25.17195892     20.48896027      2.31701541
H        25.83210754     19.75749588      3.01916194
H        25.96502304     21.21152878      1.60562539
H        24.50884056     19.67943573      1.66048038
H        24.48696899     21.17854691      3.11909604
B        25.44668007     20.59884453      7.24055529
H        26.09748268     19.78068924      7.80525446
H        26.04686737     21.34806824      6.44427681
H        24.67747498     19.93751526      6.55048895
H        24.57242775     21.34690285      7.75347328
B        25.37927246     20.76227379     11.78818989
H        25.90800667     20.03467560     12.49515152
H        25.98303223     21.63036919     11.07733345
H        24.64443398     20.06620979     11.18389797
H        24.69048309     21.47775841     12.41756630
H        24.30910873     21.43531227     16.61790657
B        25.18890381     20.82914734     15.93265820
H        25.71809006     19.93619347     16.47481537
H        25.93631935     21.51045036     15.10633469
H        24.48095894     19.96495056     15.35332298
H        24.65764809     21.53649139     21.50884247
B        25.36459541     20.71289062     20.82395363
H        26.10558891     19.91076660     21.37804031
H        26.10825729     21.40835762     20.14889908
H        24.75170135     19.87401581     20.11481476
H        24.44400978     21.08576012     26.10204887
B        25.09522438     20.46440506     25.46274567
H        25.83806992     19.72108841     26.19281578
H        25.91638947     21.25484467     24.79210663
H        24.31566429     19.68350792     24.83284378
H        24.33024025     21.50995255     30.48041344
B        25.08625412     20.78131485     29.88148499
H        25.88813210     20.08778572     30.52008820
H        25.81749535     21.47898865     29.09102631
H        24.35640907     20.15362740     29.08623123
H        24.24209213     25.77109337      3.10678053
B        25.03147316     25.06973267      2.27565479
H        25.76983261     24.35857773      3.02487111
H        25.84941673     25.76876831      1.62825930
H        24.25133896     24.28591537      1.63517988
H        24.24132156     24.72363663      6.34660912
H        24.25551224     26.10146904      7.68710089
B        24.86637497     25.41116142      6.94644022
H        25.63806152     24.77181053      7.65311909
H        25.70510864     26.13453484      6.32773304
H        24.75805092     24.42044067     10.71556091
H        24.62525177     26.27682114     12.37914276
B        25.29039955     25.28096771     11.58572960
H        26.13528824     24.64558411     12.02119827
H        26.10619926     25.88978767     10.96979427
H        23.82774162     24.57820892     15.12653065
H        23.80104446     26.08382797     16.58445740
B        24.42087936     25.24446106     15.85331249
H        25.24218369     24.65419006     16.48178101
H        25.25075150     25.98971939     15.19394207
H        24.48773575     24.41248512     20.02014542
H        24.48169327     25.66002846     21.16756058
B        25.27043915     25.05794525     20.54633904
H        25.83760262     24.29118919     21.28281212
H        25.87727928     25.81495857     19.85917282
H        24.73556328     24.72843742     24.44425964
H        24.77501106     26.06009483     25.87105370
B        25.39199829     25.41289330     25.09765816
H        26.21794891     24.61702919     26.02191353
H        26.08591080     26.07891464     24.46489143
H        24.46021271     24.67670631     29.18784904
H        24.36056900     25.86501312     30.62141609
B        25.26178169     25.34198189     29.90091705
H        25.95125580     24.55707169     30.64140511
H        25.91336060     25.84710503     29.10610962
H        24.27720070     28.89371300      1.62760746
H        24.29253578     30.39107323      3.17534447
B        24.82530403     29.65637016      2.44283009
H        25.50973511     28.97033691      3.11405683
H        25.60199928     30.42205238      1.61196554
H        24.07304382     28.88269424      5.91431808
H        24.14235306     30.18938065      7.45919752
B        24.84275055     29.63250542      6.53000975
H        25.52420235     29.00430107      7.40689802
H        25.60662842     30.21950531      5.95350122
H        24.27023315     29.21486473     10.97814560
H        24.13811493     30.76807785     12.16643715
B        24.87346649     29.93493652     11.62406826
H        25.73475266     29.14150238     12.10768509
H        25.69472313     30.66929436     10.94481373
H        25.58781624     30.86521912     15.73480892
H        24.09889412     29.09630013     15.75583363
H        24.19869041     30.74439621     17.02570343
B        24.79514313     29.91687202     16.31648254
H        25.38642693     29.27666473     16.94513893
H        25.52297974     30.39520454     19.99665833
H        24.15916061     28.92680359     19.98546219
H        24.16449547     30.40106583     21.37481308
B        24.84172630     29.67996597     20.72337341
H        25.54615021     28.91483116     21.39212036
H        25.87640762     30.54904175     24.81474495
H        24.28788948     28.97934341     24.73341751
H        24.48008728     30.43817139     26.12240601
B        25.20410538     29.72110939     25.46738434
H        25.91942596     29.01765060     26.27629662
H        25.88179016     30.54847145     29.01544189
H        24.47431374     29.01822281     29.04733467
H        24.49645424     30.49443817     30.50391960
B        25.21584892     29.75275612     29.71407127
H        25.87811089     28.99000740     30.55427551
H        30.39429474      3.06596136      2.13360906
H        28.78866959      1.73342800      2.19751549
H        28.91755104      2.87317181      3.56071424
B        29.64819527      2.40143895      2.87013936
H        30.28624916      1.77756560      3.64545941
H        30.16052246      3.30770755      6.40675974
H        28.74739838      1.78468978      6.42517328
H        28.73677254      3.29992056      7.78661823
B        29.45661736      2.56482100      6.98900080
H        30.15085983      1.77593815      7.78474283
H        30.41830635      3.24006534     10.70604706
H        29.11939621      1.86149573     10.80887985
H        29.00321198      3.25341725     11.99383640
B        29.83050537      2.47970963     11.40185547
H        30.45182419      1.72514451     12.01400280
H        30.45160103      3.32856464     15.58219814
H        29.03684044      1.83380949     15.60839367
H        29.00980949      3.32940006     16.90173340
B        29.72258759      2.54647446     16.21287155
H        30.46279144      1.79642427     16.91208839
H        30.11554527      3.07550955     19.94436836
H        28.91581726      1.77279615     19.85129929
H        28.99189758      3.09249973     21.32396507
B        29.59293175      2.29985404     20.62553406
H        30.21702766      1.76438081     21.40845871
H        30.42080879      1.49679577     25.88577461
H        30.48180389      3.03849721     24.54530334
H        29.19396019      1.47559798     24.58510208
H        29.15505600      3.03760314     25.94587517
B        29.82726097      2.29403543     25.25002289
H        30.33076477      1.73495042     30.69388962
H        30.39209938      3.04322100     29.19572258
H        29.08226585      1.73387492     29.25598145
H        28.97686768      3.08835840     30.80036163
B        29.73298454      2.50226760     30.01391792
H        30.61727715      6.42232656      3.10887432
H        30.49621010      7.89455128      1.72461116
H        28.88974762      6.48452568      1.66574097
H        28.87527466      7.96789408      3.06114769
B        29.82225227      7.26211166      2.39025307
H        30.36532211      6.03686094      7.76844788
H        30.51952934      7.41068506      6.42508364
H        28.78275299      5.91346598      6.45589590
H        28.90857315      7.25405169      7.76602173
B        29.66594696      6.58702993      6.94470835
H        30.43168068      6.18779135     12.28067493
H        30.30025864      7.46956778     10.89625645
H        28.92858315      6.20643187     10.78347492
H        28.97915077      7.53178263     12.21146965
B        29.61813736      6.74637032     11.61925697
B        29.71968269      6.75732327     16.22262573
H        30.63120461      6.21758986     17.01953125
H        30.31362915      7.54172707     15.58630848
H        28.91632271      6.26960850     15.32075119
H        29.11216736      7.61143970     16.77166748
B        29.56134605      7.06782913     20.87063599
H        30.30235481      6.25404310     21.60814095
H        30.26369858      7.85803318     20.15332222
H        28.79845619      6.26702166     20.12764549
H        28.87724876      7.80491686     21.51637077
B        29.51668358      6.70168304     25.05393982
H        30.05002022      5.91540861     25.75730896
H        30.02211761      7.50624323     24.30480385
H        28.82695198      5.99133348     24.35282516
H        28.80545044      7.47972298     25.70288467
B        29.68326759      6.61953402     29.48558044
H        30.30161476      6.03372240     30.28276443
H        30.30755234      7.31865692     28.75345612
H        28.86475945      6.07386541     28.79953575
H        28.88257027      7.25476789     30.22481346
H        29.00112724     12.46763992      2.96564269
B        29.70735359     11.76938820      2.32110214
H        30.53103638     11.07806873      2.88171196
H        30.58847046     12.44114208      1.55087399
H        29.02777672     11.02078533      1.55102313
H        28.91649818     12.20270729      7.73878622
B        29.69562149     11.48179531      6.94627237
H        30.46591949     10.88792324      7.74621773
H        30.41026688     12.15448570      6.21228552
H        28.90037727     10.87923241      6.14794207
H        29.04335785     12.11431599     12.37352943
B        29.68973732     11.28862667     11.53789425
H        30.20342445     10.63426018     12.42862320
H        30.23517990     12.20116425     10.80547333
H        28.97540092     10.62139511     10.82436275
H        29.06808472     12.30255890     16.73942566
B        29.74187660     11.48906231     16.21386528
H        30.58592987     10.97565842     16.87169456
H        30.41050529     12.25940228     15.50373268
H        28.99184608     11.03168869     15.38433552
H        28.94582748     12.28271580     21.47485542
B        29.44570541     11.38872719     20.89672089
H        30.21336174     10.70881844     21.55662918
H        30.03069687     12.18182468     20.24022293
H        28.87956238     10.72432995     20.07306671
H        29.12955284     10.64053726     24.55135727
H        28.97400856     11.83534336     25.87360954
B        29.94932175     11.17824745     25.31688881
H        30.47937775     10.36339283     25.99521255
H        30.36097908     11.83854961     24.39260864
H        29.00284576     10.71380138     29.05520821
H        28.92490387     12.03878593     30.14493561
B        29.82900429     11.31386566     29.70391273
H        30.48790932     10.43266964     30.34812546
H        30.32139206     12.07545948     28.94059181
H        28.88868713     15.54379845      1.65279675
H        29.01072693     16.87711906      3.32696104
B        29.66086769     16.24087524      2.39127445
H        30.33768463     15.64359093      3.34920883
H        30.37070656     16.93238831      1.71956575
H        28.99168205     15.30020428      6.00877905
H        28.83792305     16.71061707      7.65765285
B        29.64160538     16.02334404      6.83405209
H        30.36909676     15.34422684      7.45986986
H        30.39103317     16.53476906      6.03086615
H        29.24786758     15.43489170     11.15094471
H        29.10746193     16.78440475     12.53098488
B        29.87962151     16.21465111     11.81194687
H        30.49483871     15.41498184     12.41049004
H        30.63530922     16.80438232     10.99056339
H        29.09884453     15.35915947     15.51191235
H        29.19173431     16.91033745     16.90814972
B        29.71598625     16.17660141     16.08282852
H        30.23450470     15.51201916     16.84817886
H        30.33569145     16.95155334     15.56358528
H        29.31956673     15.35820007     19.80946541
H        29.21192551     16.90863419     21.25693130
B        29.81252098     16.13270569     20.55596352
H        30.54547310     15.37820053     21.12928772
H        30.58340454     16.81892395     19.79153442
H        29.28100204     14.94481945     25.08831596
H        29.31041145     16.47689438     26.26652527
B        30.02475357     15.73763561     25.68193245
H        30.76404953     15.00771332     26.23303986
H        30.79496574     16.47432327     25.12029648
H        29.33705330     15.37152004     29.15687370
H        29.25974464     16.66714478     30.62532425
B        30.01615334     16.09173775     29.93701172
H        30.71345139     15.31550694     30.60402870
H        30.69557190     16.62796974     29.11873817
H        30.35296440     21.42107964      1.50368023
H        28.91671371     19.97391319      1.46038985
H        28.96511459     21.41597176      2.94404411
B        29.59936714     20.66534424      2.17022657
H        30.29719543     20.07297325      2.89338613
H        30.64905930     21.28925133      6.07623672
H        29.24272919     19.83584023      6.16342258
H        29.18616104     21.25863266      7.54676867
B        29.91380119     20.58419991      6.83662271
H        30.56589317     19.83182144      7.49421883
H        30.46335030     21.25781822     10.64014816
H        28.97245216     19.83663750     10.53595829
H        29.04513168     21.28932953     12.01655769
B        29.60690117     20.52833939     11.23528576
H        30.44917679     19.95499802     11.97087288
H        30.23249435     21.45458603     15.47389412
H        28.78501892     19.87376022     15.55875683
H        28.87404823     21.28069305     17.00657654
B        29.55235291     20.73229980     16.19292450
H        30.04916954     19.97222137     16.99714279
H        30.92267990     21.33791924     19.53427505
H        29.67648506     19.92207146     19.75252151
H        29.55661392     21.23954582     21.16580391
B        30.26508331     20.61543465     20.39985466
H        30.87284279     19.75366020     21.21434212
H        30.30567741     21.35810852     24.67134857
H        28.95170021     19.88586617     24.70912361
H        28.97288322     21.29914856     25.93300438
B        29.77176476     20.54160881     25.38833046
H        30.41016960     19.74359512     26.09645844
H        30.47968674     21.19083786     28.85588074
H        29.00933647     19.90361786     28.89420128
H        29.00385857     21.15799332     30.30376244
B        29.72504616     20.60782433     29.59846115
H        30.39205933     19.95292473     30.24897957
H        30.53919792     25.70024109      1.53455973
H        28.98818588     24.28360176      1.51569510
H        28.96891975     25.73837090      2.93328190
B        29.81079292     25.05049706      2.24108481
H        30.50257874     24.33908844      2.85853148
H        30.50751114     25.68376160      6.11869287
H        29.08853912     24.31030273      5.93435240
H        29.23883057     25.71781349      7.64148903
B        29.77011871     25.00754929      6.77700186
H        30.50061989     24.50153351      7.60054874
H        30.18074799     24.75533485     12.57938480
H        29.93087959     26.39765549     11.17471790
H        28.72534180     24.95113182     11.12064552
H        28.76721001     26.40985870     12.34171867
B        29.46043777     25.54953384     11.82359600
H        30.40028191     24.60944176     16.51173401
H        30.34121132     26.11338234     15.09206200
H        28.92693520     24.79414749     15.21769619
H        28.86650658     26.04817581     16.38745689
B        29.63834000     25.39857483     15.84839630
H        30.52865982     24.90806770     21.04643631
H        30.51821518     26.23915100     19.46263885
H        29.09351921     25.00691605     19.55104256
H        28.99824142     26.24602509     21.04286575
B        29.85937119     25.60985947     20.31979942
H        30.51014709     24.19271851     26.02813530
H        30.56293106     25.66753197     24.45661354
H        29.20746231     24.11655235     24.43323135
H        29.33456802     25.56380653     25.97719574
B        29.86467743     24.87150192     25.19010353
H        30.32170486     24.40009689     30.56933594
H        30.43822861     25.71463585     29.05245972
H        29.06446266     24.33240891     29.10129547
H        29.04488945     25.68537140     30.65659523
B        29.72664261     25.10515213     29.79027748
B        29.45772743     29.52235031      2.41960359
H        30.17548752     28.68594742      3.17214346
H        30.13295937     30.21349144      1.74647343
H        28.80393982     28.76326180      1.78126216
H        28.81407928     30.16856384      3.08468819
B        29.82124710     29.88077354      7.20705938
H        30.38030243     29.04948425      7.89480877
H        30.44229126     30.53269005      6.42252254
H        28.96753693     29.16196060      6.59698534
H        28.98996162     30.33580399      7.75991201
B        29.52343750     29.79622841     11.56035709
H        30.16579247     29.12607956     12.15313816
H        30.29392242     30.51060104     10.81968498
H        28.99493599     29.05141449     10.87314892
H        28.84532547     30.60674858     12.37741756
B        29.82912254     29.79768181     16.10160828
H        30.57394218     29.05200577     16.85331917
H        30.56954765     30.52002335     15.37986183
H        29.00634766     29.13075829     15.45421982
H        29.01457787     30.43743515     16.76633644
H        28.71001816     29.87574768     21.34056854
B        29.44682121     29.37736893     20.50649261
H        30.10911560     28.82451248     21.32431793
H        30.24638176     29.99676132     19.92688179
H        28.59854317     28.69678307     19.93641853
H        29.14752007     31.01148796     25.63002968
B        29.95660973     30.27849960     25.06646729
H        30.64058304     29.47990227     25.71783829
H        30.49979782     30.95851326     24.16280556
H        29.13839722     29.55858421     24.10070419
H        29.09441757     30.46120071     30.53668022
B        29.72984505     29.71861076     29.99444199
H        30.40530014     28.87880516     30.62499237
H        30.32574844     30.46996307     29.26335144
H        29.10255623     28.97525978     29.28025246
