3075

Na       -0.06443241     -2.38025260      4.82025194
Na        4.63122845     -2.11263871      9.62525368
Na        6.78696585     -0.17388132     18.40403748
Na        4.71026278     -0.24330518     16.02333260
Na        2.55694771     -0.47246307     22.70064926
Na        2.35087204     -4.66257477     27.75320244
Na        0.21046329     -0.13865466     34.40454865
Na        2.39984608      4.28700781      9.05941772
Na        2.49995995      4.75089931     13.98167706
Na        2.36854100      8.93014240     18.31248474
Na        2.22815490      4.48683071     22.48976326
Na        2.41958857      4.75610924     28.07974434
Na        2.41654587      8.99982357     27.44035721
Na        0.01501458      6.82228851      4.30138779
Na        2.28592443      8.91018867      8.83653927
Na        2.27846122      9.50780201     13.89936733
Na        0.17129874      6.76873493     18.43185806
Na        0.29971272      6.79894638     27.35797310
Na        0.08251288      4.51349545     29.93484306
Na        2.27650619      4.29647112     36.97391891
Na        2.68035197     13.61232090      4.41883183
Na        4.50078344     17.98213196     11.57516384
Na        2.45133805     13.92899227     13.75601006
Na        4.81598806     11.35957050     18.05567169
Na        0.26397905     13.42532635     25.10747337
Na       -2.14624715     13.01828861     32.02905273
Na        2.11945200      9.25267982     31.96620178
Na        0.07979599     20.50455666      4.39446735
Na        0.01937324     18.05860138      6.79452515
Na        0.39577490     20.40504456     13.59705830
Na        2.12770081     18.40300560     17.86379814
Na        0.46109998     17.73080063     25.23756218
Na        2.42927742     18.47188950     27.68889618
Na        4.69945097     18.15254021     34.43503952
Na        4.72540379     25.16542244      4.75302315
Na        0.19230905     20.67907143      9.59282398
Na        4.93746138     20.45696640     13.66919518
Na       -2.17367005     22.68650246     14.11250687
Na        2.53464794     23.17841148     22.88261604
Na        9.12280083     13.18259430     25.23330307
Na        0.23289643     25.15068054     31.92945862
Na        2.23875237     27.26408768      0.14059797
Na       -0.02045083     24.88572502     13.77281761
Na        2.18824649     27.28783417     14.07930183
Na        4.53602171     29.62124062     18.18552399
Na        0.06035187     27.34265327     20.78470993
Na        4.74730635     27.54118538     29.67207909
Na        0.20935689     27.33915138     29.83477020
Na        4.61190939     -0.05271524      6.92738199
Na        7.02774477     -4.35773039      4.38473654
Na        8.88929749      2.27287602     13.83536243
Na       13.93708229     -2.30837822     18.55778313
Na        4.16177654      0.07306113     29.88707733
Na       11.35606575      0.06452472     27.59770203
Na        4.61696911      2.18777037     36.61563873
Na        9.19118023      7.05120373      4.56248283
Na        8.69363689      6.91091871      9.22688484
Na       11.70265484      8.89648914     13.78171444
Na       11.39185333     -0.02593792     23.22298622
Na        6.70248508      4.91217661     23.18537903
Na        7.05319548      4.60943413     27.56675720
Na        4.68128681      2.19074488     32.27230453
Na        5.03412962      8.84103012      7.19191933
Na        7.06217957      9.50253296      9.51569653
Na        4.38469648      7.18976355     13.90259933
Na        8.85443783      8.77074909     11.86364174
Na        6.78801775      8.98288918     22.65162468
Na        4.57373667     15.94857883     27.60638237
Na        7.03989363     13.93270206     32.34428024
Na        9.41925335     13.35775089      2.18892002
Na        9.47100163     13.89788818      6.84365225
Na        4.92011642     15.78362942     17.93634033
Na        9.06421566     11.83315468     17.63591194
Na        4.66163254     13.84228516     20.42536545
Na        4.88992548      6.91024971     27.57880402
Na        4.70318937     16.22741318     32.07313156
Na        4.75340462     20.68597603      5.01806116
Na        9.14034367     18.28612328      7.13414621
Na        9.02890396     20.47805214     13.79253292
Na        7.13347483     18.61226845     18.49909782
Na        0.06828123     20.24605560     23.07402611
Na        7.04634714     18.54936790     27.80517578
Na        6.91197109     18.33178139     32.38462830
Na        6.90821218     23.10252762      5.04798460
Na        4.42372847     20.51438141      9.64775085
Na        4.64655161     22.93013954     11.57565117
Na        2.45684791     22.63000298     18.58480453
Na        9.11962223     23.01018524     20.54762459
Na        6.76581526     23.04690170     23.00990868
Na        9.43226910     20.49518204     32.08313751
Na        6.88270521     27.45569229      9.25404453
Na        7.13759851     27.40621567     18.13179779
Na        8.99431133     27.62577248     20.66293335
Na       11.71148396     27.48938942     18.34877968
Na        4.48269176     29.84555435     27.36574173
Na        0.16726220     24.93210220     36.64342880
Na        9.47496128      2.33211493      4.78707695
Na        9.04606915     -0.10520973     11.61585426
Na       11.70764160      0.04956045     14.14129353
Na        6.79030991     -0.31201348     14.24200630
Na       14.25240326     -9.20336342     30.06051826
Na        6.77296209      4.80850887     31.82101440
Na       11.66535568      4.83382654      4.69548702
Na        7.46426249      5.35719061     14.00068474
Na        9.49101734      4.31120920     15.97152901
Na       13.79968071     -0.22763225     15.84920120
Na       13.89871216      2.17449760     23.40028381
Na        8.94213581      4.72301960     25.38652611
Na       14.06761456      4.46449327     30.02405167
Na       11.34424305      8.91051865      4.69150972
Na       13.76273632     11.21412468      4.54477787
Na       13.96031380      6.58873701     13.78551292
Na        9.32052708      7.18794584     17.92931175
Na       13.93838310     11.04293633     23.10568428
Na        8.87982655      9.05510902     25.19993401
Na       11.36160946      9.66334248     32.17797852
Na       13.73176098     11.47498894      0.43469727
Na       13.92157745     16.08068275      9.58764267
Na       15.69358444     18.31065369     22.78492737
Na       13.68005276     13.42890167     20.81244278
Na       11.22894573     13.55344009     23.06581879
Na        9.10619450     11.34694481     27.73207474
Na        9.20070362     11.70932198     31.49594498
Na       11.42203236     18.55692291      4.88406658
Na       11.68256474     18.30865669      9.70779133
Na        8.79206753     25.23717880      9.32637978
Na        8.82241249     15.98240852     23.13160706
Na        9.27171040     22.54094505     24.99838257
Na       11.36744213     18.48805618     31.81423759
Na       13.80671406     15.81408405     31.92576599
Na       13.79012680     18.45907211      6.98753691
Na        9.65986347     15.74694633     13.40103054
Na       11.60326958     23.51470947     13.71557522
Na       13.79492569     20.72733498     18.51771355
Na       18.40206909     22.75168800     16.00113869
Na       15.97754478     22.73073769     22.61138344
Na       11.87541294     22.84615517     32.35814285
Na        9.34098625     27.64871597      2.50183773
Na       13.62186909     27.64537430      7.01758385
Na       14.02596855     25.03260803     13.37093639
Na        9.32227993     25.41532516     18.30513382
Na        9.24555683     29.57722855     23.01522255
Na        4.81212282     20.50365829     27.58616638
Na        8.91065311     27.32712173     29.71442986
Na       13.53065205     -2.02655482      0.21924610
Na       13.71916771      0.21009663      7.13887978
Na       20.74154854      0.02545587     14.43932152
Na       14.02386093     -4.60882235     15.97989082
Na       16.12597656     -4.78986597     22.90880966
Na       15.91246414      0.30265403     27.44546509
Na       16.20935249     -4.68931580     32.04307175
Na       18.55715942      4.12829399      2.24413824
Na       13.81588364      2.25512338      9.21465302
Na       18.69255447      5.00141382     16.33045197
Na       14.05584335      2.03649950     18.49697113
Na       18.42666054      6.76252842     22.88521385
Na       18.73977470      4.29421473     29.72653198
Na       16.02023888      9.13501549     32.48963165
Na       18.34789276      4.63188028      6.85354996
Na       15.83657837      8.98042202      8.93997002
Na       11.49028111      9.21047592     18.29265785
Na       15.98488903      8.93541145     18.58000565
Na       11.51828766      8.91658497     23.55578995
Na       13.80649281     11.23836708     27.39263344
Na       18.24223709      6.81910515     31.69098091
Na       18.21284866     13.66510773      2.37944841
Na       16.02643013     13.80720043     13.75054836
Na       18.59216881     16.22021103     13.83652020
Na       18.51433754     13.41389465     20.50214767
Na       16.08665657     13.64089394     23.09870529
Na       16.20181656     13.50597572     27.71067238
Na       13.60671329     16.13898659     36.44624710
Na       14.26536083     21.02018738      4.77765989
Na       16.23354530     18.52273750      9.56925678
Na       13.40846634     22.90647125     16.32374191
Na       16.02633476     17.90362549     18.58306313
Na       18.36697388     15.89238548     23.15415001
Na       13.28605461     17.90150070     25.31279755
Na       18.42499924     20.53125954     32.57240677
Na       16.17234993     23.13336372      0.22910990
Na       22.77393913     25.00863838      8.99840355
Na       16.13738632     23.11172676     14.20641518
Na       18.44630623     25.22917366     18.43732834
Na       13.52625084     20.65347099     23.15790176
Na       20.43998528     22.50985527     22.74892616
Na       13.74550819     20.55018997     31.97424507
Na       20.79660225     27.74942398      4.37617588
Na       22.41803551     31.67455864      7.10867977
Na       18.32153893     29.94356537     13.95528698
Na       18.67375374     27.73197556     16.25680542
Na       11.57364368     27.06538773     23.21364021
Na       18.13787079     27.34120750     25.30286217
Na       18.61833572     27.41398811     29.92661667
Na       20.46863937      0.11307467      0.19449212
Na       18.10317612      2.49699378      9.39839172
Na       13.91375828      4.50811768     11.48648930
Na       25.29458618     -0.39630431     18.12521362
Na       22.91090393      0.01112973     25.58799362
Na       13.91624737     -9.00913239     25.33562851
Na       18.32486153      2.49526215     36.86000443
Na       22.66878128      2.34590197      4.88274574
Na       18.36207771      6.79425955      9.03496647
Na       18.32506943      4.21937847     20.67341423
Na       18.47669601      2.45548511     18.57138252
Na       20.57850075      4.30930042     22.54687119
Na       23.01027870      4.00963640     25.34261513
Na       20.83725739      4.37176895     32.26171112
Na       18.64125633      9.24667358      6.86641788
Na       20.90497589      9.24299049      9.37543678
Na       22.91853142     13.69854736     11.53936386
Na       18.23569489      8.90031528     20.47540855
Na       18.10025215      9.24636555     25.29086685
Na       23.14418411      8.93398952     29.92124939
Na       18.73009300     11.34434700     32.15988922
Na       22.74606705     11.59059238      0.54202437
Na       20.71015930     13.69711590     13.81810379
Na       20.60734367     18.38181496      9.05712414
Na       22.75082970     13.70405197     16.11849403
Na       23.11016846     18.03348351     25.43990517
Na       18.10885429     13.60918236     25.44843483
Na       18.40649605     15.87324047     32.18878174
Na       18.11603165     18.32763481      2.32088089
Na       22.67069626     16.00204277      4.24938822
Na       25.03150558     18.69211578     18.22277832
Na       20.65923882     18.24755669     14.24177265
Na       18.33644867     18.10410690     20.51676178
Na       22.93484879     15.87697792     27.73941231
Na       22.87006760     18.45304680     34.51113510
Na       23.07519150     25.34831619      4.94107342
Na       18.58314705     22.96432686      6.96971273
Na       25.28143883     18.31492996     13.93656445
Na       11.41111565     17.93373108     18.68252563
Na       18.25638771     24.89323997     22.63527298
Na       27.69003105     27.32176208     29.82362366
Na       20.37937927     22.90495491     32.23675156
Na       18.07400703     25.27556610      9.58947659
Na       18.44077682     27.44124031      6.77887678
Na       22.62239265     25.41566467     13.98012924
Na       20.74591446     27.28356171     18.41246414
Na       20.57341766     32.01529312     18.51155281
Na       18.33267021     27.53306961     20.88757896
Na       20.55528069     27.80865288     32.71941757
Na       27.76703262      4.52983761      2.41042924
Na       29.65353584     -0.12689416      4.88146162
Na       27.54663277      0.11190767     11.56166267
Na       22.77970886     -0.28808767     20.82379532
Na       20.24916267      0.35903588     27.55706978
Na       25.25552940      0.32404312     36.42476654
Na       22.75452232      2.18199921     31.97179985
Na       27.72344971      7.08805418      8.62982082
Na       23.14788818      4.38637304     16.13177872
Na       27.54966545      6.73065948     18.27666473
Na       27.80430412      4.26348829     25.53910828
Na       27.23045349     16.05882645     32.47354507
Na       23.16205406      6.79550171     27.67167664
Na       20.79684448      9.56823921      5.02712536
Na       25.14050293      3.89729953      9.44974327
Na       23.26719856     11.48453426     13.67173481
Na       27.83566666      9.16330910     20.72706985
Na       32.21833420      9.10243797     25.03948593
Na       22.58894348      6.67102242     23.21012115
Na       25.27113914     13.26029205     32.37649918
Na       29.90214729     14.04537773      4.78836679
Na       27.80749702     11.64004326      9.28919411
Na       29.84857178      9.08669090     14.04812717
Na       27.85587502     14.24613094     20.83223152
Na       29.87794113      9.40474319     22.81358528
Na       22.71102715     13.29409027     25.29392624
Na       27.66655922     13.72495461     34.48898315
Na       27.52196693     18.40485573      6.80186701
Na       25.14019775     18.88830376      9.57280350
Na       23.15991783     15.88397598     18.64081383
Na       27.52321053     18.07681465     20.70890808
Na       22.73828697     15.58282471     23.20276642
Na       24.94704437     18.13586807     22.69022369
Na       25.14966202     18.59767151     36.49477005
Na       27.64452553     20.87550163      4.35838318
Na       25.17846870     22.96768570      9.41556931
Na       24.88436508     22.83421326     13.71782589
Na       24.95022964     22.67257118     18.22799873
Na       22.23116112     20.30603600     22.72394180
Na       27.64073181     27.41417503     34.18500137
Na       27.19314766     22.65263748     29.54763222
Na       27.33905220     25.14876938      4.62684822
Na       25.16774368     27.50313950      9.20079041
Na       22.69536972     27.79856491     16.12148857
Na       21.18475723     36.23781204     18.60032272
Na       22.57091713     26.98134613     25.38667870
Na       27.62322235     27.38430595     25.08210564
Na       25.16088104     27.50113106     32.40378952
Na       34.25491714     -0.22783548      4.80126381
Na       32.01737213     -0.10051865     11.68856144
Na       22.34747314      0.03504197     11.80246162
Na       32.30694199     -2.13757539     18.62434387
Na       30.05346680      0.18521939     13.92568970
Na       34.37138748      0.11646044     27.49798775
Na       22.56841278     -0.14257513     30.01337433
Na       27.80727959      2.31713414      4.46539402
Na       31.70712471      4.89531946      7.03357315
Na       27.75023460      7.03767872     13.56681538
Na       31.82683563      0.03283768     20.69015694
Na       29.93488693      4.32390881     18.09780312
Na       36.46564484      9.41519642     29.72759056
Na       27.25436211     -2.38835812     36.69974518
Na       32.23662186      9.31805229      6.75423765
Na       27.42186737      8.86505127     -2.01261950
Na       32.12131500      9.08411598     11.63717842
Na       30.04026413      4.69491959     13.76755047
Na       27.34573174     11.40728474     22.78101540
Na       32.12359238      2.23786712     27.75108147
Na       27.38527107     11.56595612     36.72165298
Na       29.50135040     18.37853622      9.01298618
Na       29.97512817     13.65274239      9.12666702
Na       27.18313789     13.87812519     16.44034576
Na       29.78246689     13.83893681     18.29598045
Na       27.37783623     13.83473969     25.26416969
Na       29.75139809      8.47845459     31.85407257
Na       32.00319672     13.95411301     38.92334747
Na       32.03850937     20.49793053      0.02712648
Na       34.48744202     17.91229820     13.71759892
Na       37.28866959     15.76848125     13.75750732
Na       27.32431030     16.05257607     18.64343262
Na       29.82786942     13.28381348     22.96509552
Na       29.98991013     17.99348640     31.98895645
Na       32.08687210     18.18942833     29.85633659
Na       34.24386597     22.84457779      4.81218100
Na       27.48148537     23.10896111     11.84036350
Na       31.80652046     26.99439621     16.19367981
Na       29.58261108     22.77268219     18.47012711
Na       27.54931831     22.74141502     20.59982300
Na       24.81369019     22.42184830     27.48590660
Na       40.60344315     16.12185097     27.77099800
Na       27.53512955     22.86268806      6.85774422
Na       27.86150932     34.45944595     13.89244843
Na       25.43891716     27.12500191     22.93102646
Na       27.42532158     29.70734787     18.61004066
Na       31.93941116     27.28551865     25.15791702
Na       27.39369583     31.76764679     29.86103821
Na        0.15735880     -2.29875040      9.05576324
Na        2.28625369     -0.32215706      9.39137077
Na        0.17318773      4.64620447     16.22754669
Na       -2.42135358     -0.10811298     18.39239311
Na        0.51142293      2.33152676     22.96758842
Na       -0.21501788      6.55926418     22.84321022
Na       -0.06748369      2.19228148     32.18644333
Na       -2.14638829      4.43869066      4.72163439
Na        0.18310198      2.32492614      4.81676769
Na        0.04877495      6.80657959      9.36463737
Na       -4.62543058      4.71118164     11.33603764
Na        0.25871864      9.18856621     20.61216164
Na       -2.07331157     18.19686890     27.40582657
Na       -4.45842695     11.33654594     32.45439529
Na        0.45904112     11.55450344      4.45955992
Na        0.07985029     11.76983738      9.19096947
Na       -0.02353276     11.59078121     13.52651978
Na       -0.02470749     15.94200325     22.77607727
Na       -2.06447363     13.45484543     27.25416374
Na        0.03031151     11.24792862     27.14701462
Na        0.44933000      6.92728615     31.96590614
Na        2.51788139     14.09462643      8.97954369
Na        0.00513259     16.20801544     13.44527340
Na       -0.63681453     18.36098099     15.70571327
Na        0.24040012     13.94738865     15.94439697
Na        4.52986240     11.36959553     22.51202202
Na       -2.03564715     18.20171356     23.03329277
Na        0.43188956     16.02000046     36.43947983
Na        2.37475109     18.46398163      4.81323004
Na        2.55849671     23.12600327      9.19729996
Na       -0.11256225     25.53424644      8.75349617
Na        0.28688970     16.13264847      9.23337460
Na        2.38001418     18.02104187     22.83114052
Na        0.05475369     22.58023643     29.76092339
Na        4.77121544     25.10756493     27.80432129
Na       -4.73453856     24.47193909      0.68552536
Na        0.30520999     27.32465935      6.79350090
Na       -4.78483868     24.96161842     13.94581604
Na        0.04094361     18.29021263     11.59360600
Na        0.10755540     25.05380821     27.36288071
Na        0.15348276     22.85760880     25.33685303
Na        0.06108002     27.66687584     34.35413742
Na       -4.21445370     31.73484230      2.48657203
Na        0.34590217     27.47725487     11.69609833
Na        0.11820094     29.48314285     13.94894886
Na        4.74878836     27.25543976     20.86215401
Na       -4.32424021     31.46134377     15.85668278
Na        0.41656628     29.54584503     27.64133644
Na       -0.33736879     29.83438110     31.94981956
Na        9.40896416      4.76580381      2.60939670
Na        4.39347553      2.27670741      9.14274025
Na        5.07279301      0.22445451     11.68535042
Na        7.37486362      4.42924929     18.24193001
Na        4.45422935      2.29144692     23.14091301
Na        9.05968952      0.05564220     29.79550362
Na        2.40737963      4.42799425     32.10369873
Na        4.61327314      9.25510597      2.01282978
Na        4.35837841      6.76712227      9.13403225
Na        2.45238972     13.62651634     18.15209770
Na        9.45413685      8.99769306     20.56560135
Na        2.05449367      9.03247929     22.58296776
Na        5.04466772     11.67913723     27.67314720
Na        6.79288244      9.22277641     27.56216240
Na        6.93478203      9.22006226      4.50623608
Na        4.36202288     13.84618187      6.93903542
Na        4.53519630     13.42507553     16.10604668
Na        7.05844307      9.48442650     18.43493843
Na        4.51067734      9.31798077     24.87769127
Na       -0.20190850      9.34460068     29.66744041
Na        4.57794857      6.90666962     32.16642380
Na        6.87769365     18.42968750      4.73123074
Na        4.99461746     15.86512947      8.91899395
Na        9.51419926     13.06124020     11.13411045
Na        4.83789158     18.52486229     16.04506874
Na        0.09388893     18.29097557     20.74858856
Na        4.44183350     18.73600578     29.88002205
Na        2.41698241     14.29286003     31.90562248
Na        9.43398857     20.73739243      4.91405725
Na        7.05394125     18.20111084     13.87327766
Na        4.78118086     22.87257576     16.23618507
Na        0.35552207     23.08831024     16.21423721
Na        4.69593430     17.93158150     25.42739105
Na        0.13278289     20.58203125     27.50162506
Na        4.97984695     20.44489098     32.39725113
Na        4.66468620     27.24486732      2.25571394
Na        2.44057322     27.58903885      9.37909126
Na        4.43544102     25.12247467     14.03819942
Na        4.77622128     25.22661400     18.40761185
Na        4.75507927     25.27397919     23.36207199
Na        2.40842152     22.63681793     27.29396057
Na        2.37432504     22.59171867     32.23938751
Na        4.49614191     32.08238220      2.58382726
Na        8.67325401     29.90272141      9.07886124
Na        4.53564978     29.74455070     13.62335014
Na        2.45921922     27.04899406     18.49244499
Na        6.90046978     32.11276627     23.15304184
Na        4.70376635     27.50271416     25.09947586
Na       -7.05995417     27.36985016     27.27404785
Na       11.69207954      0.15683275      4.51661110
Na        9.22047997      0.79631716      6.90057087
Na       13.80544376      6.78415775      9.26147366
Na        9.23351479      1.96259081     18.47934914
Na       15.96597004     -4.42369413     27.69393921
Na       13.47339916      4.29154158     20.70025826
Na        9.03339481      7.16221380     32.34589767
Na        9.21042633      9.33139610      2.19530416
Na        9.47262859      4.78791094     11.49143791
Na        9.47723293     11.42284966     13.81282425
Na       13.91673183      6.64523554     18.55576324
Na        9.12618923      4.78989410     20.79142761
Na       11.29811954      9.09476948     27.57011604
Na        6.90281820      9.21800804     32.09785843
Na        9.04296970      8.96879101      6.95818901
Na        9.28627205     11.07121754      8.88868618
Na        7.45749903     13.55904770     14.03872681
Na       11.45498657     13.80914783     18.24847412
Na        8.99139023     13.67224598     20.86268044
Na        9.42435837      6.78209257     22.98248863
Na        9.29031754     13.70522213     29.76951408
Na        4.63481092     16.01768875      4.55844069
Na        9.37947941     18.69953537     11.52977848
Na       13.96367550     20.63131142     13.74862385
Na        9.53069210     18.58896255     20.80675888
Na        6.72007561     18.66899109     22.74754906
Na       11.21355820     13.48836803     27.22934151
Na        9.08528328     16.02469635     32.12147903
Na        8.89437199     23.01595116      2.22787952
Na        9.58090591     20.63135338      9.25951767
Na        6.99022722     22.84788704      9.01894379
Na        8.99019241     16.04212952     18.26180840
Na        9.21355534     25.27678108     22.86990166
Na        8.83674335     18.27000046     30.03815269
Na        9.14737701     23.05362129     29.71358871
Na        8.92078114     32.33666229      2.43027902
Na       11.32108402     27.65946198      9.10929394
Na        9.10509586     29.70453835     13.72682667
Na        4.46738386     27.37618256     16.29678917
Na        8.75817013     27.48172188     25.17896080
Na        9.56023312     25.22164726     27.33639908
Na        6.93598413     22.62213326     32.09251785
Na        9.53459263     29.88698578      4.55317354
Na       11.37678146     27.43039894      4.86842012
Na        6.92892170     32.34948730      9.17300224
Na        9.27306938     31.81986237     20.70429039
Na        9.04187107     29.67626381     27.69232941
Na        9.41831779     29.91894531     31.88838959
Na       15.95464039      4.36225367      0.12479064
Na       16.14884377     -0.01797846     13.74574947
Na       18.19510269      2.47780132     14.04897404
Na       16.15237236      9.05911636     13.71390533
Na       18.18871117      0.43060398     20.97659302
Na       13.99699783      4.60757971     25.38494492
Na       13.79709053      0.10215617     34.31409836
Na       13.42046165     11.49565697      9.02467346
Na       11.67764950      4.73520613      9.13806725
Na       16.45533371      4.58866167     13.72451496
Na       11.32815266      0.12420478     18.28982353
Na       16.32125092      4.82660770     27.81003380
Na        9.19570255      2.12105012     27.66502571
Na       17.92481804      1.90608346     32.29538727
Na       11.69266033     13.57642651      8.73221397
Na       11.46472359      8.64960480      9.45283508
Na       14.03626060     13.37100983     16.12942886
Na       14.16393757     11.26398849     18.59747696
Na       13.57861710     15.91600037     18.30956459
Na        6.83313608     14.02148438     27.12734604
Na       13.62280273      6.73134470     32.51486969
Na       16.05593109     13.76314163      4.89052296
Na       16.52916718     13.50465965      9.11539936
Na       13.73189354     11.24199104     13.60342789
Na       11.28380585     18.36788368     22.69087982
Na       13.70494270     15.73673916     22.75042915
Na       15.94917011     17.81271362     31.75695038
Na       11.69908524     23.09807014      4.85613966
Na       11.70064163     22.66267776      9.15337944
Na       13.65738583     15.83967972     13.93534184
Na       13.72526455     18.49575996     16.11029243
Na       14.04811668     18.78607368     11.58961010
Na       13.66143322     20.53529358     27.73822403
Na       13.94087219     22.66345406     34.50800705
Na       11.43509483     31.92173767      9.32954121
Na       13.89070797     27.57925224     11.11432552
Na       13.84259987     25.38697052     18.59068489
Na       16.11978912     22.85705757     18.23648262
Na       11.53689098     27.74890518     27.35034180
Na       16.04121590     23.34328461     27.60008621
Na       13.73343945     25.22284126     31.93399429
Na       15.83111382     27.37525749      4.61304140
Na       13.69263554     25.07185936      9.29671478
Na       13.83904076     29.47074127     13.53408432
Na       13.69185352     27.43947220     20.85170364
Na       13.86702156     29.60850143     23.02854729
Na       13.81087780     25.40663910     27.28868484
Na       11.38184929     32.36383057     32.24472046
Na       16.20009804      4.47289658      4.61283350
Na       15.77424622      0.05701853      9.35923672
Na       18.74541092      4.49947691     11.53129005
Na       23.14465141      2.14255667     18.87658501
Na       18.56248283      2.41779828     23.60000420
Na       18.41568756      2.32354856     27.69061661
Na       15.98815727     -0.43703240     31.71700096
Na       13.62144375      8.93606853      2.55791545
Na       16.13949013      4.88712645      9.04743004
Na       18.47660828      8.55905437     11.45566177
Na       18.72859764      6.83125973     18.40666389
Na       23.11698341     11.15639400     23.14876747
Na       18.15341568      6.87664938     27.34606934
Na       13.95462322      8.99615002     30.11189651
Na       18.35092545     11.26606750      9.61135006
Na       18.72477913      6.78418303      4.41263008
Na       18.36925507      9.01410675     16.05636597
Na       16.14719009     13.78447056     18.40273666
Na       13.17534637      6.75545502     23.09044266
Na       18.40974426     11.39437866     27.37209511
Na       20.84543037      8.98531818     31.85920334
Na       18.39583969      9.01401901      2.48364854
Na       18.31902885     15.77297306      9.16167259
Na       16.13536453     18.43641281     13.62951946
Na       18.52301979     14.01082802     16.04150772
Na       20.53206825     17.79569244     22.91836739
Na       18.30485153     18.21485901     29.73503876
Na       13.60577011     13.14373016     29.82793427
Na       18.32382965     20.61935806      4.73217249
Na       20.41904068     22.80471420      9.57259274
Na       22.59231758     22.93139267     11.33076859
Na       18.35057068     22.56348228     20.40933800
Na       17.94434166     20.50274086     18.26725769
Na       22.81891632     20.57307625     27.46800232
Na       20.37874031     18.15956688     32.40795517
Na       14.04157162     22.94265175      6.92318201
Na       20.43686104     27.61656189      9.24094677
Na       18.54966164     25.47824287     14.29239368
Na       22.95729828     22.45252800     25.07376671
Na       18.65464020     25.12614632     27.60312271
Na       18.25631714     22.90155602     30.07950401
Na       17.88117790     29.96942902      4.70560789
Na       15.97192669     27.61703682     18.63008881
Na       16.07084465     31.98000908     18.56426239
Na       20.47530174     27.60370636     27.51200294
Na       22.87588501     24.87124062     27.39805984
Na       13.84531593     27.66852760     34.26812744
Na       23.37636948      4.37417555      7.26502085
Na       20.86042976      4.68065310      8.95158672
Na       22.93527031      2.35780787     14.17788124
Na       22.73681259     -2.14376354      9.39104557
Na       22.85436821      2.20828390     27.89098167
Na       25.37508202      4.15300941     32.12824631
Na       27.26896286      6.65231991      4.84842443
Na       23.06557655      6.71046972      9.20612812
Na       23.05682755      6.80678558     14.05432224
Na       25.21000290      4.43252516     22.88872528
Na       23.00698471      9.26232719     20.85149002
Na       27.81441116      2.18625379     23.36675072
Na       27.36959267      9.10757637     34.39299393
Na       23.32794952     11.77927017      4.60561466
Na       23.10442543     11.62886143      9.10619450
Na       27.90963745     11.60581303     14.10313606
Na       20.46877861      9.10845280     18.36856461
Na       25.19275093      9.37884235     18.70530128
Na       22.99054527     10.91746998     26.94949532
Na       23.16518784      6.59113503     32.04140854
Na       20.88395309     13.49915504      4.62480831
Na       19.09041405     13.76030350      6.97109556
Na       23.15802574      8.99040604     11.47576332
Na       20.57565308     14.05154610     18.35200691
Na       27.82730865     20.50656509     27.57688332
Na       27.15463257     18.26133537     25.07663918
Na       22.92652321     13.53824425     29.99932861
Na       22.98126602     22.92902184      2.42873693
Na       23.18546867     20.86447525      4.53262138
Na       23.08156776     18.18998528     11.59913921
Na       22.36636925     20.46028900     18.47060013
Na       22.72847939     17.87995911     20.96150970
Na       20.59086418     18.49658966     27.51928520
Na       20.72991562     13.88766766     32.16535187
Na       22.57887268     20.48561668     -0.06420448
Na       22.60226822     27.57253456      6.92505121
Na       23.01610947     29.62458420     14.02789497
Na       18.46199036     29.92685127     18.70638084
Na       24.92958832     27.11594582     17.91163445
Na       22.89254951     27.37974167     29.83428764
Na       27.45731735     22.49450111     25.11808586
Na       23.25501823     29.88977432      4.60407257
Na       20.09833527     32.16247940      9.39442730
Na       20.54487228     27.65412140     13.48703384
Na       22.91911888     29.40045357     22.85973358
Na       18.09241486     18.41093636     16.12117577
Na       25.19655991     32.21474457     27.84544182
Na       18.71861076     31.91578865     25.39059067
Na       25.11464119      4.30550146      4.64451551
Na       26.99495125     -0.12034237      6.96476460
Na       29.69474411     -0.42490953      9.24610043
Na       27.58240318     -0.13551295     20.65541077
Na       27.30166245      4.84342480     15.95320988
Na       27.57773590      4.67386913     20.35885429
Na       27.47051048      2.09576631     27.42620850
Na       25.20420837      9.04687405     -4.38461685
Na       27.33271408      9.44944286      6.85999727
Na       25.25575829      4.60246563     13.67481136
Na       25.47251892      4.00990486     18.42098618
Na       25.05433464      8.54762363     23.13526917
Na       32.49680328      4.73574924     25.57474518
Na       27.43065262      6.68353224     32.17641068
Na       25.35751724      9.15402603      0.49640521
Na       27.84708214     14.02890873     11.58835793
Na       27.46007919      9.40741825     16.11432838
Na       27.63435555     11.47050571     18.51026535
Na       24.90453339     13.59668159     22.97487259
Na       27.31768799     11.42474365     27.68167686
Na       32.03195190     11.18751812     32.20388412
Na       27.57594109     13.21794128     -1.90835559
Na       27.25856400     14.56888485      7.02790117
Na       22.95446587     16.17996597     13.94052601
Na       32.20181656     16.14769173     18.56814003
Na       22.65449524     24.93835831     23.09008408
Na       25.36286736     18.29497719     27.63295746
Na       22.92031288     18.59125328      7.05078602
Na       27.54992867     20.80171013      9.65519905
Na       27.78176689     20.43618202     13.75672626
Na       26.93817139     24.71544838     18.48000526
Na       25.25031662     22.99893570     22.79000854
Na       27.50126648     18.08228874     29.87249184
Na       22.77778244     18.21065331     30.20267487
Na       29.77729416     27.44689751      4.62362480
Na       29.81464767     27.54378700      8.80584526
Na       25.27545166     27.43191147     13.63011074
Na       32.00328445     25.05925560     22.58689499
Na       32.39493561     29.70918083     22.95757103
Na       30.15467262     22.69408798     27.65258408
Na       27.25555229     29.37258339     27.68032455
Na       27.46210480     27.53580475      6.81263065
Na       27.58303642     34.08155060      9.20336819
Na       32.38072968     34.27939224     14.22095394
Na       27.58927917     34.05756378     18.54695129
Na       24.86029243     31.65312958     23.17186928
Na       29.67847443     31.87515640     27.50756645
Na       22.73149490     32.17608261     34.44227600
Na       -2.21136522     -0.11630491      0.31957147
Na       -0.10282286      2.46141028      9.11597443
Na        2.55439663      0.04107304     13.79098797
Na       -4.51410818     -2.53469419     13.46671104
Na       -2.18205953     -0.26958129     23.24442482
Na        4.90174484      0.06568518     25.06963730
Na        0.28486806     -0.14548145     25.40703964
Na        0.28389037      4.37075281      2.60995579
Na        0.25241700     -0.14994197      7.09652853
Na        0.46606481      4.32385540     11.42841148
Na        0.26629281      4.48256731     20.91791916
Na        2.83134580      4.35964489     18.28940010
Na       -6.46102047      4.57251549     28.11319160
Na       -1.85445940      4.39093399     27.47528076
Na       -0.06463906      8.73527527      2.28182578
Na        5.10494709      4.69426775      2.36204576
Na        0.76158971      6.93238449     13.82846928
Na        0.08922805     11.24716949     18.50747871
Na       -2.09690261      9.15357399     18.59960556
Na       -4.40734863      9.37040615     25.27048492
Na       -0.15428318     13.79056358     34.30385208
Na        0.13576737     15.99512291      0.03953804
Na        4.08888197     11.52784920      9.40470028
Na       -0.00607132     13.57019043     11.55859947
Na       -2.51628613     14.02053928     13.95750141
Na        0.24649972     13.48325825     20.84281349
Na       -0.16229144     13.17746639     29.68317795
Na       -4.31781626     18.63698006     34.13003159
Na       -6.74345493     13.76357269      4.44930649
Na       -0.03045330     23.11492348      2.16584301
Na       -4.75324345     16.02337074      9.42400455
Na       -0.01316233     22.93392944     11.40051174
Na        0.32742333     20.55785751     18.43995857
Na        0.15724942     15.76403522     27.62705421
Na       -2.19170284     22.85380745     36.39876938
Na        0.10325333     22.51507759      6.89976454
Na       -2.05303097     22.80422783      9.28789234
Na        2.39375091     22.87022591     13.79796600
Na       -4.23584414     16.11918068     13.94978046
Na       -0.03732882     22.18612671     20.45791817
Na       -4.34589767     25.13153267     27.70487595
Na       -2.44141126     22.55275917     31.92107010
Na        5.13874006     29.36511421      0.06886468
Na        2.47391558     27.65253448      4.42084980
Na       -9.33479500     27.27454185     11.45147419
Na       -2.26670098     27.31131172     18.39094734
Na        0.20062344     25.25074768     18.84357643
Na       -2.06999731     27.23554993     22.88265800
Na       -2.13869357     27.07160187     31.75942993
Na        4.67140388      4.60876942     -2.01339984
Na        6.64299345     -4.47667837     13.62132549
Na        4.86779881      2.72054267     14.04744720
Na        4.55125666      2.23437047     18.36876106
Na        4.59060001      0.03810689     20.53367043
Na        6.87053585     -0.05885416     27.66116524
Na        2.56121969     -0.01523340     32.38750458
Na        4.72194147      4.38909531      6.96466064
Na        5.00449181      6.71208906      4.37409163
Na        4.66792965      4.61981153     11.52240658
Na        4.87570286      4.89867401     15.85908413
Na        4.97091341      4.40387392     20.73731804
Na        4.34091759      6.74153852     23.18103027
Na        4.74146748      2.07837057     27.82810402
Na        2.54857945      8.61527348      4.57513523
Na        4.76589251     11.36576939      4.51876450
Na        4.42105103      9.04610443     11.58238506
Na        4.80475712      6.84532309     18.58074379
Na        6.96660137     14.00513458     18.35543633
Na        4.45926714      9.29747868     20.75310707
Na       -2.12655830      4.66431570     23.33979607
Na        4.96220016     13.76189709      2.14638686
Na        4.46856689     13.85597134     11.58800697
Na        6.93319798     13.69435215      9.25068474
Na        4.87081099     11.68280602     13.55006886
Na        2.47176957     13.02420235     23.05288124
Na        2.26462746     13.27361774     27.34848404
Na        4.90176868     14.10946178     30.01190758
Na        2.35292959     18.53669357      0.34388033
Na        6.96744776     18.14819717      9.40126228
Na        4.63963318     18.44939041      6.94655704
Na        2.14574814     18.45084572      9.28491402
Na        4.11180162     20.51369667     22.93030167
Na        4.60918856     22.86679649     25.39749908
Na        4.29726601     13.77474308     25.23923302
Na        4.12650681     23.12980843      2.44637108
Na        4.96420479     22.66154480      6.88565445
Na        4.78180504     25.06574631      8.79352379
Na        9.29763985     23.10208511     15.90352440
Na        7.08305693     22.87067795     18.42895889
Na        4.31513309     22.56000900     29.88573837
Na        6.96909237     22.44666672     27.43192673
Na        4.86934710     25.18546867      0.11915907
Na        4.76941776     29.53888321      4.73753309
Na        4.67613173     27.06272316     11.35824203
Na        4.78197861     20.35904503     18.28594971
Na        2.50732875     27.40283966     22.82946777
Na        4.96932507     29.68895912     22.62707901
Na        9.68007565     24.80483437     31.89784431
Na        6.93885183      0.19135465      0.06974315
Na        6.74615192     -0.27035430      4.60924625
Na        9.50748062      2.31671357      9.15320015
Na        9.39710903     -6.76435947     13.57305241
Na        9.18540955     -0.05017900     25.31194305
Na       13.52029419     -0.45487142     25.28576851
Na        9.56159306      4.52196884     29.84434700
Na        7.07657385      4.50213575      4.55079126
Na        9.37935734      4.70706415      6.98463535
Na        6.72075224      4.50570154      9.19472504
Na        9.65258026      9.23176479     16.19878960
Na       11.59438324      4.29377270     18.41238213
Na       11.31976604      4.53131628     23.12996101
Na        4.40163803      4.40955877     25.40260506
Na        4.21965790     11.56478882     -0.00965938
Na        9.39319515     11.55428791      4.64630985
Na        7.17952585      8.89518833     14.00562096
Na        4.85850716      8.92914009     16.12582588
Na       13.43101788      9.01847363     20.80155182
Na        8.72709370      6.83073282     27.80922699
Na        9.25093651      9.22161484     29.78636169
Na        6.85821676     13.88335323      4.65963221
Na        9.29552650     16.05607986      4.70665503
Na        9.50063038     15.75579071      9.42215347
Na       11.66232204     13.59352684     14.12296391
Na        6.88008881     13.92878246     23.06551933
Na        9.14338207     11.23001957     23.00889587
Na        4.19239140     15.91377544     22.85886383
Na        9.46523762     18.35825729      2.42012167
Na        9.29918766     23.03802681     11.28170013
Na        9.42921162     18.21541595     16.29836082
Na        6.86450958     22.63351822     13.64445591
Na        6.95359182     27.18982315     27.47199059
Na        4.75293970     18.13322639     20.41328239
Na        9.44533539     18.22896385     25.32484436
Na        8.90027046     25.05604172      4.29796028
Na        9.10478878     23.15202332      6.83162975
Na        4.35996628     27.57874870      6.83385706
Na        4.54422617     22.91140938     20.79566193
Na        9.23230171     27.37374306      7.01044130
Na        9.34629917     20.64846420     23.09701729
Na       11.41774178     18.21242142     27.74290657
Na        7.07013321     26.94439888      0.09638259
Na       13.47527695     29.81754494      9.04839420
Na        9.08132648     27.37639999     11.40390491
Na       11.52311039     23.05275726     18.08195496
Na        7.13930750     27.15579033     22.93753242
Na        9.18605042     34.45857239     23.06114960
Na        9.15570450      2.55995107      0.00741437
Na       13.26884747     -2.47775221      4.96574926
Na       14.14982319      9.02172565     15.91164589
Na        9.01615238     -0.18678539     15.96277237
Na        9.18466663     -2.38567591     18.50663757
Na       13.64265347     -2.18914795     27.72571373
Na       13.48711681      0.51167905     29.61859512
Na       11.76844406      4.44260454     -0.03106877
Na       13.86858749      4.41944838      7.04922009
Na       11.64023018      4.80523586     14.23834705
Na       13.90832996      0.26462165     11.46305084
Na       13.15911770     -0.37088627     20.85084724
Na       13.92770672      2.29004931     27.32829666
Na       14.00760555      2.54825544     32.34273911
Na       13.76074219     13.76626205      7.10108232
Na       14.44377708      6.51204824      4.53597546
Na       13.97841835      9.10832405     11.50677681
Na       14.22849274      4.16672516     16.47599030
Na       16.07386398      8.39541340     22.87974548
Na       13.81149960     13.82986355     25.43936157
Na       15.93954945      9.07983398     27.27456474
Na       13.86869144     13.65830898      2.37468457
Na       11.63822651     13.35710526      4.70459414
Na       13.56626892     13.47917080     11.54600906
Na       18.21799469     16.18821526     18.42970085
Na       11.54181862     22.94539452     22.83789635
Na       13.28129101     15.70934296     27.42758942
Na       11.71518898     13.85841370     32.05711365
Na       13.53876400     18.36911011      2.32308602
Na       13.85454750     20.60753632      9.30823517
Na       11.44236755     18.26583099     13.80534458
Na       18.31537628     20.80767059     13.71345043
Na       13.85316658     27.40277672     25.11155701
Na       15.99788666     17.82771301     27.37438202
Na       13.70136738     18.40180016     29.72695351
Na       13.84199047     25.44810486      5.10922432
Na       18.47083092     20.68521500      9.26990032
Na       15.89108944     22.67542458      9.45120811
Na        8.97418118     27.46319008     16.08122253
Na        9.13541889     20.67786598     18.30900192
Na        9.37993240     20.34973526     27.66238213
Na       11.64683342     23.05243492     28.00668526
Na       11.28550243     27.28688049      0.42197317
Na       18.37123680     25.18764687      4.78343010
Na       11.19321442     27.47332573     13.52162743
Na       16.25161362     27.72463989     13.97510910
Na       13.71884441     25.19083786     22.72975159
Na       11.62077332     36.55038452     27.88245964
Na       13.62464619     27.67306328     29.78189850
Na       13.48090458      2.34325099      4.46938801
Na       18.15961266      0.21873692      6.87153721
Na       18.15960693     -2.12241578      8.86685753
Na       18.10842705      0.01186577     16.22353745
Na       20.49067116     -0.13173972     22.70967102
Na       16.12570190      0.08836906     23.12715721
Na       18.40714455     -2.28508520     32.23649979
Na       20.74104500      4.35203409      4.42410326
Na       18.34602356     11.27622700      4.82133532
Na       17.95678329      6.91241789     13.95417786
Na       18.53502274      0.05241039     11.65397453
Na       16.38949013      4.70391130     18.30890083
Na       18.78539467      4.58879805     25.36563683
Na       18.19508362      0.00444861     34.33421707
Na       18.62244225      9.06437969     -2.11196995
Na       13.82183361      9.02857494      6.81011868
Na       13.33512974      2.20597649     13.28008556
Na       20.76647186      9.48214626     14.26369762
Na       16.11523628      4.56402731     23.14642525
Na       20.88846588      8.71692181     27.34402275
Na       14.13254929      6.80113792     27.56128120
Na       16.29516792     13.42902279      0.09836024
Na       18.00628853     18.39996910      6.90863991
Na       18.31827545     14.05584526     11.65421200
Na       18.48177147     11.51801777     13.68230724
Na       18.26285553     11.35915852     18.17218018
Na       20.68600273     13.63253498     27.62066650
Na       18.70630264     13.81978130     30.01132774
Na       18.66648865     15.87089252      4.79294777
Na       16.19098282     18.28242493      4.35561562
Na       22.86898422     18.18465614     16.29944038
Na       13.51868725     18.36591148     20.80623817
Na       18.25455475     22.88642693     25.20068932
Na       17.75477982     18.04558372     25.23493385
Na       18.01182556     15.78177261     27.49363327
Na       18.62523651     23.20704651      2.36199403
Na       16.17914391     23.36419487      4.69012594
Na       22.85445976     20.68411636     13.66960907
Na       22.74148369     25.19174957     19.12014198
Na       20.42120361     23.24486732     18.14472008
Na       17.99886894     29.64216805     27.44969559
Na       17.78403282     20.46229172     27.49225807
Na       18.42214203     27.68050194      2.42007351
Na       16.10178947     27.43707085      8.86765575
Na       18.21085358     27.43107796     11.57130814
Na       13.64425468     22.69368744     20.64383698
Na       22.75809288     27.15719795     20.97496605
Na       17.99456978     29.55808449     23.15831375
Na       18.59579468     25.18556786     32.07260513
Na       18.06544113     -0.24638157     -1.91981995
Na       22.87605476      2.16702580      9.41803455
Na       24.80041695      0.23864044      9.12885857
Na       23.27779770      4.97130489     20.86214066
Na       27.21540642     -4.67139959     20.65654564
Na       20.48566055     -9.37917995     27.26741600
Na       16.03742409      0.20649055     36.65800858
Na       23.17029572      4.10593891      2.32188702
Na       22.77506065      6.66333866      4.08132696
Na       22.85383606      4.53864479     11.64385796
Na       20.79028511      4.96580982     13.86128998
Na       23.21313858      6.73331738     18.54657936
Na       20.89778137      4.41302633     27.70026016
Na       27.68917084      1.92120051     32.28367996
Na       22.95458794      9.10508251      2.33818150
Na       23.06128693      8.97948265      6.87174273
Na       27.69918823      9.30270481     11.36363029
Na       23.06744003      8.84927273     16.16138649
Na       22.68376732     11.19050026     18.49114227
Na       20.81008911      9.02604294     23.07394600
Na       23.04456711      4.27154541     30.01403809
Na       23.17797279     14.10410404      2.35189915
Na       23.04888916     13.97145462      6.85794210
Na       25.29117775     13.88779831      9.24300385
Na       25.34329033     13.45611572     18.61246681
Na       22.99667931     13.13919258     20.90042877
Na       18.43495941     11.23353863     23.16542625
Na       25.15337181     13.47992802     27.88734245
Na       24.88329506     22.90290260      0.02890944
Na       20.44978905     18.68277931      4.83839083
Na       18.39632034     18.34453201     11.44116974
Na       17.73262787     23.13315201     11.43560123
Na       20.33836365     18.37199593     18.36897469
Na       18.36458588     20.38158798     23.06766701
Na       23.39778709     16.24939537     32.23818970
Na       22.20665359     22.65061569     -2.24751782
Na       23.27646255     16.08268166      9.46467018
Na       22.94578934     20.61684227      9.18163109
Na       20.49499512     22.66487312     13.45056820
Na       22.54002380     23.25916100     16.05442238
Na       20.57476425     27.45623589     23.27081108
Na       23.01072502     22.81208801     20.84952164
Na       23.10454178     27.02141380      2.35635281
Na       20.84390640     23.08471107      4.60646868
Na       22.51867867     22.50895691      7.04725409
Na       22.90376282     29.70841026     18.50408173
Na       27.66285706     24.93890190     23.21026421
Na       22.65231705     29.63526726     27.33758736
Na       22.53094673     25.03185654     31.86261177
Na       25.47423172     -0.30505109      0.07075603
Na       20.49276352     -0.34095314      4.86213875
Na       27.50698090     -2.37780142      9.61985588
Na       23.02915573      0.15767592     16.29753876
Na       22.72956657      1.85178220     23.07179642
Na       27.05478096     -0.08286082     25.21311569
Na       22.71055412     -2.39931512     32.41944504
Na       29.84684181      4.70906353      0.26232511
Na       27.25236702      4.28898287      7.00467873
Na       29.64445114      4.40447187      9.59320927
Na       24.93649483     -0.11199132     13.25611305
Na       31.86347961      1.89151645     18.61419868
Na       32.21529007     -0.29078111     29.82785225
Na       27.69593430      4.39500237     29.89718628
Na       29.54470253      9.41383457      4.79198074
Na       29.74440956      9.39813423      8.93937683
Na       25.49590683      9.70898533      9.23460102
Na       31.72021675      9.13642788     16.08570671
Na       27.45574570      6.86354160     23.22458649
Na       29.88089752      8.90923119     27.71891785
Na       27.56596375      6.79949570     27.55110359
Na       25.03093529      9.06657124      4.90029144
Na       20.73193169     13.56529522      9.40587616
Na       25.27628899      9.02431297     14.28580761
Na       25.18696594     13.72146988     13.87706566
Na       29.66576767     18.47080994     18.47300339
Na       20.53252220     13.21078777     22.93238258
Na       27.76796532     15.80084324     27.84076881
Na       32.09491348     18.27175331      2.35574412
Na       29.71100426     18.11016846      4.82041359
Na       27.59681129     18.01005745     11.53617191
Na       27.47714043     18.11179733     15.97254181
Na       27.46216202     15.89513206     23.65513611
Na       29.76195717     22.38596916     22.96834755
Na       27.38720322     16.05016136     36.57913208
Na       25.52670860     22.98999596      4.52691031
Na       27.46521187     25.04995537      9.35685253
Na       29.79870987     26.87024117     13.66311359
Na       27.32331657     22.89332962     15.95171642
Na       27.43731499     20.37508011     17.96077156
Na       26.95123672     20.28947830     22.84156036
Na       27.28955460     20.32545471     32.17627716
Na       27.58546638     29.61983299     -0.01955521
Na       25.32970810     27.54737282      4.73554945
Na       27.20058823     27.09118652     11.22047520
Na       27.71837044     27.24310684     16.21270180
Na       32.20963287     32.13576508     16.16651344
Na       27.66460228     29.76198769     23.16615677
Na       29.75743484     27.26958466     27.36413956
O         0.12626649     -0.14609519      4.63081360
O        -0.08594862     -0.03070584      9.34520149
O         0.21577765     -0.04814949     13.75032043
O        -0.25999093     -0.13780214     18.06134605
O         0.25904363     -0.13506378     22.91700745
O         0.14419337      0.01974017     27.73262405
O         0.32202730      0.01905307     31.99247742
O         0.09174286      4.61982298      4.90150738
O         0.30694929      4.50157022      9.28430271
O         0.25389621      4.70362186     13.89926052
O         0.22812229      4.52859688     18.55968285
O         0.05820544      4.43831730     23.16787910
O         0.35509986      4.48564720     27.67783928
O         0.21290016      4.51794338     32.04703140
O        -0.04367723      9.07403374      4.65823841
O         0.12205335      9.23065948      9.17493820
O         0.16362923      9.31775951     13.93252850
O         0.05850985      9.08946991     18.24417114
O        -0.00715357      8.99596214     22.91271973
O         0.12978001      9.17668247     27.40939713
O         0.01379028      9.03406048     31.90959167
O         0.03396433     13.78305054      4.65906620
O         0.43461275     13.99896049      9.30909157
O         0.09329645     13.91772175     13.76098442
O         0.04637900     13.50277424     18.44400406
O         0.10745808     13.84114933     22.85002899
O         0.11811475     13.58943558     27.49391937
O         0.22350456     13.41307735     32.15889359
O         0.28148219     18.40749550      4.77194023
O        -0.26960674     18.28962135      9.05407715
O         0.35703760     18.27040291     13.63964844
O        -0.06213010     18.36933899     18.33324814
O         0.02067460     18.03007126     23.13762093
O         0.33525640     18.09851074     27.54496765
O         0.12277837     18.16266823     32.21393585
O         0.01655970     22.80367279      4.56690979
O         0.23324797     23.12549973      9.11767483
O         0.20716129     22.68820381     13.80608845
O         0.17730041     22.73535347     18.53057861
O         0.16149117     22.37970734     22.82394600
O         0.14667571     22.74706459     27.48234367
O         0.23501623     22.97720146     31.97405624
O         0.22574247     27.42832375      4.56478739
O         0.09345946     27.68657875      9.17471695
O         0.01753224     27.21575737     13.79709244
O         0.24080899     27.44150352     18.46214485
O         0.13945186     27.27544975     22.93921661
O         0.20921856     27.28499985     27.51252365
O         0.08726526     27.42194176     32.14027405
O         4.57573986     -0.09499609      4.74189329
O         4.86698961      0.06747268      9.04029846
O         4.50999403     -0.13882987     13.85518932
O         4.73464108     -0.09763119     18.32088280
O         4.92790270     -0.05173525     22.90662956
O         4.76546717     -0.01992607     27.47817230
O         4.64837074      0.04334606     32.25776672
O         4.76761580      4.46571398      4.52933168
O         4.65437412      4.63903093      9.41373444
O         4.63628674      4.84005117     13.65541077
O         4.88990641      4.59748507     18.37098694
O         4.40771627      4.57242537     22.88265610
O         4.77419424      4.77037048     27.60965538
O         4.64573956      4.64132166     32.14451599
O         4.72982979      8.89321613      4.64593029
O         4.41873789      9.10962200      9.19841385
O         4.61362028      9.27111626     13.96124649
O         4.59108591      9.04683399     18.58951759
O         4.73378038      8.79920959     22.67514801
O         4.74015093      9.23628139     27.41964149
O         4.58935785      9.15859413     31.75450516
O         4.72326040     13.86655521      4.65400934
O         4.54847288     13.68463707      9.07549286
O         4.53520632     13.78197098     13.75018692
O         4.76101685     13.49844360     18.18751335
O         4.47337484     13.77315521     22.78144073
O         4.76093292     13.79757023     27.79367256
O         4.74594355     14.02284813     32.04949188
O         4.70950317     18.48491478      4.58272123
O         4.72450399     18.27322769      9.12302303
O         4.80993223     18.18242645     13.77005577
O         4.74793100     18.20091629     18.31960678
O         4.52054501     18.22511292     22.88413811
O         4.64739609     18.56451607     27.61652565
O         4.59596109     18.31794167     32.16765213
O         4.76321077     22.93953514      4.80424213
O         4.77193499     22.93840599      9.28353310
O         4.57028389     22.77206802     13.88588524
O         4.62766171     22.97708893     18.44738579
O         4.54214096     22.84998703     22.98695564
O         4.68413258     22.90606499     27.68846321
O         4.59855890     22.63778877     32.17638397
O         4.97206640     27.33432961      4.57101011
O         4.67841482     27.23376846      9.26225090
O         4.55520964     27.50772095     13.84232712
O         4.71940708     27.30828857     18.63220406
O         4.78616333     27.33678627     23.06651688
O         4.53306961     27.58176994     27.48290062
O         4.79386616     27.30905533     32.05638504
O         9.37902451      0.01190214      4.76073217
O         9.18337345      0.13685893      9.06792164
O         9.10040283     -0.08558346     13.86529160
O         9.01759052     -0.09896368     18.34082794
O         9.16090012      0.12318703     22.91113472
O         9.19390774      0.00967837     27.53928375
O         9.02126598      0.15683651     31.90514374
O         9.37261486      4.65188599      4.87233877
O         9.15564919      4.88354301      9.24773026
O         9.39320183      4.56308937     13.74478149
O         9.34723568      4.55682325     18.20806313
O         9.09101486      4.74362373     23.08546066
O         9.31677341      4.38939047     27.51001167
O         9.07707787      4.87606001     31.99889183
O         9.12787819      9.29022694      4.71404219
O         9.22791004      9.13963413      9.50939274
O         9.35005093      9.12436581     14.02415276
O         9.28615856      9.40746975     18.20956421
O         9.39792824      8.94535637     22.93664169
O         9.04720116      9.20337200     27.37700081
O         9.08219242      9.40403461     31.90739822
O         9.21666050     13.71547127      4.54274940
O         9.35634232     13.61159039      8.98475838
O         9.45232391     13.41856956     13.45755005
O         9.14592171     13.92701244     18.70425606
O         9.09743595     13.66790390     23.10716248
O         9.09459972     13.82785702     27.53793526
O         9.50680256     13.75377846     32.03852844
O         9.18589497     18.49720192      4.75406837
O         9.26730919     18.07056236      9.31398582
O         9.38748455     18.36498070     13.87542915
O         9.38000870     18.23184586     18.35198402
O         9.05201912     18.21056175     23.19299698
O         9.23427582     18.37739182     27.87243271
O         9.00164986     18.28619576     32.16384888
O         9.29149055     22.94931030      4.60069180
O         9.38905811     23.04874802      9.09367752
O         9.14658642     22.87594414     13.69804192
O         9.50063229     22.95857620     18.13182259
O         9.04638958     23.11257172     22.93414116
O         9.13756275     22.74069023     27.60961533
O         9.30187321     22.75810623     31.87433434
O         9.30669880     27.63838005      4.68776321
O         9.16889000     27.35418129      9.25815678
O         8.83306313     27.59129333     13.68904591
O         9.31352806     27.45754433     18.25956917
O         9.31960583     27.27435493     22.99393845
O         9.18703079     27.34947395     27.40236664
O         9.13212299     27.35384750     32.07439041
O        13.84276962      0.04785789      4.76133871
O        13.64191723      0.11149395      9.21001816
O        13.71012783     -0.12543866     13.66100693
O        13.58078671     -0.04709166     18.64280319
O        13.78275871      0.04682097     23.18774033
O        13.75979805      0.08362915     27.48045731
O        13.71876812      0.30972061     32.23543930
O        14.00175858      4.39839458      4.96513796
O        13.77937698      4.54708433      9.54579163
O        14.03154469      4.43424368     13.84383202
O        14.14479256      4.26137257     18.61709023
O        13.59718323      4.39055014     23.15812111
O        13.95702744      4.67838287     27.63877678
O        13.74246502      4.58987856     32.10234451
O        13.54762459      9.01643085      4.69213724
O        13.62310123      9.27963066      9.07357883
O        13.89834023      8.76347065     13.68231773
O        13.98532963      8.82421112     18.58106613
O        13.79142189      8.81171322     22.93736839
O        13.75245571      9.04772282     27.91808510
O        13.59475422      8.99355698     32.26377106
O        13.91300488     13.74591446      4.53362370
O        13.70510292     13.73980618      9.31033802
O        13.87815762     13.55215549     14.02985954
O        13.68457222     13.60411072     18.45752907
O        13.88563347     13.34198284     23.11733627
O        13.57567787     13.39476395     27.58101082
O        13.89212608     13.61852169     32.01932526
O        13.70310974     18.63808060      4.62046242
O        13.93851280     18.30202103      9.33025360
O        13.71164036     18.39747810     13.74472046
O        13.72826576     18.05461311     18.40758514
O        13.45706558     18.30377769     23.05418396
O        13.76105118     17.81550407     27.41595840
O        13.61130619     18.13888168     32.00149155
O        13.81078434     23.32687569      4.78871346
O        13.73086452     22.79345512      9.27150536
O        13.90823269     23.05717468     14.00890636
O        13.68329334     23.02518082     18.49061584
O        13.70294857     22.72051620     22.67893982
O        13.95192814     23.05537033     27.74509621
O        13.90085983     23.05485725     32.33697510
O        13.51840401     27.45638657      4.61179590
O        13.57602024     27.48152924      9.15406036
O        13.97875404     27.32152176     13.62803173
O        13.93203926     27.54946136     18.24990463
O        13.87537193     27.39767075     23.04903221
O        13.82414818     27.70915413     27.20837784
O        13.64925671     27.74160576     32.06689835
O        18.23002243      0.04550581      4.49271011
O        18.10711670      0.01299431      9.13669777
O        18.33045006      0.30306166     14.18440819
O        18.33379936     -0.07241935     18.55059814
O        18.43371773     -0.23964007     23.08610344
O        18.08579254     -0.17094125     27.89935875
O        18.31257820     -0.21288650     32.06932068
O        18.72904968      4.60937881      4.62999725
O        18.38450813      4.60016823      9.37367821
O        18.45809174      4.54177189     13.84992027
O        18.40798378      4.67022800     18.49049759
O        18.31206703      4.59423304     22.88354301
O        18.40927887      4.55894613     27.77181244
O        18.41574287      4.26539898     31.96114922
O        18.52142715      9.00680828      4.62249851
O        18.71254730      8.98369980      9.06540012
O        18.35049057      8.89376450     13.84225178
O        18.23611832      9.01839828     18.23005295
O        18.36926842      9.01868629     23.05274391
O        18.57407761      9.09325886     27.57464409
O        18.56813812      9.19487953     32.00128174
O        18.67267227     13.43661404      4.81900549
O        18.52551842     13.85624313      9.23612309
O        18.36588478     14.02375126     13.94493866
O        18.26265335     13.62748909     18.14784431
O        18.36387634     13.54749680     23.00350952
O        18.58370972     13.63542747     27.66771507
O        18.30766869     13.74515152     32.19892883
O        18.24327087     18.18168640      4.58675766
O        18.49767685     18.26526833      9.18721294
O        18.38912582     18.39749527     13.60954762
O        18.18758774     18.10006332     18.41675568
O        18.02720642     18.18692398     22.76162338
O        18.16988373     18.00913620     27.43204308
O        18.29408073     18.21153450     32.25105667
O        18.56752396     22.88397980      4.60119963
O        18.18492508     23.04024696      9.35514450
O        18.25742722     22.97665787     13.71726894
O        18.22529793     22.71656609     18.15397835
O        18.33154488     22.69177437     23.12219810
O        18.21370316     22.74204636     27.55378723
O        18.21593285     23.00079346     32.08894730
O        18.46079636     27.56258392      4.76496315
O        18.38207817     27.58601379      9.26243687
O        18.52227592     27.64317131     13.77044773
O        18.26848030     27.56407356     18.46850967
O        18.42278481     27.33763885     23.01715660
O        18.35688400     27.38673019     27.69745445
O        18.32604408     27.44985390     32.34410858
O        22.92134476      0.11577691      4.83877850
O        22.65342903     -0.01276184      9.27256298
O        22.90086174     -0.15326853     13.96776581
O        22.81009293     -0.13984346     18.48809433
O        22.74875641     -0.32584378     23.09289932
O        22.50622559      0.05976761     27.80546570
O        22.73401070     -0.11079053     32.22413254
O        22.96023750      4.40445137      4.76682377
O        22.91421890      4.35259247      9.36000633
O        22.99590302      4.39617682     13.84237576
O        23.23987007      4.46985817     18.69535065
O        22.92780304      4.42854166     23.06566048
O        23.07226753      4.40858746     27.52281952
O        23.15872192      4.18763018     32.11117554
O        22.89819336      9.17564583      4.36843872
O        23.28784561      9.08594894      9.07143593
O        23.06458664      9.25056839     13.88145256
O        22.73416328      8.97213173     18.41451263
O        22.94097710      8.71869946     22.82966042
O        23.03222275      9.04975986     27.73122787
O        23.29430962      8.92863560     32.16176605
O        23.17597008     13.97653103      4.62106514
O        22.88809967     13.89135456      9.29369545
O        22.87760162     13.78239727     13.74139118
O        22.76886749     13.52883816     18.77242088
O        22.85804558     13.27889824     23.25649452
O        22.86384773     13.18792915     27.60419655
O        23.29736900     13.78137684     32.25588608
O        22.92101097     18.48764038      4.60688400
O        22.98966789     18.30023193      9.21524906
O        22.84547043     18.33045197     13.82148457
O        22.86184311     18.25886726     18.51231003
O        22.92103577     18.01872063     23.03833771
O        22.75805664     18.10834694     27.42430687
O        22.51157379     18.21169281     32.22050858
O        22.81441116     23.03424263      4.91099072
O        22.94665718     22.86831093      9.24095440
O        22.71376801     23.02032089     13.98761177
O        22.75760841     22.97392082     18.52138138
O        22.82486153     22.81838036     22.87618446
O        22.58111000     22.70072365     27.46637726
O        22.57077026     22.83730316     32.16427612
O        22.99563789     27.48053932      4.60837460
O        22.88989449     27.33256721      9.02593231
O        23.01311684     27.44065857     13.95034313
O        22.90564537     27.49640083     18.78836250
O        22.90195274     27.32459641     23.24865341
O        22.70010948     27.18462372     27.48883247
O        23.01391220     27.46329308     32.17571259
O        27.38478279      0.17746864      4.82264996
O        27.26821136     -0.13865298      9.11790562
O        27.74512100     -0.24906336     13.78151512
O        27.35391426     -0.21191065     18.35102654
O        27.18498039      0.03470811     23.15307617
O        27.50089455     -0.09673756     27.58469200
O        27.41694260     -0.03202292     31.87386322
O        27.60618973      4.51028395      4.62203360
O        27.42043114      4.26901293      9.22606277
O        27.44007683      4.97237825     13.70759296
O        27.71561050      4.53879309     18.17161179
O        27.47971916      4.64273214     22.81118774
O        27.65331268      4.29747486     27.56706619
O        27.70313644      4.48201418     31.98268509
O        27.14550209      9.33961582      4.60215378
O        27.58949280      9.37648487      9.15910721
O        27.46174622      9.22077179     13.99323750
O        27.48604965      9.04608917     18.33236885
O        27.64539146      9.05420876     23.15353394
O        27.50775719      9.14045238     27.72162437
O        27.49072266      9.04754543     32.01607513
O        27.41330910     13.74358082      4.57157755
O        27.66587830     13.98217487      9.36130619
O        27.52393532     13.93964386     13.84634209
O        27.41972542     13.59706116     18.62227631
O        27.41281700     13.74994755     22.97945595
O        27.53072739     13.68211269     27.67030907
O        27.51072311     13.71871090     32.35405350
O        27.66531754     18.34655380      4.41535664
O        27.23410797     18.34381485      9.17737579
O        27.32308388     18.39950180     13.79470634
O        27.47344017     18.17062187     18.40266800
O        27.46004486     18.03377151     22.98768234
O        27.59559441     18.39063644     27.25235939
O        27.64917183     18.34474182     31.90438843
O        27.70950508     22.99409294      4.79585838
O        27.51268005     22.84835434      9.64474297
O        27.22248077     22.99210739     13.87694645
O        27.25167274     22.51115608     18.45178032
O        27.27080917     22.46443748     22.82210350
O        27.82093811     22.80405617     27.50539017
O        27.49237633     22.63319016     31.70647049
O        27.50120544     27.34795570      4.48299789
O        27.36669350     27.33972549      9.14326954
O        27.28043365     27.16277122     13.45194626
O        27.17966270     27.22371674     18.38497353
O        27.65607071     27.23469543     23.01362419
O        27.50236893     27.19718361     27.34758568
O        27.46537781     27.63170052     32.00273132
H         1.62249672      1.69901049      1.70623386
H         1.78555691      3.05604053      3.21614218
B         2.35953689      2.37824082      2.49834991
H         3.13828588      1.81696343      3.26124954
H         3.14168096      3.10454297      1.82079172
H         1.39789808      1.28893840      6.19788980
H         1.49826753      2.82763839      7.57619905
B         2.18185592      1.86329317      6.95033264
H         2.94620538      1.30620694      7.65929985
H         2.83256388      2.79709768      6.32880020
H         3.27140641      2.72486997     11.45595360
H         1.76656353      1.35760856     11.40072632
H         1.65997708      2.88668299     12.97468281
B         2.48347306      2.07826209     12.15536880
H         3.29800797      1.38623381     12.83947086
H         3.17124200      3.09227061     15.22416592
H         1.57794869      1.51903200     15.18727970
H         1.68124533      3.02585936     16.63442612
B         2.39755893      2.22814631     15.78114796
H         3.03397512      1.69318461     16.56357002
H         3.19742990      2.78697276     19.93901443
H         1.72496569      1.38373125     19.97226143
H         1.66505480      2.81363821     21.35793114
B         2.44795179      2.12075496     20.59758377
H         3.15922427      1.38869143     21.29306030
H         3.11396718      3.09263587     24.57120323
H         1.82649446      1.75804019     24.58823586
H         1.69516397      3.20693278     26.01132202
B         2.39209795      2.33138442     25.40167809
H         3.26062799      1.59434605     26.04368591
H         3.35665464      3.13658905     29.11385536
H         2.00397110      1.66458905     29.09417725
H         1.96654749      3.19369006     30.53579330
B         2.54769325      2.55182767     29.72879219
H         3.28093052      1.75999081     30.40296745
H         3.15459633      7.36002254      1.55024350
H         1.57734358      5.84041595      1.54655540
H         1.77889037      7.16216373      2.83747554
B         2.49626112      6.51340866      2.09534454
H         3.04371238      5.95498848      2.92445016
H         3.15142393      7.16685200      6.17660522
H         1.78173673      5.95093918      6.24843311
H         1.58487391      7.29188681      7.52811432
B         2.44757342      6.56374884      6.91612387
H         3.24962592      5.78090906      7.50128174
H         3.18945479      7.46010876     11.07364559
H         1.64913106      6.06991005     11.04188442
H         1.77372885      7.36727190     12.32397175
B         2.52255392      6.60426331     11.76551628
H         3.27055120      6.02057505     12.49790478
H         3.35167313      7.70218945     15.62364960
H         1.95529854      6.38073206     15.46942616
H         2.07062769      7.74108315     16.77388763
B         2.72966909      6.97996807     16.16957664
H         3.48235559      6.40427303     16.86567497
H         3.11143351      6.03137159     21.26307678
H         2.98861575      7.35562038     19.73680115
H         1.63159192      6.08099985     19.66361237
H         1.56016290      7.50023842     21.28487778
B         2.27330709      6.65380573     20.59609222
H         2.92784452      6.19244051     25.87569618
H         2.84624696      7.70589066     24.44159889
H         1.54266858      6.20516634     24.37272644
H         1.54914701      7.76828384     25.85649109
B         2.26302695      6.93203783     25.19144821
H         3.06046391      6.51473331     30.47309303
H         3.10651088      7.91530704     28.96837234
H         1.70177233      6.48402357     28.98370743
H         1.76029956      7.84144258     30.44527435
B         2.57320046      7.23974371     29.73837852
H         3.49022865     10.89276314      2.88222384
H         3.39304662     12.43726635      1.54157341
H         1.92708611     11.05555725      1.60718596
H         1.82628155     12.47245884      2.82023358
B         2.68646812     11.74514580      2.23665833
H         3.26549959     10.59717751      7.41122293
H         3.20371056     12.05991173      6.21896076
H         1.76516843     10.62028027      6.18027401
H         1.72245657     12.14130974      7.43083239
B         2.48180914     11.33290958      6.84689665
B         2.42467260     11.68178558     11.78044987
H         3.02679706     11.03330898     12.69305611
H         3.06929183     12.42467308     11.09232903
H         1.84410059     10.97205257     11.07356739
H         1.82972527     12.45781040     12.76868820
B         2.16402054     11.30461693     15.96353817
H         2.98462296     10.74634457     16.69519424
H         2.84851456     12.10840607     15.36516285
H         1.33099377     10.72229290     15.20500278
H         1.41384184     12.18571949     16.63639832
B         2.46635628     11.29940510     20.64175987
H         3.06673145     10.59568691     21.29355431
H         3.13710785     12.04696083     19.88182449
H         1.71153271     10.57753468     19.93404770
H         1.71643424     11.98983574     21.30680656
B         2.38564539     11.25797462     25.28078079
H         3.16470146     10.57906723     26.00385666
H         3.17819715     12.05581951     24.51811218
H         1.70284188     10.59750652     24.55004692
H         1.70575941     12.02096653     25.98250008
H         1.78814125     12.61630154     30.81319046
B         2.46187162     11.97689915     29.94199181
H         3.07808924     11.13697624     30.55845070
H         3.22972393     12.51319695     29.20051384
H         1.95109534     11.04519081     29.26036453
H         1.85267806     17.02696037      3.01256704
B         2.59529352     16.21330643      2.44532394
H         3.26690054     15.54774284      3.14075994
H         3.24345636     17.13171005      1.73864830
H         1.79198062     15.61523914      1.78269923
H         1.69953978     16.71765137      7.53606653
B         2.27250290     16.07962036      6.71426773
H         2.95715785     15.47289562      7.51875544
H         3.05350208     16.79668617      6.14850187
H         1.57557464     15.33161926      6.10356998
H         1.58358645     16.64866447     11.91309357
B         2.28081846     15.99971008     11.20211601
H         3.03363419     15.21211147     11.83519936
H         3.13239622     16.66953087     10.47953701
H         1.67039907     15.22102737     10.58721447
H         1.43382823     16.59573364     16.57768822
B         2.36008954     15.86455345     15.99933052
H         3.12345743     15.17302895     16.67849350
H         3.03302598     16.60610580     15.25352955
H         1.50034249     15.34034729     15.33041763
H         1.90665019     15.22025681     19.83824158
H         1.97913945     16.70255280     21.38239861
B         2.56625652     15.97496223     20.52721214
H         3.06219101     15.31883335     21.35631180
H         3.10429573     16.71856880     19.89471436
H         1.61808777     15.02910805     24.73100090
H         1.72313666     16.46525955     26.14574242
B         2.33463335     15.90418053     25.32368279
H         2.89076352     15.08600998     26.19388962
H         3.06077528     16.68341827     24.61789322
H         1.67189729     15.59642887     29.04772949
H         1.88494289     16.79146767     30.60333633
B         2.37199545     16.17074394     29.73083878
H         3.11906958     15.76978302     30.64303017
H         3.16600585     16.87809563     29.17414665
H         1.63600981     19.68176270      1.72309196
H         1.68046415     21.08680916      3.21326041
B         2.34065866     20.22469330      2.52552819
H         3.09559202     19.69355583      3.24592161
H         3.01118279     21.03506088      1.81929445
H         1.45089388     19.80122185      6.34792233
H         1.35582006     21.03076172      7.79147530
B         2.13800073     20.41177177      7.11292839
H         2.93489718     19.69989204      7.79773092
H         2.89463401     20.99675369      6.28685570
H         1.65027857     20.08923531     10.92859268
H         1.64749813     21.58639336     12.17610264
B         2.37124681     20.75049400     11.69964504
H         3.03685880     20.01817322     12.24438381
H         2.91401410     21.53182983     10.98037624
H         1.98768163     19.65215111     15.33738708
H         1.97021770     21.16896820     16.98598862
B         2.63245726     20.51321030     16.05526924
H         3.25409627     19.81326485     16.80741119
H         3.44251394     21.17880821     15.31008339
H         1.75064743     19.21347237     19.86708450
H         1.85585880     20.91981125     21.29993248
B         2.38560605     20.02044487     20.60412216
H         3.21140909     19.33614159     21.28247643
H         3.14769101     20.83863449     20.05347252
H         1.43022454     19.75171280     24.36937141
H         1.56358898     21.13314056     25.74494743
B         2.21638560     20.44515419     25.10893440
H         2.97147250     19.79288292     25.83714104
H         2.95764828     21.21150970     24.42436600
H         2.86639857     21.36461639     29.07852745
H         1.33015418     19.96147728     29.06019402
H         1.41993487     21.29317093     30.52046013
B         2.05583072     20.64553833     29.72458458
H         2.79726458     20.04894447     30.52277374
H         2.59827352     26.15747833      1.64432895
H         1.18782341     24.76081848      1.56314111
H         1.26587665     26.16061401      3.09713912
B         1.87101889     25.46736336      2.43377972
H         2.69751668     24.74276352      3.19324780
H         3.15316772     26.07889175      6.11528158
H         1.60439336     24.74184799      6.18556404
H         1.58784938     26.02515221      7.49954176
B         2.48041058     25.31434441      6.80088615
H         3.14177108     24.68296432      7.54188347
H         3.15663505     25.83280754     10.68419647
H         1.82170916     24.47950935     10.71598244
H         1.83081126     25.79192162     12.26789665
B         2.47319388     25.11917305     11.47428322
H         3.12384272     24.48051643     12.27599144
H         3.02924633     25.76335335     15.48099709
H         1.72282207     24.11499786     15.38731575
H         1.73061049     25.84924698     16.60125542
B         2.37586284     24.87089348     16.03512573
H         3.09429479     24.14363098     16.58041191
H         2.88640523     25.65915108     19.70444870
H         1.68261981     24.28312683     19.70172119
H         1.65922105     25.68527603     21.20016289
B         2.35329771     24.90709686     20.37769699
H         2.97821689     24.19404221     21.26585007
H         3.25102210     25.55411148     24.72330284
H         1.83429110     24.18694115     24.71664238
H         1.87196541     25.52309799     26.22343636
B         2.54724646     24.81537056     25.44773483
H         3.19663572     24.24798584     26.20006371
H         3.24617672     25.97620773     29.21787071
H         1.78957009     24.55869484     29.23540306
H         1.78546798     25.96277809     30.63497543
B         2.52877426     25.30564308     29.91827011
H         3.33541489     24.45192528     30.73764420
H         3.05463243     30.22643471      1.56055403
H         1.77458501     28.74764442      1.54439712
H         1.71681416     30.30036354      2.78094125
B         2.38531828     29.55535507      2.20721626
H         3.13305759     28.68537521      2.78543878
H         3.04806805     28.85585022      7.68396330
H         3.05903864     30.37420082      6.24279261
H         1.63629317     28.98506737      6.38298035
H         1.61759722     30.25271034      7.57344198
B         2.51000953     29.70503998      7.05038023
H         3.11461067     29.01845360     12.05357933
H         3.01006269     30.44635010     10.84942150
H         1.62861598     29.13411140     10.86052799
H         1.61078310     30.45307732     11.95575809
B         2.40635109     29.64713287     11.52618790
H         3.16858482     28.70576859     17.11290359
H         3.11163735     30.29350853     15.70234585
H         1.81788135     28.68309402     15.62272263
H         1.86067247     30.33034134     17.09278870
B         2.48099136     29.41766167     16.44930840
H         2.97836781     28.74935722     21.62666893
H         2.80526304     30.13480377     19.90089607
H         1.57322919     28.99045563     19.96888924
H         1.52263272     30.11740875     21.43617058
B         2.34213114     29.50256348     20.91065025
H         3.22038555     28.98053741     25.93702698
H         3.28871202     30.54531479     24.48684692
H         1.85182643     28.97716331     24.55179977
H         1.90700877     30.42518044     25.88521957
B         2.62248659     29.62586403     25.23213768
B         2.21321344     29.60100365     29.85163498
H         2.94502735     28.90806770     30.62006378
H         2.90898514     30.42177963     29.08668900
H         1.58207822     28.95045090     29.09302902
H         1.59463871     30.40287971     30.56512260
B         6.94045115      2.32242680      2.47401071
H         7.50951052      1.67989075      3.30410624
H         7.53701210      3.02985024      1.83615541
H         6.15549040      1.61351943      1.79728556
H         6.26798868      2.95622134      3.25797892
B         6.93510437      2.06845474      6.94641638
H         7.52337217      1.39772844      7.71202517
H         7.50513983      2.80971479      6.24818802
H         6.05026674      1.43547380      6.26770115
H         6.09744167      2.74302697      7.62710524
B         7.00923061      2.34436393     11.39284706
H         7.68160629      1.55726027     11.98877716
H         7.72287416      3.04453015     10.65870190
H         6.39920425      1.59599340     10.73870373
H         6.32544756      3.03828526     12.02380085
H         6.18566370      3.08045983     16.93351936
B         6.77784729      2.27838063     16.10766411
H         7.50272846      1.59005773     16.94289780
H         7.55424404      3.14135528     15.39703560
H         6.12038565      1.53415954     15.39265347
H         6.33728027      2.81230593     21.54233932
B         7.07448864      2.10251355     20.63642693
H         7.69609213      1.64214003     21.48489571
H         7.81388044      2.87265205     19.93008804
H         6.30898762      1.55640483     19.96214104
H         6.11996841      3.44413614     26.08681488
B         6.67292547      2.73547816     25.37397385
H         7.32878685      2.06885338     26.14371490
H         7.26199436      3.43424487     24.59569931
H         6.04626560      2.05205178     24.51210403
H         6.38302422      3.12941170     30.52908516
B         7.22712374      2.49773741     29.79636192
H         7.81812239      1.69972146     30.45358849
H         7.87950230      3.11529493     29.01920128
H         6.53744411      1.77864385     29.15950394
H         6.13568687      7.49957037      3.02764583
B         6.83606005      6.86923838      2.28417706
H         7.47781658      6.05179834      2.98910952
H         7.51842356      7.50164080      1.52877116
H         6.20005369      6.07762909      1.59520853
H         5.99386311      6.14500523      6.28865576
H         6.07469511      7.39455986      7.74178743
B         6.78244829      6.70623446      7.06969833
H         7.41163826      6.09220409      7.87542105
H         7.46952391      7.58607864      6.17796898
H         6.03562403      6.00381613     10.52081203
H         6.16427517      7.49615765     12.02979279
B         6.77524757      6.78619671     11.28291035
H         7.53943872      6.17136049     11.99090004
H         7.61572647      7.53355265     10.61206818
H         6.30422401      6.27807999     15.68846703
H         6.27787352      7.70884418     17.20149994
B         6.86417580      6.97494745     16.36900330
H         7.48702002      6.31666470     17.13656425
H         7.56605768      7.72294712     15.64801311
H         6.48080730      5.73869610     20.33466530
H         6.41158724      7.27484655     21.71476555
B         7.10777998      6.50941896     21.06453133
H         7.81801939      5.61747932     21.76676369
H         7.80898809      7.31781197     20.22248077
H         5.99146175      6.42412519     24.61822510
H         6.02701473      7.72674465     26.19072723
B         6.75917387      7.08174801     25.36462212
H         7.38058472      6.41373777     26.23666763
H         7.41348219      7.80558157     24.57494164
H         6.07894659      6.36167908     29.27893066
H         5.96301222      7.82017660     30.76176071
B         6.63982964      7.33388805     29.86402321
H         7.20014524      6.46484709     30.54265785
H         7.44646645      7.84739494     29.13577652
H         6.35277081     10.94731140      1.70532608
H         6.36535025     12.31339359      2.87625051
B         7.10874081     11.60342598      2.47775888
H         7.94004726     10.79658318      3.03955841
H         7.85303497     12.38968849      1.64161003
H         6.39193344     10.39848423      6.23726273
H         6.38108015     11.99947929      7.66598988
B         7.05518293     11.23883247      6.99285889
H         7.82360458     10.46445656      7.58916473
H         7.82972527     11.92877483      6.29711390
H         6.30552530     10.86650467     10.74777603
H         6.24261332     12.12630844     12.04266071
B         7.06163454     11.60650730     11.29495430
H         7.63995218     10.79232883     12.05392456
H         7.80495024     12.30257034     10.50860310
H         7.59616756     11.69521141     15.30559063
H         6.11467838     10.48641682     15.23367405
H         6.03932190     11.84248543     16.78565788
B         6.73705626     11.03779984     16.02765274
H         7.64806128     10.50644016     16.69027710
H         7.63273859     12.40735912     20.02112579
H         6.24003601     10.96621609     19.98242188
H         6.28695345     12.39914513     21.49688911
B         6.91679573     11.72090912     20.71016884
H         7.56081295     11.07684612     21.43317795
H         7.43841457     12.19528484     24.21843529
H         5.94970703     10.80983734     24.17381287
H         5.89854288     12.29107094     25.56581688
B         6.63931608     11.64034271     24.90417671
H         7.40625954     10.88661480     25.43787384
H         7.58370590     12.09143734     29.24782562
H         6.12505293     10.57641983     29.26125717
H         6.12257147     12.08048630     30.60149002
B         6.77581024     11.31846142     29.91861153
H         7.58609104     10.56060219     30.61482620
H         7.72238255     16.80081367      1.56488669
H         6.44786978     15.56256771      1.54309177
H         6.29981995     16.97065735      3.01406503
B         7.06587076     16.09601402      2.38923311
H         7.88464165     15.42210293      3.00647902
H         7.92195892     16.63428116      6.16750956
H         6.49625254     15.25723648      6.24141502
H         6.50013971     16.55648994      7.42644119
B         7.26055098     15.80537987      6.84125137
H         7.96020126     15.14508820      7.54247618
H         7.63375282     16.51132202     10.97369671
H         6.23068714     15.11926270     10.82339478
H         6.21246958     16.67984200     12.27194309
B         6.79374981     15.90092945     11.57787418
H         7.63719988     15.26611805     12.10686970
H         7.84236622     16.42869568     15.33083248
H         6.45854521     15.05844879     15.37971973
H         6.44675398     16.39159966     16.87156677
B         7.23443985     15.80711174     16.10749054
H         7.80956268     15.04236412     16.87586021
H         7.46626425     16.71261024     19.91521454
H         6.08029985     15.29780483     19.99649811
H         5.97731972     16.73430824     21.35223007
B         6.68183899     16.11160660     20.65256691
H         7.39959812     15.28318787     21.26386642
H         7.72571611     15.42167950     26.09391594
H         7.78741455     16.83922768     24.41339493
H         6.37684345     15.40143967     24.45485306
H         6.49709606     16.67751694     25.99390411
B         7.16277742     16.05763245     25.22796631
H         7.31554031     15.28354740     30.39388275
H         7.24099159     16.78074074     29.02468300
H         6.02822638     15.45842552     29.12501526
H         5.79802895     16.91060638     30.44920158
B         6.58409691     16.13897896     29.85533333
H         7.54255915     19.93765259      3.28139091
H         7.53519487     21.53682518      1.92731404
H         6.07620239     20.07160950      2.05390835
H         5.98070431     21.50572968      3.24293065
B         6.82261038     20.74913979      2.74824905
H         7.59287119     19.93832207      8.03872013
H         7.76073599     21.40036011      6.66182613
H         6.18884706     19.91031647      6.80168533
H         6.13911819     21.31023026      8.11645508
B         6.89216137     20.70144272      7.37371159
H         7.70057249     19.92988014     12.16683960
H         7.86108446     21.29603004     10.79829597
H         6.55897045     19.90692329     10.93585014
H         6.40093279     21.31651497     12.34783554
B         7.14971352     20.68994522     11.58439350
B         6.92111111     20.66147614     16.06709480
H         7.59171295     19.96210480     16.91014481
H         7.60478210     21.37581062     15.30772495
H         6.22334433     19.91563988     15.27432919
H         6.29648590     21.33606529     16.88346863
B         7.15041256     20.79980278     20.47469521
H         7.88070679     20.17454147     21.10703278
H         7.92462587     21.51233101     19.77165222
H         6.38881826     20.08636093     19.72739220
H         6.47654343     21.46886635     21.10748672
B         7.17340708     20.49126625     25.38683891
H         8.05596066     19.68486214     25.92588806
H         8.03304672     20.91742325     24.61938286
H         6.51696777     19.74516678     24.65676880
H         6.38644743     21.01055527     25.99610329
B         6.72344208     20.63189125     29.85201263
H         7.59787560     19.98229980     30.54163361
H         7.64038944     21.19808388     29.29386711
H         6.00403357     19.88355827     29.23763847
H         6.02629662     21.23204803     30.61811256
H         5.84503937     25.74518967      3.26736283
B         6.51050186     25.00219154      2.56565547
H         7.35352135     24.44316673      3.27519131
H         7.25936413     25.65886116      2.02760124
H         5.81293488     24.41889000      1.90916765
H         5.99922895     25.82595634      7.48813629
B         6.71957541     25.07428169      6.93552542
H         7.51092625     24.35698700      7.57166195
H         7.34635019     25.74490738      6.20319366
H         6.05149412     24.49277878      6.17440891
H         6.20359039     25.69434929     12.42852116
B         6.86407471     24.89012146     11.69028091
H         7.64317846     24.36927795     12.42567635
H         7.54497242     25.59329796     10.95695782
H         6.13441992     24.29726219     10.78673744
H         6.44163895     25.60240936     16.90825462
B         7.26640558     25.15601158     16.02502251
H         7.90391922     24.37368584     16.79843330
H         8.08164120     25.67030525     15.35686779
H         6.49419022     24.31641579     15.47731781
H         6.49808550     26.00610161     20.76851654
B         7.00187206     25.15245056     20.11662865
H         7.86168385     24.63002014     20.86480713
H         7.71651316     25.95722198     19.56220436
H         6.30993557     24.53816032     19.32517433
H         6.12431335     24.35776711     24.51207924
H         6.05730009     25.78888321     25.79121399
B         6.83418655     25.07658195     25.17078209
H         7.52505922     24.20106506     25.88090134
H         7.44910002     25.80261230     24.43133926
H         6.12326670     24.46493340     29.16437340
H         6.15905380     25.68362999     30.65549850
B         6.89669228     25.04928780     29.93648720
H         7.60832453     24.53170204     30.62451744
H         7.62080479     25.66513062     29.21866417
H         6.50436115     29.20995903      1.69610596
H         6.41206741     30.65369606      3.15419149
B         7.02820110     30.03253746      2.38727093
H         7.73951244     29.21617317      3.05568576
H         7.83580208     30.65147972      1.60602880
H         6.05849838     28.79069901      6.40289879
H         6.02866220     30.22615242      7.69752884
B         6.84445000     29.44679832      7.12912416
H         7.55529499     28.72305107      7.73534107
H         7.59669924     30.30536842      6.29384613
H         6.22754860     28.87014580     10.38442898
H         6.43743420     30.53243256     11.79499149
B         6.89108467     29.63268089     11.17201233
H         7.65695906     28.98855782     11.88646507
H         7.60278320     30.56973076     10.55701733
H         6.46579266     28.83030128     15.67871857
H         6.42834663     30.30263519     17.00288010
B         7.16223240     29.55953789     16.29581451
H         7.72563839     28.83233643     16.96339607
H         7.81935501     30.35686874     15.58703804
H         6.33375883     28.81172752     19.76570129
H         6.17268181     30.09498978     21.09664154
B         6.97084808     29.52287102     20.36625099
H         7.49207592     28.65835190     21.08893967
H         7.56076813     30.15598106     19.54363251
H         6.40694714     29.14510536     24.26246834
H         6.50724554     30.37469673     25.71337891
B         7.16386271     29.84915543     24.97177887
H         7.76882839     29.21792030     25.74086380
H         7.78357601     30.41692924     24.32053566
H         6.15122747     28.97355270     29.11818504
H         6.00634480     30.36280060     30.65246773
B         6.78920937     29.54362488     30.02254868
H         7.56140232     28.87744904     30.60368919
H         7.45907545     30.21169472     29.12440681
H        11.75736523      3.00499892      1.57009172
H        10.30100822      1.50592005      1.69164121
H        10.20048904      2.98396897      2.93586826
B        10.96039581      2.20414376      2.36611700
H        11.74468899      1.39704657      2.94422174
H        12.26203537      3.20968938      6.13715553
H        10.98931694      1.77769458      6.11710215
H        10.99219322      3.22686529      7.54224491
B        11.52804279      2.57887387      6.74376488
H        12.20694542      1.85283732      7.46997881
H        11.89969921      2.72878957     10.70999146
H        10.45486832      1.26724494     10.69948292
H        10.33997345      2.85419273     12.03787327
B        10.96042442      2.10950446     11.31044006
H        11.81334496      1.36410701     11.82611752
H        12.64477921      3.14146948     15.32972050
H        10.97575855      1.82974470     15.35302639
H        11.12715912      2.96676302     16.54430580
B        11.96002579      2.28028989     15.97435570
H        12.73381805      1.71740079     16.80805016
H        12.01882362      3.02763128     19.92224503
H        10.69825172      1.63812101     19.92615891
H        10.57437038      3.14759803     21.33742332
B        11.30585861      2.39891028     20.63426590
H        12.01822472      1.63480592     21.21685791
H        12.25426865      2.78251123     24.47430420
H        10.80456352      1.40077066     24.67766953
H        10.68637562      2.69733357     26.05678940
B        11.42438030      2.22824454     25.23188782
H        12.01823997      1.43343306     25.90593719
H        12.34046745      2.85592580     29.27805519
H        10.82205772      1.60803950     29.19504929
H        10.98013878      2.78084850     30.68649292
B        11.58193398      2.14489174     29.92477798
H        12.37127590      1.66023445     30.79237938
H        11.91117764      7.70603132      1.89869797
H        10.45386887      6.37154579      1.85120118
H        10.57024670      7.63714981      3.16389227
B        11.26583004      6.92887974      2.49056959
H        12.03932858      6.29089260      3.36092353
H        12.20397377      7.57934904      6.16839314
H        10.80117893      6.29716158      6.21204090
H        10.75677967      7.58010101      7.37852573
B        11.53890419      6.90970755      6.86289597
H        12.32502460      6.13246202      7.49882555
H        12.30063343      6.10476112     12.47319126
H        12.22441196      7.58257771     10.91795921
H        10.99750423      6.17337656     10.91035461
H        11.04869175      7.53899717     12.35338974
B        11.62124252      6.88137960     11.62941551
H        12.25563145      6.21072197     17.15879440
H        12.29287624      7.60844040     15.74631691
H        10.77814484      6.16229343     15.73513317
H        10.91171646      7.48605204     17.07365227
B        11.52970886      6.69046164     16.37422752
H        12.18156815      5.84857559     21.28640747
H        12.11690426      7.24722195     19.87694359
H        10.74875641      5.88494921     19.84865189
H        10.70093155      7.32333755     21.29785919
B        11.41223335      6.55686426     20.61617470
H        12.02463341      5.76665831     26.11768913
H        11.90003490      6.95988274     24.72419357
H        10.51134300      5.74162626     24.57456398
H        10.50149727      7.11935902     26.15256500
B        11.20651340      6.43247080     25.36084175
H        12.27021313      6.15518904     30.51829147
H        12.21000671      7.50217915     29.21541023
H        10.77907848      6.08903265     29.08904648
H        10.77413464      7.63348675     30.58938980
B        11.42742348      6.82958603     29.89199066
B        11.32756233     11.58231163      2.31230092
H        12.14925003     10.88682365      2.94055986
H        12.01977825     12.20753002      1.58345890
H        10.63358593     10.86780453      1.43496895
H        10.63287067     12.35673523      2.96029425
B        11.65059566     11.14161873      6.70085573
H        12.35960579     10.34438705      7.38328648
H        12.36602783     11.84648132      5.91921759
H        10.96497345     10.41434383      5.99559450
H        10.95418739     11.78089142      7.32411718
B        11.78527355     11.19698238     11.49798775
H        12.48430729     10.50755119     12.09734440
H        12.64346409     11.77846813     10.80834293
H        11.00952053     10.44176006     10.90170860
H        10.93222523     11.76239777     12.24043083
B        11.80814075     10.98568630     15.95020962
H        12.32259178     10.29592609     16.71023369
H        12.59040356     11.60668468     15.28552628
H        11.01533890     10.19319439     15.45060539
H        11.00250626     11.45443916     16.82579803
H        10.79080391     12.05850601     21.47811127
B        11.56297398     11.40141964     20.85948944
H        12.30342197     10.65801430     21.46965218
H        12.28892708     12.03555298     20.21858788
H        10.78437710     10.64312935     20.18920898
H        10.33037949     11.81893730     26.05931473
B        11.13674641     11.13139153     25.34055328
H        11.77348328     10.44670868     26.07306290
H        11.80566597     11.86486816     24.59199524
H        10.33754921     10.46762562     24.64509583
H        10.81688499     11.99867058     30.38974762
B        11.53897858     11.28529739     29.72489929
H        12.14503479     10.56112766     30.52160454
H        12.15195751     12.13744926     28.94883919
H        10.77605915     10.65215969     29.04679489
H        10.78872967     16.62186241      2.95794940
B        11.73862267     15.91799545      2.42315102
H        12.24580097     15.01150990      3.01260257
H        12.26366901     16.69438362      1.64412570
H        10.86427689     15.14170933      1.79219520
H        10.85396957     16.57791328      7.89558887
B        11.62279224     15.90788746      7.17056417
H        12.29552937     15.27699471      7.95459604
H        12.26740551     16.60879707      6.44996786
H        10.82948971     15.31152153      6.45637226
H        10.67566586     15.08206463     10.84591675
H        10.90142155     16.39929199     12.20114803
B        11.58261871     15.77363300     11.43733406
H        12.32300186     15.31710434     12.19186401
H        12.45279026     16.51979828     10.95116711
H        11.01953125     15.44074249     15.06765938
H        11.08219147     16.96050835     16.44971466
B        11.59634495     16.14958382     15.78491020
H        12.35606384     15.49250889     16.46060944
H        12.40246487     17.01780510     15.07302284
H        10.40677357     15.33893967     20.10135078
H        10.34534359     16.79168129     21.50405121
B        11.10432148     16.18283653     20.76299286
H        11.89680958     15.33809471     21.44346428
H        11.89321041     16.72749901     20.10410500
H        10.56666756     15.15225029     24.80400658
H        10.53361416     16.41846466     26.14699745
B        11.33695316     15.80627155     25.44886589
H        12.03712177     15.08718491     26.17901039
H        12.04465485     16.45800972     24.73140717
H        10.78333092     15.25909901     28.90172577
H        10.81859303     16.70885277     30.54593849
B        11.40196705     16.04349136     29.65929222
H        12.13997078     15.35834503     30.48195839
H        12.20909119     16.71399117     28.93185043
H        11.20089912     19.78625870      1.68628132
H        11.21537781     21.33509064      3.25082421
B        11.72708130     20.62344551      2.48527527
H        12.41532898     19.88393021      3.16762900
H        12.42499447     21.26156044      1.77429008
H        11.02548885     19.81817818      6.42393827
H        10.96675301     21.34950638      7.74170732
B        11.64060783     20.55828857      7.17834425
H        12.28783417     19.81734848      7.68380070
H        12.26511478     21.26888275      6.44582796
H        10.87133217     20.00345039     10.82171249
H        10.86618805     21.39105034     12.24958515
B        11.52400112     20.61759186     11.54049873
H        12.28120518     19.95512390     12.29276848
H        12.27453899     21.42756844     10.78005123
H        11.13017082     19.92677116     15.36598301
H        11.02601242     21.26830292     16.86527252
B        11.66766071     20.71574020     16.02342796
H        12.28362560     19.96855164     16.71933365
H        12.40905476     21.24779129     15.28233528
H        12.04880905     21.43953323     19.96635056
H        10.86833000     20.12780952     20.05343819
H        10.75032043     21.47045517     21.37609673
B        11.51350594     20.67086220     20.73574829
H        12.16809750     19.92143250     21.46446228
H        12.47187424     21.69413948     24.74042702
H        10.79535103     20.38286209     24.89594841
H        10.80753040     21.52643585     26.26742935
B        11.60614204     21.02558136     25.53476715
H        12.29589939     20.40331268     26.25915718
H        12.45211792     21.58601952     29.36758614
H        11.03402805     20.12856674     29.39093971
H        10.99842644     21.59826660     30.51510620
B        11.74807167     20.82061577     30.00240898
H        12.47865677     20.07867432     30.52939796
H        12.26471043     25.50025558      1.68253982
H        10.96631908     24.14044380      1.50558364
H        10.95382309     25.68970680      3.02611995
B        11.52908134     24.82058334      2.34130192
H        12.44127274     24.14083672      3.01323009
H        12.10070992     25.79119301      6.24574900
H        10.62415600     24.36729622      6.39313173
H        10.46672726     25.80123901      7.88637161
B        11.31989765     25.06591797      7.20988035
H        11.99962521     24.32099915      7.77524137
H        12.22948837     25.98416138     10.82072735
H        10.67800045     24.54848480     10.85025692
H        10.71259689     25.92003250     12.12415504
B        11.44736004     25.31313705     11.48756504
H        12.15629673     24.59214592     12.11509037
H        12.18213749     26.15279388     14.98037052
H        10.94145203     24.88742638     15.01181316
H        10.79364204     26.26915932     16.57837868
B        11.46204853     25.66942406     15.71903038
H        12.18470383     24.85341644     16.46457863
H        12.26603889     25.76267815     20.09477425
H        10.79660130     24.46320152     20.17184448
H        10.68751431     25.79469299     21.53656769
B        11.54727554     25.18450356     20.94663239
H        12.25134754     24.40082169     21.48986244
H        12.46534252     25.66463852     24.72416306
H        10.96810341     24.37948227     24.61151886
H        11.03083324     25.71455002     26.11194801
B        11.73610497     25.08810806     25.39167976
H        12.51371574     24.44374847     26.11041069
H        12.29545212     24.81737518     30.52942467
H        12.33928967     26.06587410     29.10770607
H        10.75276089     24.81426430     29.14843369
H        10.74028683     26.03762245     30.54500771
B        11.57875347     25.51260948     29.90910912
H        12.06398487     29.31023407      3.23169160
H        11.96865559     30.77782631      1.67334938
H        10.71220779     29.41143036      1.67921531
H        10.71125698     30.77291107      3.13144755
B        11.45462322     30.08833694      2.47830462
H        12.20133972     28.99989128      7.86489391
H        12.04498959     30.29487419      6.46101189
H        10.61434746     29.06079102      6.36556101
H        10.63326550     30.37140656      7.78507710
B        11.30189419     29.60177422      7.13859653
H        12.10049057     29.03614616     12.48188400
H        12.11699772     30.37203026     11.05644798
H        10.64912128     28.88339806     10.92020798
H        10.74433804     30.41305351     12.53941441
B        11.37223148     29.69584084     11.73615074
H        12.05869961     29.06794357     16.99078751
H        12.12557220     30.34793472     15.39413357
H        10.62119484     29.08675766     15.47981739
H        10.64873505     30.23470879     16.94443512
B        11.52479458     29.70723724     16.27805138
B        11.27739429     29.50392914     20.71116638
H        11.99384880     28.89439964     21.36824036
H        11.96028900     30.18486404     19.96176147
H        10.56385708     28.80658913     19.84038925
H        10.63205242     30.23804092     21.38785553
B        11.65869713     29.73281670     25.02968025
H        12.31948853     29.09750938     25.81385803
H        12.25346851     30.43141747     24.31359291
H        11.15399170     29.01888084     24.16894531
H        11.16194820     30.56810951     25.88452911
B        11.48845863     29.86526871     29.58423996
H        12.35866547     29.21496582     30.35256195
H        12.30897808     30.60811424     29.00557327
H        10.77111721     29.07205772     28.81297684
H        10.88086414     30.69095993     30.38572311
B        16.03476143      2.20644259      2.58605742
H        16.74068260      1.42972565      3.23285222
H        16.77869797      2.88849974      1.73995066
H        15.35621452      1.44044280      1.78868222
H        15.30186176      2.89412117      3.27648854
H        15.54746819      2.98893237      7.90337133
B        16.19425774      2.31988525      7.23489285
H        16.73543358      1.37905049      7.83620310
H        16.88524628      3.07157469      6.51174068
H        15.64035892      1.40477121      6.68727160
H        15.14718246      3.09629917     12.50028801
B        15.92801571      2.48040128     11.59565926
H        16.49517059      1.71173728     12.39659119
H        16.64170837      3.13913918     10.89543629
H        15.24722099      1.70807874     11.03831482
H        15.49753666      2.87361026     16.69232368
B        16.16539383      2.08731794     15.99688911
H        16.79303551      1.44540477     16.90001869
H        16.81483269      3.10310316     15.52186966
H        15.28444862      1.44001198     15.53827572
H        15.43472672      2.69473886     21.47022247
B        15.85433674      1.92803693     20.66328621
H        16.58415222      1.23289263     21.28955078
H        16.69515228      2.62506771     20.19598770
H        15.38298416      1.00047898     20.07457352
H        15.82967663      3.29587007     26.02180672
B        16.45998383      2.36373401     25.34383011
H        17.27731323      1.62856507     26.04745293
H        17.10445786      3.14866114     24.61492348
H        15.93062305      1.75515652     24.56865883
H        15.35729313      1.12226176     29.17191505
H        15.46258068      2.47302985     30.76787949
B        15.98971462      1.73554122     30.04444695
H        16.84622765      1.20328414     30.79214287
H        16.83248901      2.48355699     29.26667786
H        15.62570667      6.06089687      1.23054218
H        15.79218197      7.62726355      2.79932642
B        16.25135994      6.85785484      2.03582883
H        17.00510979      6.20046377      2.82623363
H        16.94661522      7.59567547      1.42860472
H        15.44223499      5.70425701      6.29038143
H        15.36886406      7.14440870      7.47860241
B        16.08044052      6.42547464      6.98318052
H        16.83578300      5.66727638      7.44221163
H        16.87368774      7.14592171      6.21549702
H        15.42115402      6.17622662     10.61691666
H        15.37709713      7.58001614     12.21731186
B        16.08191490      6.86197472     11.43389034
H        16.68456268      6.17846107     12.17102051
H        16.67709732      7.52625895     10.62661743
H        15.15019035      6.04384708     15.48596573
H        15.20488358      7.27810144     16.91249847
B        15.92521572      6.53179836     16.25344467
H        16.73476219      6.00723743     17.00380135
H        16.60821152      7.24285555     15.57590580
H        15.16364765      5.70559835     20.21878624
H        15.23025322      7.12995148     21.61125183
B        15.94149208      6.46338987     20.83369064
H        16.70589828      5.79806948     21.58538437
H        16.77059174      7.16877794     20.24656487
H        15.43745422      6.04120302     24.49523354
H        15.33685684      7.48939323     25.95210838
B        16.02933502      6.79211664     25.21642876
H        16.87486839      6.05889940     25.83381271
H        16.86850739      7.36473608     24.51929283
H        15.25971794      6.01006842     29.08087921
H        15.15796661      7.30803204     30.52284622
B        15.93937492      6.74214458     29.85633469
H        16.55414772      5.88226366     30.54890060
H        16.53344345      7.31338120     28.97377968
H        15.25969887     10.44194221      1.92438173
H        15.29177475     11.94813538      3.27559042
B        15.94070148     11.22716713      2.55576563
H        16.69298363     10.52255821      3.22705150
H        16.73098183     11.93759537      1.96699882
H        16.57558250     12.23991203      6.55917692
H        15.23957634     10.91900444      6.44821692
H        15.21020889     12.38023853      7.95278025
B        15.84750557     11.61871147      7.28770638
H        16.66486359     10.94068050      7.90173769
H        16.95641708     12.26547050     10.90482044
H        15.43020725     10.97278595     10.88469696
H        15.45487881     12.26092243     12.22641087
B        16.16834641     11.58393860     11.59940052
H        17.00840187     10.94092274     12.28294468
H        16.84663582     12.00219440     14.95602417
H        15.32687187     10.68642521     15.03615665
H        15.41497421     11.83395863     16.49016953
B        16.30424881     11.21194172     15.81084442
H        16.82229614     10.63063145     16.63406754
H        16.61607361     11.80996704     20.11090851
H        15.19081211     10.27935219     20.29452324
H        15.23833942     11.57882595     21.58880234
B        15.91830254     11.06163692     20.83189392
H        16.39435959     10.31745338     21.59822655
H        16.77054977     12.11184406     24.85818481
H        15.21214771     10.51430893     24.81330299
H        15.31445694     12.05441666     26.42813492
B        15.90871906     11.40539265     25.51245499
H        16.57232094     10.75741768     26.28733444
H        17.02363586     12.02111721     29.34784317
H        15.45196247     10.52446270     29.46412849
H        15.45701122     11.89978409     30.74228096
B        16.23655510     11.24601460     30.13558769
H        16.91660309     10.51520920     30.75658226
H        16.85346603     16.83901405      1.49321651
H        15.43238926     15.44423676      1.49504066
H        15.40563202     16.86394691      2.96572328
B        16.07588959     16.19146156      2.30627871
H        16.91211700     15.38376236      2.99944210
H        16.69636536     16.74490356      6.21930981
H        15.40004253     15.35713959      6.19570303
H        15.24013233     16.92841911      7.66383982
B        15.99058628     16.11510468      7.00373745
H        16.74059296     15.33651829      7.52455139
H        17.00648880     16.59792137     10.99768353
H        15.59706116     15.46947575     10.87154865
H        15.53030872     16.79080772     12.49996853
B        16.13918304     16.11658096     11.70957375
H        17.05243492     15.54966354     12.35302925
H        16.96275139     15.59462929     16.68612671
H        16.99683189     16.93633652     15.32724762
H        15.48540115     15.47507954     15.24178123
H        15.66748333     16.83972168     16.62359238
B        16.37674332     16.25095940     15.96138191
H        16.54360962     15.24141884     21.43350792
H        16.57748795     16.59694672     20.14128685
H        15.10592556     15.13636971     20.07011223
H        15.19617653     16.57786751     21.44830513
B        15.76427650     15.81110001     20.71302795
H        16.64608383     15.08126259     25.56877899
H        16.66909599     16.44400406     24.31227875
H        15.16877174     15.06632900     24.32035828
H        15.12400055     16.48069763     25.62848282
B        15.92897034     15.83836365     25.05180168
H        16.62990570     15.31877327     30.22511673
H        16.51628685     16.63398743     28.75867844
H        15.05700874     15.34635925     28.67264366
H        15.06905556     16.70797539     30.18548393
B        15.85019684     15.93439484     29.47007942
H        16.82735252     19.92074203      2.88006902
H        16.95573616     21.26668549      1.57089293
H        15.40609741     19.79568100      1.57421446
H        15.38476658     21.28469467      3.02646089
B        16.17985153     20.62145996      2.24816585
B        16.18735504     20.89891434      7.04028416
H        16.92324638     20.11038208      7.61515808
H        16.90582466     21.53180313      6.31624889
H        15.44323063     20.18455315      6.37299871
H        15.37441635     21.54386902      7.60980129
B        16.13971710     20.55425072     11.59367943
H        16.81158066     19.98196220     12.24726200
H        16.73656654     21.18554878     10.78796959
H        15.31212234     20.03587151     10.76686573
H        15.31856441     21.20020866     12.18691063
B        16.03035927     20.79487038     16.07412910
H        16.76105309     20.05688095     16.69512939
H        16.81343079     21.50403404     15.54730320
H        15.29073620     19.96487045     15.50766754
H        15.39179516     21.44261169     16.68608284
B        15.92521191     20.52662277     20.48809433
H        16.39631271     19.82242584     21.26676178
H        16.55007935     21.35101128     19.81353188
H        15.15484142     19.72337723     19.86824799
H        15.25822353     21.19291306     21.26243019
H        15.29617977     21.22239494     25.66473198
B        15.95388889     20.45946693     24.95317841
H        16.56925774     19.69651222     25.66343307
H        16.59949493     21.25133133     24.28695488
H        15.29780960     19.69684219     24.31752205
H        15.11832142     21.08648491     30.64202690
B        15.85076904     20.43138313     29.88759613
H        16.50007057     19.65269279     30.57178497
H        16.46413231     20.98030663     29.02334404
H        15.22005939     19.68419075     29.01890182
H        15.63590431     25.91452789      3.33802104
B        16.34427834     25.27708626      2.66345406
H        17.03109932     24.58489799      3.36412978
H        16.99275208     25.90228844      1.94829214
H        15.59122467     24.56632614      1.89137185
H        15.53512383     25.96742630      7.73872280
B        16.20980072     25.13015938      7.18447447
H        16.99618721     24.38598824      7.87294579
H        16.80419922     25.90966034      6.37367058
H        15.59977245     24.58485985      6.38055277
H        15.22105598     26.06212234     12.17759037
B        15.86639404     25.28234482     11.40149498
H        16.49990845     24.47721481     12.13969707
H        16.59714508     26.12146568     10.73782730
H        15.20724106     24.42550659     10.78335667
H        15.30238724     24.53602982     15.54669857
H        15.33761501     25.77949333     16.90445137
B        16.01563072     25.18516159     16.21807289
H        16.81456757     24.52479553     16.95091248
H        16.80677414     25.81815910     15.54325867
H        15.46061897     24.50758171     19.86535072
H        15.45878696     25.93119049     21.28076363
B        16.16394997     25.22146416     20.58300591
H        16.82789993     24.55763435     21.22887802
H        16.84759521     25.89900017     19.89570618
H        15.43115807     24.38498497     24.34497070
H        15.42613125     25.82430840     25.98451424
B        16.15373993     25.11277008     25.19884872
H        16.74318886     24.43036461     25.93411064
H        16.76564026     25.79635620     24.36789894
H        14.93040085     24.71601105     29.28100777
H        14.91213799     26.16101265     30.48559570
B        15.59947491     25.37141991     29.87747192
H        16.31062317     24.69206047     30.49128342
H        16.29851151     26.15459251     29.26916885
H        15.16933250     28.84342575      1.33548796
H        15.06292820     30.20897102      2.67629361
B        15.83959293     29.45353508      2.05513144
H        16.42790794     28.69643784      2.71687794
H        16.38681030     30.20845604      1.22959661
H        15.30020237     28.93208885      6.38668346
H        15.15520477     30.54120255      7.63801575
B        15.96662140     29.76494598      7.14728308
H        16.76601028     28.84264755      7.58245945
H        16.61164284     30.33128166      6.45160961
H        15.50074387     29.19968605     10.96937370
H        15.44031715     30.62016296     12.20377636
B        16.24542046     30.06761551     11.62453651
H        17.00541115     29.20140648     12.14163113
H        17.05581665     30.60842514     10.92068672
H        15.27731705     29.05759811     15.33122158
H        15.16036034     30.53945541     16.63041878
B        15.96236420     29.74975586     16.02982330
H        16.78737831     29.08650780     16.48455429
H        16.86424637     30.47045898     15.28326225
H        15.06246471     28.97121811     20.36944580
H        15.10678864     30.65845871     21.55154991
B        15.82097149     29.84783936     20.89128685
H        16.59408569     29.13478279     21.43231010
H        16.69522667     30.64036179     20.43186951
H        16.75256538     30.21548843     24.64881516
H        15.28302288     29.14632797     24.44582939
H        15.25963974     30.44186020     26.06583977
B        15.90227699     29.64653015     25.28369904
H        16.88099861     29.22088432     25.96790123
H        16.46079063     30.23053551     28.94949341
H        15.08316612     28.78798294     29.03827477
H        15.10311127     30.12181091     30.18441391
B        15.92106438     29.44810867     29.78768921
H        16.52061462     28.63937759     30.35296440
H        21.26652145      2.96496964      1.69128275
H        19.75731468      1.66920686      1.66818011
H        19.81715393      2.92823362      3.12570071
B        20.47011375      2.35012102      2.24420714
H        21.18216133      1.77667093      3.07807493
H        21.27767754      3.18877435      6.55673265
H        19.75934219      1.66772711      6.72540903
H        19.69976807      3.07967186      7.95946550
B        20.57348824      2.48192024      7.26436424
H        21.13561821      1.64110827      7.92650986
H        21.22543144      2.95765376     10.73910999
H        19.79960251      1.66948843     10.89397907
H        19.62662506      2.97576261     12.11053467
B        20.55099106      2.28100967     11.43066597
H        21.21331024      1.52673995     12.08030510
H        21.44016457      3.08721137     15.98648643
H        19.86626053      1.83067787     16.04125977
H        19.92314911      2.97555113     17.31548882
B        20.81673813      2.35694337     16.74878311
H        21.50346184      1.71260941     17.49044609
H        21.37654305      2.62081671     20.13000488
H        19.88050270      1.30312324     20.21440315
H        19.78557587      2.63134623     21.61410904
B        20.67440224      1.92614913     20.86795044
H        21.34941673      1.24585426     21.57645226
H        21.36546898      2.84381557     24.60296249
H        20.00455856      1.36664939     24.60739326
H        19.88780212      2.95614266     26.01782417
B        20.69675827      2.05704618     25.31847000
H        21.43741798      1.29027092     25.97744560
H        21.25248718      2.89812160     29.41184235
H        19.84336472      1.33542764     29.49249077
H        19.82904243      2.83179760     30.85479736
B        20.56131935      2.07868171     30.03148079
H        21.11838531      1.38888323     30.78701782
H        21.39042854      6.05928469      2.85414529
H        21.36336708      7.36721277      1.44796598
H        20.07509232      6.01566887      1.37728667
H        19.98345566      7.52952862      2.98939776
B        20.54083633      6.74674654      2.22680759
H        21.43929291      6.31887293      7.68229151
H        21.44656563      7.73198843      6.38620520
H        19.94240570      6.30160952      6.37621450
H        19.94985199      7.73453474      7.69211006
B        20.69942474      7.05105591      7.06857586
H        21.63599014      5.94766426     12.43249035
H        21.69044685      7.37203741     11.11432552
H        20.34726334      5.84866428     11.06978226
H        20.29679680      7.46704674     12.58195782
B        20.91444588      6.71322250     11.76529598
H        21.39768982      6.12062407     16.81533051
H        21.45861816      7.56707954     15.28054142
H        19.92210197      6.12055874     15.34140587
H        19.87652779      7.55178881     16.86096954
B        20.70950508      6.88666868     16.05785751
H        21.66944504      6.02985907     21.29152489
H        21.55825424      7.33809423     20.14931870
H        20.03352547      6.05293417     20.06120110
H        19.95417023      7.50556660     21.34780693
B        20.75792313      6.72466373     20.76100922
B        20.31195068      6.69533920     25.17995262
H        20.91408348      5.99258471     25.94952583
H        20.89381599      7.33322525     24.49519730
H        19.69670105      5.99993658     24.48228264
H        19.61030388      7.43253517     26.02856827
B        20.93799782      6.56278086     30.11801910
H        21.59630203      5.81048870     30.73435593
H        21.61501884      7.23781347     29.40772629
H        20.19050407      5.75542641     29.37138176
H        20.21111298      7.25355053     30.76881027
B        20.86463165     11.34443283      2.44642353
H        21.48792839     10.63760567      3.16014934
H        21.61291313     12.28523540      1.92044008
H        20.07688713     10.58013153      1.98795128
H        20.19756317     12.09704494      3.09694505
B        20.53254128     11.51246071      7.08952951
H        21.10290909     10.79247284      7.75463247
H        21.15272331     12.22227478      6.24140453
H        19.72924423     10.95505142      6.45379639
H        19.64543343     12.09369278      7.67586565
H        20.09563255     12.02877140     12.20672417
B        20.85341835     11.12474442     11.66346550
H        21.59390068     10.38030434     12.23684883
H        21.43648338     11.90147781     10.96965790
H        20.14435768     10.45915318     10.89108944
H        19.64548111     12.03053951     16.70982742
B        20.31048965     11.36160374     16.08492661
H        21.15033340     10.69566345     16.77092934
H        21.13677216     12.07808208     15.37737465
H        19.58990669     10.70119190     15.36934280
H        19.55547333     11.95471287     21.43510437
B        20.21747398     11.23522091     20.79642868
H        21.10393143     10.49482822     21.46105385
H        21.03316498     11.90989590     20.01675606
H        19.64275932     10.60806465     20.05922318
H        19.90376472     11.70312309     25.84079933
B        20.51985168     11.09698582     25.17323112
H        21.23868370     10.42882442     25.90990639
H        21.29404449     11.82759094     24.58178520
H        19.76289558     10.35706139     24.56538391
H        20.26711655     12.45813942     30.69098854
B        20.88665771     11.56042576     29.89740753
H        21.66757393     10.90666103     30.55022812
H        21.59084702     12.24065113     29.27061462
H        20.37685776     10.87563992     29.16286469
H        19.99024391     14.84294796      1.69866776
H        20.03182411     16.21025276      3.02960539
B        20.77359772     15.53876400      2.32236552
H        21.41167259     14.82602119      3.08811283
H        21.40719032     16.26427650      1.68622482
H        20.06536102     15.46254635      6.26482010
H        20.16191101     16.87187767      7.58933020
B        20.89957619     16.30304718      6.86646271
H        21.48132896     15.57490253      7.57352352
H        21.62162781     16.99636841      6.23687935
H        20.12832069     15.40133572     10.92372894
H        20.00405693     16.71733093     12.45745659
B        20.82456398     16.11453629     11.76014996
H        21.57369995     15.34874249     12.38578510
H        21.59702873     16.66898727     10.84780884
H        19.83526611     15.31684589     15.23055172
H        19.97566605     16.59100723     16.64490318
B        20.66255760     15.85487080     15.97439194
H        21.44790459     15.27277088     16.82937622
H        21.30419540     16.63177299     15.33018303
H        19.77527237     15.05912876     20.19282532
H        19.77458191     16.46175385     21.45565414
B        20.49791336     15.92067432     20.72333336
H        21.06081581     15.08107281     21.43301773
H        21.22050476     16.59880638     20.05507851
H        19.72244453     14.98579407     24.60387230
H        19.64124489     16.52990913     26.04734802
B        20.32503510     15.66695118     25.26482201
H        20.95270538     14.98571110     25.96622849
H        20.94014931     16.43623352     24.61634636
H        19.75897026     15.49149513     28.79327011
H        19.81143379     16.75475121     30.21431732
B        20.54036903     15.98201084     29.55310631
H        21.29618263     15.41943455     30.33884239
H        21.18673897     16.76983261     28.83065224
H        19.84098053     19.82885170      1.65757406
H        19.83942413     21.43378830      3.30255413
B        20.48800087     20.58673477      2.58907080
H        21.30092049     19.95011520      3.17973185
H        21.25091743     21.26096535      1.82883894
H        19.74583817     20.11366844      6.46850681
H        19.70233917     21.31829262      7.75222921
B        20.53793716     20.79093170      6.97431374
H        21.16160011     20.08051872      7.74188089
H        21.29155922     21.43790436      6.30539703
H        21.36764908     21.09127426     11.09053993
H        19.83939552     19.81570816     10.97319889
H        19.87469292     21.17331696     12.36151314
B        20.58438492     20.46215439     11.74877071
H        21.43323326     19.86746407     12.34505367
H        20.98026085     21.38058662     15.39095688
H        19.55789757     19.84245110     15.45145226
H        19.56954002     21.30844879     16.74034119
B        20.27845383     20.60674858     16.18630791
H        21.02494431     19.73727226     16.85715866
H        21.07762718     21.08736229     20.00122070
H        19.72788239     19.53314209     20.03535080
H        19.64855003     21.13256645     21.47304916
B        20.36019897     20.40468979     20.68282700
H        21.06704330     19.50959396     21.41726303
H        21.43033981     20.86485672     24.35932732
H        20.02960014     19.63433647     24.19099617
H        20.14492607     20.91786385     25.65356445
B        20.75527191     20.16389847     24.93088531
H        21.54268265     19.69032478     25.71290016
H        20.91825676     21.22058105     29.07046318
H        19.82366753     19.94056511     29.11393738
H        19.69772911     21.30304337     30.52774239
B        20.38855743     20.50800133     29.94012642
H        21.03207970     19.78326416     30.55910683
H        21.40026474     26.29406738      1.89522326
H        19.85968208     24.82933426      1.89846241
H        19.92323494     26.22727585      3.24296761
B        20.69847107     25.51437950      2.56738114
H        21.40802765     24.81833076      3.31752253
H        21.26643562     25.94381714      6.25632477
H        19.93006516     24.51002502      6.27712297
H        19.84123993     26.01184273      7.50258923
B        20.66337585     25.24560547      6.89519739
H        21.27039337     24.48526955      7.43852186
H        21.06180000     26.01229477     10.85424519
H        19.83303070     24.58838463     10.81001759
H        19.80149269     26.08806229     12.34416866
B        20.49024200     25.26349068     11.61478233
H        21.14017677     24.55423546     12.34677982
H        21.46539879     26.33462715     15.55137062
H        20.22110367     24.76716614     15.46512318
H        20.39923286     26.24274445     16.96938324
B        20.94474030     25.50788689     16.18897057
H        21.47934723     24.83946609     17.07521439
H        21.06709862     24.36122894     21.58209991
H        21.06247711     25.85522842     20.16051483
H        19.70573425     24.36428070     20.15894699
H        19.77694130     25.78558922     21.50783920
B        20.40382004     25.00869942     20.79668617
H        20.93238068     24.50870895     26.06576538
H        20.87821198     25.81658936     24.53521156
H        19.35989189     24.52091217     24.49324608
H        19.47515678     25.74328995     25.93829536
B        20.21977806     25.07287979     25.27392006
H        21.13937569     24.05702972     30.43974495
H        21.16016006     25.55191994     29.04198265
H        20.00923538     24.12671089     29.13245010
H        19.88120461     25.58948708     30.49809837
B        20.56905174     24.87047577     29.83539009
H        21.42884064     29.27174950      3.34052873
H        21.37134933     30.54330635      1.75277781
H        20.11971474     29.42318153      1.84671664
H        20.05580139     30.51327896      3.25300813
B        20.86355019     29.97701836      2.60194993
H        21.24403763     29.24913025      7.16174793
H        21.15771294     30.38464355      5.82783127
H        19.76074791     29.22895432      5.72133017
H        19.73673630     30.51515579      7.20593691
B        20.40490723     29.81864548      6.59300566
B        20.52866554     29.89443779     11.61652660
H        21.31060791     29.22879219     12.35652924
H        21.39561653     30.66785049     10.96831036
H        19.65916061     29.14415932     10.96868706
H        19.75208855     30.57454681     12.34823322
B        20.84803391     29.79066658     16.18972588
H        21.48003006     29.20678711     16.93976021
H        21.52122307     30.51779747     15.52627754
H        19.99302864     29.16016769     15.52085209
H        20.07934380     30.43690681     16.90006447
B        20.49666786     29.75657845     20.81130028
H        21.18970490     28.90903664     21.47436523
H        21.30119514     30.39028168     20.11805534
H        19.78047943     28.80996704     20.13047600
H        19.76287651     30.39546394     21.59103775
B        20.18734741     29.66481972     25.17647362
H        20.87182236     28.84008408     25.76783180
H        20.91520500     30.18684196     24.27246857
H        19.53030586     28.89792824     24.37369728
H        19.42588234     30.19003868     25.81440926
H        19.92071915     30.15692520     30.54257965
B        20.68465424     29.37863159     29.86516190
H        21.47017479     28.74243546     30.56537056
H        21.37691879     30.08646202     29.09589767
H        19.90265465     28.74716187     29.00736618
H        25.11415482      2.80598116      3.21852040
B        25.83527946      2.19072437      2.43608522
H        26.56206131      1.43561244      3.07801938
H        26.64549637      2.74891376      1.62679231
H        25.22877312      1.40972805      1.68434143
H        24.12722588      2.45058656      7.41553402
B        24.78858185      1.75481880      6.70759487
H        25.51149178      1.14715230      7.31827879
H        25.64181709      2.48365545      6.00293732
H        24.09725189      1.01992452      6.00603390
H        24.48180008      2.80724788     11.90874863
B        25.12205887      2.07599258     11.29318619
H        25.92431259      1.55456352     11.92975235
H        25.93436241      2.83830023     10.65535927
H        24.40706253      1.50082886     10.61167240
H        24.42720604      2.88062906     16.45611000
B        25.14014816      2.18881416     15.70341778
H        25.83724403      1.46561515     16.49780464
H        25.86085320      2.94593215     15.15312958
H        24.35392570      1.43402815     15.14515114
H        24.47145462      1.22139239     20.38787842
H        24.51192284      2.64264870     21.87883759
B        25.12923241      2.02791572     20.98566055
H        25.69615746      1.31368995     21.82700920
H        25.86827850      2.76294231     20.30805206
H        24.36912155      1.24200833     24.64479446
H        24.44687653      2.87754250     26.14376640
B        24.97950172      2.02859211     25.37918282
H        25.52450562      1.32273519     26.14079094
H        25.54822159      2.89828563     24.70180511
H        24.79088402      1.66398168     29.30287933
H        24.70301819      2.87078500     30.70796585
B        25.54260635      2.39140153     29.90107727
H        26.30460167      1.70930588     30.57477570
H        26.41871452      2.85170841     29.23408890
H        24.52641487      5.95622587      1.69424248
H        24.48894691      7.25654459      3.06418967
B        25.29084587      6.59979486      2.40369344
H        25.98920631      5.87097073      3.11197519
H        25.92464828      7.23977089      1.67354691
H        24.63464546      5.99596071      6.41408300
H        24.65544128      7.37569237      7.66491461
B        25.35996628      6.47992802      7.20109320
H        26.21969795      5.96385193      7.71782017
H        26.04660988      7.25551128      6.55506134
H        24.70441055      6.42983389     10.79240322
H        24.70946503      7.71558952     12.28576756
B        25.39964867      7.10051680     11.51931477
H        26.01645470      6.47378826     12.24686909
H        26.07465363      7.73488951     10.77815914
H        24.42341995      6.14466619     15.51545238
H        24.53378868      7.74538231     16.94538689
B        25.15189171      6.98880672     16.27905273
H        26.02626991      6.29191160     16.90851021
H        25.99757957      7.67981672     15.69138718
H        24.60029030      6.04459429     19.94379997
H        24.55070686      7.42533350     21.38411140
B        25.34789276      6.68511391     20.59675980
H        25.96829796      6.02408886     21.35503387
H        25.98171043      7.40967131     19.90987778
H        24.68650246      6.20403385     24.78212357
H        24.70446205      7.41695547     26.10270119
B        25.49382401      6.87713051     25.38912392
H        26.06442261      6.14315605     26.18153954
H        26.09893417      7.53030252     24.68673706
H        26.06587219      7.20278502     29.03117371
H        24.70843887      5.94275331     29.18555832
H        24.58457947      7.17226171     30.38499069
B        25.41323853      6.55782795     29.74114609
H        26.05673790      5.79750443     30.40637970
H        25.92137337     11.95034599      2.05827332
H        24.66184235     10.55455494      2.01501107
H        24.58428192     12.07116795      3.34672356
B        25.24254990     11.33614159      2.66663313
H        25.97043610     10.54875374      3.27496433
H        26.01207161     12.42981148      6.16047239
H        24.53357124     11.01983166      6.33705711
H        24.53163910     12.25515747      7.44109535
B        25.36021233     11.70864296      6.87650204
H        25.92198181     10.93333626      7.52565956
H        26.00529289     12.61690044     10.85070229
H        24.51838684     11.09344864     10.70134640
H        24.67664528     12.60799789     12.19737434
B        25.23009872     11.86964798     11.47416878
H        25.97042847     11.27766991     12.17141342
H        26.03396988     12.20797348     15.66964626
H        24.58762550     10.83468533     15.74418068
H        24.47475243     12.24631214     17.21547890
B        25.24634933     11.59365845     16.38915825
H        25.94716835     10.84695339     17.09033775
H        25.80491638     12.01863670     19.83101463
H        24.45697594     10.78315735     19.84759712
H        24.35210800     12.10692024     21.20992470
B        25.11018753     11.38634491     20.55701828
H        25.90038109     10.67110920     21.21710777
H        26.16474724     12.06978893     24.68802261
H        24.70017052     10.57794666     24.68521690
H        24.70713234     12.06563282     26.10615730
B        25.36968994     11.38468742     25.33367157
H        26.11456871     10.63093376     26.06013107
H        25.88516808     11.89181995     29.46829033
H        24.55689621     10.44382763     29.43540001
H        24.54793739     11.93366718     30.91075516
B        25.11163139     11.20219135     30.11500549
H        25.86494637     10.49693871     30.84868813
H        26.02550316     16.84132195      2.00587463
H        24.62413025     15.41825294      2.01622844
H        24.64677048     16.80832863      3.39490247
B        25.30941200     16.21756744      2.63371944
H        26.01638603     15.41701508      3.41878009
H        25.44217682     15.46248055      7.86122227
H        25.45215416     17.18610382      6.24702406
H        24.14752197     15.61459064      6.40911198
H        24.22971344     16.94182587      7.62692070
B        24.98976135     16.28384972      7.01515245
H        26.04030991     15.33577061     12.16021538
H        25.96669388     16.83891106     10.69148922
H        24.63425255     15.41408825     10.69618893
H        24.57176018     16.89670372     12.14439106
B        25.31101990     16.11998177     11.40544128
H        25.83703232     15.25775814     16.89496231
H        25.93352890     16.59717178     15.44040489
H        24.40077019     15.23256493     15.51170826
H        24.31124687     16.61539078     17.00967789
B        25.02847290     16.00948906     16.14037514
H        25.89259148     14.54128075     21.59659767
H        25.85953903     16.08796310     20.31514549
H        24.46795654     14.56161976     20.30243111
H        24.45065498     16.11797905     21.59356117
B        25.10590172     15.31691360     20.92427063
H        25.45078850     14.68568611     25.67325020
H        25.52952194     16.11315155     24.49386024
H        24.06176567     14.66277504     24.54968262
H        23.97782707     16.14127159     25.78010368
B        24.74590492     15.57263279     25.14885712
B        25.19284058     15.88452530     29.71463776
H        25.95766640     15.23311138     30.37376022
H        25.93934059     16.70595741     29.05873489
H        24.39467430     15.26695728     29.07425308
H        24.46013641     16.62497330     30.27445030
B        24.96309662     20.81644630      2.26938748
H        25.63811493     20.08085823      2.95885730
H        25.61505318     21.42569351      1.65910220
H        24.29823112     20.02859306      1.58377588
H        24.30170822     21.49754143      3.00764370
B        25.13631248     20.59814644      6.96751833
H        26.02379799     19.88250160      7.73531246
H        25.87037468     21.31283951      6.35655022
H        24.46290970     19.92164230      6.24226999
H        24.47945595     21.41057777      7.67962742
B        24.94552231     20.75104523     11.73822117
H        25.60343170     20.14369965     12.50910664
H        25.76577187     21.51809502     11.15715885
H        24.13923073     20.05602837     11.23182774
H        24.14423370     21.43842125     12.59177303
H        24.51292038     21.22174644     16.68460274
B        25.28876114     20.50085258     16.03708649
H        25.96064758     19.72215843     16.72987938
H        25.90995407     21.21632957     15.31395912
H        24.53423309     19.78874969     15.32985783
H        24.10278702     21.21517563     21.20230103
B        24.83593559     20.44302368     20.53908348
H        25.49284363     19.64711380     21.17045212
H        25.55484390     21.24532700     19.88059998
H        24.16918373     19.68166351     19.97714615
H        24.69503212     21.27444077     25.85529327
B        25.36862564     20.56506157     25.15205383
H        25.82026100     19.74079895     25.94462013
H        25.84540939     21.38891983     24.36966705
H        24.68172073     19.81681442     24.47083092
H        24.50473976     21.55072021     30.35078239
B        25.12819099     20.75715637     29.67021561
H        25.90592194     20.11044693     30.29660034
H        25.92524147     21.51585770     28.98159027
H        24.49453545     20.04606056     28.93652153
H        24.44901085     25.68381882      3.07392001
B        25.20466614     25.03666878      2.35320950
H        25.94202995     24.30548477      3.01444960
H        26.02096558     25.70328522      1.77715135
H        24.45839882     24.25540161      1.80600512
H        24.50230026     24.07182121      5.95788383
H        24.40913391     25.62196922      7.45131493
B        25.14583588     24.83629227      6.78782129
H        25.86700249     24.00061226      7.42935562
H        25.75881386     25.49181938      5.99486685
H        24.28541374     24.70516396     10.92369175
H        24.19774437     25.85776329     12.43464851
B        25.05752563     25.21141243     11.70134354
H        25.74410629     24.61130905     12.44083500
H        25.72176170     25.84160614     10.85217953
H        24.14442253     24.31832314     15.39536953
H        24.14415359     25.60875320     16.76863480
B        24.85043335     24.90091896     16.01420784
H        25.38300514     24.22985268     16.85683632
H        25.36066818     25.67461967     15.32923508
H        24.50953865     24.42782974     19.92311287
H        24.54198837     25.71912956     21.29561043
B        25.27409172     25.02889633     20.63059616
H        25.86368942     24.38203239     21.37385750
H        25.83840370     25.77208900     19.90260124
H        24.44869041     24.28859711     24.43876457
H        24.47864723     25.46833992     25.80527115
B        25.27859306     24.76571655     25.18904495
H        26.13644409     24.18825912     25.93556976
H        25.97449303     25.43668556     24.50037575
H        24.59349632     24.47813225     28.84601212
H        24.46135521     25.64055061     30.29548454
B        25.32058716     25.12136078     29.59482002
H        25.87779808     24.37374115     30.26773643
H        25.92690659     25.66191292     28.69251251
H        24.65585709     29.05307007      1.65839028
H        24.61771011     30.54310989      3.06953788
B        25.30686188     29.66373825      2.47057819
H        26.02254677     28.94672012      3.13774014
H        25.85568237     30.44444847      1.71890318
H        24.13665390     28.70011330      5.97436905
H        24.14192200     30.22944832      7.43952608
B        24.93729210     29.30019188      6.69936514
H        25.73497772     28.73360634      7.41130209
H        25.66223526     30.12848473      6.08060455
H        24.29149628     28.98808479     10.81713772
H        24.22155380     30.48309898     12.14269257
B        24.90283966     29.81270790     11.39630222
H        25.47337914     28.92343903     12.13739967
H        25.50174332     30.50616837     10.72412586
H        25.61591721     30.33452415     15.42507744
H        24.06081963     28.91608810     15.41832161
H        24.11900711     30.28309059     16.75505066
B        24.80244637     29.57792091     16.01224899
H        25.60758209     28.93117905     16.79814720
H        25.96747017     30.65675354     19.94489479
H        24.49025345     28.99651909     19.87304878
H        24.59882927     30.62002182     21.34768486
B        25.19034195     29.80162430     20.62309074
H        25.97276306     29.06307220     21.38970757
H        25.96668434     30.16225052     24.07393646
H        24.70792580     28.99439812     24.12967682
H        24.64203262     30.17240143     25.66282654
B        25.34266281     29.54563713     24.94283485
H        26.02351761     28.88182449     25.70950890
H        25.95574760     30.54558372     28.60056686
H        24.46712494     29.02962112     28.72475624
H        24.51312637     30.37539482     30.10017395
B        25.24579239     29.76743507     29.23786545
H        25.85869217     29.00248909     30.17330933
H        30.76561546      3.10117054      1.88955569
H        29.39716911      1.56066990      1.94467700
H        29.38824272      3.05497432      3.24375653
B        30.11358261      2.36898637      2.57618141
H        30.69280815      1.57835591      3.21714497
H        30.71005058      2.96975446      6.25985527
H        29.52737999      1.49905908      6.15718794
H        29.51254845      3.08725357      7.70274258
B        30.14928627      2.18400431      7.15306568
H        30.84472275      1.46705282      7.71991634
H        30.51095772      2.85393333     10.96078396
H        28.98937988      1.48334527     10.96926689
H        29.06288338      2.77194715     12.29333496
B        29.75497055      2.16103435     11.54970074
H        30.50482368      1.48099744     12.36918640
H        30.46931648      3.05654955     15.37746143
H        28.88118172      1.39805138     15.35556602
H        28.97328568      2.98634410     16.76884842
B        29.74821281      2.21649456     16.06392479
H        30.36994743      1.51931953     16.73968315
H        30.32330513      2.75949049     20.09148598
H        29.06881714      1.30074418     20.11960983
H        28.92373848      2.87644482     21.44945908
B        29.55699348      2.15370464     20.80589676
H        30.31020546      1.28572094     21.31940269
H        30.84266663      1.04722869     25.90275002
H        30.86169243      2.58873200     24.47219658
H        29.37868118      1.16426885     24.60825920
H        29.34025002      2.49109864     25.82414055
B        30.29826927      1.80111563     25.18329239
H        30.80166435      1.77837229     30.15382004
H        30.86157036      3.08295345     28.85311127
H        29.40775108      1.73469400     28.86934090
H        29.41880798      3.05566788     30.18644333
B        30.12129021      2.47007442     29.49832344
H        30.63202095      6.10698223      3.17246056
H        30.52006531      7.42849159      1.81801367
H        29.05738640      6.10528755      1.70436358
H        29.05625916      7.54326725      3.17528105
B        29.77865410      6.81073713      2.57064652
H        30.28387070      6.18304491      7.24232244
H        30.28842163      7.73953438      5.62074852
H        29.08857918      6.32428598      5.76653910
H        28.98190880      7.70041466      7.20775270
B        29.77442360      7.08330488      6.52470112
H        30.41224861      6.27630711     11.95016766
H        30.45378304      7.71695089     10.69503880
H        28.92786980      6.27596140     10.73622704
H        28.91107941      7.69254875     11.96730042
B        29.69792175      6.97642612     11.34522343
B        29.83871651      6.88988495     15.70939827
H        30.47525024      6.12729454     16.50306511
H        30.57571220      7.64836550     14.89228153
H        29.10538101      6.18884277     15.05429268
H        29.11047554      7.48125887     16.43642235
B        29.75575447      7.04790783     20.63352013
H        30.41068268      6.15369320     21.22393227
H        30.49330521      7.53186369     19.91426659
H        29.11502457      6.16319084     20.00638390
H        28.94166183      7.61310720     21.38779640
B        29.93212318      6.79403210     25.16114426
H        30.66452408      6.11545849     26.02760124
H        30.62390137      7.54860115     24.47652054
H        29.27532768      6.16041183     24.48085022
H        29.29555702      7.52404404     25.96242142
B        29.80820656      6.63943815     29.32905388
H        30.53302956      5.84674883     29.89468193
H        30.62907028      7.30495119     28.66201973
H        29.22567558      5.79551363     28.70682526
H        29.13720131      7.34861851     30.03438950
H        29.32637215     11.42610645      2.98135185
B        29.99531364     10.51606274      2.18721843
H        30.73754692     10.14549637      3.07227063
H        30.62238693     11.40186405      1.69265354
H        29.12179756     10.03183937      1.46383560
H        29.00280190     12.47849083      7.63254404
B        29.90380669     11.78284168      6.91975784
H        30.68712616     11.19068050      7.59857750
H        30.67996979     12.43736649      6.32708120
H        28.97977257     11.13368607      6.26292896
H        29.24558830     12.18155384     11.98573399
B        29.97789574     11.42702675     11.35728931
H        30.76722908     10.70894337     12.10621452
H        30.57652283     12.11132908     10.70497704
H        29.18907166     10.77290821     10.57823563
H        29.07707977     12.20935440     16.88501358
B        29.79024124     11.33526897     16.34774017
H        30.43718147     10.63507271     17.03038788
H        30.35130692     12.26885033     15.78632736
H        28.95085907     10.65422440     15.71960545
H        29.02259827     12.30807877     21.15393066
B        29.84855652     11.59235764     20.61792183
H        30.60767746     10.76875210     21.12460136
H        30.53318977     12.20426083     19.81752014
H        29.16585159     10.88267708     19.85695648
H        29.23254013     10.54185009     24.29003525
H        29.21070480     12.02072048     25.64028740
B        29.91590309     11.29128933     25.00978279
H        30.68787766     10.49701214     25.66329193
H        30.60187721     11.95772457     24.33119774
H        28.85178566     10.24270058     28.99977684
H        28.96269989     11.73976421     30.48976326
B        29.57152367     10.97773457     29.75360298
H        30.10973358     10.24466705     30.59871101
H        30.13912392     11.87810230     28.97235107
H        29.31945419     15.16469955      1.52429390
H        29.34406281     16.73380280      2.99293637
B        30.03416443     15.93887234      2.29175162
H        30.69773293     15.26742268      2.91482186
H        30.72151375     16.67947006      1.60323668
H        29.05328751     15.74157810      6.15414715
H        29.12721443     17.05810738      7.59371614
B        29.71237755     16.20930481      7.01459694
H        30.58836365     15.70343399      7.70578814
H        30.38239479     16.96421051      6.32197142
H        28.94704247     15.33094788     10.90768719
H        28.91788101     16.78781891     12.20002079
B        29.60821152     15.94725800     11.59089851
H        30.30192184     15.22045517     12.28135204
H        30.22482491     16.79205132     10.87429237
H        29.17215538     15.30292892     15.63126755
H        29.07644653     16.75858879     16.98451805
B        29.88731003     15.96332741     16.40691757
H        30.79406738     15.24457073     16.94716644
H        30.69229889     16.61946869     15.67467690
H        29.28393173     15.40168381     20.08455467
H        29.24333382     16.71589470     21.44568443
B        30.03074265     16.12257767     20.81836700
H        30.64867020     15.35083961     21.45593262
H        30.67559624     16.75307083     20.00678253
H        29.30670929     15.24209404     24.51961899
H        29.22126198     16.43544197     25.89753342
B        30.06081009     15.77997589     25.30454063
H        30.65300941     15.03033638     26.02384377
H        30.56103706     16.46977997     24.39983368
H        29.50167084     15.15346146     29.19319916
H        29.50311852     16.37913132     30.31206322
B        30.23542023     15.77112865     29.69269180
H        31.01558876     15.08184147     30.38513184
H        31.05900764     16.49561501     29.07815933
H        30.51676941     21.26252365      1.48712063
H        29.29601669     19.68174934      1.25805259
H        29.38912010     21.39848709      2.87240171
B        29.85359764     20.38603973      2.12046337
H        30.68870544     19.73888016      2.90837407
H        30.33981895     21.30943108      6.02151585
H        29.08748055     20.09627342      6.21752262
H        28.91209602     21.28880882      7.55353785
B        29.72869682     20.79254913      6.86289501
H        30.34216309     19.89792061      7.57650518
H        30.29764748     21.35434914     10.76052666
H        28.93479919     19.96733665     10.69398403
H        28.96398163     21.39171219     12.07740974
B        29.68048096     20.57574844     11.50625324
H        30.44785690     19.88366890     12.19025517
H        30.54462814     21.24854088     15.34382820
H        29.10574722     19.91466904     15.33423233
H        29.02702713     21.33685493     16.90732193
B        29.66603279     20.68781090     16.05802345
H        30.43907928     20.02981186     16.71345901
H        30.44169044     21.32579803     19.88318443
H        29.22104454     19.80602264     19.90032196
H        29.22761536     21.30209160     21.46700859
B        29.89519119     20.59012985     20.69340134
H        30.44562721     19.78495026     21.49465179
H        30.68855858     20.88788605     24.64437485
H        29.00278664     19.54240608     24.64922905
H        28.98866081     20.89715958     25.85312462
B        29.81527328     20.15471268     25.34766006
H        30.71413231     19.51197624     25.86942673
H        31.04298210     20.95396805     29.02907944
H        29.46247673     19.62221336     29.09513664
H        29.50552750     20.84486008     30.52003098
B        30.35620117     20.27668762     29.83272362
H        30.98000717     19.61913300     30.56616402
H        30.71307564     25.93350029      1.61122358
H        29.31037140     24.55576324      1.62703621
H        29.24060822     25.98744965      3.16746235
B        29.80269241     25.47151756      2.31772399
H        30.56573868     24.68728828      2.96617484
H        30.72954369     25.98037529      5.97746134
H        29.22217178     24.77374268      6.00794888
H        29.14208031     26.02997971      7.48767090
B        29.92130470     25.36908531      6.69810534
H        30.71730232     24.75549507      7.42582512
H        30.46520233     23.99280357     12.33848095
H        30.46600914     25.25272369     10.96013832
H        28.93973732     24.01989937     10.98803711
H        28.94427490     25.22028542     12.30684662
B        29.68320656     24.61864471     11.68235683
H        30.38256836     24.60664749     17.12870979
H        30.39557457     25.70434570     15.47538471
H        28.92198563     24.50445366     15.38619328
H        29.09329224     25.62223053     17.05959702
B        29.67209053     25.04666519     16.20421410
H        30.70293808     24.38423538     21.01590729
H        30.57968903     25.94395828     19.73086739
H        29.22992325     24.47967529     19.70305634
H        29.17562866     26.02606201     20.97476196
B        29.91692734     25.18517494     20.40703773
H        30.46853256     23.81101608     25.87445641
H        30.48231316     25.20544243     24.43862534
H        28.99264717     23.81042671     24.45181656
H        29.02552795     25.15937042     25.84216309
B        29.73683929     24.49846077     25.13701057
H        30.38306999     24.36034775     30.37901497
H        30.53650284     25.61469460     28.98231506
H        28.96798515     24.30628777     29.08168793
H        28.84404755     25.63925934     30.55701065
B        29.67711830     24.97947502     29.77077484
B        29.87181664     29.59561348      2.42975426
H        30.58586693     29.03123093      3.25066805
H        30.54322433     30.52669716      1.77885687
H        29.28134155     28.89007378      1.59505749
H        29.41296196     30.57887650      3.26020408
B        29.55240822     29.96477509      6.86796761
H        30.32839775     29.13008499      7.30788374
H        30.26060867     30.52182961      6.14995480
H        28.94070053     29.22016144      6.17224312
H        28.69281578     30.74742508      7.46569109
B        29.71788025     29.61232376     11.66840363
H        30.49980545     28.90339470     12.28731346
H        30.32015038     30.22475815     11.03600025
H        29.01488876     28.95433044     10.90728092
H        28.94407082     30.42429352     12.30719471
B        29.81586838     29.50198174     16.14990997
H        30.59585190     28.75620651     16.74936867
H        30.48974037     30.24157333     15.34641266
H        29.21489716     28.81412888     15.29822063
H        29.13064384     30.37401772     16.77569771
H        29.22534752     30.43519592     21.51247025
B        29.77012444     29.64305687     20.86119461
H        30.51538277     29.02922630     21.60872459
H        30.48046112     30.49653053     20.14497185
H        29.00718117     28.90731621     19.98814011
H        29.52585983     30.27265167     25.84647179
B        30.28800201     29.57502174     25.09709930
H        30.86766815     28.86086082     25.76009941
H        30.94528580     30.26389885     24.43359947
H        29.57390404     28.82253456     24.47289276
H        29.17359734     30.43176651     30.30145836
B        29.93182945     29.66135788     29.68960953
H        30.71152115     28.88320732     30.47170067
H        30.50110245     30.39159012     28.82066917
H        29.22945786     29.10931015     28.83635330
