3075

Na        0.02151828      0.03847696      6.92796183
Na        4.31658220      4.73950338      6.59921026
Na        4.21369696     -2.32384300     13.95226765
Na       -0.19214022      2.30125380     18.10413361
Na        2.42057967      0.05342679     22.70068550
Na       -2.36941719      4.30232430     27.97888756
Na        2.15112615     -0.43472713     31.90380669
Na        0.09696009      6.92914486      9.32840729
Na        2.32821536      9.22952080      9.02537155
Na        4.32910633      7.00848150     18.63511848
Na        4.29446888      4.46616650     20.63887596
Na        2.44096828      4.74149942     27.58515358
Na       -0.08847379      6.76907635     31.94379616
Na        2.17017794      9.06651211      4.98131180
Na       -0.21214151      6.74879265      4.50761747
Na       -0.05911926      9.45961666      6.53205681
Na       -0.44592553      9.16273880     20.34918022
Na        2.11742735      9.23584652     22.69883537
Na        4.88000441      9.11452484     25.01802063
Na        4.42136908     11.29375553     36.36602783
Na        2.27727246     13.89051914      4.91226196
Na        4.35840178     18.15137482     11.19964695
Na       -0.09885056     15.98624802     13.76390076
Na        0.04433750     15.87453365     18.17318535
Na        0.03805454     17.93369293     25.07648277
Na        2.15453291     13.57606220     22.75725746
Na       -2.21590304     13.22419262     31.81482506
Na        1.86989582     18.42793274      4.66382790
Na        4.31961966     16.03716469      8.93100834
Na        2.19252443     18.33506203     13.42337418
Na        4.43282223     20.35831642     22.85817337
Na        2.24609709     18.12808037     22.81077576
Na        0.16320187     15.99234676     27.37537575
Na       -0.11612788     18.31844521     29.42422104
Na        2.46376824     22.69563866      4.47684050
Na        4.53942680     22.80452347      6.65202522
Na        2.15137196     22.67557907     13.66322613
Na        2.35937238     22.77449417     18.15967178
Na        6.93244505     22.94743919     18.51773834
Na        0.21441193     23.18067551     29.61204720
Na        4.48600912     27.31996727     34.28039551
Na       -0.04325923     24.88895226      4.76061630
Na        6.87068701     27.37661552      9.05328846
Na        9.67636681     32.43636322     11.59003925
Na       11.33125019     31.74660492     22.88189316
Na        2.11759186     27.29033089     23.02083015
Na       -2.41501975     27.01856422     26.90398979
Na        0.25015137     25.07912064     32.05974197
Na        4.50470209      2.27802396      4.30463314
Na        4.54717541     -0.12290297      6.88064575
Na        4.34058285     -4.76385689     11.52707195
Na        6.59614992     -0.04117009     13.48877811
Na        4.52128267     -0.16094969     20.62246704
Na        9.20855522      0.11366595     20.50306129
Na       13.63336468      0.34275758     34.19511795
Na        4.29984999      7.03920412      4.53590059
Na        2.29516673      4.51832819      8.88162804
Na        6.80290747      4.29141188     13.50049591
Na        4.48488235     -2.42672801     22.88045502
Na        8.92375469      4.78630114     20.58599281
Na       11.31451225      4.11685514     27.46215248
Na        6.48643446     -0.14195979     31.99716568
Na        9.18748760      9.32182026      6.86798525
Na        4.50180769      6.62032270      9.58003235
Na        9.22707272     11.26273251     13.49857426
Na        4.50639868      9.19237423     20.71925735
Na        7.02176714      9.27226257     22.67628288
Na        9.38318157     11.31819534     27.48302460
Na        7.01927662      9.38139248     31.89337540
Na        4.78570843     15.88505268      4.26404428
Na        8.91834927     18.50497246     15.91536140
Na        6.83141470     13.22995090     13.70870018
Na        6.70890665      8.95062923     18.36133003
Na        6.99648237     13.92235184     22.56295013
Na        6.88517332     13.67493916     27.62863731
Na        4.41871309     13.64998436     29.31823540
Na        9.19700527     16.11426544      4.40636873
Na        9.05072689     22.61112976     11.42333794
Na        8.63773632     13.67509460     16.19758987
Na       13.65914536     18.22379303     15.96747303
Na       -0.09662486     17.97727013     20.59028625
Na        7.16399813     18.67055321     27.00489426
Na        7.04086065     18.01685143     31.67868805
Na        8.97207642     25.08453941      4.63679361
Na        6.82389116     22.56735420      9.10270119
Na        9.20348930     22.72899628     16.08163261
Na        4.35740042     27.33616829     16.11071587
Na        4.43163347     17.94960785     20.59351349
Na        8.92809677     22.69968224     24.94962120
Na        9.28160286     22.89004517     29.43782806
Na        9.26093102     27.37175751     11.50892162
Na        1.92846417     31.72862434     14.16697979
Na        9.13396168     27.31618881     25.03963280
Na        7.01767349     27.31139565     18.36361122
Na        6.63318539     27.28306961     27.35986519
Na        9.15195370     27.24810600     34.10976410
Na        9.51530933      5.07895947      7.09560490
Na        8.98771191     -0.09624179      7.16007566
Na       15.79382038      0.48411593     18.20210457
Na       11.24626064      4.92198038     18.59731102
Na        6.93794823     -0.05631073     18.41529465
Na       11.23500538     -0.19276607     32.00044632
Na        6.63266945      9.12444878      4.43493605
Na       11.16702175     -0.32026550      9.00000572
Na        8.97692108      2.42964149     13.83922958
Na       18.10409164      4.89948177     15.75935745
Na        9.41543388      6.89051962     27.50033951
Na       13.10057259      4.41791773     25.07765007
Na       11.37007618      4.69657993     32.03223038
Na       11.47534657      9.23233795      4.36765909
Na       13.49519444      7.06810379     13.80473232
Na       13.83596992     11.58775711     13.62024307
Na       11.45538998      4.42339516     22.73266220
Na        6.92709827      9.27471924     27.23916817
Na       11.44615173      9.42512894     27.29289436
Na       11.40048504      9.39055347     31.82946968
Na        8.92062569     11.20012283      4.93286753
Na        8.88352203     15.92195988      9.40238857
Na       14.11983395     13.32353783     11.37485695
Na       15.93368053      9.61198616     18.24249458
Na       11.73396587     13.87643528     22.72595978
Na       13.77593803     18.41426468     29.92560005
Na        9.40726662     15.98117161     32.02214432
Na       13.79493141     18.25338364      2.40339088
Na       13.61998653     16.05111122      4.61571407
Na       11.41304302     18.44522858      9.15188026
Na        9.08167648     16.07484627     18.38177299
Na        9.46837711     16.11197853     22.96475029
Na       13.70852280     20.40479469     32.00755692
Na        8.86714745     20.55459213     31.66617966
Na       13.74901009     22.68287849     11.70349026
Na       15.97081947     31.46950912      4.63323307
Na        9.01283169     20.54065704     13.50490189
Na       11.53220844     22.88131523     13.52671432
Na       13.51813126     20.80492973     22.43319511
Na       13.53556252     20.66790962     27.53168106
Na       13.91535854     25.09859848     32.12448883
Na       18.11636925     34.17755508      4.65323830
Na       11.27775764     27.20432472      9.34957218
Na        8.93255520     27.08824158     15.89632893
Na        9.41914749     27.44078445     20.52903366
Na       11.22620583     23.10840797     22.70600319
Na        8.89988899     29.69561195     27.25156784
Na        9.11476135     25.14385986     27.66814804
Na       11.13145256      0.55106342      4.50264740
Na       13.69750023      7.14745760      9.13158894
Na       15.99930668      0.06509357     14.01180553
Na        9.34940147     -2.46783686     18.22880745
Na       13.85193348     -0.00421777     25.04318428
Na       16.07249260      0.07178644     27.68164253
Na       14.08819580      2.03654695     36.68318176
Na        7.12513685      4.55254936      5.15683508
Na       18.07258606      6.93498373      4.46594477
Na       13.29432392      4.65628433     16.24494171
Na       18.13818169      6.95572090     22.81200600
Na       20.47040749      9.67610931     22.57661629
Na       18.37318230      6.87677193     27.28117752
Na       17.75472832      4.11990976     30.15316391
Na       13.43111229      6.61633682      4.94636059
Na       15.67714882      9.32354450      8.89534092
Na       22.39505577      4.90611887     16.00398254
Na       15.85493279      9.72745514     22.69207954
Na       18.19355583      8.88104725     25.01632118
Na       18.40561485     11.48179054     27.32528305
Na       18.09675026      6.78456736     31.76796150
Na       13.77544880     13.84072304      2.50450110
Na       14.14143467     13.99954128      6.86466455
Na       18.26483917     16.09963036      8.90581417
Na       13.84228897     13.97961426     20.41405869
Na       16.19702148     13.70539379     22.60486984
Na       18.24621201     13.90088463     25.18219566
Na       11.57166195     13.83502769     31.85951424
Na       16.16696167     18.21900177      4.72713900
Na       13.62985992     18.44493866      7.03432512
Na       14.05669594     18.44209862     11.51713181
Na       18.00626945     18.28925514     20.51084709
Na       21.07502937     17.93379784     22.50471497
Na       18.37469864     20.42256546     27.54673386
Na       15.79024506     18.49418640     27.12792778
Na       11.32060814     22.91722488     -5.15986919
Na       16.27969551     27.55767441     13.72658634
Na       16.00752068     22.69387817     13.62749004
Na       16.08641624     22.94137383     18.30569077
Na       18.18255806     25.03826714     22.93547440
Na       15.78295040     22.48539925     27.28268433
Na       18.13165092     25.07618141     31.37613678
Na       11.46403885     27.37102318      4.25432920
Na       15.81911373     27.57910919      9.16621494
Na       11.58267021     27.63808060     13.88917255
Na       15.73497200     27.79868889     18.34666252
Na       22.71988869     27.55975723     25.11522484
Na       13.61361408     29.53120613     27.31813812
Na       15.84938145     32.18556213     31.97443581
Na       22.87344170     -2.38502955      4.67859173
Na       14.17784023      2.27421212      9.15711689
Na       13.46640205     -2.14704609      9.37804127
Na       22.41899300     -9.15299416     20.63490868
Na       20.52357101     -0.14283435     22.65015984
Na       20.33284569      0.03909368     27.84184647
Na       20.65170288     -4.67139673     36.35279465
Na       20.21925926      0.12655154      5.09970856
Na       22.69100189      6.76944160      9.10946083
Na       22.99804497      2.52256155     18.00755501
Na       18.31820488      2.48340178     18.14665222
Na       18.33107376      4.41876459     20.42781448
Na       18.10331917      4.94069576     25.04878426
Na       22.77707672      7.04512358     31.86601448
Na       22.57267380      4.58614063     11.45689583
Na       18.27566147      9.31122971      6.81833839
Na       22.74759102      6.78499651     13.73707104
Na       17.99026489      9.31031036     16.04729080
Na       22.92450905     13.53557396     24.97788811
Na       20.33389282      8.88037968     18.24543190
Na       20.50734520      9.09593105     32.22392654
Na       17.90724754     13.66814518      1.97976303
Na       22.93820000      9.02919102     11.19111824
Na       18.13125610     18.60467529     11.29995728
Na       18.32084274     11.45978069     23.08987045
Na       23.27557182     16.10908127     23.01459694
Na       22.80718422     11.39668465     27.29797935
Na       13.76214027     16.14324379     32.32057571
Na       22.58816528     22.86750221      2.05685830
Na       20.41850853     18.26861763      8.78493118
Na       27.61308098     16.00011635     18.13583755
Na       24.99540520     13.89750290     18.37465286
Na       20.68976593     23.24903297     18.56047630
Na       20.51500320     18.30349731     27.21220016
Na       22.80074501     18.50163841     38.77495575
Na       18.38468552     20.54502296     -0.21716087
Na       20.45937538     23.07279968      9.08090973
Na       18.21291924     22.71258736     11.33965778
Na       18.32781601     22.71751976     20.36879730
Na       25.25331116     22.37108612     27.76015091
Na       27.43982506     20.33440018     27.36028862
Na       22.93029022     23.28319931     29.78891754
Na       24.95989799     27.19436455      9.11749649
Na       22.49344826     29.86013794      9.01710701
Na       20.49632454     27.20902824     18.30358124
Na       17.47646523     25.34303856     18.16824722
Na       18.52437210     27.10181046     20.73294640
Na       18.23564911     27.81049919     24.98794746
Na       22.73903084     29.71152115     32.03249741
Na       24.97325706     -0.38856995     -0.11021230
Na       20.69393730     -0.11628807      9.08764553
Na       25.24254227     -0.16552603     13.89240837
Na       20.70248795     -9.18760872     13.79320240
Na       27.27057076     -2.27013326     18.35053062
Na       25.04509163      0.08203062     27.51243019
Na       27.18368340      0.06800856     29.82974625
Na       29.39258957      3.86754799      9.23206043
Na       25.09808350      4.79940748     13.81914520
Na       27.46629333      2.20154500     18.40353012
Na       24.89467239      4.53794909     22.98081970
Na       25.13895416      4.21140575     27.29371643
Na       29.59618759      8.86794567     27.75238037
Na       25.12206078      8.90219402      4.82383156
Na       15.74726009      8.99547195      4.93934822
Na       27.13136482      6.96773863     13.89855576
Na       27.48971176      9.15395927     15.78606892
Na       27.21165276     11.50053501     27.19428062
Na       23.06808662     11.61116219     31.97383881
Na       22.50112343      9.54927826     29.58703041
Na       27.21129417     11.24556732      4.84661913
Na       22.94869423     11.52661514      9.27342129
Na       27.05898476     13.42821980     15.77960205
Na       22.75898552     11.17322063     17.78639984
Na       22.92843437     18.43222618     15.99278831
Na       24.90998077      9.30188656     27.79025078
Na       27.30756950     15.97456837     31.88633156
Na       27.51395798     20.53729248      4.81183958
Na       24.89005661     18.09851265      8.94200230
Na       26.79795074     18.10624313     11.30995846
Na       22.72730255     15.87547588     18.57985306
Na       27.44738579     15.79696083     22.72016907
Na       25.49497986     18.59083176     22.96357918
Na       27.17709351     18.27880287     34.31016922
Na       20.42522049     22.80857849      4.64737749
Na       27.43542480     22.87546539      6.79262877
Na       25.12980843     22.95072937     13.46304035
Na       27.52126312     20.51910782     22.81610870
Na       23.03136253     20.58379555     27.13917160
Na       23.09570503     25.07744980     27.36845398
Na       31.90063858     20.32609749     36.55648422
Na       29.83602524     27.19206238      4.68065214
Na       25.22602654     27.28218460     13.29896545
Na       26.95194054     23.03944588     15.77274990
Na       23.03886986     20.69751358     22.52022552
Na       20.33671188     27.44164658     27.04636192
Na       25.18456268     27.61577988     27.16722107
Na       27.71423149     29.46464920     31.76464462
Na       29.57438660     -4.74041176      8.56317139
Na       27.36257362     -0.80122137      6.70378685
Na       27.20098495     -0.17457971     16.19879150
Na       31.69528961     -6.87940359     18.09653282
Na       31.95012665      2.22312403     27.49565887
Na       31.68182182     -0.14256015     25.04029846
Na       29.58864784      0.15747133     32.13994217
Na       32.18808746      2.16163874      0.39452532
Na       26.94976616      2.34702015      9.28293610
Na       32.09508896      4.52869797     15.73567963
Na       31.90188408     11.33813095     23.05298233
Na       29.66570854      4.33618450     22.70651627
Na       34.19412994      4.73610544     22.93804741
Na       29.47594452      4.47097683     32.68070984
Na       15.69673920      4.60273981      4.07111406
Na       32.20135117      9.03907299     11.45875645
Na       29.47171211      9.06419182     13.32010269
Na       24.98125458      9.38125896     13.73540878
Na       27.37066269      6.98677826     18.40391922
Na       27.18635559      9.33778477     25.16266441
Na       27.60614014      7.01899195     32.11286926
Na       22.18297768     13.51440811     11.30571175
Na       20.70322609      9.47128582      8.82939339
Na       31.89124680     18.41854668     15.67989445
Na       27.35390282     11.43446255     22.86353111
Na       29.79934502     13.70106125     22.79994965
Na       32.30093384     13.40528488     29.57845879
Na       34.32891846      9.26990318     32.08238983
Na       31.98847389     18.48090935      6.84095430
Na       29.36189079     18.51244354      9.11785221
Na       29.16564941     18.36489677     13.15751171
Na       27.70171928     20.81965446     17.95586395
Na       27.62579346     17.92555237     24.97096252
Na       22.64667702     22.93091965     25.06333351
Na       27.44363403     15.94954681     27.21743393
Na       27.43166161     22.85481834     -2.37468863
Na       22.82223701     27.53426933     11.30539799
Na       29.77944374     22.74167442     13.91087151
Na       27.01381874     22.76622963     20.70700073
Na       36.13511276     23.17609787     20.42376900
Na       27.29116821     20.52413368     32.26250076
Na       25.28098679     22.72986794     36.30730820
Na       32.10311890     27.27918053      6.98306417
Na       22.60478401     25.12524033     13.50966167
Na       32.40186691     34.11599350     13.69726372
Na       31.58123016     29.53174782     18.15710068
Na       31.94590187     25.16833305     27.40290642
Na       29.76976967     27.31498909     31.77753830
Na       -5.00066805     -0.18899362      2.34989524
Na        4.72664452      2.35338473     13.83210659
Na       -2.54549217      4.68837261     13.68172932
Na        0.29391691      0.14000702     20.26320839
Na       -4.44920921      2.27539158     22.64657784
Na        0.15106076      0.18046895     29.96076775
Na        2.12858868      4.54426956     32.01082611
Na        1.85852659      4.53091145      4.83061123
Na        2.16110349     13.15182686      9.21049976
Na       -0.05432032      6.86650610     13.54629135
Na       -4.54816866     11.36292648     18.54008484
Na        0.12098032      2.29241061     22.98992538
Na       -2.35669661      9.17946815     31.99736023
Na       -0.34487998      4.24238682     29.93457985
Na       -4.60988045      9.09233093      2.48312545
Na       -0.16240148     11.16664219      9.38860130
Na        0.55403483     13.59440327     11.28871632
Na        2.24783206      9.09147549     18.25101089
Na       -4.58531713      9.37920952     20.59107590
Na       -2.35496759     13.72920704     27.16036415
Na       -6.99119329      9.42385483     31.90209389
Na        0.12713622     13.79395676      2.30187821
Na       -0.19389300     15.90225792      9.34797192
Na        0.36539230     20.43846512     18.46551132
Na        0.20688519     13.60421944     16.20974731
Na       -0.02216185     16.00345993     22.73899269
Na        0.03355669     13.91585922     24.93270874
Na        4.89283848     18.41833687     29.66209221
Na        0.06231660     18.33426857      2.27874374
Na       -0.02588060     22.75342941     11.40000153
Na       -0.07886347     20.48448753     13.31871605
Na        0.15439437     22.37366676     20.65757751
Na        4.76819086     22.80137634     24.75860786
Na       -0.11035983     20.69391823     26.89853477
Na       -2.25664783     18.47546005     32.09557343
Na       -5.07719469     26.84265709      6.78952742
Na        0.54762655     25.10093689     13.74877548
Na        4.60092783     25.02327538     13.90189171
Na        2.11330175     27.37619781     18.44941902
Na       -0.04709247     27.83963394     29.59497452
Na       -0.24917607     27.32577515     24.86515999
Na       -0.49725074     20.68782043     32.27224731
Na        2.27463961     31.76501656      9.48397827
Na       -0.08393221     31.69635391     11.59936714
Na       -2.53644204     27.11314392     14.03572369
Na       -0.54284877     32.03189850     16.12079430
Na        4.74454117     27.28386879     20.57090569
Na        2.37566996     27.57185936     27.23283386
Na        2.20352769     22.80839348     31.99921227
Na        4.46851635      8.48910713      2.19470096
Na        2.53548408      4.49402428     13.91368198
Na       -0.10256926      4.46254110     11.31978512
Na        2.26551533      4.63094521     18.34655571
Na        8.95559883     -0.13593432     24.94155502
Na        4.86171293      4.72168446     25.27668953
Na        4.50475359      4.48071575     34.53614426
Na        4.51205301      9.11391163      6.96978331
Na        4.86084366     13.80896759      6.67754555
Na        4.44029999      6.97733498     13.88330460
Na        4.36108017      8.95594978     15.98011112
Na        9.36306763      4.59683132     25.10017586
Na        4.86785793      8.96469975     29.56575012
Na        3.98243332      6.72310019     31.72112274
Na        7.01301432     13.62808704     -0.42746478
Na        6.89740467      9.20423698     13.97540474
Na        4.44648218     11.43618011     13.30429840
Na        4.28677797     15.71065140     18.15867043
Na        2.20464420     13.43429375     18.45806694
Na        4.59581375     15.95156384     22.70689964
Na        2.36455536     13.75399303     26.89041328
Na        4.32242537     18.40202904      6.94482470
Na        6.45773029     13.75782776      9.11025238
Na        6.59488916     18.28432274     13.77085686
Na        4.41959858     18.16482544     15.66922474
Na        4.65020227     13.42465019     25.05288887
Na        4.53671980     16.12389183     27.50811577
Na        4.38892031     15.83563995     31.87145996
Na        4.81535673     20.40019417      4.13849115
Na        4.42618179     20.48050499      8.95304966
Na        4.69975567     20.45295906     13.77585030
Na        4.71253967     20.48490143     27.54655457
Na        2.53846383     22.70295906     27.30033112
Na        2.10779595     18.23030663     31.32183838
Na        4.41981030     22.32094383     34.15917969
Na        4.79288054     24.98048782      4.55345535
Na        4.75781012     27.20648575      6.78186321
Na        6.88655901     23.02089500     13.77013779
Na        4.61305618     29.80426407     18.54571342
Na        2.20854712     31.98002815     17.95416641
Na        4.40664959     27.55575752     25.07468987
Na        7.01513386     27.44443130     32.00472260
Na        7.02703333     31.88042450      4.30036592
Na        4.32256413     29.51023102      9.28162766
Na        9.26078510     29.68667793     13.79302597
Na        0.16162616     27.22908020     15.87136841
Na        2.13507342     32.03390884     27.03718567
Na        4.57145786     32.06297684     25.18548775
Na        2.31932449     27.33098793     32.07184982
Na        8.82882118      2.33491087      4.81702089
Na        4.65129900      2.28006554      8.70251942
Na       11.47615051      0.23038718     13.96049213
Na        8.76987553      4.41597795     16.00236702
Na        9.01831913     -0.36174026     29.61890602
Na        8.82127094      2.52036285     32.06711578
Na       11.19799423     -0.31250241     27.74908638
Na        9.14372253      2.47661161      9.37731934
Na        8.71505642      7.23827600      9.02180958
Na        8.82679272      6.68992376     13.57491589
Na        9.22286224     11.20308018     18.20798492
Na        9.28968811      9.26395798     20.50940895
Na       11.30756378     13.93076420     27.71189880
Na        9.20226097      6.73828697     31.96287155
Na        8.82866573     14.14629269      6.62083340
Na       13.72551918      9.40261650     11.46085835
Na        9.19198799     13.51346302     11.39008522
Na        8.98759651      8.59782028     15.79817963
Na        9.50452518     11.72328949     22.99621582
Na        7.18221760      4.56114340     27.67338753
Na        8.86625290     11.45790863     32.07823181
Na       11.35792255     13.46487617      4.55076933
Na        8.93895054     16.06823540     13.66270351
Na       11.29945946     14.13082981     18.20417595
Na        6.76705408     13.84988308     18.43770599
Na        6.85685492     18.06777954     22.85993195
Na        9.45787048     13.70797920     29.78687286
Na        8.84937191     18.10037613     29.89478874
Na        9.69286633     20.74323082      4.40275335
Na       11.50551128     22.95048714      9.28065681
Na       13.14879227     16.12683678     13.42920685
Na        4.48215675     25.16460228     22.79293060
Na        4.87560797     18.22929001     24.93079376
Na       13.50362873     25.25885773     27.40935707
Na       11.32730007     18.63421440     36.68091965
Na       16.40368080     27.58684921      4.40410137
Na        9.24532604     25.22500992      9.11419582
Na        4.61661243     24.98674011     17.95692825
Na       10.98060417     18.36459732     13.54041576
Na        9.16795921     25.17420006     23.15482140
Na        6.90756512     22.69854546     27.41873932
Na        6.75893545     22.78094864     31.67086601
Na        9.60845852     29.92390633      4.55903625
Na        4.51672792     32.18978500     11.41021729
Na        9.02571774     31.66895676     15.99331093
Na       -0.01175189     22.68396759     25.00866318
Na        9.34051132     29.43078423     22.72283363
Na        8.85019970     31.97868347     34.25072098
Na       11.67251492      4.10065079      4.64082670
Na       18.09210014      0.29128811     10.94948101
Na       13.47697258      4.88960266     11.43307114
Na       13.54821587      2.32214808     18.33587265
Na       13.48785591      0.19964015     20.32523346
Na       13.57250404      2.08140421     27.22707367
Na       13.65095329     -2.28132057     36.41053772
Na       20.66541672      4.56345510      8.63649845
Na       15.93407059      4.46859694      9.04953384
Na       13.72552109      9.11579323     15.97902012
Na       13.96986485      9.09298134     20.78946114
Na       13.52959824      6.85622692     22.77621841
Na       13.72745609      2.30603909     31.97136116
Na       13.90598774      7.02831507     31.66487503
Na       23.07288742      9.30954266      6.79743576
Na       13.44016933     11.56015682      9.00611019
Na       13.63284302      6.81270266     18.55705452
Na       11.39476490      9.43347836     18.40489578
Na       13.62720013      8.89638615     25.32670212
Na       13.58602905     13.93933582     25.25007057
Na       13.98046112     13.58999538     29.40423393
Na       13.68060017     11.63767433      4.30057955
Na       13.48720551     16.10545731      8.86745167
Na       11.08594131     13.76368618     13.79647350
Na       13.63343334     11.59750271     18.45268440
Na       13.72099495     16.46728325     22.92810822
Na       11.35338020     18.49288559     31.82354164
Na       15.87834930     23.04652214      4.30628538
Na       16.20738602     18.28672028      9.13612652
Na       13.63261700     20.43392944     13.93561935
Na       13.74445534     20.73277473     18.60419464
Na       13.66473579     23.12999916     20.70614243
Na       13.62447643     18.43924713     25.14690781
Na       16.05406952     22.56461525     31.83268547
Na       11.51904202     22.92624474      4.68889761
Na       11.23133087     37.13679504      9.38733578
Na       14.01904964     27.60558891     15.98263454
Na       13.58558369     25.40910530     18.17894936
Na        9.22900200     23.15454674     20.56844139
Na       16.06736374     27.49565125     27.35714340
Na       11.66701794     27.23259735     32.08312988
Na       13.59627247     22.87647820      2.29084992
Na       18.59582329     29.77551651      4.75203037
Na       13.76577473     32.14933395     11.80053234
Na       14.06008148     29.64408684     22.59202957
Na       13.87261391     27.52669144     20.42728996
Na       15.69830322     31.56801605     22.83097076
Na       13.76582336     29.69463539     31.92842484
Na       18.33162689     -4.04428959     11.35964775
Na       18.28656387      6.62051630      9.10041142
Na       20.40248108      4.54350233     13.34930992
Na       20.59660149     -0.08771585     13.38527393
Na       18.07385635      2.03987384     23.02040100
Na       18.52127075      2.32405400     27.29648972
Na       18.04276276      0.01634063     34.26359558
Na       13.89108849      4.20039940      6.80471849
Na       17.93165779      4.54963017      6.67484474
Na       18.15865707      6.95618677     13.43701839
Na       15.91246319      4.57435703     23.02830887
Na       22.46014023      9.26922226     20.30396271
Na       16.13993073      8.85491371     27.29267311
Na       15.91992283      4.73362780     32.04490280
Na       23.25307846     18.58869171      2.37801123
Na       18.12621880     14.16126156     11.19438076
Na       18.33209610     11.50434685     13.17369938
Na       17.88917732     13.82875061     15.68047142
Na       18.13864326      9.53119659     20.60399818
Na       15.90231705     13.86017799     27.15028191
Na       18.61087418     11.32979584     31.48922539
Na       16.13716698     13.63247490      4.61168194
Na       18.24335861     18.13887405      1.97738004
Na       18.11174202     20.60636139     18.01422501
Na       18.22480202     15.91210938     18.13040352
Na       18.46391678     15.91014481     22.15791512
Na       18.53276443     16.11076546     27.51900673
Na       17.99775887     14.03524113     29.53480339
Na       18.23303604     22.92567635      2.08822966
Na       18.36773682     20.61122704      8.94432259
Na       17.90257454     16.08037376     13.63657761
Na       20.49364662     18.14461708     18.28482056
Na       18.67986870     22.49714279     25.03454590
Na       18.39303398     22.60124207     29.48423767
Na       20.46301651     22.98470497     31.79076958
Na       18.19314575     23.03997421      6.85630083
Na       13.86422062     27.39638901     11.59970284
Na       18.47213554     22.67364502     15.88668442
Na       16.13196182     27.60728645     22.59579849
Na       22.68645668     27.49001122     29.55380440
Na       18.57075119     25.34336281     36.32859039
Na       17.83397484     25.26353645      9.38805580
Na       18.32923889     31.88749504     15.98515797
Na       18.06072235     29.83495712     18.55095482
Na       18.03413773     31.93244171     25.18840981
Na       18.05119324     29.95652390     27.59757042
Na       16.15693092     27.24037361     31.49909019
Na       27.81784248      4.64396381      7.00316048
Na       23.17684555      2.40684247      9.49036980
Na       23.24313927      0.10487069     11.64925098
Na       22.95001984     -2.44500232     22.59573364
Na       22.63776970      2.20269322     27.34569740
Na       22.57903671     -0.43324429     34.50460052
Na       22.83895874      4.77200747      2.19346499
Na       25.21312141      4.26648951      4.19946623
Na       20.49203300      9.12959194     13.50158501
Na       22.82858849      4.47331285     20.49755287
Na       20.41842651      4.77460003     23.20210838
Na       22.75788116      4.86650515     29.63284492
Na       18.73170853      9.06358433     29.16084290
Na       23.29414177     13.54275703      2.10940742
Na       20.50818634      9.45627213      4.63287735
Na       24.68417931     13.62358856     13.51330948
Na       22.68395424     13.85256195     15.99979401
Na       23.14164162     13.28362656     20.24601364
Na       23.01295471     13.56369972     29.86199760
Na       25.08979607      4.70962811     31.96968269
Na       22.75312424     25.01688385      4.13100767
Na       20.70798492     13.79603291      3.69022751
Na       22.55595207     11.44255733     13.66817379
Na       25.07693100     22.78614998     22.77918434
Na       19.47683907     20.95828629     22.89157104
Na       20.84248924     13.66954136     27.68599510
Na       22.90954590     20.50997162     31.40056229
Na       22.81458855     20.68341637      4.62071562
Na       22.74744415     20.77754974      8.95206642
Na       22.69761658     16.16429520     13.73464775
Na       22.85914040     20.47709274     18.39134598
Na       25.34209251     18.42612076     18.04887962
Na       22.77762794     18.21856689     24.87140465
Na       27.67805099     17.96817970     29.84412575
Na       22.86811829     23.19408226      6.66298866
Na       22.58464813     22.81252480     11.26210499
Na       23.25097466     20.60995483     13.48082066
Na       24.96108246     22.97593498     18.59929085
Na       18.43227196     29.64149666     22.76321030
Na       25.25189018     23.19853592     31.99130440
Na       25.04820442     27.26869011     32.09897995
Na       20.48680115     27.27538872      9.02432919
Na       27.37755203     31.87476349     11.65606976
Na       18.43653870     27.18662262     16.05659676
Na       22.93258858     25.14540672     18.53323555
Na       25.06519890     31.67176819     22.90736198
Na       22.92157173     29.74772072     27.55097008
Na       27.70246124     27.10289001     34.07258987
Na       29.72064209     -0.14745417      4.73913956
Na       27.13528442      5.12747335      2.34417844
Na       29.31803322     -0.20054615      9.23976803
Na       22.57425499      0.09414385     16.13609314
Na       27.81334496      0.06461206     25.12467575
Na       31.89960098      6.88197088     23.04086494
Na       27.37254715      2.34906578     32.46778107
Na       27.46689415      1.98597598      4.85277128
Na       25.08165169      5.00764179      8.97686386
Na       27.08539391      4.62413836     11.47583008
Na       22.62793922      6.77106380     18.50727654
Na       31.73007011      6.69480515     27.73695755
Na       27.22355270      6.88212395     27.62980652
Na       29.45014191      4.35289049     36.44182968
Na       24.99130058     13.60808277      4.87747908
Na       27.25685120      9.18940067     11.34915161
Na       27.27949715     13.70258617     11.42929935
Na       29.66878510      9.28705502     18.23669243
Na       31.41202927     11.24454308     27.48194122
Na       29.53582954      9.12061787     22.81854630
Na       23.01194572      9.18414211     34.00939560
Na       31.97839546     15.97131824      4.70748472
Na       27.35703278     16.05514145      8.81469250
Na       27.59776878     18.00083733     15.79145718
Na       27.13550186     13.93419456     20.67252541
Na       24.96426010     13.31101513     27.05551529
Na       27.71849060     13.75439644     24.98826981
Na       29.59314156     18.38248825      4.68448973
Na       26.85288620     20.56793976      9.19819546
Na       29.65293694     22.21901894      8.99688244
Na       29.47703171     23.10448074     18.11910820
Na       26.95333290     23.08036232     25.24023819
Na       29.68042374     22.71504593     27.32593346
Na       27.35289192     16.30324554     36.28849411
Na       32.13153458     22.85564041      2.20947146
Na       27.37981224     24.76239014      9.29996967
Na       27.88893890     27.13992310     11.20104027
Na       27.43046570     25.14998055     18.22976494
Na       22.57204437     27.08138466     20.55762100
Na       27.09899712     25.31358528     27.43244743
Na       27.40568161     22.71145821     34.22856903
Na       27.46095276     29.45721436      4.26804876
Na       22.89050102     27.18175888     16.23158455
Na       27.26741028     29.67496872     13.83904743
Na       24.57668686     32.23741531     18.33162880
Na       27.29400444     29.48689651     22.79639435
Na       27.63252258     27.40434837     24.93862343
Na       22.80164337     34.13932419     36.58305740
Na        0.24517897     -0.27919400      2.31884122
Na       -4.39690208      2.65158081     13.56457233
Na       -0.58102351      4.38044119      6.98648834
Na       -0.13587043     -2.56242585     13.97076797
Na       -2.09696698     -0.27646446     22.18666649
Na       -0.15745734     -4.54101562     20.61605453
Na       -0.15156226     -2.32217050     26.98640823
Na       -0.25230068      8.99039459      2.33086467
Na        0.06619954      4.34271097      2.28607559
Na       -6.84562397     13.63833237      8.89114666
Na       -0.37572652      6.75596905     17.89396477
Na       -0.00317026      4.68317890     20.20011330
Na       -4.50325966      6.73636293     22.67545700
Na       -0.41003561      4.37053585     25.32785988
Na       -0.01456869      9.21497917     -6.70436859
Na       -2.31895351      9.13484478      4.48526764
Na       -2.17723536      9.05155182      9.00748444
Na       -0.23067521      9.05206871     15.75657082
Na        6.81475353      4.66033745     22.93404961
Na        0.25404480      9.50570774     29.81174660
Na        4.60557175     11.47324085     27.37148666
Na       -0.13620661     13.48858070      6.98559856
Na        0.27866095     11.61074829      4.60601997
Na       -2.30778694     13.78518105     13.27961922
Na       -0.39096263     11.34148979     13.65694809
Na       -2.51204515     13.43946648     18.15454102
Na       -0.00031424     13.22991753     20.40299606
Na        0.01056333     11.28084660     32.08786774
Na        0.14958936     15.81010246     -0.18045400
Na       -2.56467080     13.65362740      4.53951216
Na       -0.15554988     18.22883034     11.32077122
Na       -2.15035820     18.92223358     17.92024803
Na       -2.26864100     18.28634644     22.90739441
Na       -2.40779185     18.25047684     27.25458527
Na        4.51395750     17.92740631     34.12355042
Na       -2.03192377     23.06675529      0.08246460
Na        2.00560641     17.94949722      9.33639145
Na        2.44925284     22.88278770      9.28433800
Na        0.09337480     22.45758629     16.10261536
Na        0.09966630     25.28681755     22.61418915
Na        2.38250685     22.76507759     22.91347122
Na        4.47832966     20.30599022     31.99806976
Na        4.52666283     29.60124588      0.00064957
Na        0.08490279     34.27715683      4.74440241
Na       -0.01919758     22.77222061      7.02479029
Na        6.51895761     27.28384590     13.91425991
Na        2.28567386     27.46970367     13.39807987
Na        4.58510923     27.48911476     29.82980156
Na       -0.35491815     29.56454468     32.31223297
Na        6.53494263      5.19916821     -0.03092201
Na        2.29436970     -4.94041109      5.01425123
Na        0.09452473      2.22702098      9.24272633
Na       -2.29170299      0.33983919     13.73447800
Na        4.54884386      0.11580013     15.88076973
Na        4.60182858      2.29308510     27.49433517
Na        4.38951063      0.29278937     29.77034760
Na        9.38841820      6.86348629      4.81510067
Na        2.16349626     -0.20596386      4.70549965
Na        4.74335957      4.39719105     11.59205246
Na        4.82542324      4.97472429     15.85023975
Na        4.52154303      2.34199452     18.25025558
Na        4.57295609      6.74716043     22.96895981
Na        4.46357441      3.71363974     29.68750572
Na        4.39378452     13.34868145      2.09665179
Na        6.81429720      9.40781212      8.90587711
Na        4.55827761     13.48599243     11.38059616
Na        2.37282753      9.11053848     14.03595829
Na        4.56739330     11.60550117     22.87899017
Na        4.81932545      6.70820665     28.05583382
Na        2.40096664      9.02620983     27.23588943
Na        2.29194260     13.61866665     -0.12740849
Na        7.13564634     13.43704319      4.02605438
Na        2.35990930     13.56272411     13.68135929
Na        4.42995501     13.67118359     16.03509712
Na        4.66942120     20.43479729     18.23471451
Na        0.07077160     11.16631508     18.18103409
Na        4.58523464     11.10739994     31.68917847
Na        6.99063349     18.13994598      4.56766653
Na        8.89063168     20.57924652      9.14693356
Na        4.31643009     15.86834526     13.55285549
Na        2.18518019     18.22551346     18.13968277
Na        9.55792618     18.35119820     20.35037422
Na        4.49822378     13.94402313     20.61534119
Na        2.28292727     18.83143997     27.28748512
Na        4.52105808     29.75568581      4.44067049
Na        6.61980486     22.56690025      4.67000151
Na        4.66962385     24.86320877      9.09101582
Na        4.50482225     22.80476761     11.43591595
Na        8.97111511     20.67113304     18.12444496
Na        4.89564466     24.97350121     27.13776207
Na        5.00269365     24.92413521     31.92243004
Na        6.88120937     27.57292366      4.80504036
Na        2.08242369     27.11281395      8.94392109
Na       -0.27203485     29.61906624      9.16109848
Na        5.07468891     22.64299011     16.07911491
Na        4.44189262     30.08476257     27.36913300
Na        6.81235933     31.94179153     22.59906960
Na        9.14095592     29.48111153     32.54227066
Na        4.33507204      0.09002282      2.26775217
Na        9.02131271     -2.33076024      9.65645695
Na        6.89704466     -0.02940818      9.38243675
Na        8.91259766      6.78074551     18.17766762
Na        9.08647823      7.02364731     22.83166122
Na       13.64575672      2.01289463     22.64076614
Na        9.00384426      1.96006703     22.87064171
Na        9.06367874      4.66292715     -2.35183835
Na        6.77174759      4.63134146      8.85174561
Na        9.22357750      4.80467987     11.28627777
Na        6.78642464      4.71366882     18.46339607
Na        6.94874144     -0.22601721     27.46900558
Na       11.30894756     -4.63694620     18.08801079
Na       15.97972965      4.70413637     27.52547836
Na        9.26613712      9.23261642      2.12461758
Na       11.33700848      9.24167156      9.26991272
Na        8.50004578      9.43263435     11.19510460
Na        8.96131134      2.52588558     18.53219795
Na        4.38847923     11.37666035     17.98842430
Na        9.55732059      9.03514767     25.30444908
Na        9.00692272      8.85157585     29.61763382
Na        9.13776398     13.66007042      2.07903719
Na        4.85216188      9.60968971     11.20423985
Na        9.29399109     11.71585751      9.20511818
Na       13.95893669     16.31659126     18.25156784
Na        9.19622517     13.73187733     25.15613365
Na       11.40126991     18.37936974     23.19412613
Na       13.79488373     11.36828613     27.26832008
Na        9.29166317     17.98967743      6.93722820
Na        6.75804853     18.25488472      8.72635460
Na        8.74169922     18.10948563     11.21614075
Na       11.36623192     18.30742264     17.97759247
Na        6.69764996     18.02075005     18.15848351
Na        9.12036800     16.42316055     27.26323891
Na        9.50201130     20.45691872     27.23105431
Na        8.42630577     22.76474380      2.53250408
Na        9.36317253     23.08078194      6.71279669
Na       13.54459286     20.65301323      8.82036591
Na       11.56183529     22.86212921     18.53104401
Na        6.78091431     22.70422745     22.12241936
Na        8.78259659     20.53285217     22.60609055
Na        4.45622587     22.84512520     29.62878990
Na       13.90075302     27.57109070      2.13206625
Na        9.51581192     27.45056915      6.77540398
Na        9.24625874     24.81333351     14.07603073
Na        8.91836548     24.97444534     18.51081085
Na        6.74688625     27.21923447     23.11793137
Na        9.03116322     27.46522903     29.65109253
Na       18.36511230     -4.72927523      2.08249283
Na        8.97382259      4.53326464      2.62255597
Na       13.63211823      0.13391951      6.99164677
Na       13.56261349     -0.00336691     16.11727905
Na       11.32572174      0.37333179     17.87916183
Na        9.28495502      2.19649220     27.35570145
Na       13.65525055     -0.37553403     29.66212082
Na       17.84821129     -0.09236144      6.86163807
Na       13.55262089      4.77275896      2.32623005
Na       13.71413326      2.48833585     13.76839447
Na       11.29724979      4.37198114     13.81189060
Na       13.81322479      4.62682295     20.42280006
Na       11.62644005      9.25301170     22.94580460
Na       13.46861076      4.77205658     29.53928375
Na       13.94078827      9.31319904      2.11577439
Na       13.53482628      9.61160564      6.72959900
Na       11.42638874      9.24156475     13.53556252
Na       16.12423897      9.15285206     13.41472244
Na       13.75700474     11.73032475     23.12630081
Na       13.81054306      7.10906696     27.79188538
Na       13.75384808      9.74498844     29.71929359
Na       13.69372940     11.66708755      0.20444800
Na       20.77451134     18.32009125      4.43452454
Na       16.08221817     13.85605621      8.97325516
Na       13.44763565     14.11231327     15.91047668
Na        9.42643833     13.67922115     20.57819176
Na       13.94486046     16.17978859     27.62181664
Na        9.45231533     18.01556587     34.13831329
Na       13.21972275     22.85363007     -2.39655280
Na       11.52385330     13.89780521      9.04863834
Na       18.25273132     13.66566372      6.62275267
Na       18.51867676     18.32478523     15.91896725
Na       14.08646297     18.50985146     20.72616959
Na       11.41138840     18.32681084     27.81795692
Na        8.97396660     24.86742783     31.91360664
Na       13.89722061     23.16563797      6.75063467
Na       15.86398888     22.73938179      8.74039650
Na       15.76614475     18.52083397     13.35332680
Na       13.74127102     22.71827316     16.19860268
Na       15.88582706     18.48861885     18.20692062
Na       13.78996658     23.31381416     24.92963600
Na       20.83061600     18.38987160     31.91061783
Na       11.11029720     22.90381241      0.53745198
Na       13.74170876     25.19720650     14.20233727
Na       13.35327721     29.94096756     18.22908211
Na       13.72780609     27.44369698      6.93982077
Na       13.94368076     25.30941200     22.42192841
Na       13.70389652     27.60495186     25.09394073
Na       13.54847622     27.53035545     29.54402351
Na       18.12024498     -4.44381237      6.82931948
Na       22.76833725      0.08257538      7.18553448
Na       18.53197670      2.32565856      9.06445885
Na       20.31912422     -0.15280874     18.30938339
Na       18.07804871      0.45731038     20.40909576
Na       11.34977436     -4.58499336     22.93773651
Na       18.34027481     -2.03874540     31.67720032
Na       20.33850479      4.80220556      4.67807293
Na       22.82864189      6.94657516      4.62342596
Na       18.30268097      2.22146297     13.85715485
Na       16.13770103      4.37217379     13.75489902
Na       18.08993721      6.83423996     18.70408249
Na       20.62174797      5.09710503     27.60710907
Na       18.26913071      2.20482302     32.17348480
Na       20.41439438     13.47944927      8.97303295
Na       20.65278625      4.70553589      0.03853910
Na       23.23891068      4.57885790      6.70310068
Na       20.53215218      4.87500811     18.35068893
Na       22.56177711      8.86409569     15.83550549
Na       22.36967659      9.50891304     25.02873611
Na       18.38609695      4.79284239     34.15691376
Na       18.04384995     11.64143181      4.39711952
Na       18.57490158     16.01741028      4.44753981
Na       18.28436089     11.54413605      9.02453232
Na       20.12669563     14.20342445     13.37489891
Na       15.87354088     13.60629845     17.97260857
Na       22.55794525     29.44405365     18.45022011
Na       16.07297134     13.71477890     31.51034164
Na       14.01233578     20.48871231      4.44954348
Na       18.20615768     20.41395950      4.54705143
Na       20.58605194     18.02493095     13.37529564
Na       15.76472473     13.77591133     13.84887314
Na       16.18696404     18.37481499     22.76766968
Na       16.26931763     22.71800995     22.81292915
Na       18.59239578     15.87563705     31.72510147
Na       22.91066742     25.02075577      0.06802311
Na       13.69325733     25.24519730      4.18450260
Na       18.45607567     20.52020645     13.56414223
Na       22.77958107     22.79262161     15.81884766
Na       18.27400780     18.32284737     24.89211082
Na       22.65120888     25.17041397     23.17390442
Na       18.16588211     18.56156158     29.62800217
Na       13.89979744     25.25916672      9.33210182
Na       18.13706779     30.07409286      8.86539459
Na       18.20480156     25.18708038     13.56838512
Na       18.26261330     29.80947495     13.64038372
Na       13.97064686     29.66386414     13.68074226
Na       18.08755112     25.07279587     27.30356789
Na       18.64123917     27.61681557     29.67665672
Na       20.53457642      0.20904180      0.01667888
Na       25.28326607     -0.28423819      9.39941692
Na       18.08991432      4.54812479     11.49688053
Na       23.04330826     -2.25019693     14.01821709
Na       22.53597260      0.05520579     20.32999992
Na       22.69849014     -0.02313619     24.97898483
Na       22.80639458      0.05142630     29.80055237
Na       27.13915825      4.39602375     -1.90675378
Na       22.59852982      2.30473876      0.40655440
Na       23.00633621      2.46182919     13.51688862
Na       15.92346668      4.54902267     17.83429909
Na       22.38977623      2.38185644     22.80873489
Na       22.58339500      4.81507921     24.97729301
Na       23.01535988      6.94186354     27.22761345
Na       18.04665947      9.17559528      1.87678730
Na       18.13021278      9.26731682     11.05172443
Na       25.34281158      9.22652626      8.99268150
Na       18.41306877     11.64593220     18.32188606
Na       22.48526001     11.56483459     22.64080429
Na       22.66887093      6.94787550     22.89769936
Na       16.13205910      9.40643501     31.67761421
Na       23.09543610     16.03360176     -0.15648118
Na       22.77303123     16.14851761      4.40547800
Na       22.88782692     15.91737270      8.95501041
Na       20.39246178     14.06526184     17.91438484
Na       20.46159935     14.18080902     23.03832245
Na       25.02476883     13.80398083     22.55542946
Na       20.59121323     13.71146870     31.89898491
Na       22.69714355     11.55125046      4.51222658
Na       25.07881355     18.50058174      4.78362703
Na       22.75383949     13.52335358      6.73716068
Na       24.93270683     17.92152786     13.72148132
Na       25.01061630      9.13637543     22.44672775
Na       25.16009903     18.57932091     31.98049164
Na       15.89518642     17.99877167     32.06587982
Na       23.05095100     27.27193642      6.48850679
Na       25.11463356     22.86480141      9.33097458
Na       22.44391632     25.25945091      8.61129761
Na       22.65862465     18.47143555     11.47000313
Na       23.09443283     18.14647293     20.30007935
Na       27.20845795     25.09109688     22.93684196
Na       20.65547943     22.85043907     27.21647263
Na       22.65856934     27.34322357      2.13908577
Na       25.09052658     27.04154778      4.26525068
Na       27.02762222     27.67686272     15.75780487
Na       20.71574020     27.73143768     13.72992420
Na       20.37329865     27.25490570     23.09122086
Na       24.95247650     27.10541916     22.85642052
Na       20.44506073     27.37144089     31.72692490
Na       25.05597115     -0.19304745      4.40291977
Na       27.53103256     -7.03381348      4.34896898
Na       29.55238152     -4.50541735     18.04863548
Na       27.40175629      4.84627724     16.10306168
Na       27.46970367     -0.14367567     20.58782959
Na       29.78586769      0.05181317     27.64161873
Na       27.06307793     -2.26625466     27.41526413
Na       26.98709106      9.05906773     -1.94241869
Na       27.71352577      6.73489714      9.38105488
Na       27.20465088     -2.47833085      9.47165203
Na       29.70849228      4.65722370     18.26341629
Na       25.17821312      4.74936533     18.35076523
Na       27.37486458      4.73778009     20.76646423
Na       27.06822586      2.27347088     27.63478470
Na       27.43591881      6.76397038      4.72574377
Na       27.38214874     11.34033775      8.94051838
Na       27.69525909      8.92681694      7.00872803
Na       27.35704803     11.51225471     13.23914623
Na       36.63326645      2.12802362     23.04527664
Na       27.32206154      4.47577906     25.34528160
Na       27.37949562     11.67700768     31.80389404
Na       25.31008148     13.47310925     -0.14865565
Na       29.60850334     13.60025406      9.38178062
Na       27.26315498     13.82749939      6.61117840
Na       27.25664711     15.75209045     13.67120647
Na       25.05034065      9.20519161     18.43327904
Na       25.15865707     17.91934013     27.81472778
Na       27.53059578     13.68647099     29.54578018
Na       27.33852577     18.21268463      6.77737045
Na       27.64758110     13.80790043      2.26021409
Na       31.56025314     25.00534439      9.36774731
Na       27.51442528     22.95587730     11.55320644
Na       27.84428024     18.43737793     20.36239243
Na       23.14419365     15.72179699     27.54556084
Na       22.60176468     18.18985558     29.43247795
Na       29.85786629     22.34393120      4.30307293
Na       31.52399063     20.40710449      9.07101059
Na       27.34526825     25.15729141     13.61852074
Na       27.05219078     20.42845345     13.77122784
Na       29.59774208     22.63703728     23.10506248
Na       29.54646301     27.04014206     22.24544144
Na       27.36861229     24.97777367     31.88647079
Na       32.01985550     27.35365486      2.30015993
Na       31.50729942     27.29534721     11.60396290
Na       31.82839012     29.65869522      4.94985676
Na       25.00779343     27.32719231     18.10443306
Na       27.37359428     27.11080551     20.25150108
Na       32.11719131     29.62389755     22.87709999
Na       27.25312996     27.15982056     29.70900917
O        -0.11445094     -0.20247819      4.58907890
O         0.13833487     -0.20971690      9.29650784
O        -0.16021845     -0.07255422     13.82414722
O         0.17057298      0.10077278     18.12085915
O         0.20471324     -0.14941175     22.77199936
O        -0.02638805     -0.09271293     27.56920624
O        -0.00613109     -0.12218273     32.13317871
O        -0.54033822      4.50805473      4.71559954
O        -0.02303542      4.43344593      9.07601070
O        -0.01802829      4.68347406     13.65488338
O        -0.09184302      4.61044836     18.09208870
O         0.01167481      4.40139246     22.58824539
O        -0.27034530      4.39434385     27.51366043
O        -0.44514447      4.55797768     32.28635406
O        -0.13770109      9.35509682      4.58586121
O        -0.05190912      8.99453545      8.92253304
O         0.00284004      9.16718102     13.59738159
O        -0.12830253      9.03384495     18.08294296
O        -0.29516765      9.13761044     22.80922699
O        -0.06997895      9.06577492     27.63908195
O        -0.12359901      9.02350140     31.96315575
O        -0.07740582     13.75416565      4.81040335
O        -0.31894103     13.68947601      9.29693508
O         0.20902012     13.79463196     13.61477947
O        -0.18064351     13.33950520     18.26710129
O        -0.05047996     13.82652569     22.84809875
O         0.05813427     13.33619308     26.98167610
O        -0.21117118     13.39088535     31.72317123
O        -0.25475493     18.20868111      4.50626183
O        -0.13985038     18.21685982      9.07959366
O        -0.28247333     18.35128212     13.41459942
O         0.11209285     18.11115837     18.36283875
O         0.04410882     18.05678368     22.99836540
O        -0.11159838     18.51486778     27.29443932
O        -0.15221378     18.23674965     31.67439270
O         0.07945124     22.57674789      4.53038359
O        -0.22382522     22.71749878      9.29173470
O        -0.08274230     22.74266815     13.68381119
O        -0.26676208     22.80560493     18.37317467
O         0.24958478     22.98728943     22.75150299
O         0.34605274     22.95108032     27.29855347
O         0.17640065     22.77452087     31.83123016
O         0.21252576     27.41989899      4.62658882
O        -0.06999792     27.14151955      9.41613388
O        -0.23176859     27.10847664     13.77218246
O        -0.15098387     27.44416618     18.03906250
O        -0.21426158     27.39423752     22.82174301
O        -0.11952447     27.50172234     27.04741287
O        -0.16777445     27.36710167     31.96562195
O         4.41598797     -0.11066841      4.44716454
O         4.46964312      0.01441784      9.13361359
O         4.36116314      0.23488575     13.75989819
O         4.57979918      0.11745442     18.40607643
O         4.72237730     -0.23037618     22.95703316
O         4.42107725      0.19031650     27.19702721
O         4.27498913     -0.05999540     31.88473320
O         4.52233982      4.69731045      4.66362906
O         4.47137928      4.39903307      9.17266941
O         4.62219429      4.61514282     13.74186993
O         4.62112808      4.83752203     18.38813782
O         4.63715601      4.62855387     23.11152077
O         4.74821472      4.55761099     27.65021706
O         4.13284540      4.58158636     31.76763535
O         4.31014538      9.13590145      4.42185402
O         4.70817614      8.64471054      9.14572239
O         4.62869549      9.24380016     13.66670322
O         4.43215990      9.05286121     18.15768623
O         4.66391945      9.46890354     23.00138092
O         4.67594004      9.03000164     27.39637756
O         4.47242117      8.92307377     31.82483673
O         4.52566910     13.46004581      4.28251648
O         4.33104229     13.89163303      8.98335361
O         4.68656015     13.67075348     13.89798164
O         4.48696613     13.60528564     18.16637039
O         4.66210127     13.63166618     22.81816292
O         4.52536678     13.78616810     27.33026886
O         4.53253603     13.47376347     31.79225540
O         4.42478275     18.29454803      4.66136122
O         4.47733974     18.21397400      9.04939938
O         4.42640352     18.08208656     13.44968700
O         4.29739571     18.39311981     18.03881454
O         4.39818144     18.12792587     22.85803795
O         4.88877869     18.35485649     27.33886337
O         4.60852861     18.16262054     31.75679207
O         4.71362495     22.80637741      4.55112505
O         4.59138155     22.61546516      8.97621155
O         4.50384665     22.83875847     13.89102650
O         4.71106100     22.86528015     18.21171570
O         4.53926229     22.90794754     22.75432396
O         4.72580814     22.71285057     27.66253090
O         4.58622789     22.78149033     31.95276451
O         4.60977030     27.54215240      4.73077774
O         4.61132240     27.21739006      9.00758171
O         4.35039186     27.31007004     13.65341759
O         4.49713802     27.33899879     18.36094666
O         4.53533888     27.42104149     22.84703064
O         4.54163027     27.37384605     27.54220963
O         4.50051594     27.15449905     32.12657928
O         9.10046101      0.08241134      4.82703018
O         9.03923130      0.06010821      9.47771549
O         9.22270870     -0.04505429     13.85419464
O         9.04080677      0.19344455     18.33668900
O         9.05180168     -0.19989353     22.74833870
O         9.12606335     -0.11531197     27.44775200
O         8.98388386      0.37052077     31.88137245
O         9.46131802      4.50530434      4.86641550
O         9.04524517      4.88299417      9.14024353
O         9.01485348      4.56259155     13.74063778
O         8.88722420      4.80005407     18.47188759
O         8.97112846      4.65729952     22.91668320
O         9.20161915      4.44830704     27.35136604
O         8.87397671      4.73098135     31.92712402
O         9.09309387      9.05540276      4.28693104
O         9.06478500      9.24707603      9.16804981
O         9.03713036      9.02438259     13.63330936
O         9.13521481      8.91650200     18.22198105
O         9.36116505      9.15381908     22.86867523
O         9.09296989      9.15570831     27.61050797
O         9.11886787      9.15749073     31.75984383
O         9.19011688     13.86407661      4.17886591
O         8.82620525     13.77038956      9.21564865
O         8.93069935     13.65375710     13.64648914
O         9.21258450     13.75042820     18.44444275
O         9.20167542     13.88545609     23.02612686
O         9.14896297     13.71287346     27.70425797
O         9.32544231     13.71028233     31.98555374
O         9.40323544     18.24164200      4.63151121
O         9.03452873     18.10509872      9.06431770
O         8.74684048     18.31429672     13.36648846
O         9.06402016     18.21960449     18.16950989
O         8.89898205     18.35532379     22.74699593
O         9.16618252     18.43944168     27.84288788
O         9.20630455     18.15264320     32.08760452
O         9.13670635     22.83250999      4.52437162
O         9.16474628     23.07879829      9.15552330
O         9.06683159     22.81959534     13.87272739
O         9.10109138     22.90151215     18.26808929
O         9.02924919     22.82209587     22.80250549
O         9.27118111     22.87310028     27.31747055
O         8.96202660     22.71539879     31.75029373
O         9.18801403     27.67221260      4.48771858
O         9.28480625     27.36133957      9.05374241
O         9.22926235     27.34803963     13.81176662
O         9.22320461     27.32446671     18.32631302
O         9.04678154     27.42539024     22.58799171
O         8.87242222     27.44676399     27.43275070
O         9.45043564     27.32847214     31.83857536
O        13.72239399     -0.05213910      4.32833719
O        13.28216171      0.00646885      9.26218319
O        13.81745911     -0.11728309     13.87637615
O        13.50693130      0.04999493     18.22961044
O        13.61818314     -0.18527026     22.77030373
O        13.80961800     -0.06014065     27.49322701
O        13.48693466      0.10282048     31.81809616
O        13.74188042      4.43133497      4.64572096
O        13.66514111      4.66731024      9.22239971
O        13.76399899      4.59557486     13.65849113
O        13.73297119      4.52325153     18.23464966
O        13.66951370      4.56390333     22.92368889
O        13.72824860      4.62170267     27.39904022
O        13.63793468      4.90595818     32.24897003
O        13.74652958      9.38956356      4.42334032
O        13.63825989      9.50335693      9.02270985
O        13.75500870      9.39113235     13.60269737
O        13.57901287      9.06715584     18.30861092
O        13.69974518      9.28856182     23.09020615
O        13.77074432      9.18123055     27.61469269
O        13.76491356      9.37279606     31.87011909
O        13.64346027     13.74896049      4.68534470
O        13.87651920     13.71753788      8.95713520
O        13.56388950     13.62091541     13.65882969
O        13.76229286     13.64460087     18.04046440
O        13.85202694     14.02869511     22.82816505
O        13.53924370     13.74803829     27.39518166
O        13.86447334     13.73050022     31.88841248
O        13.71499062     18.25180626      4.60772848
O        13.66228580     18.44741058      9.44103718
O        13.40655231     18.37848473     13.71903038
O        13.60783863     18.40696335     18.14555740
O        13.81814671     18.69163704     22.76701546
O        13.51566601     18.13382721     27.54689980
O        13.66339016     18.31775475     32.13922119
O        13.89268494     22.93281174      4.53774881
O        13.65250874     22.97487640      8.91399384
O        13.77057648     22.69402313     13.87025070
O        13.76535892     23.04228210     18.44914818
O        13.83790588     22.95199585     22.65715599
O        13.48113060     22.81281471     27.35346413
O        13.57815075     22.89756775     31.91757584
O        13.88427544     27.50793266      4.28284216
O        13.56888485     27.50874329      9.38660812
O        13.84953022     27.47784805     13.75487804
O        13.60621929     27.63220787     18.15053558
O        13.71946335     27.58229637     22.85190392
O        13.92258835     27.41172981     27.48498726
O        13.90159893     27.50487709     31.88903046
O        18.29621696     -0.18699875      4.66071796
O        18.52806282      0.06142717      8.89004517
O        18.29125595     -0.00429222     13.67225742
O        18.21483040      0.34762359     18.19253731
O        18.28587151     -0.15786868     22.86193657
O        18.22050285      0.13309699     27.31823158
O        18.23487854     -0.02054287     32.28043365
O        17.91650581      4.70507622      4.51643372
O        18.21812630      4.50430918      9.12429619
O        18.26799011      4.85660410     13.43754959
O        18.28875732      4.49397850     18.29268837
O        18.22243881      4.39318132     22.88996124
O        18.39547539      4.61841869     27.79961014
O        18.03107643      4.74815130     32.06261444
O        18.38363838      9.23595333      4.13566399
O        18.41668129      9.52201939      8.95241451
O        18.44078827      9.23815632     13.55477715
O        18.21881866      9.26066875     18.40327835
O        17.99299431      9.29748821     22.85142136
O        18.11031914      9.11693954     27.21757317
O        18.22651482      9.06623077     31.64859200
O        18.30151558     13.53919029      4.37681437
O        18.26675415     13.79918194      8.77472687
O        18.02952766     13.75744629     13.43475056
O        18.08305550     13.57098675     17.78838730
O        18.16712189     13.85817909     23.04263306
O        18.14265060     13.83834457     27.60939217
O        18.24289131     13.63707924     31.74178505
O        18.44835281     18.23797035      4.12207842
O        18.32994270     18.20404625      9.16947269
O        18.33738708     18.36787415     13.70188808
O        18.07313156     18.26950264     18.09754562
O        18.32782364     18.01595688     22.67123032
O        18.07959747     18.38989067     27.22913742
O        18.19503021     18.18444252     31.70459175
O        18.03031540     22.79385757      4.31476259
O        18.01769638     23.01362419      9.15878105
O        18.40747452     22.87256241     13.60271454
O        18.17175865     22.92959976     18.12545204
O        18.32002449     22.67894554     22.98360062
O        18.31807709     22.60162163     27.29525948
O        18.43462753     22.81439972     31.68033791
O        18.40426254     27.42160988      4.60526991
O        18.00148010     27.55524445      9.26365852
O        18.36555481     27.68429375     13.69025707
O        18.03090286     27.30669212     18.27514458
O        18.18633461     27.40305519     22.73045731
O        18.24235344     27.62235069     27.43871307
O        18.27694511     27.35993576     31.86160469
O        22.39419174      0.00152988      4.79408836
O        23.00049973     -0.03112291      9.36471844
O        23.02591133     -0.13311480     13.75129318
O        22.55397415      0.06751166     18.30573463
O        22.83003426     -0.11886532     22.77685547
O        22.80077744      0.06994817     27.32111931
O        22.80140495     -0.08106229     31.87901878
O        23.04094696      4.63861322      4.63242102
O        22.73063278      4.56876087      9.10599136
O        22.66174889      4.78518581     13.66721916
O        22.70813370      4.64731121     18.19516182
O        22.65725327      4.85962200     22.60618782
O        22.65214729      4.45411158     27.34641647
O        22.95096207      4.79102182     31.84209251
O        22.83624458      9.24471283      4.51197720
O        23.08297729      9.09572792      9.07425022
O        22.87687874      9.01982403     13.59519386
O        22.70650101      9.07997894     18.10390282
O        22.55763245      9.14711094     22.68214035
O        22.69614983      9.25647259     27.22449112
O        22.80685997      9.43563080     31.80446434
O        22.86263275     13.76950455      4.28147984
O        22.52218819     13.68652439      9.12996483
O        22.36338615     13.69576550     13.76461887
O        22.70552444     13.81679440     18.08463287
O        22.97110748     14.08631897     22.52650070
O        22.83619499     13.47569275     27.23161697
O        22.87793159     13.80569172     31.81788063
O        22.96937180     18.61408424      4.37110853
O        22.70134163     18.14268875      9.12313843
O        22.73437881     18.39537621     13.62405586
O        22.80857277     18.17467308     18.16340065
O        23.23409271     18.31322479     22.81740761
O        22.88703918     18.30280495     27.23044586
O        22.98220825     18.37347031     31.62209320
O        22.85369682     22.87489891      4.42194223
O        22.71957779     22.90386581      8.96813774
O        22.82259750     22.86596298     13.57362843
O        22.80588341     22.81525803     18.38652802
O        22.81068993     22.71262360     22.81160355
O        23.05847359     22.66660309     27.35838890
O        23.00836372     22.58445740     31.78072548
O        22.95246315     27.19754028      4.44631910
O        22.83698654     27.45790863      9.09026241
O        22.95170784     27.38221741     13.75353622
O        22.70792007     27.13537025     18.44527817
O        22.71319199     27.37772942     22.86674500
O        22.89688492     27.51502037     27.29404831
O        22.80599403     27.36946106     31.89402390
O        27.32064056     -0.17966877      4.52195930
O        27.34703827     -0.15681912      9.40121174
O        27.37911415      0.11966457     13.94167233
O        26.88618469      0.01463328     18.35566139
O        27.63296127      0.05276411     22.61998558
O        27.44463921      0.07033912     27.39195824
O        27.24852180     -0.04104365     32.20767593
O        27.27116203      4.55558062      4.49082756
O        27.46278000      4.64491415      9.25759125
O        27.30633736      4.72062492     13.72295475
O        27.46866608      4.59811878     18.50140953
O        27.21380043      4.54962683     22.92344475
O        27.37714767      4.51566029     27.64182281
O        27.08682060      4.75609875     32.22878647
O        27.63847733      8.95953941      4.57563734
O        27.63513374      9.12936306      9.03368473
O        27.09621239      9.10944366     13.57760906
O        27.32846260      9.11433601     18.64432526
O        27.37481689      9.10170174     22.80973434
O        27.13167381      9.33608437     27.75519180
O        27.24721909      9.17312050     32.11633682
O        27.02318001     14.08653831      4.63338375
O        27.20593834     13.90394878      9.30911064
O        27.45923996     13.64399719     13.50261688
O        27.27648354     13.63547421     18.55131912
O        27.47775459     13.58552551     22.93825531
O        27.31966209     13.72221756     27.26547623
O        27.40856934     13.66036701     32.04420471
O        27.15843582     18.38143539      4.68333483
O        27.25614929     18.34129715      8.94471455
O        27.13579178     18.15623474     13.64692688
O        27.60055733     18.36674500     18.02503014
O        27.68575287     18.16356277     22.82296371
O        27.34310722     18.17218018     27.44135666
O        27.32092094     18.16955185     32.02045059
O        27.71137428     22.81269073      4.44655418
O        27.42841911     22.68910980      9.26597214
O        27.45254898     22.97447205     13.71976089
O        27.13900566     22.93228531     18.07878113
O        27.22957420     22.83962059     22.76068306
O        27.42379379     22.99358940     27.33158493
O        27.44298172     22.75427246     31.83062935
O        27.46800804     27.21947861      4.43752670
O        27.42837906     27.11292267      9.09299660
O        27.31847954     27.28536987     13.65031624
O        27.51276970     27.55013657     18.08619499
O        27.36980438     27.56263542     22.62574005
O        27.37843132     27.41510201     27.40164757
O        27.30394554     27.29953003     32.03486633
H         1.83257735      1.47477114      1.50607145
H         1.86088765      2.79475188      2.91564178
B         2.53090096      2.22331166      2.04830456
H         3.04121804      1.54946721      2.86925602
H         3.26897311      2.97612095      1.35301268
H         1.36247849      1.58428407      6.48511887
H         1.27239251      2.99118924      7.63086557
B         2.11437297      2.34998083      7.16059923
H         2.66488075      1.40511799      7.71994591
H         2.61084676      3.02623582      6.35998631
H         2.89473438      2.95391965     11.02025032
H         1.49060357      1.49468291     10.89772892
H         1.71027207      2.85677266     12.21143818
B         2.37473321      2.07774162     11.62205410
H         3.01426053      1.49767864     12.42811012
H         3.45975542      2.79645181     15.64763737
H         1.87234747      1.36501575     15.78878021
H         1.84089255      2.68676353     17.12780762
B         2.63922596      2.02171588     16.35847855
H         3.31500626      1.36862218     17.09274673
H         2.98908091      3.17319775     19.85879517
H         1.62024605      1.88269484     19.67183113
H         1.78564811      3.19476032     21.16880226
B         2.38398194      2.34959435     20.52139091
H         3.19746208      1.86127853     21.35561943
H         3.08150935      3.18340898     24.65726662
H         1.55854332      1.72746241     24.50992012
H         1.62658620      3.26271152     25.99725914
B         2.30503464      2.59999967     25.27751732
H         3.09932208      1.85699499     25.93577003
H         2.54979110      3.30296898     29.29817581
H         1.32979369      1.78980494     29.30785751
H         1.40726101      3.21581936     30.69919968
B         2.09171796      2.45366287     29.97908211
H         2.58238721      1.74752688     30.81894302
H         2.61662579      7.57410908      1.77801061
H         1.23703575      6.35095024      1.76211190
H         1.20233798      7.62470531      3.24043798
B         1.97256207      6.90895939      2.59072423
H         2.71646523      6.26700926      3.28968096
H         2.74165344      7.81560707      6.44839716
H         1.18298995      6.25714922      6.42921686
H         1.21389830      7.80387926      7.68514252
B         1.92521989      7.04871511      6.88517857
H         2.69552755      6.32245493      7.65074444
H         2.92095256      7.06298113     10.64811516
H         1.40870309      5.64648199     10.55909157
H         1.50245976      7.05824757     11.97071075
B         2.08818984      6.34766293     11.26613331
H         2.92169309      5.73476553     11.97618484
H         2.79835868      7.44892168     15.02322006
H         1.45591366      6.01547623     15.10924435
H         1.32668555      7.49212551     16.68346024
B         2.09624887      6.86412477     15.84663582
H         2.68239522      6.04541588     16.52429199
H         2.88042068      6.07453299     21.24984932
H         2.75648046      7.72634745     19.84167290
H         1.26058519      6.26461077     19.90781021
H         1.38983500      7.53096008     20.93052101
B         2.11953807      6.84883261     20.53679466
H         3.06172490      6.23092175     26.02063942
H         3.02929163      7.74656868     24.81525040
H         1.46676672      6.24260426     24.79449844
H         1.60190260      7.63218355     25.87381935
B         2.35711598      6.86695147     25.31995773
H         2.99581861      6.14215851     30.17010307
H         2.96521020      7.69518328     28.85848045
H         1.55346310      6.15312338     28.83883667
H         1.65893281      7.60935593     30.05366898
B         2.31929445      6.82699156     29.43846130
H         2.70865846     10.47355080      2.76244092
H         2.76369214     11.99214745      1.29914868
H         1.20893705     10.49915886      1.37979019
H         1.27916169     11.84127998      2.66660810
B         2.03320193     11.19012642      2.00255537
H         3.11343336     10.88189411      7.41294622
H         3.08771348     12.31665039      5.93066931
H         1.64721131     10.88961697      5.91267204
H         1.75374985     12.22810936      7.29868507
B         2.40833116     11.53711510      6.57247734
B         1.98255813     11.32964420     11.46379375
H         2.67552423     10.54245186     12.12708759
H         2.57650375     12.00767994     10.78851223
H         1.24145329     10.58204556     10.72908592
H         1.25169730     12.05686283     12.07725048
B         2.37519145     11.28402901     15.90978813
H         3.00952744     10.59328175     16.76445580
H         3.08940482     12.09200478     15.24747658
H         1.73127329     10.46692276     15.20099545
H         1.83421803     12.03554249     16.78787041
B         2.15483570     11.20124626     20.63406754
H         2.88111115     10.45134163     21.38995171
H         2.77454972     11.91153622     19.82984161
H         1.52691138     10.60185909     19.87379837
H         1.46606493     11.92842770     21.30027962
B         2.22912431     11.35213661     25.13971901
H         3.14500332     10.65168095     25.85834312
H         3.00103521     12.09990120     24.48150444
H         1.50515592     10.70885181     24.39470673
H         1.52313876     12.16871548     25.78319168
H         1.68048906     11.94811249     29.92753410
B         2.32523751     11.15049458     29.29485130
H         2.98359489     10.55158710     30.15752411
H         2.80709195     12.00160122     28.62792206
H         1.43859124     10.53968239     28.43951225
H         1.64387715     16.60027313      2.60949111
B         2.11544514     15.89428806      1.87515783
H         2.97223711     15.22520065      2.54796481
H         2.94032288     16.50683212      1.12709594
H         1.63895416     15.15875149      1.02873194
H         1.40571284     16.53983879      7.52770185
B         2.35507202     15.94070244      6.88996029
H         2.94883299     15.00934410      7.65458632
H         2.81355333     16.53144455      5.95979691
H         1.57883954     15.30935478      6.12452888
H         1.36703050     16.64276505     12.07414436
B         2.30179667     15.98649216     11.28097534
H         2.95643926     15.21203709     11.97280979
H         3.01777387     16.60276413     10.45266438
H         1.60557115     15.34924221     10.65120506
H         1.85588336     16.23216248     16.81742859
B         2.43678069     15.60949230     16.05451202
H         3.00294828     14.93849373     16.82255936
H         3.14888406     16.38322830     15.25282097
H         1.84137118     14.92911434     15.38937664
H         1.34284818     15.38098812     19.75487137
H         1.39548635     16.73311234     21.16398239
B         2.04574680     16.07618523     20.44460487
H         2.77316332     15.45633030     21.14128113
H         2.83262396     16.76987076     19.77075195
H         1.79391897     15.39342213     24.23219681
H         1.76771760     16.82983589     25.63741112
B         2.55363178     16.20699120     24.95498657
H         3.24275088     15.46536732     25.53926468
H         3.32691717     16.81585693     24.21997643
H         1.49719441     15.24896240     28.69839287
H         1.50240350     16.68795204     30.19955444
B         2.20651484     16.01236343     29.38450813
H         2.93640542     15.32293320     30.13079262
H         2.95414042     16.63692665     28.75462723
H         1.58216751     19.75951004      1.21862578
H         1.60646760     21.06496620      2.97693586
B         2.29004288     20.35048676      2.09911156
H         2.97640014     19.82128906      2.93945575
H         2.92927313     20.98036003      1.32753277
H         1.25817442     19.83643913      6.33587694
H         1.26423359     21.16778374      7.62966061
B         1.97771382     20.46792793      7.03755188
H         2.75840950     19.87525368      7.59690380
H         2.80903864     21.18565559      6.32406330
H         1.51526308     19.71432877     10.72505760
H         1.46167088     21.21541977     12.02683449
B         2.21608233     20.53241920     11.37430382
H         3.02987719     19.71710396     11.97046566
H         3.08391905     21.21309280     10.67379189
H         1.46716487     19.63777733     15.31188679
H         1.51007617     21.00640297     16.64160347
B         2.24052286     20.33569908     15.93896484
H         2.98060131     19.66374397     16.65854645
H         2.96051502     21.00326157     15.35793972
H         1.64291370     19.36493111     19.83060455
H         1.50189984     20.80658913     21.25146675
B         2.24238539     20.14523888     20.45118141
H         2.80969501     19.45240974     21.02297592
H         3.06631160     20.83471298     19.66146660
H         1.74582982     19.80762672     24.17406845
H         1.73443675     21.34279442     25.53056908
B         2.35350323     20.51286125     24.83356857
H         3.12684417     19.79609108     25.53071022
H         3.03233194     21.24842453     24.25704384
H         2.63407636     21.24001884     28.93922997
H         1.26863682     20.02791023     28.95763779
H         1.17574751     21.31449890     30.41920471
B         1.96531582     20.67728996     29.74269867
H         2.66426325     19.97931480     30.37491035
H         3.47918892     25.77451897      1.60256100
H         2.02084875     24.41261864      1.68025887
H         1.95381534     25.76385498      3.17014098
B         2.65245008     25.17638206      2.34093881
H         3.33167505     24.48243523      3.03329158
H         3.03103089     25.43841934      6.22642851
H         1.72425079     24.14576149      6.19633818
H         1.64211309     25.55064583      7.59995079
B         2.41554022     24.81715965      7.00777769
H         3.13274693     24.07413673      7.58943892
H         3.14924955     25.75418091     10.80872726
H         1.61944354     24.34581184     10.60196495
H         1.84992135     25.73046303     12.04129791
B         2.43920302     25.00543976     11.36464500
H         3.18557215     24.51625061     12.10133743
H         2.90579724     25.60277176     15.34065437
H         1.39762259     24.08871269     15.36595631
H         1.45259082     25.52250290     16.59350777
B         2.23161006     24.82357788     16.02120972
H         2.93805075     24.03115654     16.70602989
H         2.99685383     25.73545647     19.79150581
H         1.59174085     24.27606964     19.79286385
H         1.58407867     25.74176025     21.47681236
B         2.07348490     25.05052185     20.52205467
H         2.89590621     24.37565994     21.36956024
H         3.04827619     26.18106270     24.17035484
H         1.73292375     24.93446159     24.08286476
H         1.62832224     26.37315559     25.39070892
B         2.29247189     25.55699158     24.92362976
H         3.36485243     24.70537567     25.51519012
H         2.72391653     25.98329544     28.61358452
H         1.30377543     24.63350487     28.70876884
H         1.26060307     25.93128586     30.07314110
B         2.12709260     25.25561523     29.47348022
H         2.76222610     24.50001335     30.16345978
H         2.59066963     30.22957611      1.71390927
H         1.30995965     28.93062401      1.69046462
H         1.35833240     30.20464706      3.15722704
B         1.99988425     29.53441238      2.48658729
H         2.72448421     28.82025337      3.31596994
H         2.99245715     28.65849686      7.69433594
H         3.16961098     30.17919922      6.40113497
H         1.64138281     28.51579475      6.43558645
H         1.63148367     30.15464592      7.84693718
B         2.35180378     29.43563271      7.03678083
H         3.08198547     28.91672516     12.19383144
H         3.08018684     30.49559212     10.77778721
H         1.68877983     28.99731636     10.85658264
H         1.67200661     30.43357086     12.13001060
B         2.42541361     29.69348717     11.48603725
H         2.91086197     28.65932465     16.53776741
H         2.85833406     30.03164101     15.32803631
H         1.47583115     28.70245743     15.31864166
H         1.31433249     30.20253372     16.65613365
B         2.11096597     29.39365387     16.00596428
H         3.00812483     28.91541862     21.33379364
H         2.91568470     30.31570625     20.09887695
H         1.40267813     28.93240929     20.02342987
H         1.43997514     30.35385895     21.27950478
B         2.16141725     29.51651955     20.71092033
H         3.03043008     28.90926361     25.75740814
H         3.04231882     30.35728645     24.25982285
H         1.64336967     29.01623917     24.37868690
H         1.58545613     30.29633522     25.70834541
B         2.39027786     29.67506218     25.00503159
B         2.48249412     29.52904129     29.70668221
H         3.12097001     28.89809608     30.48675156
H         3.09711552     30.30446815     29.04476166
H         1.50972342     28.99809074     29.12090111
H         1.43977034     30.29828262     30.45671272
B         6.97340298      2.23468447      2.43572068
H         7.58175659      1.43293989      3.14720154
H         7.45731163      3.09481549      1.65760767
H         6.10026693      1.58619606      1.68641913
H         6.18733120      2.97893929      2.90688062
B         6.47861719      2.19817185      6.40882111
H         7.11839914      1.61812139      7.20396566
H         7.24955511      2.94779992      5.82262373
H         5.71483278      1.47066224      5.80632019
H         5.78830242      2.89063287      7.27795458
B         6.78076267      2.37487745     11.43389225
H         7.54921007      1.70260417     11.99300480
H         7.54830885      3.03711891     10.79177666
H         6.10579491      1.64205408     10.73032570
H         6.08044815      3.12391591     12.07890129
H         5.95670033      3.12517476     16.75708008
B         6.62221909      2.30782366     16.10052681
H         7.28462410      1.66276407     16.73080826
H         7.24786425      3.06214190     15.41635132
H         5.92700529      1.60679674     15.32362366
H         5.90454483      3.04457521     21.21605110
B         6.62012434      2.28950262     20.53174019
H         7.25577641      1.59874761     21.21884155
H         7.32213736      3.11372542     19.89187813
H         5.85560513      1.55259609     19.91208649
H         6.50661373      3.13826442     25.75359154
B         7.17663956      2.22670221     25.14370918
H         7.96475840      1.56249487     25.69244957
H         7.92115068      3.03351665     24.53787422
H         6.47520971      1.46995056     24.40172386
H         6.47446156      2.99801803     30.22560501
B         7.04298401      2.20517564     29.56136894
H         7.98923779      1.61087680     30.10704803
H         7.88958597      2.77980995     29.02061844
H         6.43205070      1.44990909     28.76000023
H         6.13673210      7.46665239      3.20135736
B         6.73786354      6.68356895      2.56319928
H         7.54397202      6.00511646      3.23562098
H         7.51063871      7.46758223      1.82609200
H         6.12776470      6.03041267      1.81805480
H         6.36115456      6.31106806      5.83583307
H         6.42540693      7.81903648      7.27599478
B         7.01026487      7.09197903      6.54854345
H         7.70468283      6.43631649      7.21499825
H         7.76164532      7.81500244      5.90411901
H         5.98292923      6.11075878     10.89382839
H         5.93141413      7.38273239     12.28443432
B         6.83117771      6.76528597     11.67521858
H         7.48999071      6.01992798     12.32375050
H         7.44449663      7.37655354     10.84849167
H         6.14340591      6.00057268     14.90396881
H         6.10234022      7.49160051     16.40578842
B         6.82957220      6.83068228     15.70839882
H         7.54615355      6.09888840     16.26640701
H         7.54719830      7.35326385     15.00124073
H         6.21634817      6.41428185     20.02966309
H         6.08447599      7.76061726     21.45873642
B         6.86308575      7.15622616     20.80867767
H         7.57660294      6.35805845     21.38308716
H         7.56767082      7.67603636     19.98237228
H         6.53427219      6.44672155     24.33465958
H         6.57656431      7.93845606     25.65015793
B         7.31953430      7.23277521     25.05136299
H         8.05070019      6.47554636     25.66362381
H         8.02952099      7.93074512     24.38466263
H         6.40202713      6.04226112     29.11305237
H         6.29217196      7.22830677     30.43284988
B         7.09278393      6.70865345     29.74184990
H         7.75193071      5.98604298     30.37921333
H         7.78804445      7.21078300     29.02072144
H         6.00685787     10.51734924      1.34720087
H         6.05426598     12.12894249      2.60755205
B         6.70680523     11.31082249      2.02528095
H         7.54381800     10.49722290      2.67508578
H         7.48249054     12.13514805      1.38840246
H         5.74761581     10.72041607      6.15099716
H         5.81913233     12.00276279      7.51901960
B         6.58824730     11.37015438      6.92852783
H         7.28634644     10.69040394      7.62054777
H         7.24684286     12.06478786      6.16048717
H         6.03959608     10.80457592     10.43287373
H         6.20647717     12.27401733     11.95933533
B         6.87396479     11.47633648     11.14338303
H         7.64245701     10.86010456     12.07068729
H         7.55378103     12.29669285     10.57707787
H         7.46098185     11.86584187     15.27723026
H         6.12080145     10.40188694     15.43631649
H         6.01878786     11.80876923     16.85637665
B         6.77218962     11.12590218     16.10693550
H         7.43218946     10.27159214     16.88465691
H         7.80546761     12.02160072     19.77597237
H         6.38249731     10.57497787     19.86026001
H         6.29280949     12.02700043     21.22878075
B         6.94050694     11.53397274     20.39479256
H         7.66341925     10.63273907     21.08133125
H         7.61030674     12.22240734     24.48211479
H         6.29365396     10.81465530     24.30006409
H         6.31309414     12.38502026     25.92991829
B         6.87098980     11.53806591     25.11375809
H         7.67098665     10.93602753     25.82798576
H         8.02498341     12.12513828     28.77855492
H         6.46397257     10.94231510     28.61868095
H         6.59782267     12.15116310     30.16005135
B         7.27080202     11.49170780     29.44258690
H         8.04980564     11.07736874     30.15884972
H         7.61188126     17.06956673      1.56931388
H         6.31340313     15.64690018      1.55711341
H         6.36956644     17.02560616      2.89424682
B         7.10647488     16.29961967      2.21780634
H         7.70216560     15.56881618      3.02849364
H         7.49024725     16.71258354      5.92845440
H         5.89240837     15.31516647      6.00141001
H         5.95769119     16.57434654      7.43068743
B         6.78413248     15.83091927      6.62702179
H         7.45470238     15.27775574      7.53338051
H         7.23587561     16.55122948     10.35554123
H         5.81751490     15.29555321     10.38892937
H         5.75007963     16.58527565     11.70624447
B         6.55092859     15.91662884     11.10065365
H         7.26509953     15.23294163     11.70142174
H         7.41394043     16.65794373     15.31094837
H         5.99440145     15.38104534     15.26868820
H         6.08031178     16.61429405     16.80673218
B         6.72802019     16.04209709     16.08511734
H         7.36370802     15.47353745     16.80014992
H         7.58371830     16.85434341     19.73836327
H         6.07459021     15.63334465     19.80102539
H         6.03749704     16.82877350     21.13763046
B         6.89401436     16.22448730     20.55410004
H         7.62771416     15.52668667     21.20719528
H         7.66308594     15.32734871     25.78116417
H         7.72866964     16.69098091     24.66278648
H         6.23831320     15.25392246     24.65494537
H         6.17899418     16.75814247     25.91390991
B         6.90403748     16.13466454     25.20180130
H         7.69269085     15.24401760     30.43678474
H         7.55706692     16.47984123     28.92538452
H         6.35174084     15.31133652     28.85707855
H         6.25555611     16.64432907     30.46565056
B         6.97836208     15.87721062     29.77780533
H         7.65497494     19.60128403      2.86245704
H         7.72542286     21.01466370      1.56969011
H         6.22919273     19.41039276      1.44924784
H         6.37952757     20.98477173      2.90301299
B         6.94540501     20.28069687      2.17710876
H         7.67883635     19.46717453      7.26188660
H         7.71991205     21.02148438      5.70909119
H         6.53351831     19.55458260      5.83757687
H         6.47956800     20.94694710      7.22842598
B         7.21806002     20.29838181      6.50780106
H         7.39599419     20.05186081     12.19198990
H         7.33295488     21.34239006     10.70661163
H         5.91334152     20.08302116     10.67473221
H         5.95651960     21.33109093     12.11765099
B         6.77558470     20.64633942     11.35454559
B         6.96206713     20.34581184     16.06556702
H         7.65117979     19.58717918     16.76955605
H         7.72854567     20.99086761     15.32729816
H         6.24681044     19.59980583     15.41729069
H         6.21829987     20.92938614     16.78544044
B         6.61406946     20.18828201     20.50692749
H         7.31692648     19.72845650     21.34958839
H         7.32598782     21.01401329     19.98332596
H         5.85051584     19.57421684     19.83815002
H         6.05260468     20.95710182     21.30173683
B         6.99984026     20.79940033     25.07720375
H         7.66959572     20.01440811     25.77973175
H         7.60869360     21.53750992     24.31517982
H         6.34004641     20.12231636     24.36218643
H         6.24793816     21.58261299     25.76393127
B         6.68593073     20.65878105     29.65824699
H         7.47170734     19.81161308     30.30691910
H         7.43359852     21.39317131     28.87526131
H         6.10949039     19.92257690     28.94811821
H         6.01273775     21.41706657     30.29270554
H         6.06815338     26.16238976      3.29698706
B         6.87244606     25.48991585      2.68666124
H         7.48335934     24.63797379      3.26143003
H         7.47664070     26.12011337      1.99066210
H         6.08209276     24.61635590      1.96232498
H         6.27452087     26.01291084      7.59394455
B         6.94474649     25.27104187      6.96176481
H         7.55835819     24.51027870      7.60652828
H         7.45203352     25.91917038      6.17409945
H         6.39181137     24.64015198      6.19764900
H         6.34264708     25.92549515     12.06560040
B         7.04337883     25.12572479     11.52416611
H         7.84406090     24.43202019     12.15917397
H         7.71589422     25.89090157     10.73750782
H         6.30864286     24.49158859     10.66891003
H         5.98241377     26.02565002     16.63837433
B         6.73831987     25.30512238     15.94850826
H         7.33966541     24.57059288     16.63401794
H         7.39768600     26.07931519     15.20569992
H         5.99812841     24.58195305     15.27507782
H         6.25575829     25.60401344     21.72285461
B         7.03381968     25.01835060     20.97270775
H         7.67730045     24.31316948     21.74354172
H         7.79860783     25.74600792     20.24496841
H         6.25493574     24.33303452     20.38614082
H         5.96780539     24.49821472     24.15260315
H         5.94271374     25.96557236     25.68911552
B         6.65076828     25.10414886     24.90040588
H         7.57931137     24.56885529     25.59338379
H         7.52083111     25.81135941     24.28172493
H         5.94374800     24.44363213     28.94054604
H         5.95357704     25.83804131     30.44754219
B         6.62417316     25.07122040     29.77778816
H         7.36098957     24.41637611     30.48462677
H         7.26031780     25.77445602     29.01395988
H         6.36522388     29.16906929      1.58239090
H         6.25034237     30.45177650      2.98719382
B         7.00876045     29.81041718      2.27627611
H         7.75090170     29.10584641      2.93553615
H         7.78972054     30.43893814      1.48034894
H         6.01967812     29.05422211      6.34219790
H         6.01280928     30.43721390      7.75154495
B         6.76551390     29.86596107      7.01479578
H         7.56912804     29.12778664      7.67111158
H         7.55644798     30.34410095      6.42844296
H         6.02069187     28.81321144     10.83327198
H         5.87056446     30.09308624     12.35849667
B         6.65232658     29.42657471     11.57979584
H         7.38991547     28.74208260     12.27949905
H         7.38856840     30.01274300     10.76348972
H         5.98832703     28.95523643     15.08682728
H         5.90548658     30.35472107     16.33403397
B         6.67624187     29.61388016     15.67926598
H         7.36524773     28.86063004     16.34580040
H         7.36682415     30.36806107     14.99064636
H         6.22783613     29.05743217     19.90048981
H         6.25786114     30.31543922     21.11259651
B         7.04123259     29.74967575     20.47698975
H         7.79863071     29.00668335     21.19336891
H         7.87969971     30.47727966     19.76867294
H         6.23494244     29.05014801     24.21856689
H         6.05048847     30.52160072     25.34884453
B         6.85992575     29.82816124     24.79302025
H         7.51453495     28.92354774     25.29099083
H         7.60270977     30.55191994     24.00379181
H         6.09886980     29.14163399     29.00273514
H         6.05160522     30.32206535     30.43265915
B         6.81696320     29.77358437     29.72415543
H         7.50228596     29.00952339     30.51750183
H         7.49585772     30.40048027     28.87705421
H        12.10562801      3.02917600      1.69663405
H        10.64654064      1.53408468      1.64753366
H        10.73634052      2.98847651      3.09848237
B        11.41192055      2.25373626      2.36815023
H        12.08701134      1.60180092      3.12056589
H        12.14470196      2.86865520      6.54222584
H        10.50936604      1.37464833      6.46938944
H        10.69470024      2.75615668      7.98273945
B        11.40523434      2.12641692      7.18888760
H        12.09149265      1.50069284      8.04202843
H        12.42069435      3.13511348     10.61733341
H        11.26108932      1.76618922     10.76185799
H        11.04389381      3.20778418     12.09772491
B        11.79486561      2.43651128     11.53682423
H        12.43400669      1.60835171     12.03836632
H        12.43717098      2.93779445     15.21739674
H        10.84875679      1.69046843     15.16099167
H        10.91825008      2.92470622     16.73738289
B        11.57068920      2.27474117     15.94278336
H        12.41182995      1.77221417     16.72513008
H        11.91970158      3.00494862     19.73476410
H        10.61624146      1.57273793     19.67543983
H        10.64999771      3.03051758     21.13455772
B        11.29208469      2.18760419     20.47313881
H        12.05561924      1.49614501     21.24490547
H        12.23867226      2.99579287     24.37745094
H        10.91705799      1.37400377     24.52402115
H        10.78878784      2.97749138     25.62055969
B        11.56552029      2.24975657     25.03111458
H        12.13188076      1.33422291     25.53207016
H        11.96641731      3.01698446     29.24853325
H        10.60736275      1.48376155     29.14030838
H        10.59982300      3.13275051     30.56693459
B        11.19491863      2.29099679     29.86387825
H        11.93348980      1.62491560     30.41824150
H        11.73961926      7.46319866      1.49238062
H        10.48659801      6.15553713      1.57199383
H        10.40479088      7.46539164      2.98293471
B        11.15720367      6.75657129      2.32368851
H        11.78303623      6.03250599      3.02415919
H        12.48499966      7.75233316      6.11647797
H        10.92840004      6.26228237      6.16024065
H        10.85452557      7.78244495      7.49325180
B        11.70051479      7.14799452      6.70057917
H        12.41886044      6.28465986      7.39699984
H        12.03625965      6.39883471     12.29594994
H        11.86161137      7.67703390     10.87279606
H        10.51465321      6.43693018     10.73624229
H        10.51240349      7.81583691     12.26010418
B        11.08824062      7.07050753     11.60897827
H        11.93925762      6.16340733     16.59009743
H        12.07861423      7.71464682     15.44160366
H        10.63187218      5.98782301     15.40537643
H        10.66750240      7.71524382     16.73005104
B        11.29133224      6.96760511     16.05488205
H        12.21896267      6.20004463     21.42646980
H        12.17228794      7.46969748     19.89243889
H        10.73403645      6.21302271     19.85874176
H        10.72663879      7.51079226     21.42088890
B        11.39501190      6.72721481     20.63251686
H        12.12837410      6.09256697     25.91406822
H        12.14824295      7.47164440     24.57860947
H        10.63446426      6.12165070     24.62756157
H        10.60947514      7.44767952     25.90997124
B        11.33177090      6.68896484     25.24429321
H        12.13858795      6.17598820     30.25241470
H        12.27225018      7.52934742     28.98455238
H        10.74036503      6.00254583     28.94477081
H        10.78502655      7.52446699     30.38119698
B        11.47375774      6.84192705     29.57234955
B        11.49691296     11.46382523      2.14793444
H        12.26652050     10.80385113      3.03657961
H        12.36487961     12.15642643      1.44289231
H        10.72138214     10.77644157      1.51384425
H        10.75162029     12.05523491      3.03375006
B        11.02387619     11.19657898      6.88164043
H        11.75638294     10.60356998      7.43859148
H        11.67003822     11.99876118      6.19289589
H        10.43900204     10.57600212      6.07898283
H        10.42564583     12.12603188      7.47951651
B        11.40819073     11.53547764     10.98032379
H        12.23560047     11.09742546     11.76583767
H        12.17812061     12.38201141     10.56484985
H        10.57166386     10.90866852     10.31861210
H        10.83642387     12.36348820     11.68983364
B        11.12225437     11.20508766     15.77762985
H        11.76957035     10.48285675     16.47956657
H        11.78587437     12.00686455     15.06276131
H        10.53564262     10.47077084     15.06697845
H        10.51698208     12.02130890     16.51031303
H        11.03107262     12.11155128     21.40302658
B        11.80108738     11.48680878     20.76064110
H        12.37307262     10.72180843     21.48800278
H        12.40726566     12.23071957     20.19120026
H        10.99063396     10.76634502     20.26992989
H        10.84648705     12.14115715     25.99958420
B        11.52748203     11.50412083     25.20202255
H        12.22237396     10.80851460     25.99047470
H        12.27966690     12.18933773     24.62612724
H        10.81221676     10.76513290     24.64003754
H        10.79284286     12.29357433     30.63859558
B        11.56752682     11.72990036     29.78550148
H        12.17559719     11.04389191     30.53247452
H        12.22722721     12.23908234     28.92889023
H        10.81068325     10.95561218     28.89224052
H        11.02911949     16.82599258      3.16839767
B        11.72726154     15.96361160      2.46671414
H        12.47079945     15.23299026      3.16711473
H        12.43100452     16.78491592      1.96398222
H        10.93657970     15.13916683      1.83036411
H        10.92809772     16.76065826      7.48185396
B        11.70411491     16.13801003      6.78754187
H        12.39110851     15.52694511      7.56056547
H        12.39069462     16.83895493      6.03812742
H        10.87503433     15.55259228      6.06336021
H        10.54741764     15.33970833     10.76137543
H        10.49438572     16.79130554     12.14532471
B        11.09688950     16.16122818     11.33880520
H        11.90383816     15.46019745     11.97180462
H        12.01307869     16.72702408     10.77262497
H        10.63920879     15.63374710     14.99992943
H        10.58375740     17.03458786     16.47008514
B        11.21889591     16.26492691     15.78090763
H        12.11993313     15.61475468     16.43362617
H        12.03143787     16.90963554     15.06943035
H        10.86378765     15.31317234     20.15825462
H        10.70619106     16.82295418     21.40320778
B        11.55961895     15.94674587     20.75034142
H        12.47538567     15.25037193     21.30841064
H        12.41307735     16.66584969     20.15776253
H        10.51139355     15.74786472     24.67600632
H        10.55424023     17.33628464     26.03311348
B        11.34254646     16.46436691     25.40019035
H        12.06981850     15.75206470     26.07175827
H        11.95992947     17.26504135     24.79009628
H        10.88052177     15.50873470     29.03485680
H        10.86620426     16.81640434     30.63516045
B        11.51181412     16.16929626     29.94869614
H        12.10187149     15.47604656     30.65353394
H        12.08865929     16.82156181     29.01538086
H        10.70840740     19.95600319      1.39021921
H        10.72635651     21.24606514      2.63760686
B        11.47668552     20.61043930      2.09397578
H        12.23803425     19.89284134      2.71871829
H        12.15134335     21.24048615      1.41374707
H        10.67569828     19.76992226      6.27356386
H        10.64783478     21.22232246      7.63137817
B        11.32470226     20.33647346      7.18236589
H        12.05047417     19.62897301      7.74446487
H        11.88405132     21.16898727      6.29903650
H        10.48511124     19.92688942     10.82501507
H        10.49316502     21.16538048     12.42778683
B        11.29438877     20.67540932     11.59797668
H        11.89749908     19.95721245     12.40551567
H        12.01881886     21.26442909     10.73402023
H        10.49783897     19.88113785     14.99954128
H        10.31660843     21.25848770     16.53313637
B        11.08486080     20.44051170     15.88972950
H        11.79718590     19.69713593     16.53590775
H        11.57738209     21.04145622     15.03534317
H        12.18341446     21.12115669     19.54222298
H        10.66891193     19.71952438     19.62986565
H        10.75254726     20.94988060     21.00000572
B        11.50793648     20.26567650     20.13912582
H        12.10387611     19.71142197     21.09174347
H        12.14973068     21.45352554     24.13946724
H        10.66823006     20.01782799     24.13759804
H        10.67119884     21.45242882     25.53640556
B        11.54205608     20.67568970     24.78185272
H        12.16322517     20.00620270     25.55099678
H        12.01901054     21.24209595     29.02873039
H        10.62533665     19.86442566     28.92406845
H        10.66907215     21.30302620     30.31563187
B        11.35895157     20.49065208     29.75877190
H        12.15410614     19.83399200     30.38979912
H        12.04246616     25.69341087      1.73696721
H        10.47695541     24.21567726      1.85251331
H        10.46394825     25.59087181      3.09879804
B        11.30908489     25.05147552      2.34289885
H        11.96325207     24.17934608      3.12212300
H        12.30294228     26.06159782      5.99584055
H        10.76943874     24.64960670      6.03194141
H        10.82990551     25.96502686      7.44601154
B        11.56999397     25.23870087      6.73474598
H        12.37253857     24.54390907      7.61217737
H        12.35871315     25.96863174     11.16609001
H        10.92238235     24.48162460     11.02388382
H        11.04774570     25.98547363     12.43594456
B        11.70637989     25.11237335     11.75422001
H        12.44611168     24.53643417     12.50649929
H        12.02997780     25.93042374     15.57920551
H        10.53503418     24.30932999     15.69254971
H        10.56191921     25.79019547     17.00624084
B        11.26148701     25.17980003     16.21862793
H        11.80186176     24.42409897     16.91835403
H        12.27031231     26.01823235     19.92364693
H        10.90384293     24.46210670     19.84567642
H        10.96197891     26.03806496     21.30387115
B        11.45105171     25.32304955     20.50985909
H        12.12432003     24.68606758     21.13804436
H        12.13812828     26.09387589     24.60489082
H        10.76096344     24.49589729     24.46427345
H        10.81319427     26.18226242     25.94534683
B        11.45965099     25.39479828     25.29498291
H        12.16602135     24.60862160     25.88485146
H        12.29738522     24.85338783     30.65707397
H        12.31714249     25.85470772     29.31425476
H        10.78697205     24.73596001     29.21658325
H        10.80161381     25.93773842     30.75986099
B        11.48901653     25.30609512     29.96636200
H        12.10016060     29.05485725      2.94232678
H        12.02064133     30.63460922      1.54312563
H        10.91088009     29.12513161      1.53388369
H        10.92755222     30.62718010      2.85537815
B        11.46634579     29.82398224      2.18046093
H        12.42300320     29.31413841      7.10564184
H        12.39965153     30.58447647      5.76638699
H        10.91979885     29.31577682      5.74467421
H        10.87953377     30.64645386      7.14426756
B        11.62650967     30.00497437      6.49105120
H        11.92700100     28.97824287     12.28584862
H        12.10931396     30.54792595     11.08439922
H        10.65912819     28.83576584     11.12423420
H        10.77198696     30.39523125     12.31546783
B        11.37598896     29.76460838     11.65350723
H        12.18271160     29.09913635     16.72089577
H        12.22239971     30.32165718     15.32454395
H        10.76339817     29.09212685     15.35722160
H        10.73578262     30.31659317     16.75552177
B        11.50540066     29.75307083     16.01548004
B        11.55710506     29.94252396     20.33452797
H        12.32374382     29.29715729     21.13138390
H        12.16022396     30.70261192     19.74110413
H        10.82550526     29.36429977     19.64472771
H        10.82978916     30.79470825     21.05995750
B        11.27300930     29.78372383     25.43085670
H        11.95212936     29.04407692     26.05980492
H        12.03352737     30.51692772     24.80439949
H        10.55937767     28.96903801     24.81075668
H        10.53574562     30.53420067     26.15847778
B        11.35568333     29.49583817     30.04427338
H        11.99307919     28.76849556     30.77752495
H        11.91952038     30.23787689     29.34363747
H        10.56016254     28.85824776     29.35983086
H        10.54617119     30.23567581     30.70176506
B        15.94375134      2.28828835      1.82854092
H        16.58832169      1.65737092      2.74973297
H        16.65401268      3.06517458      1.20438266
H        15.19497967      1.63200724      1.24470937
H        15.30624294      2.91358471      2.66383410
H        15.30983543      2.83974385      7.52938271
B        15.96788025      2.12128115      6.87933779
H        16.46120262      1.38071966      7.57604742
H        16.51064491      2.93585038      6.16828775
H        15.20796394      1.32551372      6.16252327
H        15.13979244      2.81857753     12.09821796
B        15.94165516      2.12212777     11.39316940
H        16.63136482      1.21547639     12.01102543
H        16.66279602      2.76281643     10.79582977
H        15.29399586      1.28248692     10.89427280
H        15.20471478      3.10270643     16.77132988
B        15.90106487      2.24466419     16.16376877
H        16.72042274      1.56310928     16.90375710
H        16.52047729      3.03518748     15.44525719
H        15.07036591      1.56118572     15.24338913
H        15.70556831      2.89940333     21.59998512
B        16.22556114      2.13003516     20.87325096
H        16.96580505      1.44136667     21.61113739
H        16.92792892      2.87268043     20.38653755
H        15.55416584      1.30111647     20.20841217
H        15.15275478      2.78967094     25.60232353
B        15.83873558      2.10551596     24.84318161
H        16.41798782      1.58517528     25.73999786
H        16.45488739      2.96424294     24.25592613
H        14.96199703      1.53209233     24.23974037
H        15.25961018      1.84051073     28.94030762
H        15.27223587      3.28433776     30.37946701
B        15.86250210      2.59157372     29.67289543
H        16.62099838      1.87797689     30.35462570
H        16.61649132      3.25498986     28.98228264
H        15.24659252      5.98940468      1.54675066
H        15.09954166      7.39902973      3.05608582
B        15.91261292      6.70227337      2.32050753
H        16.68032646      5.94024324      2.95819688
H        16.63351440      7.25432682      1.54440320
H        14.97885513      6.16478300      6.35390234
H        15.11061001      7.52456474      7.64970636
B        15.73117638      6.76114988      7.07954407
H        16.51991844      6.17437267      7.77187300
H        16.46560287      7.59241533      6.41780663
H        15.29740238      6.19183731     10.33904076
H        15.46660519      7.47530937     11.84669495
B        16.06155968      6.75560617     11.11158657
H        16.84034538      6.22237635     11.98535824
H        16.80369949      7.57732868     10.40622425
H        15.07207298      5.78223419     15.27740955
H        15.09271812      7.38313770     16.61829758
B        15.76046562      6.66679811     15.92356491
H        16.41010857      5.89283180     16.52834702
H        16.52418709      7.40726280     15.27392864
H        15.21597385      6.19747543     19.81442451
H        15.24510479      7.56497288     21.45206833
B        15.84942055      6.90561104     20.55437660
H        16.50764084      6.30588007     21.37279701
H        16.53584290      7.51390123     19.89462662
H        15.15734482      6.06218433     24.49929428
H        15.18190479      7.38565969     25.97485542
B        15.82837868      6.79919434     25.16066551
H        16.42509460      6.14359379     25.91800690
H        16.55071068      7.45442629     24.45508766
H        15.19462395      6.34360409     29.08213997
H        15.22977638      7.66363430     30.35895348
B        15.89685631      7.06061220     29.71767044
H        16.57121277      6.30473804     30.43297195
H        16.52833939      7.69477987     29.08614731
H        15.16856956     10.84077930      1.36542130
H        15.32004738     12.17751217      2.62214923
B        16.06231308     11.46881962      1.87962902
H        16.73371696     10.87880898      2.73559666
H        16.75732613     12.31456947      1.37984061
H        16.71302032     12.11417770      5.96040106
H        15.28381252     10.66467476      5.91284895
H        15.25834846     12.18719387      7.22024012
B        15.98390961     11.37504005      6.51423788
H        16.78155136     10.64369488      7.21575594
H        16.67904282     11.83937740     10.48470211
H        15.28163910     10.60926437     10.42095280
H        15.28471088     11.90005589     11.91616726
B        15.95455074     11.20546055     11.22684956
H        16.75337410     10.59868431     11.92981815
H        16.62185097     12.16701508     15.21334934
H        15.12427330     10.63536549     15.29075241
H        15.08323002     12.13065529     16.51314163
B        15.66148567     11.44587135     15.80231476
H        16.49701500     10.68279743     16.42466736
H        16.75560379     12.17081070     19.96544456
H        15.15291500     10.65176010     19.92490196
H        15.25935364     12.10491467     21.36419487
B        15.94908142     11.52641964     20.58188248
H        16.62235832     10.82554817     21.29684639
H        16.52874947     12.01836967     24.50166512
H        15.35335350     10.61465073     24.32392120
H        15.37216759     12.17729855     25.73826790
B        15.82322311     11.32932377     25.11914635
H        16.70687675     10.61426830     25.75746536
H        16.84121513     12.32026958     28.71649551
H        15.37027073     10.88460255     28.64652061
H        15.33333492     12.42718029     30.01907539
B        16.06687355     11.65258121     29.38872337
H        16.90558243     10.89021015     29.97653198
H        16.89362717     16.74819183      1.72262943
H        15.63083172     15.49141788      1.55718756
H        15.57749176     16.96697426      3.23853874
B        16.18731308     16.21804237      2.50756073
H        16.99643517     15.55405140      3.12256551
H        16.98724174     16.88763237      6.01187897
H        15.55535507     15.33603191      6.11542320
H        15.52329922     16.81614494      7.32959461
B        16.28659630     16.11148834      6.70771122
H        16.92473793     15.29499149      7.33857918
H        16.32274246     16.79615211     11.28753853
H        14.95198536     15.22497177     11.39610863
H        14.87333488     16.76623344     12.54408360
B        15.62945080     16.04704475     11.92786407
H        16.26463127     15.17451286     12.51589203
H        16.48483658     15.52010918     16.50169754
H        16.74120140     17.06046486     15.12403202
H        15.18459892     15.38633919     15.24662781
H        15.27764988     16.84481812     16.54241562
B        15.89511776     16.31995583     15.72803211
H        16.50569153     15.42134190     21.13594246
H        16.62484741     16.85868454     19.61571312
H        15.20379448     15.45578671     19.76931381
H        15.10890484     16.79997444     21.19638634
B        15.90233994     16.25028801     20.36425018
H        16.69424629     15.50263023     25.73503494
H        16.75364685     16.58915710     24.33514214
H        15.22344780     15.39687252     24.28878403
H        15.14897156     16.70999146     25.91526985
B        15.87622929     16.12056732     25.05335045
H        16.48045921     15.09097576     30.23141861
H        16.57135963     16.55229568     28.77139473
H        15.11903477     15.13770580     28.90902710
H        15.09407520     16.43962479     30.20964813
B        15.85883427     15.88773632     29.59571648
H        16.80870819     19.39181709      3.14949846
H        16.50328636     20.88414764      1.57747614
H        15.45893097     19.63937950      1.51961470
H        15.45728493     20.94365501      2.90358281
B        16.15965080     20.13507652      2.42457867
B        15.90168858     20.79359818      6.77116060
H        16.52272415     19.98958206      7.36921024
H        16.58701324     21.41698074      5.99461460
H        15.14762306     20.03973389      6.10905504
H        14.99097061     21.45919228      7.47571087
B        15.83134460     20.51790047     11.21503925
H        16.66052246     19.98943138     12.00946236
H        16.55175591     21.27074814     10.57550335
H        15.03495407     19.95439339     10.43169785
H        15.19785881     21.25164795     11.88159752
B        15.99145126     20.69387054     16.18973160
H        16.67625618     20.04486275     16.79310608
H        16.81561661     21.46228409     15.46375942
H        15.38644695     19.96716690     15.52542305
H        15.35687160     21.43019676     16.90038109
B        16.12788010     20.90546799     20.49606133
H        16.84504890     20.04526901     21.28491783
H        16.78671074     21.61683464     19.71975136
H        15.39967346     20.21269989     19.82884598
H        15.32334423     21.58407211     21.19381905
H        15.37730026     21.36326599     25.66375542
B        16.12467384     20.77417755     25.15865135
H        16.82583046     20.03505707     25.74868202
H        16.82668304     21.44904709     24.49127579
H        15.29656124     20.03924561     24.49631882
H        15.25208950     20.75377083     30.30590057
B        16.08952332     20.34923553     29.55746651
H        16.73187256     19.59207726     30.34744072
H        16.85956573     20.92300415     28.68888092
H        15.31727886     19.69880486     28.92330360
H        15.32900524     25.86383247      2.59127378
B        16.01022148     25.01808929      1.84582973
H        16.68417740     24.27084351      2.59374905
H        16.78903389     25.97116280      1.11990333
H        15.32104206     24.26535606      1.21927083
H        15.14634514     26.11019897      7.65803146
B        15.79348087     25.26997757      7.09165430
H        16.32675934     24.60337830      7.79541683
H        16.23800850     26.15883064      6.48209143
H        15.04894161     24.64336014      6.43332052
H        15.19444275     25.70371819     12.26375866
B        15.78003597     24.92796516     11.50309849
H        16.50692940     24.13056755     12.32882786
H        16.42492104     25.68677711     10.96302223
H        15.12938404     24.13057709     10.88102245
H        15.42381954     24.19795990     15.23669434
H        15.28332520     25.83590317     16.68281746
B        15.92608356     25.03973389     15.93301296
H        16.65724754     24.26051712     16.47976685
H        16.68560219     25.66120911     15.27089405
H        15.42949772     24.56187630     19.79567909
H        15.48669052     26.34956741     21.21160316
B        16.02422714     25.45042038     20.49814796
H        16.65443420     24.64044380     21.19022560
H        16.59338379     26.26713943     19.93529892
H        15.53170586     24.39733315     24.30605888
H        15.56392097     25.84172821     25.78451920
B        16.07144928     25.16832924     25.05174828
H        16.85495949     24.54194641     25.67211914
H        16.92523766     25.79960632     24.38039589
H        15.25289917     24.29630852     28.74183273
H        15.25608349     25.80546379     30.19870758
B        15.91421413     24.98368073     29.57090569
H        16.65173340     24.19331551     30.30488205
H        16.54708290     25.80699158     28.74349403
H        15.55913448     28.84921074      1.31438744
H        15.48861599     30.21739006      2.86076856
B        16.20110321     29.60209084      1.98968244
H        17.06416512     28.88568115      2.75377870
H        17.08329201     30.12952423      1.33173299
H        15.19976902     28.63926697      6.20052910
H        15.44637012     30.10837173      7.68739891
B        16.05965424     29.33511162      6.99448013
H        16.82281685     28.73570061      7.83756828
H        16.71544266     30.15116692      6.40433598
H        15.17726517     28.95744705     10.46261120
H        15.07579994     30.52794838     11.82610607
B        15.77435398     29.67350578     11.16267967
H        16.54070091     29.02673149     11.65535736
H        16.56977654     30.38627625     10.50281811
H        15.29023552     28.95645523     15.76659775
H        15.23977089     30.26214981     17.08440399
B        16.03079987     29.53083420     16.44088364
H        16.69546509     28.91909027     17.07130432
H        16.67207527     30.22566223     15.75262070
H        15.16735554     29.35186768     19.59587479
H        15.10599995     30.73179436     20.97199059
B        15.71945000     30.16384697     20.17299652
H        16.62430382     29.33452034     20.92798233
H        16.59102821     30.65451050     19.61180305
H        16.58410454     30.51875496     24.31525040
H        15.18870640     29.19197655     24.25713348
H        15.15600491     30.60957527     25.69815636
B        15.76148415     29.81373024     25.02883720
H        16.60193253     29.23226547     25.62516594
H        16.75759315     30.78271294     29.32401657
H        15.14561367     29.36937141     29.24292564
H        15.30732632     30.70209122     30.54650116
B        15.98083401     30.02221489     29.83590889
H        16.72665977     29.48139572     30.59619141
H        21.09349823      3.09477091      1.71989846
H        19.68523788      1.66705060      1.70905232
H        19.64572716      3.14512753      3.07090616
B        20.37274933      2.21660280      2.40407753
H        21.22958374      1.54181015      3.15663576
H        21.14619255      3.57693863      5.98283434
H        19.60361099      2.21381640      5.98110485
H        19.58427429      3.59800529      7.28634644
B        20.42751122      2.88444614      6.52551603
H        21.17150497      2.19023490      7.29059029
H        20.99639130      3.20829582     11.12636280
H        19.54731941      1.79847896     11.15081882
H        19.63425827      3.09690213     12.46976471
B        20.38638687      2.52064919     11.80584526
H        21.02258301      1.74783111     12.60735035
H        21.45331001      3.50712228     15.21008778
H        19.97322083      2.00125933     15.17382526
H        20.00256920      3.51403832     16.70198059
B        20.71956062      2.76039028     15.91755486
H        21.39720154      2.09362984     16.63895798
H        21.37761307      2.84359527     19.91526031
H        19.75800514      1.57805157     19.95782661
H        19.71403313      2.84499812     21.47439194
B        20.51996040      2.34828448     20.61228752
H        21.21361923      1.69947636     21.30899620
H        21.12412453      3.62052584     24.54755211
H        19.73026848      2.02156329     24.51927376
H        19.71514511      3.66392756     25.81838799
B        20.34051704      2.92664146     25.15451050
H        21.09664345      2.07732296     25.74750519
H        21.35422325      3.12428522     29.37931442
H        20.04794693      1.67576063     29.25149536
H        20.17374992      3.12629938     30.83332253
B        20.74298286      2.37945127     30.12447166
H        21.39467239      1.76312792     30.87175941
H        21.59828568      6.32091999      3.19742560
H        21.53005028      7.54512262      1.82148433
H        20.12507248      6.23375654      1.66608667
H        20.24305916      7.58253384      3.16660213
B        20.81495285      6.85259628      2.48371410
H        21.40444946      6.49170446      7.56536627
H        21.36818886      7.80479956      5.96173286
H        20.03986931      6.50921154      5.94297934
H        19.95969772      7.90372372      7.62803078
B        20.65792084      7.24586296      6.66554403
H        21.29587173      6.42333126     11.54314041
H        21.36217690      7.89866972     10.33673000
H        19.74287987      6.35761404     10.33731556
H        19.82023048      7.82073259     11.53150749
B        20.58450317      7.06472492     10.86115360
H        20.89787483      6.25964451     16.77689171
H        20.85653305      7.70384693     15.27081585
H        19.68254089      6.25046730     15.22029686
H        19.62452698      7.81238031     16.84408188
B        20.19078255      6.98845196     16.01919746
H        21.08923912      6.07107210     21.45738602
H        21.05219650      7.60275364     20.01760674
H        19.84358025      6.17261553     20.08210945
H        19.71569443      7.66613722     21.48372650
B        20.42650795      6.98999310     20.79892731
B        20.41211891      6.80264473     25.16579247
H        21.17953110      6.08472633     25.83917427
H        21.04914856      7.56047916     24.38501549
H        19.67728043      6.26281023     24.43271637
H        19.68408585      7.50597286     25.65428543
B        20.84721184      7.00734997     29.41182899
H        21.45863914      6.33178473     30.19532967
H        21.53714943      7.78127909     28.82397842
H        20.13291740      6.20608234     28.77678490
H        20.25488091      7.70650816     30.19906807
B        20.61567497     11.39574814      1.72122872
H        21.22279739     10.65135098      2.44334435
H        21.27329826     12.18469429      1.16598952
H        19.81439400     10.70664597      1.27178490
H        19.81764030     12.07565308      2.38480377
B        20.52422714     11.96984673      6.67414474
H        21.14999008     11.14376259      7.37782669
H        21.15922546     12.53227520      5.76752329
H        19.78424072     11.17222309      5.80521774
H        19.67908669     12.59973526      7.45452023
H        19.64661980     12.30284691     11.76252365
B        20.54324341     11.50831127     11.10783672
H        21.23183250     10.61265564     11.63770103
H        21.18001938     12.12621403     10.34028053
H        19.88356400     10.72478008     10.40059376
H        19.53707314     12.43864250     16.37403679
B        20.34519196     11.87627697     15.75727940
H        21.04233551     11.01501179     16.29738998
H        21.13923264     12.45889378     15.02720165
H        19.65347290     11.05476665     15.16385365
H        20.02882004     12.40824604     21.10646057
B        20.77950668     11.51746750     20.33950996
H        21.51836777     10.82525635     21.05100822
H        21.45728111     12.29170704     19.52468109
H        20.10433578     10.84531975     19.48365784
H        19.82069206     12.47140789     25.50761986
B        20.65521431     11.83703613     24.88048935
H        21.36036110     11.06035995     25.53328323
H        21.35638618     12.49309635     24.11699677
H        19.88365364     11.14898491     24.20164680
H        20.20502472     12.44193268     30.40380287
B        20.70478439     11.69508171     29.74044609
H        21.49237633     10.96067047     30.48366356
H        21.39966965     12.42908478     29.05082130
H        20.14639664     10.98190212     28.97934532
H        19.88185692     15.21616364      0.99367911
H        20.04771423     16.72589302      2.24334073
B        20.62598228     15.89543915      1.62584877
H        21.38403511     15.27884007      2.34651995
H        21.30878448     16.75382042      1.13160741
H        20.25685501     15.05725670      5.69253731
H        20.27539444     16.64906120      7.13403749
B        20.93397141     15.95321751      6.33675718
H        21.57149506     15.15779209      7.05204201
H        21.62224197     16.61781120      5.74232674
H        19.76536179     15.45668983     10.67630482
H        19.82627678     16.81272316     11.98669052
B        20.57392311     16.10038376     11.43171024
H        21.37603378     15.34772015     12.15657711
H        21.15739059     16.76396561     10.78597927
H        19.43062782     15.58231640     15.28934288
H        19.61191177     17.18298721     16.53273201
B        20.22442627     16.35487747     15.96540833
H        20.84157753     15.66497517     16.63135719
H        20.89369011     17.33372498     15.31988811
H        19.82911491     15.27462006     19.78281593
H        19.75283813     16.71801376     20.96302414
B        20.67652130     15.94107819     20.45515251
H        21.39928436     15.09989071     21.06147766
H        21.28762245     16.70480537     19.71974945
H        19.86447716     15.17068005     24.73798180
H        19.77656174     16.67865372     26.11992645
B        20.50032997     15.89805031     25.40809250
H        21.31104088     15.10868835     26.09399986
H        21.36583900     16.70752716     24.62119102
H        19.92296219     15.11391163     29.00465393
H        20.08022118     16.46853065     30.44878197
B        20.55771255     15.77406693     29.74210358
H        21.17851067     15.16015244     30.55979919
H        21.16743851     16.56847572     29.06196785
H        19.69841385     19.76131248      1.16780698
H        19.70487022     21.04302788      2.73567057
B        20.45669746     20.46210670      1.87558007
H        21.25773239     19.82588577      2.67755461
H        21.25955200     20.98673058      1.23056149
H        19.89571762     20.04671478      6.13048410
H        20.04291344     21.55062675      7.60255766
B        20.60151482     20.72923279      6.87239933
H        21.40918541     20.18955612      7.60691166
H        21.42193031     21.56772423      6.26058197
H        21.23644257     21.47142029     10.43363380
H        19.76050186     19.99421883     10.50446320
H        19.71432495     21.44676781     11.86898804
B        20.47006798     20.72700500     11.12027454
H        21.14042282     20.01940918     11.79761982
H        21.49122429     21.27963257     14.94383907
H        20.00590515     19.77254486     14.91869640
H        20.13136864     21.17931175     16.45089531
B        20.72320557     20.54706383     15.67609692
H        21.37913132     19.90978241     16.43912125
H        21.28449249     21.34638023     19.33217430
H        19.85942650     19.66987419     19.39171982
H        19.84343529     21.30282402     20.75295067
B        20.56312180     20.51242828     20.03087807
H        21.24611092     19.64870834     20.75812912
H        21.19625664     20.80537796     24.45080948
H        19.68615723     19.46057129     24.43480110
H        19.63893890     20.86860466     25.75165367
B        20.43300247     20.23637199     25.14828682
H        21.21385384     19.45898247     25.70602417
H        21.40561867     21.24136162     28.78819656
H        20.26551056     19.86541557     28.86922646
H        20.12113953     21.30470085     30.15272141
B        20.91598701     20.61675644     29.54439163
H        21.48812103     19.70188141     30.17188454
H        21.43005943     25.92749405      1.31778359
H        19.86078835     24.52224350      1.33001387
H        19.99339867     25.78265381      2.71967101
B        20.66521454     25.25576973      1.98050928
H        21.34498596     24.59508514      2.77943945
H        21.16459846     25.81923294      6.05113459
H        19.68693733     24.42290688      6.15655851
H        19.68045235     25.72029305      7.43355036
B        20.38894081     25.08920670      6.83196783
H        21.14815521     24.33392906      7.51604462
H        21.24491882     25.70825768     10.61816883
H        19.78409576     24.38376999     10.50960064
H        19.87764549     25.72327614     11.86251926
B        20.51855278     24.96882248     11.23831940
H        21.26859474     24.46866035     11.87117863
H        21.28242493     25.68255424     15.33293247
H        19.90912437     24.41543388     15.18097496
H        19.92334175     25.82029533     16.58724594
B        20.72226143     25.02948570     16.02784729
H        21.51899529     24.33082199     16.68607521
H        21.22318649     24.30978775     21.42746735
H        21.19902992     25.57478714     20.02240562
H        19.90400505     24.24615860     19.93461990
H        19.94453049     25.62204933     21.45057297
B        20.52160263     24.89850235     20.72553253
H        21.15751648     24.34577370     25.98939133
H        21.17938232     25.65581131     24.52669334
H        19.65427208     24.34442139     24.54720497
H        19.62322617     25.66634750     26.02179146
B        20.40071869     25.07068062     25.28862190
H        21.09140205     24.30405045     29.84676743
H        21.14308548     25.75435066     28.49168587
H        19.64015388     24.31090736     28.55022430
H        19.59709167     25.73887253     29.88297081
B        20.26305008     25.11226845     29.19194412
H        21.18591690     28.85309982      3.04248643
H        21.25548363     30.26326370      1.57145083
H        19.65630531     28.79830170      1.58621943
H        19.83477592     30.07002449      2.91881418
B        20.53533936     29.44206810      2.13013220
H        21.02231026     28.49133110      7.34208679
H        20.93809319     29.96357346      5.90199089
H        19.73246384     28.56377411      5.89021587
H        19.60104942     30.10676384      7.40106153
B        20.24384880     29.22365570      6.63745451
B        20.56986618     29.63790321     11.34369183
H        21.32785416     28.91649246     12.04557896
H        21.20603943     30.32255363     10.43634033
H        19.82003021     29.09906960     10.49710274
H        19.72712326     30.35469818     11.95590973
B        20.62057877     29.88594055     16.15132141
H        21.19011688     29.14441872     16.93323898
H        21.32436180     30.47274590     15.32207394
H        19.82042122     29.28086662     15.59276962
H        19.70819283     30.31428146     16.90901756
B        20.46254349     29.37462234     20.61356354
H        21.12710381     28.74789619     21.33370781
H        21.12739754     30.12808228     19.83430290
H        19.64212990     28.81350517     19.90020370
H        19.62220955     30.08209991     21.28801727
B        20.51377106     29.79230309     24.90063095
H        21.15304565     29.08530235     25.66114426
H        21.21035385     30.51125336     24.24979782
H        19.84143066     29.05225563     24.27406120
H        19.87501907     30.45339966     25.66060066
H        19.78970909     30.31950188     30.26968193
B        20.52724648     29.51146507     29.66221809
H        21.45203590     29.01610184     30.20199966
H        21.33293915     30.13272285     28.89408112
H        19.83292198     28.99163246     28.75051308
H        24.08281708      3.01192641      2.75285435
B        24.76530647      2.35524058      2.07458854
H        25.58740997      1.54184067      2.70604062
H        25.58127403      2.95897460      1.32226121
H        24.13764763      1.54985762      1.32413983
H        24.73266220      2.57567215      7.26105785
B        25.50388718      1.89963865      6.74092674
H        26.12546921      1.09187293      7.50032425
H        26.06946182      2.75893235      6.08506918
H        24.63501740      1.23349226      6.17068291
H        24.34326553      3.41979265     12.36870766
B        24.94127846      2.66232467     11.70443726
H        25.65998650      2.00768185     12.40512657
H        25.61787796      3.41410422     11.03808308
H        24.27028275      1.97111809     10.95941257
H        24.34489059      3.19307923     16.54087448
B        25.15486908      2.45130110     15.92110157
H        25.94697762      1.85676038     16.63586998
H        25.94198418      3.28307962     15.23913097
H        24.31560326      1.92246866     15.29984474
H        24.39734077      1.68089604     19.98072052
H        24.37736893      2.84390855     21.29743576
B        25.16543579      2.33645248     20.55426979
H        25.72298622      1.52952206     21.42884064
H        25.75337791      3.00570226     19.79895592
H        24.01708984      2.01204395     24.78085518
H        24.06259537      3.41006565     25.96894455
B        24.86544037      2.79373431     25.25144196
H        25.62665558      2.05559897     25.97089577
H        25.70731735      3.49267745     24.74374962
H        24.32744980      1.56581533     29.18759155
H        24.22402382      2.93235111     30.43593788
B        24.98354340      2.29568243     29.78221893
H        25.74534988      1.50361335     30.39471626
H        25.79960632      2.94538403     29.07113266
H        24.32852364      6.48285198      2.02504277
H        24.41662025      7.96075344      3.32504058
B        24.97531128      7.22070360      2.56173468
H        25.51186752      6.52603865      3.36995173
H        25.65171432      8.14550877      1.92838430
H        24.61640549      6.31755590      6.04136896
H        24.68334389      7.65519571      7.72701740
B        25.40848732      6.97125626      6.82399893
H        26.14969063      6.38416910      7.72734118
H        26.12508583      7.63091326      6.13258934
H        24.42170906      5.99132204     10.67440319
H        24.50528526      7.51249456     12.31970978
B        25.01244736      6.81495047     11.44293785
H        25.69750595      6.21659040     12.17801762
H        25.78888130      7.46217775     10.80829620
H        24.27110291      6.36782026     15.46649933
H        24.29857635      7.82399654     16.59489250
B        25.06375504      7.05933523     16.14653397
H        25.87716293      6.37666702     16.61351776
H        25.86252785      7.82798767     15.48998070
H        24.30639076      5.77498770     19.81282234
H        24.30561447      7.12641048     21.45542526
B        24.88224030      6.49940872     20.67424011
H        25.50826263      5.78043795     21.44919968
H        25.53499222      7.14691496     19.79154396
H        24.20405769      6.24510717     24.39954567
H        24.15824318      7.80165005     25.80135345
B        24.82353973      7.04153013     25.21762085
H        25.54335403      6.22946835     25.77117729
H        25.51190567      7.74002647     24.41535568
H        25.53836632      7.67815351     29.16263962
H        24.29806328      6.12709379     29.04981041
H        24.32857513      7.76047182     30.39816475
B        24.85716438      6.93096590     29.79536629
H        25.60547066      6.17282009     30.38295174
H        25.86296272     12.16211033      1.55180264
H        24.61951256     10.76872730      1.60132754
H        24.66621208     12.06588650      3.04078341
B        25.39012337     11.36340904      2.38850069
H        25.92524529     10.65691948      3.19929028
H        25.92168617     12.02615356      6.39640093
H        24.70550919     10.70039272      6.27757406
H        24.76494980     12.08554173      7.78928804
B        25.27043152     11.26214600      7.07960844
H        26.01406097     10.72684479      7.82227468
H        25.82224655     11.77383518     10.70197678
H        24.42966652     10.30095768     10.63883781
H        24.53454971     11.73209190     12.00139523
B        25.20382309     11.03944969     11.29558468
H        25.84766006     10.33868122     12.06855488
H        25.42635727     12.04019833     14.90526772
H        23.95734596     10.59478092     14.82816792
H        23.97457695     12.10006714     16.33119202
B        24.65183258     11.33920193     15.48620319
H        25.38964653     10.70859337     16.23461151
H        25.52027130     12.05742550     19.85006523
H        24.22509575     10.62745190     19.87966156
H        24.16792488     12.08499908     21.35387802
B        24.89052582     11.29413986     20.60872078
H        25.53110504     10.58702183     21.33713722
H        25.54254913     11.73652840     23.89912987
H        24.01677704     10.35866070     23.98592186
H        23.98905182     11.67746067     25.64066124
B        24.74545860     11.12663269     24.65646744
H        25.38726616     10.42715168     25.54444695
H        25.78413391     12.17897415     28.90916634
H        24.27932739     10.90368462     28.81957245
H        24.37222862     12.17566776     30.15280914
B        25.09442902     11.42024517     29.59506416
H        25.92025566     10.85715771     30.29223633
H        25.91615677     16.97562981      1.48965311
H        24.66377640     15.54370975      1.39992583
H        24.69291115     17.03622437      2.79806352
B        25.32117653     16.21553421      2.16907477
H        26.07005692     15.47953606      2.89137197
H        25.49136925     14.85202312      7.36514902
H        25.43283844     16.39004135      5.91899157
H        24.04487419     14.92192841      5.93036556
H        23.97991371     16.44362640      7.36020327
B        24.84111404     15.70041370      6.67126036
H        25.55849648     15.18153763     12.13640499
H        25.52034187     16.51462173     10.64983845
H        24.00784111     15.26523304     10.69537926
H        24.00162697     16.47529793     12.05892563
B        24.79577827     15.82822323     11.43992615
H        25.70606041     15.37788010     16.68780327
H        25.64498711     16.83217430     15.25716686
H        24.32617188     15.51455784     15.33277321
H        24.25375938     16.82897949     16.62353516
B        24.99494934     16.12267876     16.06046295
H        25.77418327     15.33933163     21.28612709
H        25.74860764     16.72140694     20.00990486
H        24.41777420     15.24836445     19.89336205
H        24.42006493     16.83566093     21.37480545
B        25.02445030     15.99715710     20.52445984
H        25.92525864     15.11757851     25.96899033
H        25.97570610     16.67328835     24.42165756
H        24.31064415     15.13286304     24.48738861
H        24.51322937     16.40497017     25.75111771
B        25.22967911     15.73918533     24.99456215
B        25.22654724     15.76483536     29.43562317
H        25.92892838     15.06301403     30.02945137
H        25.95102119     16.42795753     28.74885178
H        24.44502068     15.11443329     28.82236290
H        24.35287857     16.44658852     30.07017517
B        24.90129662     20.97281265      1.85732257
H        25.56517792     20.40548706      2.78484106
H        25.61231804     21.68999290      1.16661131
H        24.24496841     20.34181213      1.15007734
H        24.43742180     21.51407433      2.65606236
B        25.04416466     20.38822746      6.95369577
H        25.62683296     19.62878609      7.65701723
H        25.69517708     21.10598946      6.21353483
H        24.45009041     19.57842445      6.23151684
H        24.47403717     21.06406212      7.68343496
B        25.16739082     20.64456558     11.31327915
H        25.94084740     20.02180862     12.15517807
H        25.94835472     21.33710480     10.56738281
H        24.44605637     20.00778008     10.56086254
H        24.52416420     21.26551819     12.09109974
H        24.46413803     21.31489563     16.62158585
B        25.17599106     20.66561890     15.90135670
H        25.83815193     19.90633392     16.53252220
H        25.89639473     21.28407288     15.21133995
H        24.54372787     19.89685822     15.26010418
H        24.61726570     21.02099800     20.90418625
B        25.43139839     20.24136162     20.34512138
H        26.23082924     19.65986633     21.02959061
H        25.95931435     20.87488747     19.54014587
H        24.62842178     19.79642487     19.40519142
H        24.55331230     21.35952377     25.62407494
B        25.19553375     20.70845413     24.98365974
H        25.74937630     19.99129486     25.80355644
H        25.68568993     21.47531891     24.26340294
H        24.44347572     20.06094170     24.26936150
H        24.84453773     21.22662354     30.24023819
B        25.56922340     20.37018204     29.74583817
H        26.56850624     19.62842941     30.23117828
H        26.40029526     21.04935455     29.12444878
H        24.85533333     19.63016701     28.95797539
H        24.47362900     25.60963821      3.03002477
B        25.24735641     24.70145607      2.24794149
H        25.87572861     24.14639854      2.99279714
H        25.96743774     25.66411781      1.66157091
H        24.39201164     24.02755165      1.63443518
H        24.57546234     24.23422623      6.04857349
H        24.47989655     25.61215210      7.66197205
B        25.29974365     24.80184364      6.90175819
H        25.90777588     24.12647057      7.67416334
H        25.75283813     25.46940613      6.09575510
H        24.35768509     24.52763176     10.51687908
H        24.47119141     26.00815582     11.82689476
B        25.12267685     25.28175354     11.18681335
H        25.81254005     24.50298691     11.96504498
H        25.72542381     26.05918884     10.57935047
H        24.25619698     24.32529449     14.87086773
H        24.41885376     25.74503517     16.13694763
B        25.02361488     25.12069511     15.31138325
H        25.41606903     24.43596458     16.18893623
H        25.62280846     26.00376320     14.77479744
H        24.31140709     24.35538483     19.96326065
H        24.36564827     25.63873863     21.33897591
B        25.00858879     25.07185364     20.52268982
H        25.69982910     24.42705536     21.32154655
H        25.82563972     25.74711990     19.90912056
H        24.34533119     24.48716927     24.64356613
H        24.40782166     26.00800514     25.95217896
B        25.01398468     25.07542038     25.52343941
H        25.90996552     24.36924362     26.13259315
H        25.55184746     25.83030319     24.88375854
H        24.19340897     25.10921669     28.86332893
H        24.26731491     26.46724701     30.38621712
B        24.89877510     25.76775360     29.62734604
H        25.58490944     25.09701347     30.47232819
H        25.51543427     26.48388481     28.92060089
H        24.03283119     28.93091202      1.58419096
H        24.09335136     30.27727890      3.00932455
B        24.80588150     29.61973190      2.32996535
H        25.53489685     28.89408875      3.10666871
H        25.45021820     30.28994560      1.63204587
H        24.36683464     28.77231026      5.98291683
H        24.33705330     30.11705017      7.25021315
B        25.11912537     29.42158127      6.66592407
H        25.62422371     28.65834236      7.33439970
H        25.64516258     30.22217751      5.84800911
H        24.51936150     29.06027412     10.88718891
H        24.48235321     30.46623039     12.40171623
B        25.14309120     29.78423882     11.58546066
H        25.94762611     29.16794968     12.25703621
H        26.00176811     30.37569427     10.94072056
H        25.59737396     30.38811493     15.44715977
H        24.09501266     28.94836044     15.49401474
H        24.15920639     30.27706718     16.93118668
B        24.80089760     29.62714005     16.12051964
H        25.48118210     29.01769638     16.92604446
H        25.62706947     30.04862213     19.72524071
H        24.43180847     28.82891083     19.79632568
H        24.28496361     30.12438011     21.11987495
B        24.99886131     29.52257347     20.50756836
H        25.68616104     28.69873428     21.10320663
H        25.69320107     30.48434639     24.38598633
H        24.21688461     28.75910568     24.35617256
H        24.33125114     30.39979553     25.76341248
B        24.84331322     29.65513039     24.96538925
H        25.55721283     28.92490959     25.71197510
H        25.90573311     30.56005478     28.79703522
H        24.60071182     29.07365990     28.80111885
H        24.63783073     30.51885223     30.17418671
B        25.26795197     29.75966644     29.30830383
H        25.86734962     29.10796165     30.17700577
H        30.26058006      2.72971821      2.05125952
H        28.79693222      1.16430640      1.99564874
H        28.90016556      2.68209529      3.27006125
B        29.49898720      2.02233195      2.54494023
H        30.17747116      1.30302751      3.23457408
H        30.22993088      2.50158501      6.24759865
H        28.74111938      1.02247345      6.14684343
H        28.76145363      2.58200502      7.66682816
B        29.45229530      1.84995735      6.87344837
H        30.18664360      1.16651726      7.54311895
H        30.58032227      3.08870530     10.85848808
H        29.24665642      1.70636046     10.72627163
H        29.37457275      3.09300756     12.12888336
B        29.96609879      2.37256169     11.40555191
H        30.62677956      1.79211998     12.17103863
H        30.50782394      3.29115820     14.98081779
H        29.03343010      1.92268538     14.98901749
H        28.99171638      3.32467294     16.48110962
B        29.63747787      2.66940069     15.68109035
H        30.37324333      2.04906702     16.31301308
H        30.58481979      2.83446121     19.69964409
H        29.25926208      1.50920963     19.69098473
H        29.24645996      2.85592341     21.26442528
B        29.88642883      2.11827850     20.50653648
H        30.66260529      1.44008386     21.32074738
H        30.11455536      1.51663506     25.84413719
H        30.25300026      3.08289719     24.39893913
H        28.91265488      1.48568809     24.50643921
H        28.87033844      3.01771569     25.91740036
B        29.45816612      2.33825040     25.13555527
H        30.41272163      1.30943525     30.92675972
H        30.34445000      2.66087294     29.46057320
H        29.00743675      1.35411131     29.43697739
H        28.95124435      2.74066019     30.93827438
B        29.68865776      1.93839383     30.24435234
H        30.49786186      6.08425617      3.00090003
H        30.31605721      7.47294474      1.45304036
H        29.11157417      6.38344812      1.57042670
H        28.88156891      7.58556318      2.93171334
B        29.76099205      6.88836622      2.41833019
H        30.81330490      6.21879578      7.50545311
H        30.75946808      7.69243193      6.15130520
H        29.46131706      6.23051357      6.10918570
H        29.48257065      7.71329784      7.47248125
B        30.11884499      6.90302706      6.85190344
H        30.32280350      6.23205566     12.05379009
H        30.53577232      7.70041895     10.84692001
H        28.94931412      6.01577711     10.84361076
H        29.00924492      7.64379883     12.21013927
B        29.73912811      6.93748236     11.41289330
B        29.34680367      7.15372133     15.84196663
H        30.08335114      6.51530552     16.53586006
H        30.13948441      7.83807993     14.95569229
H        28.84705544      6.49304152     14.98956108
H        28.80265427      7.84860992     16.60252190
B        29.54457474      6.80404663     20.70570755
H        30.32971191      6.15418386     21.44978333
H        30.28195000      7.49793768     20.16666031
H        28.80291176      6.10639524     20.07111168
H        28.91960716      7.47679329     21.38087845
B        29.23481560      7.31638193     25.33493042
H        29.67851257      6.54623222     26.13961792
H        29.86039734      8.03119087     24.62531471
H        28.50577545      6.58587933     24.84684944
H        28.48233223      7.83310080     26.12341499
B        29.86487007      6.81960201     29.87813568
H        30.38481140      6.12879229     30.69230270
H        30.59917641      7.64387941     29.36274719
H        29.16206169      5.91016722     29.35848618
H        29.34235001      7.46785069     30.73063850
H        28.79163742     12.24945831      3.19744873
B        29.66576195     11.66374016      2.58491230
H        30.27050972     10.85359764      3.22534800
H        30.31056786     12.31741619      1.89006877
H        28.84174156     10.93160152      2.00813103
H        28.70803833     12.06037903      7.31575584
B        29.51028061     11.35949135      6.60984135
H        30.25118828     10.65640450      7.33671427
H        30.16777039     11.99792099      5.97519112
H        28.70881653     10.67814255      5.91351271
H        29.03819847     12.16078568     12.09814548
B        29.76101494     11.35925961     11.44006538
H        30.51254654     10.60330105     12.18030071
H        30.37093163     12.10132504     10.77350521
H        29.00999069     10.65724754     10.68583584
H        28.55481911     12.19663525     16.35672951
B        29.51176453     11.50315952     15.79553127
H        30.30737686     10.70044136     16.29034996
H        30.34097862     12.16385651     15.02215481
H        28.70547485     10.78471661     15.14003086
H        28.78250504     11.87608242     21.36189461
B        29.63825226     11.29812527     20.80444336
H        30.28615189     10.50350666     21.33988953
H        30.26224136     11.83016682     19.89220428
H        28.90219688     10.60119247     19.96598053
H        28.94731903     10.62238216     24.52795410
H        28.89249420     12.04934406     25.73228455
B        29.52773666     11.26643562     25.29697609
H        30.40677452     10.41543674     25.88440514
H        30.18622398     11.98091316     24.54156113
H        28.75003815     10.49810505     29.00625229
H        28.70062447     11.85979271     30.50248146
B        29.61233902     11.23156834     29.74744225
H        30.11639023     10.50158596     30.44958687
H        30.25004196     11.94054890     28.87608147
H        29.10125351     15.26960945      1.54016674
H        29.03512001     16.82092285      2.97689795
B        29.80559731     16.13005638      2.20476842
H        30.43071556     15.28332043      2.89705396
H        30.55548286     16.86584282      1.42911279
H        28.94995689     15.31704998      6.01181555
H        28.95711899     16.67395592      7.57040644
B        29.55309105     15.94264793      6.86703300
H        30.23583984     15.29531765      7.59929800
H        30.24571037     16.71271896      5.98021412
H        28.85329819     15.28884220     10.64470100
H        28.97355461     16.67762756     12.27772808
B        29.50731087     15.99872303     11.44673729
H        30.19180679     15.50482273     12.18200207
H        30.30380630     16.69390106     10.74868393
H        29.07406616     15.35113811     15.11624146
H        29.03470039     16.85624123     16.65391541
B        29.69664192     15.95383549     15.96753883
H        30.55995369     15.30552292     16.66016579
H        30.41094017     16.71347618     15.21963978
H        28.97576523     15.47482109     19.90330315
H        28.91196632     16.86655426     21.29496193
B        29.68117332     16.12318611     20.56035614
H        30.17945290     15.37158012     21.33440208
H        30.20119286     16.92773438     19.77832031
H        29.07804680     15.17249107     24.53145599
H        29.10482597     16.73571205     26.10499573
B        29.72222328     16.03421211     25.25470543
H        30.45025444     15.31906891     25.98519707
H        30.51520348     16.68086052     24.61308670
H        29.29937172     15.21601963     28.64936829
H        29.10078812     16.61118698     30.13730621
B        29.83307076     15.99358559     29.38202667
H        30.36899567     15.16490936     29.98983383
H        30.44162941     16.53634834     28.52562332
H        30.14421463     20.94117355      1.67516136
H        28.74188232     19.51499176      1.60712206
H        28.75706863     20.99402809      2.93418217
B        29.43365288     20.16479683      2.38160062
H        30.24188042     19.48536491      2.97899389
H        30.49434853     20.99429512      6.17623091
H        28.96462440     19.70906830      6.22967148
H        28.84630013     21.05917931      7.60927391
B        29.70302773     20.32626724      6.92918348
H        30.47911644     19.67086220      7.52915621
H        30.34445572     21.14304161     11.06165791
H        28.71897507     19.56774521     10.97845364
H        28.89164162     21.05357933     12.36486435
B        29.50232315     20.45335579     11.55411434
H        30.15868378     19.83672333     12.26855373
H        30.90984726     21.17402458     14.96944523
H        29.47542191     19.69734764     14.95566082
H        29.51717377     21.14605713     16.53039551
B        30.36256599     20.41427040     15.74359131
H        30.85651588     19.76446152     16.50503349
H        30.66375923     21.32835197     19.88108444
H        29.38380241     20.02294159     19.87708473
H        29.32199478     21.39415932     21.50226974
B        29.93580055     20.76102066     20.62921524
H        30.62263870     20.06806183     21.39534378
H        30.32784462     21.48241806     24.60977936
H        28.86995888     19.92200661     24.52798653
H        28.83225632     21.60191536     25.93462563
B        29.40471840     20.75686264     25.28014565
H        30.31561852     20.01602173     25.80290413
H        30.34510994     21.13893127     29.31859779
H        28.88851547     19.69735146     29.18966866
H        28.96395111     21.19242477     30.80427933
B        29.56030083     20.53378105     29.94563103
H        30.30036545     19.87102509     30.70603943
H        30.32817459     25.79047394      1.36109257
H        28.73394775     24.38506699      1.38743258
H        28.81205177     25.68603134      2.65013051
B        29.55815315     25.03775597      1.99318194
H        30.26553917     24.42136383      2.69193673
H        29.92306519     25.93155479      6.30357790
H        28.58689117     24.39856148      6.31768417
H        28.56663704     25.93770218      7.56686831
B        29.33609581     24.98784256      7.05751562
H        30.04040527     24.26711655      7.67806053
H        30.69642067     24.27620506     12.45525742
H        30.55956459     25.50859451     11.05857277
H        29.01975250     24.16164017     10.80715370
H        29.23249626     25.54726982     12.35707664
B        29.83142281     24.79234886     11.74905586
H        30.70158958     24.24600792     16.60604668
H        30.68629074     25.68039131     15.28322411
H        29.41789627     24.24364853     15.26556492
H        29.33938980     25.77655602     16.68691444
B        29.93373871     25.06130600     15.93395805
H        30.08248138     24.18077850     21.22380447
H        29.99996376     25.62811279     19.75606155
H        28.65923309     24.23219872     19.72496414
H        28.59382057     25.72462082     21.23779488
B        29.29955864     24.84746170     20.47648430
H        29.92425919     24.37405777     25.91489601
H        30.06606674     25.78285217     24.31518936
H        28.71129608     24.34247017     24.42541122
H        28.73765945     25.64626503     25.92011833
B        29.45431709     25.04468155     24.99129677
H        30.40071869     24.65548134     30.54697990
H        30.31372070     25.95218277     29.16496468
H        28.94457626     24.74926186     29.17174911
H        28.84226227     26.04771233     30.55551338
B        29.54023933     25.34298515     29.96482468
B        29.69124413     29.49259186      2.65014338
H        30.52002335     28.82372475      3.50019526
H        30.45957375     30.33236122      2.06590819
H        29.01888657     28.75822449      1.93995702
H        29.13293648     30.34426117      3.45164585
B        29.64124107     29.54464531      6.99339581
H        30.24024391     28.82422829      7.76971245
H        30.37659454     30.28265953      6.44957876
H        28.93223572     28.65165710      6.41335869
H        29.04577827     30.20533752      7.82874012
B        29.58032227     29.89333916     11.27712727
H        30.26925087     29.15875435     12.21124172
H        30.36448097     30.62995338     10.67645454
H        28.87823486     29.14508247     10.75801277
H        28.90174103     30.52488899     12.20140457
B        29.76107216     29.39854813     15.88398457
H        30.33117294     28.76497650     16.70309448
H        30.31138229     30.24166298     15.15806580
H        28.90684891     28.86545181     15.23875046
H        28.94678307     30.12104607     16.56268311
H        29.11209679     30.40329742     21.11687279
B        29.70400810     29.63313866     20.34983063
H        30.22308350     28.97553635     21.09113121
H        30.39107895     30.54554939     19.55303001
H        29.02258682     28.86028099     19.60577011
H        28.84327507     30.60058403     25.77264404
B        29.55884171     29.80459213     25.18205261
H        30.25790405     29.05545044     25.85156250
H        30.20560837     30.62720871     24.53532219
H        28.72326851     29.01436043     24.44193649
H        29.00187874     30.73327637     30.68966866
B        29.58337975     30.03879738     29.88707733
H        30.30488777     29.30582428     30.61114120
H        30.34700012     30.69686127     29.10999680
H        29.02920914     29.25462914     29.10091209
