3075

Na        2.28499985      0.00000003      4.56999969
Na        2.28499985      0.00000003      9.13999939
Na        2.28499985      0.00000003     13.71000004
Na        2.28499985      0.00000003     18.27999878
Na        2.28499985      0.00000003     22.84999847
Na        2.28499985      0.00000003     27.42000008
Na        2.28499985      0.00000003     31.98999977
Na        2.28499985      4.56999969      9.13999939
Na        2.28499985      4.56999969     13.71000004
Na        2.28499985      4.56999969     18.27999878
Na        2.28499985      4.56999969     22.84999847
Na        2.28499985      4.56999969     27.42000008
Na        2.28499985      4.56999969     31.98999977
Na        2.28499985      9.13999939      4.56999969
Na        2.28499985      9.13999939      9.13999939
Na        2.28499985      9.13999939     13.71000004
Na        2.28499985      9.13999939     18.27999878
Na        2.28499985      9.13999939     22.84999847
Na        2.28499985      9.13999939     27.42000008
Na        2.28499985      9.13999939     31.98999977
Na        2.28499985     13.71000004      4.56999969
Na        2.28499985     13.71000004      9.13999939
Na        2.28499985     13.71000004     13.71000004
Na        2.28499985     13.71000004     18.27999878
Na        2.28499985     13.71000004     22.84999847
Na        2.28499985     13.71000004     27.42000008
Na        2.28499985     13.71000004     31.98999977
Na        2.28499985     18.27999878      4.56999969
Na        2.28499985     18.27999878      9.13999939
Na        2.28499985     18.27999878     13.71000004
Na        2.28499985     18.27999878     18.27999878
Na        2.28499985     18.27999878     22.84999847
Na        2.28499985     18.27999878     27.42000008
Na        2.28499985     18.27999878     31.98999977
Na        2.28499985     22.84999847      4.56999969
Na        2.28499985     22.84999847      9.13999939
Na        2.28499985     22.84999847     13.71000004
Na        2.28499985     22.84999847     18.27999878
Na        2.28499985     22.84999847     22.84999847
Na        2.28499985     22.84999847     27.42000008
Na        2.28499985     22.84999847     31.98999977
Na        2.28499985     27.42000008      4.56999969
Na        2.28499985     27.42000008      9.13999939
Na        2.28499985     27.42000008     13.71000004
Na        2.28499985     27.42000008     18.27999878
Na        2.28499985     27.42000008     22.84999847
Na        2.28499985     27.42000008     27.42000008
Na        2.28499985     27.42000008     31.98999977
Na        6.85499954      0.00000003      4.56999969
Na        6.85499954      0.00000003      9.13999939
Na        6.85499954      0.00000003     13.71000004
Na        6.85499954      0.00000003     18.27999878
Na        6.85499954      0.00000003     22.84999847
Na        6.85499954      0.00000003     27.42000008
Na        6.85499954      0.00000003     31.98999977
Na        6.85499954      4.56999969      4.56999969
Na        6.85499954      4.56999969      9.13999939
Na        6.85499954      4.56999969     13.71000004
Na        6.85499954      4.56999969     18.27999878
Na        6.85499954      4.56999969     22.84999847
Na        6.85499954      4.56999969     27.42000008
Na        6.85499954      4.56999969     31.98999977
Na        6.85499954      9.13999939      4.56999969
Na        6.85499954      9.13999939      9.13999939
Na        6.85499954      9.13999939     13.71000004
Na        6.85499954      9.13999939     18.27999878
Na        6.85499954      9.13999939     22.84999847
Na        6.85499954      9.13999939     27.42000008
Na        6.85499954      9.13999939     31.98999977
Na        6.85499954     13.71000004      4.56999969
Na        6.85499954     13.71000004      9.13999939
Na        6.85499954     13.71000004     13.71000004
Na        6.85499954     13.71000004     18.27999878
Na        6.85499954     13.71000004     22.84999847
Na        6.85499954     13.71000004     27.42000008
Na        6.85499954     13.71000004     31.98999977
Na        6.85499954     18.27999878      4.56999969
Na        6.85499954     18.27999878      9.13999939
Na        6.85499954     18.27999878     13.71000004
Na        6.85499954     18.27999878     18.27999878
Na        6.85499954     18.27999878     22.84999847
Na        6.85499954     18.27999878     27.42000008
Na        6.85499954     18.27999878     31.98999977
Na        6.85499954     22.84999847      4.56999969
Na        6.85499954     22.84999847      9.13999939
Na        6.85499954     22.84999847     13.71000004
Na        6.85499954     22.84999847     18.27999878
Na        6.85499954     22.84999847     22.84999847
Na        6.85499954     22.84999847     27.42000008
Na        6.85499954     22.84999847     31.98999977
Na        6.85499954     27.42000008      9.13999939
Na        6.85499954     27.42000008     13.71000004
Na        6.85499954     27.42000008     18.27999878
Na        6.85499954     27.42000008     22.84999847
Na        6.85499954     27.42000008     27.42000008
Na        6.85499954     27.42000008     31.98999977
Na       11.42499924      0.00000003      4.56999969
Na       11.42499924      0.00000003      9.13999939
Na       11.42499924      0.00000003     13.71000004
Na       11.42499924      0.00000003     18.27999878
Na       11.42499924      0.00000003     27.42000008
Na       11.42499924      0.00000003     31.98999977
Na       11.42499924      4.56999969      4.56999969
Na       11.42499924      4.56999969      9.13999939
Na       11.42499924      4.56999969     13.71000004
Na       11.42499924      4.56999969     18.27999878
Na       11.42499924      4.56999969     22.84999847
Na       11.42499924      4.56999969     27.42000008
Na       11.42499924      4.56999969     31.98999977
Na       11.42499924      9.13999939      4.56999969
Na       11.42499924      9.13999939      9.13999939
Na       11.42499924      9.13999939     13.71000004
Na       11.42499924      9.13999939     18.27999878
Na       11.42499924      9.13999939     22.84999847
Na       11.42499924      9.13999939     27.42000008
Na       11.42499924      9.13999939     31.98999977
Na       11.42499924     13.71000004      4.56999969
Na       11.42499924     13.71000004      9.13999939
Na       11.42499924     13.71000004     13.71000004
Na       11.42499924     13.71000004     18.27999878
Na       11.42499924     13.71000004     22.84999847
Na       11.42499924     13.71000004     27.42000008
Na       11.42499924     13.71000004     31.98999977
Na       11.42499924     18.27999878      4.56999969
Na       11.42499924     18.27999878      9.13999939
Na       11.42499924     18.27999878     13.71000004
Na       11.42499924     18.27999878     18.27999878
Na       11.42499924     18.27999878     22.84999847
Na       11.42499924     18.27999878     27.42000008
Na       11.42499924     18.27999878     31.98999977
Na       11.42499924     22.84999847      4.56999969
Na       11.42499924     22.84999847      9.13999939
Na       11.42499924     22.84999847     13.71000004
Na       11.42499924     22.84999847     18.27999878
Na       11.42499924     22.84999847     22.84999847
Na       11.42499924     22.84999847     27.42000008
Na       11.42499924     22.84999847     31.98999977
Na       11.42499924     27.42000008      4.56999969
Na       11.42499924     27.42000008      9.13999939
Na       11.42499924     27.42000008     13.71000004
Na       11.42499924     27.42000008     18.27999878
Na       11.42499924     27.42000008     22.84999847
Na       11.42499924     27.42000008     27.42000008
Na       11.42499924     27.42000008     31.98999977
Na       15.99499989      0.00000003      4.56999969
Na       15.99499989      0.00000003      9.13999939
Na       15.99499989      0.00000003     13.71000004
Na       15.99499989      0.00000003     18.27999878
Na       15.99499989      0.00000003     22.84999847
Na       15.99499989      0.00000003     27.42000008
Na       15.99499989      0.00000003     31.98999977
Na       15.99499989      4.56999969      4.56999969
Na       15.99499989      4.56999969      9.13999939
Na       15.99499989      4.56999969     13.71000004
Na       15.99499989      4.56999969     18.27999878
Na       15.99499989      4.56999969     22.84999847
Na       15.99499989      4.56999969     27.42000008
Na       15.99499989      4.56999969     31.98999977
Na       15.99499989      9.13999939      4.56999969
Na       15.99499989      9.13999939      9.13999939
Na       15.99499989      9.13999939     13.71000004
Na       15.99499989      9.13999939     18.27999878
Na       15.99499989      9.13999939     22.84999847
Na       15.99499989      9.13999939     27.42000008
Na       15.99499989      9.13999939     31.98999977
Na       15.99499989     13.71000004      4.56999969
Na       15.99499989     13.71000004      9.13999939
Na       15.99499989     13.71000004     13.71000004
Na       15.99499989     13.71000004     18.27999878
Na       15.99499989     13.71000004     22.84999847
Na       15.99499989     13.71000004     27.42000008
Na       15.99499989     13.71000004     31.98999977
Na       15.99499989     18.27999878      4.56999969
Na       15.99499989     18.27999878      9.13999939
Na       15.99499989     18.27999878     13.71000004
Na       15.99499989     18.27999878     18.27999878
Na       15.99499989     18.27999878     22.84999847
Na       15.99499989     18.27999878     27.42000008
Na       15.99499989     18.27999878     31.98999977
Na       15.99499989     22.84999847      4.56999969
Na       15.99499989     22.84999847      9.13999939
Na       15.99499989     22.84999847     13.71000004
Na       15.99499989     22.84999847     18.27999878
Na       15.99499989     22.84999847     22.84999847
Na       15.99499989     22.84999847     27.42000008
Na       15.99499989     22.84999847     31.98999977
Na       15.99499989     27.42000008      4.56999969
Na       15.99499989     27.42000008      9.13999939
Na       15.99499989     27.42000008     13.71000004
Na       15.99499989     27.42000008     18.27999878
Na       15.99499989     27.42000008     22.84999847
Na       15.99499989     27.42000008     27.42000008
Na       15.99499989     27.42000008     31.98999977
Na       20.56499863      0.00000003      4.56999969
Na       20.56499863      0.00000003      9.13999939
Na       20.56499863      0.00000003     13.71000004
Na       20.56499863      0.00000003     18.27999878
Na       20.56499863      0.00000003     22.84999847
Na       20.56499863      0.00000003     27.42000008
Na       20.56499863      0.00000003     31.98999977
Na       20.56499863      4.56999969      4.56999969
Na       20.56499863      4.56999969      9.13999939
Na       20.56499863      4.56999969     13.71000004
Na       20.56499863      4.56999969     18.27999878
Na       20.56499863      4.56999969     22.84999847
Na       20.56499863      4.56999969     27.42000008
Na       20.56499863      4.56999969     31.98999977
Na       20.56499863      9.13999939      4.56999969
Na       20.56499863      9.13999939      9.13999939
Na       20.56499863      9.13999939     13.71000004
Na       20.56499863      9.13999939     18.27999878
Na       20.56499863      9.13999939     22.84999847
Na       20.56499863      9.13999939     27.42000008
Na       20.56499863      9.13999939     31.98999977
Na       20.56499863     13.71000004      4.56999969
Na       20.56499863     13.71000004      9.13999939
Na       20.56499863     13.71000004     13.71000004
Na       20.56499863     13.71000004     18.27999878
Na       20.56499863     13.71000004     22.84999847
Na       20.56499863     13.71000004     27.42000008
Na       20.56499863     13.71000004     31.98999977
Na       20.56499863     18.27999878      4.56999969
Na       20.56499863     18.27999878      9.13999939
Na       20.56499863     18.27999878     13.71000004
Na       20.56499863     18.27999878     18.27999878
Na       20.56499863     18.27999878     22.84999847
Na       20.56499863     18.27999878     27.42000008
Na       20.56499863     18.27999878     31.98999977
Na       20.56499863     22.84999847      4.56999969
Na       20.56499863     22.84999847      9.13999939
Na       20.56499863     22.84999847     13.71000004
Na       20.56499863     22.84999847     18.27999878
Na       20.56499863     22.84999847     22.84999847
Na       20.56499863     22.84999847     27.42000008
Na       20.56499863     22.84999847     31.98999977
Na       20.56499863     27.42000008      4.56999969
Na       20.56499863     27.42000008      9.13999939
Na       20.56499863     27.42000008     13.71000004
Na       20.56499863     27.42000008     18.27999878
Na       20.56499863     27.42000008     22.84999847
Na       20.56499863     27.42000008     27.42000008
Na       20.56499863     27.42000008     31.98999977
Na       25.13499832      0.00000003      4.56999969
Na       25.13499832      0.00000003      9.13999939
Na       25.13499832      0.00000003     13.71000004
Na       25.13499832      0.00000003     18.27999878
Na       25.13499832      0.00000003     22.84999847
Na       25.13499832      0.00000003     27.42000008
Na       25.13499832      0.00000003     31.98999977
Na       25.13499832      4.56999969      9.13999939
Na       25.13499832      4.56999969     13.71000004
Na       25.13499832      4.56999969     18.27999878
Na       25.13499832      4.56999969     22.84999847
Na       25.13499832      4.56999969     27.42000008
Na       25.13499832      4.56999969     31.98999977
Na       25.13499832      9.13999939      4.56999969
Na       25.13499832      9.13999939      9.13999939
Na       25.13499832      9.13999939     13.71000004
Na       25.13499832      9.13999939     18.27999878
Na       25.13499832      9.13999939     22.84999847
Na       25.13499832      9.13999939     27.42000008
Na       25.13499832      9.13999939     31.98999977
Na       25.13499832     13.71000004      4.56999969
Na       25.13499832     13.71000004      9.13999939
Na       25.13499832     13.71000004     13.71000004
Na       25.13499832     13.71000004     18.27999878
Na       25.13499832     13.71000004     22.84999847
Na       25.13499832     13.71000004     27.42000008
Na       25.13499832     13.71000004     31.98999977
Na       25.13499832     18.27999878      4.56999969
Na       25.13499832     18.27999878      9.13999939
Na       25.13499832     18.27999878     13.71000004
Na       25.13499832     18.27999878     18.27999878
Na       25.13499832     18.27999878     22.84999847
Na       25.13499832     18.27999878     27.42000008
Na       25.13499832     18.27999878     31.98999977
Na       25.13499832     22.84999847      4.56999969
Na       25.13499832     22.84999847      9.13999939
Na       25.13499832     22.84999847     13.71000004
Na       25.13499832     22.84999847     18.27999878
Na       25.13499832     22.84999847     22.84999847
Na       25.13499832     22.84999847     27.42000008
Na       25.13499832     22.84999847     31.98999977
Na       25.13499832     27.42000008      4.56999969
Na       25.13499832     27.42000008      9.13999939
Na       25.13499832     27.42000008     13.71000004
Na       25.13499832     27.42000008     18.27999878
Na       25.13499832     27.42000008     22.84999847
Na       25.13499832     27.42000008     27.42000008
Na       25.13499832     27.42000008     31.98999977
Na       29.70499992      0.00000003      4.56999969
Na       29.70499992      0.00000003      9.13999939
Na       29.70499992      0.00000003     13.71000004
Na       29.70499992      0.00000003     18.27999878
Na       29.70499992      0.00000003     22.84999847
Na       29.70499992      0.00000003     27.42000008
Na       29.70499992      0.00000003     31.98999977
Na       29.70499992      4.56999969      4.56999969
Na       29.70499992      4.56999969      9.13999939
Na       29.70499992      4.56999969     13.71000004
Na       29.70499992      4.56999969     18.27999878
Na       29.70499992      4.56999969     22.84999847
Na       29.70499992      4.56999969     27.42000008
Na       29.70499992      4.56999969     31.98999977
Na       29.70499992      9.13999939      4.56999969
Na       29.70499992      9.13999939      9.13999939
Na       29.70499992      9.13999939     13.71000004
Na       29.70499992      9.13999939     18.27999878
Na       29.70499992      9.13999939     22.84999847
Na       29.70499992      9.13999939     27.42000008
Na       29.70499992      9.13999939     31.98999977
Na       29.70499992     13.71000004      4.56999969
Na       29.70499992     13.71000004      9.13999939
Na       29.70499992     13.71000004     13.71000004
Na       29.70499992     13.71000004     18.27999878
Na       29.70499992     13.71000004     22.84999847
Na       29.70499992     13.71000004     27.42000008
Na       29.70499992     13.71000004     31.98999977
Na       29.70499992     18.27999878      4.56999969
Na       29.70499992     18.27999878      9.13999939
Na       29.70499992     18.27999878     13.71000004
Na       29.70499992     18.27999878     18.27999878
Na       29.70499992     18.27999878     22.84999847
Na       29.70499992     18.27999878     27.42000008
Na       29.70499992     18.27999878     31.98999977
Na       29.70499992     22.84999847      4.56999969
Na       29.70499992     22.84999847      9.13999939
Na       29.70499992     22.84999847     13.71000004
Na       29.70499992     22.84999847     18.27999878
Na       29.70499992     22.84999847     22.84999847
Na       29.70499992     22.84999847     27.42000008
Na       29.70499992     22.84999847     31.98999977
Na       29.70499992     27.42000008      4.56999969
Na       29.70499992     27.42000008     13.71000004
Na       29.70499992     27.42000008     18.27999878
Na       29.70499992     27.42000008     22.84999847
Na       29.70499992     27.42000008     27.42000008
Na       29.70499992     27.42000008     31.98999977
Na        0.00000003      2.28499985      4.56999969
Na        0.00000003      2.28499985      9.13999939
Na        0.00000003      2.28499985     13.71000004
Na        0.00000003      2.28499985     18.27999878
Na        0.00000003      2.28499985     22.84999847
Na        0.00000003      2.28499985     27.42000008
Na        0.00000003      2.28499985     31.98999977
Na        0.00000003      6.85499954      4.56999969
Na        0.00000003      6.85499954      9.13999939
Na        0.00000003      6.85499954     13.71000004
Na        0.00000003      6.85499954     18.27999878
Na        0.00000003      6.85499954     22.84999847
Na        0.00000003      6.85499954     27.42000008
Na        0.00000003      6.85499954     31.98999977
Na        0.00000003     11.42499924      4.56999969
Na        0.00000003     11.42499924      9.13999939
Na        0.00000003     11.42499924     13.71000004
Na        0.00000003     11.42499924     18.27999878
Na        0.00000003     11.42499924     22.84999847
Na        0.00000003     11.42499924     27.42000008
Na        0.00000003     11.42499924     31.98999977
Na        0.00000003     15.99499989      4.56999969
Na        0.00000003     15.99499989      9.13999939
Na        0.00000003     15.99499989     13.71000004
Na        0.00000003     15.99499989     18.27999878
Na        0.00000003     15.99499989     22.84999847
Na        0.00000003     15.99499989     27.42000008
Na        0.00000003     15.99499989     31.98999977
Na        0.00000003     20.56499863      4.56999969
Na        0.00000003     20.56499863      9.13999939
Na        0.00000003     20.56499863     13.71000004
Na        0.00000003     20.56499863     18.27999878
Na        0.00000003     20.56499863     22.84999847
Na        0.00000003     20.56499863     27.42000008
Na        0.00000003     20.56499863     31.98999977
Na        0.00000003     25.13499832      4.56999969
Na        0.00000003     25.13499832      9.13999939
Na        0.00000003     25.13499832     13.71000004
Na        0.00000003     25.13499832     18.27999878
Na        0.00000003     25.13499832     22.84999847
Na        0.00000003     25.13499832     27.42000008
Na        0.00000003     25.13499832     31.98999977
Na        0.00000003     29.70499992      4.56999969
Na        0.00000003     29.70499992      9.13999939
Na        0.00000003     29.70499992     13.71000004
Na        0.00000003     29.70499992     18.27999878
Na        0.00000003     29.70499992     22.84999847
Na        0.00000003     29.70499992     27.42000008
Na        0.00000003     29.70499992     31.98999977
Na        4.56999969      2.28499985      4.56999969
Na        4.56999969      2.28499985      9.13999939
Na        4.56999969      2.28499985     13.71000004
Na        4.56999969      2.28499985     18.27999878
Na        4.56999969      2.28499985     22.84999847
Na        4.56999969      2.28499985     27.42000008
Na        4.56999969      2.28499985     31.98999977
Na        4.56999969      6.85499954      4.56999969
Na        4.56999969      6.85499954      9.13999939
Na        4.56999969      6.85499954     13.71000004
Na        4.56999969      6.85499954     18.27999878
Na        4.56999969      6.85499954     22.84999847
Na        4.56999969      6.85499954     27.42000008
Na        4.56999969      6.85499954     31.98999977
Na        4.56999969     11.42499924      4.56999969
Na        4.56999969     11.42499924      9.13999939
Na        4.56999969     11.42499924     13.71000004
Na        4.56999969     11.42499924     18.27999878
Na        4.56999969     11.42499924     22.84999847
Na        4.56999969     11.42499924     27.42000008
Na        4.56999969     11.42499924     31.98999977
Na        4.56999969     15.99499989      4.56999969
Na        4.56999969     15.99499989      9.13999939
Na        4.56999969     15.99499989     13.71000004
Na        4.56999969     15.99499989     18.27999878
Na        4.56999969     15.99499989     22.84999847
Na        4.56999969     15.99499989     27.42000008
Na        4.56999969     15.99499989     31.98999977
Na        4.56999969     20.56499863      4.56999969
Na        4.56999969     20.56499863      9.13999939
Na        4.56999969     20.56499863     13.71000004
Na        4.56999969     20.56499863     18.27999878
Na        4.56999969     20.56499863     22.84999847
Na        4.56999969     20.56499863     27.42000008
Na        4.56999969     20.56499863     31.98999977
Na        4.56999969     25.13499832      4.56999969
Na        4.56999969     25.13499832      9.13999939
Na        4.56999969     25.13499832     13.71000004
Na        4.56999969     25.13499832     18.27999878
Na        4.56999969     25.13499832     22.84999847
Na        4.56999969     25.13499832     27.42000008
Na        4.56999969     25.13499832     31.98999977
Na        4.56999969     29.70499992      4.56999969
Na        4.56999969     29.70499992      9.13999939
Na        4.56999969     29.70499992     13.71000004
Na        4.56999969     29.70499992     18.27999878
Na        4.56999969     29.70499992     22.84999847
Na        4.56999969     29.70499992     27.42000008
Na        4.56999969     29.70499992     31.98999977
Na        9.13999939      2.28499985      4.56999969
Na        9.13999939      2.28499985      9.13999939
Na        9.13999939      2.28499985     13.71000004
Na        9.13999939      2.28499985     18.27999878
Na        9.13999939      2.28499985     22.84999847
Na        9.13999939      2.28499985     27.42000008
Na        9.13999939      2.28499985     31.98999977
Na        9.13999939      6.85499954      4.56999969
Na        9.13999939      6.85499954      9.13999939
Na        9.13999939      6.85499954     13.71000004
Na        9.13999939      6.85499954     18.27999878
Na        9.13999939      6.85499954     22.84999847
Na        9.13999939      6.85499954     27.42000008
Na        9.13999939      6.85499954     31.98999977
Na        9.13999939     11.42499924      4.56999969
Na        9.13999939     11.42499924      9.13999939
Na        9.13999939     11.42499924     13.71000004
Na        9.13999939     11.42499924     18.27999878
Na        9.13999939     11.42499924     22.84999847
Na        9.13999939     11.42499924     27.42000008
Na        9.13999939     11.42499924     31.98999977
Na        9.13999939     15.99499989      4.56999969
Na        9.13999939     15.99499989      9.13999939
Na        9.13999939     15.99499989     13.71000004
Na        9.13999939     15.99499989     18.27999878
Na        9.13999939     15.99499989     22.84999847
Na        9.13999939     15.99499989     27.42000008
Na        9.13999939     15.99499989     31.98999977
Na        9.13999939     20.56499863      4.56999969
Na        9.13999939     20.56499863      9.13999939
Na        9.13999939     20.56499863     13.71000004
Na        9.13999939     20.56499863     18.27999878
Na        9.13999939     20.56499863     22.84999847
Na        9.13999939     20.56499863     27.42000008
Na        9.13999939     20.56499863     31.98999977
Na        9.13999939     25.13499832      4.56999969
Na        9.13999939     25.13499832      9.13999939
Na        9.13999939     25.13499832     13.71000004
Na        9.13999939     25.13499832     18.27999878
Na        9.13999939     25.13499832     22.84999847
Na        9.13999939     25.13499832     27.42000008
Na        9.13999939     25.13499832     31.98999977
Na        9.13999939     29.70499992      4.56999969
Na        9.13999939     29.70499992      9.13999939
Na        9.13999939     29.70499992     13.71000004
Na        9.13999939     29.70499992     22.84999847
Na        9.13999939     29.70499992     27.42000008
Na        9.13999939     29.70499992     31.98999977
Na       13.71000004      2.28499985      4.56999969
Na       13.71000004      2.28499985      9.13999939
Na       13.71000004      2.28499985     13.71000004
Na       13.71000004      2.28499985     18.27999878
Na       13.71000004      2.28499985     22.84999847
Na       13.71000004      2.28499985     27.42000008
Na       13.71000004      2.28499985     31.98999977
Na       13.71000004      6.85499954      4.56999969
Na       13.71000004      6.85499954      9.13999939
Na       13.71000004      6.85499954     13.71000004
Na       13.71000004      6.85499954     18.27999878
Na       13.71000004      6.85499954     22.84999847
Na       13.71000004      6.85499954     27.42000008
Na       13.71000004      6.85499954     31.98999977
Na       13.71000004     11.42499924      4.56999969
Na       13.71000004     11.42499924      9.13999939
Na       13.71000004     11.42499924     13.71000004
Na       13.71000004     11.42499924     18.27999878
Na       13.71000004     11.42499924     22.84999847
Na       13.71000004     11.42499924     27.42000008
Na       13.71000004     11.42499924     31.98999977
Na       13.71000004     15.99499989      4.56999969
Na       13.71000004     15.99499989      9.13999939
Na       13.71000004     15.99499989     13.71000004
Na       13.71000004     15.99499989     18.27999878
Na       13.71000004     15.99499989     22.84999847
Na       13.71000004     15.99499989     31.98999977
Na       13.71000004     20.56499863      4.56999969
Na       13.71000004     20.56499863      9.13999939
Na       13.71000004     20.56499863     13.71000004
Na       13.71000004     20.56499863     18.27999878
Na       13.71000004     20.56499863     22.84999847
Na       13.71000004     20.56499863     27.42000008
Na       13.71000004     20.56499863     31.98999977
Na       13.71000004     25.13499832      4.56999969
Na       13.71000004     25.13499832      9.13999939
Na       13.71000004     25.13499832     13.71000004
Na       13.71000004     25.13499832     18.27999878
Na       13.71000004     25.13499832     22.84999847
Na       13.71000004     25.13499832     27.42000008
Na       13.71000004     25.13499832     31.98999977
Na       13.71000004     29.70499992      4.56999969
Na       13.71000004     29.70499992      9.13999939
Na       13.71000004     29.70499992     13.71000004
Na       13.71000004     29.70499992     18.27999878
Na       13.71000004     29.70499992     22.84999847
Na       13.71000004     29.70499992     27.42000008
Na       13.71000004     29.70499992     31.98999977
Na       18.27999878      2.28499985      4.56999969
Na       18.27999878      2.28499985      9.13999939
Na       18.27999878      2.28499985     13.71000004
Na       18.27999878      2.28499985     18.27999878
Na       18.27999878      2.28499985     22.84999847
Na       18.27999878      2.28499985     27.42000008
Na       18.27999878      2.28499985     31.98999977
Na       18.27999878      6.85499954      4.56999969
Na       18.27999878      6.85499954      9.13999939
Na       18.27999878      6.85499954     13.71000004
Na       18.27999878      6.85499954     18.27999878
Na       18.27999878      6.85499954     22.84999847
Na       18.27999878      6.85499954     27.42000008
Na       18.27999878      6.85499954     31.98999977
Na       18.27999878     11.42499924      4.56999969
Na       18.27999878     11.42499924      9.13999939
Na       18.27999878     11.42499924     13.71000004
Na       18.27999878     11.42499924     18.27999878
Na       18.27999878     11.42499924     22.84999847
Na       18.27999878     11.42499924     27.42000008
Na       18.27999878     11.42499924     31.98999977
Na       18.27999878     15.99499989      4.56999969
Na       18.27999878     15.99499989      9.13999939
Na       18.27999878     15.99499989     13.71000004
Na       18.27999878     15.99499989     18.27999878
Na       18.27999878     15.99499989     22.84999847
Na       18.27999878     15.99499989     27.42000008
Na       18.27999878     15.99499989     31.98999977
Na       18.27999878     20.56499863      4.56999969
Na       18.27999878     20.56499863      9.13999939
Na       18.27999878     20.56499863     13.71000004
Na       18.27999878     20.56499863     18.27999878
Na       18.27999878     20.56499863     22.84999847
Na       18.27999878     20.56499863     27.42000008
Na       18.27999878     20.56499863     31.98999977
Na       18.27999878     25.13499832      4.56999969
Na       18.27999878     25.13499832      9.13999939
Na       18.27999878     25.13499832     13.71000004
Na       18.27999878     25.13499832     22.84999847
Na       18.27999878     25.13499832     27.42000008
Na       18.27999878     25.13499832     31.98999977
Na       18.27999878     29.70499992      4.56999969
Na       18.27999878     29.70499992     13.71000004
Na       18.27999878     29.70499992     18.27999878
Na       18.27999878     29.70499992     22.84999847
Na       18.27999878     29.70499992     27.42000008
Na       18.27999878     29.70499992     31.98999977
Na       22.84999847      2.28499985      4.56999969
Na       22.84999847      2.28499985      9.13999939
Na       22.84999847      2.28499985     13.71000004
Na       22.84999847      2.28499985     18.27999878
Na       22.84999847      2.28499985     27.42000008
Na       22.84999847      2.28499985     31.98999977
Na       22.84999847      6.85499954      4.56999969
Na       22.84999847      6.85499954      9.13999939
Na       22.84999847      6.85499954     13.71000004
Na       22.84999847      6.85499954     18.27999878
Na       22.84999847      6.85499954     22.84999847
Na       22.84999847      6.85499954     27.42000008
Na       22.84999847      6.85499954     31.98999977
Na       22.84999847     11.42499924      4.56999969
Na       22.84999847     11.42499924      9.13999939
Na       22.84999847     11.42499924     13.71000004
Na       22.84999847     11.42499924     18.27999878
Na       22.84999847     11.42499924     22.84999847
Na       22.84999847     11.42499924     27.42000008
Na       22.84999847     11.42499924     31.98999977
Na       22.84999847     15.99499989      4.56999969
Na       22.84999847     15.99499989      9.13999939
Na       22.84999847     15.99499989     13.71000004
Na       22.84999847     15.99499989     18.27999878
Na       22.84999847     15.99499989     22.84999847
Na       22.84999847     15.99499989     27.42000008
Na       22.84999847     15.99499989     31.98999977
Na       22.84999847     20.56499863      4.56999969
Na       22.84999847     20.56499863      9.13999939
Na       22.84999847     20.56499863     13.71000004
Na       22.84999847     20.56499863     18.27999878
Na       22.84999847     20.56499863     22.84999847
Na       22.84999847     20.56499863     27.42000008
Na       22.84999847     20.56499863     31.98999977
Na       22.84999847     25.13499832      4.56999969
Na       22.84999847     25.13499832      9.13999939
Na       22.84999847     25.13499832     13.71000004
Na       22.84999847     25.13499832     18.27999878
Na       22.84999847     25.13499832     22.84999847
Na       22.84999847     25.13499832     27.42000008
Na       22.84999847     25.13499832     31.98999977
Na       22.84999847     29.70499992      4.56999969
Na       22.84999847     29.70499992      9.13999939
Na       22.84999847     29.70499992     13.71000004
Na       22.84999847     29.70499992     18.27999878
Na       22.84999847     29.70499992     22.84999847
Na       22.84999847     29.70499992     27.42000008
Na       22.84999847     29.70499992     31.98999977
Na       27.42000008      2.28499985      4.56999969
Na       27.42000008      2.28499985      9.13999939
Na       27.42000008      2.28499985     13.71000004
Na       27.42000008      2.28499985     18.27999878
Na       27.42000008      2.28499985     22.84999847
Na       27.42000008      2.28499985     27.42000008
Na       27.42000008      2.28499985     31.98999977
Na       27.42000008      6.85499954      4.56999969
Na       27.42000008      6.85499954      9.13999939
Na       27.42000008      6.85499954     13.71000004
Na       27.42000008      6.85499954     18.27999878
Na       27.42000008      6.85499954     22.84999847
Na       27.42000008      6.85499954     27.42000008
Na       27.42000008      6.85499954     31.98999977
Na       27.42000008     11.42499924      4.56999969
Na       27.42000008     11.42499924      9.13999939
Na       27.42000008     11.42499924     13.71000004
Na       27.42000008     11.42499924     18.27999878
Na       27.42000008     11.42499924     22.84999847
Na       27.42000008     11.42499924     27.42000008
Na       27.42000008     11.42499924     31.98999977
Na       27.42000008     15.99499989      4.56999969
Na       27.42000008     15.99499989      9.13999939
Na       27.42000008     15.99499989     13.71000004
Na       27.42000008     15.99499989     18.27999878
Na       27.42000008     15.99499989     22.84999847
Na       27.42000008     15.99499989     27.42000008
Na       27.42000008     20.56499863      4.56999969
Na       27.42000008     20.56499863      9.13999939
Na       27.42000008     20.56499863     13.71000004
Na       27.42000008     20.56499863     18.27999878
Na       27.42000008     20.56499863     22.84999847
Na       27.42000008     20.56499863     27.42000008
Na       27.42000008     20.56499863     31.98999977
Na       27.42000008     25.13499832      4.56999969
Na       27.42000008     25.13499832      9.13999939
Na       27.42000008     25.13499832     13.71000004
Na       27.42000008     25.13499832     18.27999878
Na       27.42000008     25.13499832     22.84999847
Na       27.42000008     25.13499832     27.42000008
Na       27.42000008     25.13499832     31.98999977
Na       27.42000008     29.70499992      4.56999969
Na       27.42000008     29.70499992      9.13999939
Na       27.42000008     29.70499992     13.71000004
Na       27.42000008     29.70499992     18.27999878
Na       27.42000008     29.70499992     22.84999847
Na       27.42000008     29.70499992     27.42000008
Na       27.42000008     29.70499992     31.98999977
Na        0.00000001      0.00000002      2.28500009
Na        0.00000001      0.00000002      6.85500002
Na        0.00000001      0.00000002     11.42500019
Na        0.00000001      0.00000002     15.99499989
Na        0.00000001      0.00000002     20.56499863
Na        0.00000001      0.00000002     25.13500023
Na        0.00000001      0.00000002     29.70499992
Na        0.00000001      4.56999969      2.28500009
Na        0.00000001      4.56999969      6.85500002
Na        0.00000001      4.56999969     11.42500019
Na        0.00000001      4.56999969     15.99499989
Na        0.00000001      4.56999969     20.56499863
Na        0.00000001      4.56999969     25.13500023
Na        0.00000001      4.56999969     29.70499992
Na        0.00000001      9.13999939      2.28500009
Na        0.00000001      9.13999939      6.85500002
Na        0.00000001      9.13999939     11.42500019
Na        0.00000001      9.13999939     15.99499989
Na        0.00000001      9.13999939     20.56499863
Na        0.00000001      9.13999939     25.13500023
Na        0.00000001      9.13999939     29.70499992
Na        0.00000001     13.71000004      2.28500009
Na        0.00000001     13.71000004      6.85500002
Na        0.00000001     13.71000004     11.42500019
Na        0.00000001     13.71000004     15.99499989
Na        0.00000001     13.71000004     20.56499863
Na        0.00000001     13.71000004     25.13500023
Na        0.00000001     13.71000004     29.70499992
Na        0.00000001     18.27999878      2.28500009
Na        0.00000001     18.27999878      6.85500002
Na        0.00000001     18.27999878     11.42500019
Na        0.00000001     18.27999878     15.99499989
Na        0.00000001     18.27999878     20.56499863
Na        0.00000001     18.27999878     25.13500023
Na        0.00000001     18.27999878     29.70499992
Na        0.00000001     22.84999847      2.28500009
Na        0.00000001     22.84999847      6.85500002
Na        0.00000001     22.84999847     11.42500019
Na        0.00000001     22.84999847     15.99499989
Na        0.00000001     22.84999847     20.56499863
Na        0.00000001     22.84999847     25.13500023
Na        0.00000001     22.84999847     29.70499992
Na        0.00000001     27.42000008      2.28500009
Na        0.00000001     27.42000008      6.85500002
Na        0.00000001     27.42000008     11.42500019
Na        0.00000001     27.42000008     15.99499989
Na        0.00000001     27.42000008     20.56499863
Na        0.00000001     27.42000008     25.13500023
Na        0.00000001     27.42000008     29.70499992
Na        4.56999969      0.00000002      2.28500009
Na        4.56999969      0.00000002      6.85500002
Na        4.56999969      0.00000002     11.42500019
Na        4.56999969      0.00000002     15.99499989
Na        4.56999969      0.00000002     20.56499863
Na        4.56999969      0.00000002     25.13500023
Na        4.56999969      0.00000002     29.70499992
Na        4.56999969      4.56999969      2.28500009
Na        4.56999969      4.56999969      6.85500002
Na        4.56999969      4.56999969     11.42500019
Na        4.56999969      4.56999969     15.99499989
Na        4.56999969      4.56999969     20.56499863
Na        4.56999969      4.56999969     25.13500023
Na        4.56999969      4.56999969     29.70499992
Na        4.56999969      9.13999939      2.28500009
Na        4.56999969      9.13999939      6.85500002
Na        4.56999969      9.13999939     11.42500019
Na        4.56999969      9.13999939     15.99499989
Na        4.56999969      9.13999939     20.56499863
Na        4.56999969      9.13999939     25.13500023
Na        4.56999969      9.13999939     29.70499992
Na        4.56999969     13.71000004      2.28500009
Na        4.56999969     13.71000004      6.85500002
Na        4.56999969     13.71000004     11.42500019
Na        4.56999969     13.71000004     15.99499989
Na        4.56999969     13.71000004     20.56499863
Na        4.56999969     13.71000004     25.13500023
Na        4.56999969     13.71000004     29.70499992
Na        4.56999969     18.27999878      2.28500009
Na        4.56999969     18.27999878      6.85500002
Na        4.56999969     18.27999878     11.42500019
Na        4.56999969     18.27999878     15.99499989
Na        4.56999969     18.27999878     20.56499863
Na        4.56999969     18.27999878     25.13500023
Na        4.56999969     18.27999878     29.70499992
Na        4.56999969     22.84999847      2.28500009
Na        4.56999969     22.84999847      6.85500002
Na        4.56999969     22.84999847     11.42500019
Na        4.56999969     22.84999847     15.99499989
Na        4.56999969     22.84999847     20.56499863
Na        4.56999969     22.84999847     25.13500023
Na        4.56999969     22.84999847     29.70499992
Na        4.56999969     27.42000008      2.28500009
Na        4.56999969     27.42000008      6.85500002
Na        4.56999969     27.42000008     11.42500019
Na        4.56999969     27.42000008     15.99499989
Na        4.56999969     27.42000008     20.56499863
Na        4.56999969     27.42000008     25.13500023
Na        4.56999969     27.42000008     29.70499992
Na        9.13999939      0.00000002      2.28500009
Na        9.13999939      0.00000002      6.85500002
Na        9.13999939      0.00000002     11.42500019
Na        9.13999939      0.00000002     15.99499989
Na        9.13999939      0.00000002     20.56499863
Na        9.13999939      0.00000002     25.13500023
Na        9.13999939      0.00000002     29.70499992
Na        9.13999939      4.56999969      2.28500009
Na        9.13999939      4.56999969      6.85500002
Na        9.13999939      4.56999969     11.42500019
Na        9.13999939      4.56999969     15.99499989
Na        9.13999939      4.56999969     20.56499863
Na        9.13999939      4.56999969     25.13500023
Na        9.13999939      4.56999969     29.70499992
Na        9.13999939      9.13999939      2.28500009
Na        9.13999939      9.13999939      6.85500002
Na        9.13999939      9.13999939     11.42500019
Na        9.13999939      9.13999939     15.99499989
Na        9.13999939      9.13999939     20.56499863
Na        9.13999939      9.13999939     25.13500023
Na        9.13999939      9.13999939     29.70499992
Na        9.13999939     13.71000004      2.28500009
Na        9.13999939     13.71000004      6.85500002
Na        9.13999939     13.71000004     11.42500019
Na        9.13999939     13.71000004     15.99499989
Na        9.13999939     13.71000004     20.56499863
Na        9.13999939     13.71000004     25.13500023
Na        9.13999939     13.71000004     29.70499992
Na        9.13999939     18.27999878      2.28500009
Na        9.13999939     18.27999878      6.85500002
Na        9.13999939     18.27999878     11.42500019
Na        9.13999939     18.27999878     15.99499989
Na        9.13999939     18.27999878     20.56499863
Na        9.13999939     18.27999878     25.13500023
Na        9.13999939     18.27999878     29.70499992
Na        9.13999939     22.84999847      2.28500009
Na        9.13999939     22.84999847      6.85500002
Na        9.13999939     22.84999847     11.42500019
Na        9.13999939     22.84999847     15.99499989
Na        9.13999939     22.84999847     20.56499863
Na        9.13999939     22.84999847     25.13500023
Na        9.13999939     22.84999847     29.70499992
Na        9.13999939     27.42000008      2.28500009
Na        9.13999939     27.42000008      6.85500002
Na        9.13999939     27.42000008     11.42500019
Na        9.13999939     27.42000008     15.99499989
Na        9.13999939     27.42000008     20.56499863
Na        9.13999939     27.42000008     25.13500023
Na       13.71000004      0.00000002      2.28500009
Na       13.71000004      0.00000002      6.85500002
Na       13.71000004      0.00000002     11.42500019
Na       13.71000004      0.00000002     15.99499989
Na       13.71000004      0.00000002     20.56499863
Na       13.71000004      0.00000002     25.13500023
Na       13.71000004      0.00000002     29.70499992
Na       13.71000004      4.56999969      2.28500009
Na       13.71000004      4.56999969      6.85500002
Na       13.71000004      4.56999969     11.42500019
Na       13.71000004      4.56999969     15.99499989
Na       13.71000004      4.56999969     20.56499863
Na       13.71000004      4.56999969     25.13500023
Na       13.71000004      4.56999969     29.70499992
Na       13.71000004      9.13999939      2.28500009
Na       13.71000004      9.13999939      6.85500002
Na       13.71000004      9.13999939     11.42500019
Na       13.71000004      9.13999939     15.99499989
Na       13.71000004      9.13999939     20.56499863
Na       13.71000004      9.13999939     25.13500023
Na       13.71000004      9.13999939     29.70499992
Na       13.71000004     13.71000004      2.28500009
Na       13.71000004     13.71000004      6.85500002
Na       13.71000004     13.71000004     11.42500019
Na       13.71000004     13.71000004     15.99499989
Na       13.71000004     13.71000004     20.56499863
Na       13.71000004     13.71000004     25.13500023
Na       13.71000004     13.71000004     29.70499992
Na       13.71000004     18.27999878      2.28500009
Na       13.71000004     18.27999878      6.85500002
Na       13.71000004     18.27999878     11.42500019
Na       13.71000004     18.27999878     15.99499989
Na       13.71000004     18.27999878     20.56499863
Na       13.71000004     18.27999878     25.13500023
Na       13.71000004     18.27999878     29.70499992
Na       13.71000004     22.84999847      2.28500009
Na       13.71000004     22.84999847      6.85500002
Na       13.71000004     22.84999847     11.42500019
Na       13.71000004     22.84999847     15.99499989
Na       13.71000004     22.84999847     20.56499863
Na       13.71000004     22.84999847     25.13500023
Na       13.71000004     22.84999847     29.70499992
Na       13.71000004     27.42000008      2.28500009
Na       13.71000004     27.42000008      6.85500002
Na       13.71000004     27.42000008     11.42500019
Na       13.71000004     27.42000008     15.99499989
Na       13.71000004     27.42000008     20.56499863
Na       13.71000004     27.42000008     25.13500023
Na       13.71000004     27.42000008     29.70499992
Na       18.27999878      0.00000002      2.28500009
Na       18.27999878      0.00000002      6.85500002
Na       18.27999878      0.00000002     11.42500019
Na       18.27999878      0.00000002     15.99499989
Na       18.27999878      0.00000002     20.56499863
Na       18.27999878      0.00000002     25.13500023
Na       18.27999878      0.00000002     29.70499992
Na       18.27999878      4.56999969      2.28500009
Na       18.27999878      4.56999969      6.85500002
Na       18.27999878      4.56999969     11.42500019
Na       18.27999878      4.56999969     15.99499989
Na       18.27999878      4.56999969     20.56499863
Na       18.27999878      4.56999969     25.13500023
Na       18.27999878      4.56999969     29.70499992
Na       18.27999878      9.13999939      2.28500009
Na       18.27999878      9.13999939      6.85500002
Na       18.27999878      9.13999939     11.42500019
Na       18.27999878      9.13999939     15.99499989
Na       18.27999878      9.13999939     20.56499863
Na       18.27999878      9.13999939     25.13500023
Na       18.27999878      9.13999939     29.70499992
Na       18.27999878     13.71000004      2.28500009
Na       18.27999878     13.71000004      6.85500002
Na       18.27999878     13.71000004     11.42500019
Na       18.27999878     13.71000004     15.99499989
Na       18.27999878     13.71000004     20.56499863
Na       18.27999878     13.71000004     25.13500023
Na       18.27999878     13.71000004     29.70499992
Na       18.27999878     18.27999878      2.28500009
Na       18.27999878     18.27999878      6.85500002
Na       18.27999878     18.27999878     11.42500019
Na       18.27999878     18.27999878     15.99499989
Na       18.27999878     18.27999878     20.56499863
Na       18.27999878     18.27999878     25.13500023
Na       18.27999878     18.27999878     29.70499992
Na       18.27999878     22.84999847      2.28500009
Na       18.27999878     22.84999847      6.85500002
Na       18.27999878     22.84999847     11.42500019
Na       18.27999878     22.84999847     15.99499989
Na       18.27999878     22.84999847     20.56499863
Na       18.27999878     22.84999847     25.13500023
Na       18.27999878     22.84999847     29.70499992
Na       18.27999878     27.42000008      2.28500009
Na       18.27999878     27.42000008      6.85500002
Na       18.27999878     27.42000008     11.42500019
Na       18.27999878     27.42000008     15.99499989
Na       18.27999878     27.42000008     20.56499863
Na       18.27999878     27.42000008     25.13500023
Na       18.27999878     27.42000008     29.70499992
Na       22.84999847      0.00000002      2.28500009
Na       22.84999847      0.00000002      6.85500002
Na       22.84999847      0.00000002     11.42500019
Na       22.84999847      0.00000002     15.99499989
Na       22.84999847      0.00000002     20.56499863
Na       22.84999847      0.00000002     25.13500023
Na       22.84999847      0.00000002     29.70499992
Na       22.84999847      4.56999969      2.28500009
Na       22.84999847      4.56999969      6.85500002
Na       22.84999847      4.56999969     11.42500019
Na       22.84999847      4.56999969     15.99499989
Na       22.84999847      4.56999969     20.56499863
Na       22.84999847      4.56999969     25.13500023
Na       22.84999847      4.56999969     29.70499992
Na       22.84999847      9.13999939      2.28500009
Na       22.84999847      9.13999939      6.85500002
Na       22.84999847      9.13999939     11.42500019
Na       22.84999847      9.13999939     15.99499989
Na       22.84999847      9.13999939     20.56499863
Na       22.84999847      9.13999939     25.13500023
Na       22.84999847      9.13999939     29.70499992
Na       22.84999847     13.71000004      2.28500009
Na       22.84999847     13.71000004      6.85500002
Na       22.84999847     13.71000004     11.42500019
Na       22.84999847     13.71000004     15.99499989
Na       22.84999847     13.71000004     20.56499863
Na       22.84999847     13.71000004     25.13500023
Na       22.84999847     13.71000004     29.70499992
Na       22.84999847     18.27999878      2.28500009
Na       22.84999847     18.27999878      6.85500002
Na       22.84999847     18.27999878     11.42500019
Na       22.84999847     18.27999878     15.99499989
Na       22.84999847     18.27999878     20.56499863
Na       22.84999847     18.27999878     25.13500023
Na       22.84999847     18.27999878     29.70499992
Na       22.84999847     22.84999847      2.28500009
Na       22.84999847     22.84999847      6.85500002
Na       22.84999847     22.84999847     11.42500019
Na       22.84999847     22.84999847     15.99499989
Na       22.84999847     22.84999847     20.56499863
Na       22.84999847     22.84999847     25.13500023
Na       22.84999847     22.84999847     29.70499992
Na       22.84999847     27.42000008      2.28500009
Na       22.84999847     27.42000008      6.85500002
Na       22.84999847     27.42000008     11.42500019
Na       22.84999847     27.42000008     15.99499989
Na       22.84999847     27.42000008     20.56499863
Na       22.84999847     27.42000008     25.13500023
Na       22.84999847     27.42000008     29.70499992
Na       27.42000008      0.00000002      2.28500009
Na       27.42000008      0.00000002      6.85500002
Na       27.42000008      0.00000002     11.42500019
Na       27.42000008      0.00000002     15.99499989
Na       27.42000008      0.00000002     20.56499863
Na       27.42000008      0.00000002     25.13500023
Na       27.42000008      0.00000002     29.70499992
Na       27.42000008      4.56999969      2.28500009
Na       27.42000008      4.56999969      6.85500002
Na       27.42000008      4.56999969     11.42500019
Na       27.42000008      4.56999969     15.99499989
Na       27.42000008      4.56999969     20.56499863
Na       27.42000008      4.56999969     25.13500023
Na       27.42000008      4.56999969     29.70499992
Na       27.42000008      9.13999939      2.28500009
Na       27.42000008      9.13999939      6.85500002
Na       27.42000008      9.13999939     11.42500019
Na       27.42000008      9.13999939     15.99499989
Na       27.42000008      9.13999939     20.56499863
Na       27.42000008      9.13999939     25.13500023
Na       27.42000008      9.13999939     29.70499992
Na       27.42000008     13.71000004      2.28500009
Na       27.42000008     13.71000004      6.85500002
Na       27.42000008     13.71000004     11.42500019
Na       27.42000008     13.71000004     15.99499989
Na       27.42000008     13.71000004     20.56499863
Na       27.42000008     13.71000004     25.13500023
Na       27.42000008     13.71000004     29.70499992
Na       27.42000008     18.27999878      2.28500009
Na       27.42000008     18.27999878      6.85500002
Na       27.42000008     18.27999878     11.42500019
Na       27.42000008     18.27999878     15.99499989
Na       27.42000008     18.27999878     20.56499863
Na       27.42000008     18.27999878     25.13500023
Na       27.42000008     18.27999878     29.70499992
Na       27.42000008     22.84999847      2.28500009
Na       27.42000008     22.84999847      6.85500002
Na       27.42000008     22.84999847     11.42500019
Na       27.42000008     22.84999847     15.99499989
Na       27.42000008     22.84999847     20.56499863
Na       27.42000008     22.84999847     25.13500023
Na       27.42000008     22.84999847     29.70499992
Na       27.42000008     27.42000008      2.28500009
Na       27.42000008     27.42000008      6.85500002
Na       27.42000008     27.42000008     11.42500019
Na       27.42000008     27.42000008     15.99499989
Na       27.42000008     27.42000008     20.56499863
Na       27.42000008     27.42000008     25.13500023
Na       27.42000008     27.42000008     29.70499992
O         0.00000003      0.00000006      4.56999969
O         0.00000003      0.00000006      9.13999939
O         0.00000003      0.00000006     13.71000004
O         0.00000003      0.00000006     18.27999878
O         0.00000003      0.00000006     22.84999847
O         0.00000003      0.00000006     27.42000008
O         0.00000003      0.00000006     31.98999977
O         0.00000003      4.56999969      4.56999969
O         0.00000003      4.56999969      9.13999939
O         0.00000003      4.56999969     13.71000004
O         0.00000003      4.56999969     18.27999878
O         0.00000003      4.56999969     22.84999847
O         0.00000003      4.56999969     27.42000008
O         0.00000003      4.56999969     31.98999977
O         0.00000003      9.13999939      4.56999969
O         0.00000003      9.13999939      9.13999939
O         0.00000003      9.13999939     13.71000004
O         0.00000003      9.13999939     18.27999878
O         0.00000003      9.13999939     22.84999847
O         0.00000003      9.13999939     27.42000008
O         0.00000003      9.13999939     31.98999977
O         0.00000003     13.71000004      4.56999969
O         0.00000003     13.71000004      9.13999939
O         0.00000003     13.71000004     13.71000004
O         0.00000003     13.71000004     18.27999878
O         0.00000003     13.71000004     22.84999847
O         0.00000003     13.71000004     27.42000008
O         0.00000003     13.71000004     31.98999977
O         0.00000003     18.27999878      4.56999969
O         0.00000003     18.27999878      9.13999939
O         0.00000003     18.27999878     13.71000004
O         0.00000003     18.27999878     18.27999878
O         0.00000003     18.27999878     22.84999847
O         0.00000003     18.27999878     27.42000008
O         0.00000003     18.27999878     31.98999977
O         0.00000003     22.84999847      4.56999969
O         0.00000003     22.84999847      9.13999939
O         0.00000003     22.84999847     13.71000004
O         0.00000003     22.84999847     18.27999878
O         0.00000003     22.84999847     22.84999847
O         0.00000003     22.84999847     27.42000008
O         0.00000003     22.84999847     31.98999977
O         0.00000003     27.42000008      4.56999969
O         0.00000003     27.42000008      9.13999939
O         0.00000003     27.42000008     13.71000004
O         0.00000003     27.42000008     18.27999878
O         0.00000003     27.42000008     22.84999847
O         0.00000003     27.42000008     27.42000008
O         0.00000003     27.42000008     31.98999977
O         4.56999969      0.00000006      4.56999969
O         4.56999969      0.00000006      9.13999939
O         4.56999969      0.00000006     13.71000004
O         4.56999969      0.00000006     18.27999878
O         4.56999969      0.00000006     22.84999847
O         4.56999969      0.00000006     27.42000008
O         4.56999969      0.00000006     31.98999977
O         4.56999969      4.56999969      4.56999969
O         4.56999969      4.56999969      9.13999939
O         4.56999969      4.56999969     13.71000004
O         4.56999969      4.56999969     18.27999878
O         4.56999969      4.56999969     22.84999847
O         4.56999969      4.56999969     27.42000008
O         4.56999969      4.56999969     31.98999977
O         4.56999969      9.13999939      4.56999969
O         4.56999969      9.13999939      9.13999939
O         4.56999969      9.13999939     13.71000004
O         4.56999969      9.13999939     18.27999878
O         4.56999969      9.13999939     22.84999847
O         4.56999969      9.13999939     27.42000008
O         4.56999969      9.13999939     31.98999977
O         4.56999969     13.71000004      4.56999969
O         4.56999969     13.71000004      9.13999939
O         4.56999969     13.71000004     13.71000004
O         4.56999969     13.71000004     18.27999878
O         4.56999969     13.71000004     22.84999847
O         4.56999969     13.71000004     27.42000008
O         4.56999969     13.71000004     31.98999977
O         4.56999969     18.27999878      4.56999969
O         4.56999969     18.27999878      9.13999939
O         4.56999969     18.27999878     13.71000004
O         4.56999969     18.27999878     18.27999878
O         4.56999969     18.27999878     22.84999847
O         4.56999969     18.27999878     27.42000008
O         4.56999969     18.27999878     31.98999977
O         4.56999969     22.84999847      4.56999969
O         4.56999969     22.84999847      9.13999939
O         4.56999969     22.84999847     13.71000004
O         4.56999969     22.84999847     18.27999878
O         4.56999969     22.84999847     22.84999847
O         4.56999969     22.84999847     27.42000008
O         4.56999969     22.84999847     31.98999977
O         4.56999969     27.42000008      4.56999969
O         4.56999969     27.42000008      9.13999939
O         4.56999969     27.42000008     13.71000004
O         4.56999969     27.42000008     18.27999878
O         4.56999969     27.42000008     22.84999847
O         4.56999969     27.42000008     27.42000008
O         4.56999969     27.42000008     31.98999977
O         9.13999939      0.00000006      4.56999969
O         9.13999939      0.00000006      9.13999939
O         9.13999939      0.00000006     13.71000004
O         9.13999939      0.00000006     18.27999878
O         9.13999939      0.00000006     22.84999847
O         9.13999939      0.00000006     27.42000008
O         9.13999939      0.00000006     31.98999977
O         9.13999939      4.56999969      4.56999969
O         9.13999939      4.56999969      9.13999939
O         9.13999939      4.56999969     13.71000004
O         9.13999939      4.56999969     18.27999878
O         9.13999939      4.56999969     22.84999847
O         9.13999939      4.56999969     27.42000008
O         9.13999939      4.56999969     31.98999977
O         9.13999939      9.13999939      4.56999969
O         9.13999939      9.13999939      9.13999939
O         9.13999939      9.13999939     13.71000004
O         9.13999939      9.13999939     18.27999878
O         9.13999939      9.13999939     22.84999847
O         9.13999939      9.13999939     27.42000008
O         9.13999939      9.13999939     31.98999977
O         9.13999939     13.71000004      4.56999969
O         9.13999939     13.71000004      9.13999939
O         9.13999939     13.71000004     13.71000004
O         9.13999939     13.71000004     18.27999878
O         9.13999939     13.71000004     22.84999847
O         9.13999939     13.71000004     27.42000008
O         9.13999939     13.71000004     31.98999977
O         9.13999939     18.27999878      4.56999969
O         9.13999939     18.27999878      9.13999939
O         9.13999939     18.27999878     13.71000004
O         9.13999939     18.27999878     18.27999878
O         9.13999939     18.27999878     22.84999847
O         9.13999939     18.27999878     27.42000008
O         9.13999939     18.27999878     31.98999977
O         9.13999939     22.84999847      4.56999969
O         9.13999939     22.84999847      9.13999939
O         9.13999939     22.84999847     13.71000004
O         9.13999939     22.84999847     18.27999878
O         9.13999939     22.84999847     22.84999847
O         9.13999939     22.84999847     27.42000008
O         9.13999939     22.84999847     31.98999977
O         9.13999939     27.42000008      4.56999969
O         9.13999939     27.42000008      9.13999939
O         9.13999939     27.42000008     13.71000004
O         9.13999939     27.42000008     18.27999878
O         9.13999939     27.42000008     22.84999847
O         9.13999939     27.42000008     27.42000008
O         9.13999939     27.42000008     31.98999977
O        13.71000004      0.00000006      4.56999969
O        13.71000004      0.00000006      9.13999939
O        13.71000004      0.00000006     13.71000004
O        13.71000004      0.00000006     18.27999878
O        13.71000004      0.00000006     22.84999847
O        13.71000004      0.00000006     27.42000008
O        13.71000004      0.00000006     31.98999977
O        13.71000004      4.56999969      4.56999969
O        13.71000004      4.56999969      9.13999939
O        13.71000004      4.56999969     13.71000004
O        13.71000004      4.56999969     18.27999878
O        13.71000004      4.56999969     22.84999847
O        13.71000004      4.56999969     27.42000008
O        13.71000004      4.56999969     31.98999977
O        13.71000004      9.13999939      4.56999969
O        13.71000004      9.13999939      9.13999939
O        13.71000004      9.13999939     13.71000004
O        13.71000004      9.13999939     18.27999878
O        13.71000004      9.13999939     22.84999847
O        13.71000004      9.13999939     27.42000008
O        13.71000004      9.13999939     31.98999977
O        13.71000004     13.71000004      4.56999969
O        13.71000004     13.71000004      9.13999939
O        13.71000004     13.71000004     13.71000004
O        13.71000004     13.71000004     18.27999878
O        13.71000004     13.71000004     22.84999847
O        13.71000004     13.71000004     27.42000008
O        13.71000004     13.71000004     31.98999977
O        13.71000004     18.27999878      4.56999969
O        13.71000004     18.27999878      9.13999939
O        13.71000004     18.27999878     13.71000004
O        13.71000004     18.27999878     18.27999878
O        13.71000004     18.27999878     22.84999847
O        13.71000004     18.27999878     27.42000008
O        13.71000004     18.27999878     31.98999977
O        13.71000004     22.84999847      4.56999969
O        13.71000004     22.84999847      9.13999939
O        13.71000004     22.84999847     13.71000004
O        13.71000004     22.84999847     18.27999878
O        13.71000004     22.84999847     22.84999847
O        13.71000004     22.84999847     27.42000008
O        13.71000004     22.84999847     31.98999977
O        13.71000004     27.42000008      4.56999969
O        13.71000004     27.42000008      9.13999939
O        13.71000004     27.42000008     13.71000004
O        13.71000004     27.42000008     18.27999878
O        13.71000004     27.42000008     22.84999847
O        13.71000004     27.42000008     27.42000008
O        13.71000004     27.42000008     31.98999977
O        18.27999878      0.00000006      4.56999969
O        18.27999878      0.00000006      9.13999939
O        18.27999878      0.00000006     13.71000004
O        18.27999878      0.00000006     18.27999878
O        18.27999878      0.00000006     22.84999847
O        18.27999878      0.00000006     27.42000008
O        18.27999878      0.00000006     31.98999977
O        18.27999878      4.56999969      4.56999969
O        18.27999878      4.56999969      9.13999939
O        18.27999878      4.56999969     13.71000004
O        18.27999878      4.56999969     18.27999878
O        18.27999878      4.56999969     22.84999847
O        18.27999878      4.56999969     27.42000008
O        18.27999878      4.56999969     31.98999977
O        18.27999878      9.13999939      4.56999969
O        18.27999878      9.13999939      9.13999939
O        18.27999878      9.13999939     13.71000004
O        18.27999878      9.13999939     18.27999878
O        18.27999878      9.13999939     22.84999847
O        18.27999878      9.13999939     27.42000008
O        18.27999878      9.13999939     31.98999977
O        18.27999878     13.71000004      4.56999969
O        18.27999878     13.71000004      9.13999939
O        18.27999878     13.71000004     13.71000004
O        18.27999878     13.71000004     18.27999878
O        18.27999878     13.71000004     22.84999847
O        18.27999878     13.71000004     27.42000008
O        18.27999878     13.71000004     31.98999977
O        18.27999878     18.27999878      4.56999969
O        18.27999878     18.27999878      9.13999939
O        18.27999878     18.27999878     13.71000004
O        18.27999878     18.27999878     18.27999878
O        18.27999878     18.27999878     22.84999847
O        18.27999878     18.27999878     27.42000008
O        18.27999878     18.27999878     31.98999977
O        18.27999878     22.84999847      4.56999969
O        18.27999878     22.84999847      9.13999939
O        18.27999878     22.84999847     13.71000004
O        18.27999878     22.84999847     18.27999878
O        18.27999878     22.84999847     22.84999847
O        18.27999878     22.84999847     27.42000008
O        18.27999878     22.84999847     31.98999977
O        18.27999878     27.42000008      4.56999969
O        18.27999878     27.42000008      9.13999939
O        18.27999878     27.42000008     13.71000004
O        18.27999878     27.42000008     18.27999878
O        18.27999878     27.42000008     22.84999847
O        18.27999878     27.42000008     27.42000008
O        18.27999878     27.42000008     31.98999977
O        22.84999847      0.00000006      4.56999969
O        22.84999847      0.00000006      9.13999939
O        22.84999847      0.00000006     13.71000004
O        22.84999847      0.00000006     18.27999878
O        22.84999847      0.00000006     22.84999847
O        22.84999847      0.00000006     27.42000008
O        22.84999847      0.00000006     31.98999977
O        22.84999847      4.56999969      4.56999969
O        22.84999847      4.56999969      9.13999939
O        22.84999847      4.56999969     13.71000004
O        22.84999847      4.56999969     18.27999878
O        22.84999847      4.56999969     22.84999847
O        22.84999847      4.56999969     27.42000008
O        22.84999847      4.56999969     31.98999977
O        22.84999847      9.13999939      4.56999969
O        22.84999847      9.13999939      9.13999939
O        22.84999847      9.13999939     13.71000004
O        22.84999847      9.13999939     18.27999878
O        22.84999847      9.13999939     22.84999847
O        22.84999847      9.13999939     27.42000008
O        22.84999847      9.13999939     31.98999977
O        22.84999847     13.71000004      4.56999969
O        22.84999847     13.71000004      9.13999939
O        22.84999847     13.71000004     13.71000004
O        22.84999847     13.71000004     18.27999878
O        22.84999847     13.71000004     22.84999847
O        22.84999847     13.71000004     27.42000008
O        22.84999847     13.71000004     31.98999977
O        22.84999847     18.27999878      4.56999969
O        22.84999847     18.27999878      9.13999939
O        22.84999847     18.27999878     13.71000004
O        22.84999847     18.27999878     18.27999878
O        22.84999847     18.27999878     22.84999847
O        22.84999847     18.27999878     27.42000008
O        22.84999847     18.27999878     31.98999977
O        22.84999847     22.84999847      4.56999969
O        22.84999847     22.84999847      9.13999939
O        22.84999847     22.84999847     13.71000004
O        22.84999847     22.84999847     18.27999878
O        22.84999847     22.84999847     22.84999847
O        22.84999847     22.84999847     27.42000008
O        22.84999847     22.84999847     31.98999977
O        22.84999847     27.42000008      4.56999969
O        22.84999847     27.42000008      9.13999939
O        22.84999847     27.42000008     13.71000004
O        22.84999847     27.42000008     18.27999878
O        22.84999847     27.42000008     22.84999847
O        22.84999847     27.42000008     27.42000008
O        22.84999847     27.42000008     31.98999977
O        27.42000008      0.00000006      4.56999969
O        27.42000008      0.00000006      9.13999939
O        27.42000008      0.00000006     13.71000004
O        27.42000008      0.00000006     18.27999878
O        27.42000008      0.00000006     22.84999847
O        27.42000008      0.00000006     27.42000008
O        27.42000008      0.00000006     31.98999977
O        27.42000008      4.56999969      4.56999969
O        27.42000008      4.56999969      9.13999939
O        27.42000008      4.56999969     13.71000004
O        27.42000008      4.56999969     18.27999878
O        27.42000008      4.56999969     22.84999847
O        27.42000008      4.56999969     27.42000008
O        27.42000008      4.56999969     31.98999977
O        27.42000008      9.13999939      4.56999969
O        27.42000008      9.13999939      9.13999939
O        27.42000008      9.13999939     13.71000004
O        27.42000008      9.13999939     18.27999878
O        27.42000008      9.13999939     22.84999847
O        27.42000008      9.13999939     27.42000008
O        27.42000008      9.13999939     31.98999977
O        27.42000008     13.71000004      4.56999969
O        27.42000008     13.71000004      9.13999939
O        27.42000008     13.71000004     13.71000004
O        27.42000008     13.71000004     18.27999878
O        27.42000008     13.71000004     22.84999847
O        27.42000008     13.71000004     27.42000008
O        27.42000008     13.71000004     31.98999977
O        27.42000008     18.27999878      4.56999969
O        27.42000008     18.27999878      9.13999939
O        27.42000008     18.27999878     13.71000004
O        27.42000008     18.27999878     18.27999878
O        27.42000008     18.27999878     22.84999847
O        27.42000008     18.27999878     27.42000008
O        27.42000008     18.27999878     31.98999977
O        27.42000008     22.84999847      4.56999969
O        27.42000008     22.84999847      9.13999939
O        27.42000008     22.84999847     13.71000004
O        27.42000008     22.84999847     18.27999878
O        27.42000008     22.84999847     22.84999847
O        27.42000008     22.84999847     27.42000008
O        27.42000008     22.84999847     31.98999977
O        27.42000008     27.42000008      4.56999969
O        27.42000008     27.42000008      9.13999939
O        27.42000008     27.42000008     13.71000004
O        27.42000008     27.42000008     18.27999878
O        27.42000008     27.42000008     22.84999847
O        27.42000008     27.42000008     27.42000008
O        27.42000008     27.42000008     31.98999977
H         1.57931626      1.57931626      1.57931626
H         1.57931626      2.99068356      2.99068356
B         2.28499985      2.28499985      2.28499985
H         2.99068356      1.57931626      2.99068356
H         2.99068356      2.99068356      1.57931626
H         1.57931626      1.57931626      6.14931583
H         1.57931626      2.99068356      7.56068325
B         2.28499985      2.28499985      6.85500002
H         2.99068356      1.57931626      7.56068325
H         2.99068356      2.99068356      6.14931583
H         2.99068356      2.99068356     10.71931648
H         1.57931626      1.57931626     10.71931648
H         1.57931626      2.99068356     12.13068295
B         2.28499985      2.28499985     11.42499924
H         2.99068356      1.57931626     12.13068295
H         2.99068356      2.99068356     15.28931522
H         1.57931626      1.57931626     15.28931522
H         1.57931626      2.99068356     16.70068359
B         2.28499985      2.28499985     15.99499989
H         2.99068356      1.57931626     16.70068359
H         2.99068356      2.99068356     19.85931396
H         1.57931626      1.57931626     19.85931396
H         1.57931626      2.99068356     21.27068329
B         2.28499985      2.28499985     20.56499863
H         2.99068356      1.57931626     21.27068329
H         2.99068356      2.99068356     24.42931557
H         1.57931626      1.57931626     24.42931557
H         1.57931626      2.99068356     25.84068108
B         2.28499985      2.28499985     25.13500023
H         2.99068356      1.57931626     25.84068108
H         2.99068356      2.99068356     28.99931526
H         1.57931626      1.57931626     28.99931526
H         1.57931626      2.99068356     30.41068268
B         2.28499985      2.28499985     29.70499992
H         2.99068356      1.57931626     30.41068268
H         2.99068356      7.56068325      1.57931626
H         1.57931626      6.14931583      1.57931626
H         1.57931626      7.56068325      2.99068356
B         2.28499985      6.85500002      2.28499985
H         2.99068356      6.14931583      2.99068356
H         2.99068356      7.56068325      6.14931583
H         1.57931626      6.14931583      6.14931583
H         1.57931626      7.56068325      7.56068325
B         2.28499985      6.85500002      6.85500002
H         2.99068356      6.14931583      7.56068325
H         2.99068356      7.56068325     10.71931648
H         1.57931626      6.14931583     10.71931648
H         1.57931626      7.56068325     12.13068295
B         2.28499985      6.85500002     11.42499924
H         2.99068356      6.14931583     12.13068295
H         2.99068356      7.56068325     15.28931522
H         1.57931626      6.14931583     15.28931522
H         1.57931626      7.56068325     16.70068359
B         2.28499985      6.85500002     15.99499989
H         2.99068356      6.14931583     16.70068359
H         2.99068356      6.14931583     21.27068329
H         2.99068356      7.56068325     19.85931396
H         1.57931626      6.14931583     19.85931396
H         1.57931626      7.56068325     21.27068329
B         2.28499985      6.85500002     20.56499863
H         2.99068356      6.14931583     25.84068108
H         2.99068356      7.56068325     24.42931557
H         1.57931626      6.14931583     24.42931557
H         1.57931626      7.56068325     25.84068108
B         2.28499985      6.85500002     25.13500023
H         2.99068356      6.14931583     30.41068268
H         2.99068356      7.56068325     28.99931526
H         1.57931626      6.14931583     28.99931526
H         1.57931626      7.56068325     30.41068268
B         2.28499985      6.85500002     29.70499992
H         2.99068356     10.71931648      2.99068356
H         2.99068356     12.13068295      1.57931626
H         1.57931626     10.71931648      1.57931626
H         1.57931626     12.13068295      2.99068356
B         2.28499985     11.42499924      2.28499985
H         2.99068356     10.71931648      7.56068325
H         2.99068356     12.13068295      6.14931583
H         1.57931626     10.71931648      6.14931583
H         1.57931626     12.13068295      7.56068325
B         2.28499985     11.42499924      6.85500002
B         2.28499985     11.42499924     11.42499924
H         2.99068356     10.71931648     12.13068295
H         2.99068356     12.13068295     10.71931648
H         1.57931626     10.71931648     10.71931648
H         1.57931626     12.13068295     12.13068295
B         2.28499985     11.42499924     15.99499989
H         2.99068356     10.71931648     16.70068359
H         2.99068356     12.13068295     15.28931522
H         1.57931626     10.71931648     15.28931522
H         1.57931626     12.13068295     16.70068359
B         2.28499985     11.42499924     20.56499863
H         2.99068356     10.71931648     21.27068329
H         2.99068356     12.13068295     19.85931396
H         1.57931626     10.71931648     19.85931396
H         1.57931626     12.13068295     21.27068329
B         2.28499985     11.42499924     25.13500023
H         2.99068356     10.71931648     25.84068108
H         2.99068356     12.13068295     24.42931557
H         1.57931626     10.71931648     24.42931557
H         1.57931626     12.13068295     25.84068108
H         1.57931626     12.13068295     30.41068268
B         2.28499985     11.42499924     29.70499992
H         2.99068356     10.71931648     30.41068268
H         2.99068356     12.13068295     28.99931526
H         1.57931626     10.71931648     28.99931526
H         1.57931626     16.70068359      2.99068356
B         2.28499985     15.99499989      2.28499985
H         2.99068356     15.28931522      2.99068356
H         2.99068356     16.70068359      1.57931626
H         1.57931626     15.28931522      1.57931626
H         1.57931626     16.70068359      7.56068325
B         2.28499985     15.99499989      6.85500002
H         2.99068356     15.28931522      7.56068325
H         2.99068356     16.70068359      6.14931583
H         1.57931626     15.28931522      6.14931583
H         1.57931626     16.70068359     12.13068295
B         2.28499985     15.99499989     11.42499924
H         2.99068356     15.28931522     12.13068295
H         2.99068356     16.70068359     10.71931648
H         1.57931626     15.28931522     10.71931648
H         1.57931626     16.70068359     16.70068359
B         2.28499985     15.99499989     15.99499989
H         2.99068356     15.28931522     16.70068359
H         2.99068356     16.70068359     15.28931522
H         1.57931626     15.28931522     15.28931522
H         1.57931626     15.28931522     19.85931396
H         1.57931626     16.70068359     21.27068329
B         2.28499985     15.99499989     20.56499863
H         2.99068356     15.28931522     21.27068329
H         2.99068356     16.70068359     19.85931396
H         1.57931626     15.28931522     24.42931557
H         1.57931626     16.70068359     25.84068108
B         2.28499985     15.99499989     25.13500023
H         2.99068356     15.28931522     25.84068108
H         2.99068356     16.70068359     24.42931557
H         1.57931626     15.28931522     28.99931526
H         1.57931626     16.70068359     30.41068268
B         2.28499985     15.99499989     29.70499992
H         2.99068356     15.28931522     30.41068268
H         2.99068356     16.70068359     28.99931526
H         1.57931626     19.85931396      1.57931626
H         1.57931626     21.27068329      2.99068356
B         2.28499985     20.56499863      2.28499985
H         2.99068356     19.85931396      2.99068356
H         2.99068356     21.27068329      1.57931626
H         1.57931626     19.85931396      6.14931583
H         1.57931626     21.27068329      7.56068325
B         2.28499985     20.56499863      6.85500002
H         2.99068356     19.85931396      7.56068325
H         2.99068356     21.27068329      6.14931583
H         1.57931626     19.85931396     10.71931648
H         1.57931626     21.27068329     12.13068295
B         2.28499985     20.56499863     11.42499924
H         2.99068356     19.85931396     12.13068295
H         2.99068356     21.27068329     10.71931648
H         1.57931626     19.85931396     15.28931522
H         1.57931626     21.27068329     16.70068359
B         2.28499985     20.56499863     15.99499989
H         2.99068356     19.85931396     16.70068359
H         2.99068356     21.27068329     15.28931522
H         1.57931626     19.85931396     19.85931396
H         1.57931626     21.27068329     21.27068329
B         2.28499985     20.56499863     20.56499863
H         2.99068356     19.85931396     21.27068329
H         2.99068356     21.27068329     19.85931396
H         1.57931626     19.85931396     24.42931557
H         1.57931626     21.27068329     25.84068108
B         2.28499985     20.56499863     25.13500023
H         2.99068356     19.85931396     25.84068108
H         2.99068356     21.27068329     24.42931557
H         2.99068356     21.27068329     28.99931526
H         1.57931626     19.85931396     28.99931526
H         1.57931626     21.27068329     30.41068268
B         2.28499985     20.56499863     29.70499992
H         2.99068356     19.85931396     30.41068268
H         2.99068356     25.84068108      1.57931626
H         1.57931626     24.42931557      1.57931626
H         1.57931626     25.84068108      2.99068356
B         2.28499985     25.13500023      2.28499985
H         2.99068356     24.42931557      2.99068356
H         2.99068356     25.84068108      6.14931583
H         1.57931626     24.42931557      6.14931583
H         1.57931626     25.84068108      7.56068325
B         2.28499985     25.13500023      6.85500002
H         2.99068356     24.42931557      7.56068325
H         2.99068356     25.84068108     10.71931648
H         1.57931626     24.42931557     10.71931648
H         1.57931626     25.84068108     12.13068295
B         2.28499985     25.13500023     11.42499924
H         2.99068356     24.42931557     12.13068295
H         2.99068356     25.84068108     15.28931522
H         1.57931626     24.42931557     15.28931522
H         1.57931626     25.84068108     16.70068359
B         2.28499985     25.13500023     15.99499989
H         2.99068356     24.42931557     16.70068359
H         2.99068356     25.84068108     19.85931396
H         1.57931626     24.42931557     19.85931396
H         1.57931626     25.84068108     21.27068329
B         2.28499985     25.13500023     20.56499863
H         2.99068356     24.42931557     21.27068329
H         2.99068356     25.84068108     24.42931557
H         1.57931626     24.42931557     24.42931557
H         1.57931626     25.84068108     25.84068108
B         2.28499985     25.13500023     25.13500023
H         2.99068356     24.42931557     25.84068108
H         2.99068356     25.84068108     28.99931526
H         1.57931626     24.42931557     28.99931526
H         1.57931626     25.84068108     30.41068268
B         2.28499985     25.13500023     29.70499992
H         2.99068356     24.42931557     30.41068268
H         2.99068356     30.41068268      1.57931626
H         1.57931626     28.99931526      1.57931626
H         1.57931626     30.41068268      2.99068356
B         2.28499985     29.70499992      2.28499985
H         2.99068356     28.99931526      2.99068356
H         2.99068356     28.99931526      7.56068325
H         2.99068356     30.41068268      6.14931583
H         1.57931626     28.99931526      6.14931583
H         1.57931626     30.41068268      7.56068325
B         2.28499985     29.70499992      6.85500002
H         2.99068356     28.99931526     12.13068295
H         2.99068356     30.41068268     10.71931648
H         1.57931626     28.99931526     10.71931648
H         1.57931626     30.41068268     12.13068295
B         2.28499985     29.70499992     11.42499924
H         2.99068356     28.99931526     16.70068359
H         2.99068356     30.41068268     15.28931522
H         1.57931626     28.99931526     15.28931522
H         1.57931626     30.41068268     16.70068359
B         2.28499985     29.70499992     15.99499989
H         2.99068356     28.99931526     21.27068329
H         2.99068356     30.41068268     19.85931396
H         1.57931626     28.99931526     19.85931396
H         1.57931626     30.41068268     21.27068329
B         2.28499985     29.70499992     20.56499863
H         2.99068356     28.99931526     25.84068108
H         2.99068356     30.41068268     24.42931557
H         1.57931626     28.99931526     24.42931557
H         1.57931626     30.41068268     25.84068108
B         2.28499985     29.70499992     25.13500023
B         2.28499985     29.70499992     29.70499992
H         2.99068356     28.99931526     30.41068268
H         2.99068356     30.41068268     28.99931526
H         1.57931626     28.99931526     28.99931526
H         1.57931626     30.41068268     30.41068268
B         6.85500002      2.28499985      2.28499985
H         7.56068325      1.57931626      2.99068356
H         7.56068325      2.99068356      1.57931626
H         6.14931583      1.57931626      1.57931626
H         6.14931583      2.99068356      2.99068356
B         6.85500002      2.28499985      6.85500002
H         7.56068325      1.57931626      7.56068325
H         7.56068325      2.99068356      6.14931583
H         6.14931583      1.57931626      6.14931583
H         6.14931583      2.99068356      7.56068325
B         6.85500002      2.28499985     11.42499924
H         7.56068325      1.57931626     12.13068295
H         7.56068325      2.99068356     10.71931648
H         6.14931583      1.57931626     10.71931648
H         6.14931583      2.99068356     12.13068295
H         6.14931583      2.99068356     16.70068359
B         6.85500002      2.28499985     15.99499989
H         7.56068325      1.57931626     16.70068359
H         7.56068325      2.99068356     15.28931522
H         6.14931583      1.57931626     15.28931522
H         6.14931583      2.99068356     21.27068329
B         6.85500002      2.28499985     20.56499863
H         7.56068325      1.57931626     21.27068329
H         7.56068325      2.99068356     19.85931396
H         6.14931583      1.57931626     19.85931396
H         6.14931583      2.99068356     25.84068108
B         6.85500002      2.28499985     25.13500023
H         7.56068325      1.57931626     25.84068108
H         7.56068325      2.99068356     24.42931557
H         6.14931583      1.57931626     24.42931557
H         6.14931583      2.99068356     30.41068268
B         6.85500002      2.28499985     29.70499992
H         7.56068325      1.57931626     30.41068268
H         7.56068325      2.99068356     28.99931526
H         6.14931583      1.57931626     28.99931526
H         6.14931583      7.56068325      2.99068356
B         6.85500002      6.85500002      2.28499985
H         7.56068325      6.14931583      2.99068356
H         7.56068325      7.56068325      1.57931626
H         6.14931583      6.14931583      1.57931626
H         6.14931583      6.14931583      6.14931583
H         6.14931583      7.56068325      7.56068325
B         6.85500002      6.85500002      6.85500002
H         7.56068325      6.14931583      7.56068325
H         7.56068325      7.56068325      6.14931583
H         6.14931583      6.14931583     10.71931648
H         6.14931583      7.56068325     12.13068295
B         6.85500002      6.85500002     11.42499924
H         7.56068325      6.14931583     12.13068295
H         7.56068325      7.56068325     10.71931648
H         6.14931583      6.14931583     15.28931522
H         6.14931583      7.56068325     16.70068359
B         6.85500002      6.85500002     15.99499989
H         7.56068325      6.14931583     16.70068359
H         7.56068325      7.56068325     15.28931522
H         6.14931583      6.14931583     19.85931396
H         6.14931583      7.56068325     21.27068329
B         6.85500002      6.85500002     20.56499863
H         7.56068325      6.14931583     21.27068329
H         7.56068325      7.56068325     19.85931396
H         6.14931583      6.14931583     24.42931557
H         6.14931583      7.56068325     25.84068108
B         6.85500002      6.85500002     25.13500023
H         7.56068325      6.14931583     25.84068108
H         7.56068325      7.56068325     24.42931557
H         6.14931583      6.14931583     28.99931526
H         6.14931583      7.56068325     30.41068268
B         6.85500002      6.85500002     29.70499992
H         7.56068325      6.14931583     30.41068268
H         7.56068325      7.56068325     28.99931526
H         6.14931583     10.71931648      1.57931626
H         6.14931583     12.13068295      2.99068356
B         6.85500002     11.42499924      2.28499985
H         7.56068325     10.71931648      2.99068356
H         7.56068325     12.13068295      1.57931626
H         6.14931583     10.71931648      6.14931583
H         6.14931583     12.13068295      7.56068325
B         6.85500002     11.42499924      6.85500002
H         7.56068325     10.71931648      7.56068325
H         7.56068325     12.13068295      6.14931583
H         6.14931583     10.71931648     10.71931648
H         6.14931583     12.13068295     12.13068295
B         6.85500002     11.42499924     11.42499924
H         7.56068325     10.71931648     12.13068295
H         7.56068325     12.13068295     10.71931648
H         7.56068325     12.13068295     15.28931522
H         6.14931583     10.71931648     15.28931522
H         6.14931583     12.13068295     16.70068359
B         6.85500002     11.42499924     15.99499989
H         7.56068325     10.71931648     16.70068359
H         7.56068325     12.13068295     19.85931396
H         6.14931583     10.71931648     19.85931396
H         6.14931583     12.13068295     21.27068329
B         6.85500002     11.42499924     20.56499863
H         7.56068325     10.71931648     21.27068329
H         7.56068325     12.13068295     24.42931557
H         6.14931583     10.71931648     24.42931557
H         6.14931583     12.13068295     25.84068108
B         6.85500002     11.42499924     25.13500023
H         7.56068325     10.71931648     25.84068108
H         7.56068325     12.13068295     28.99931526
H         6.14931583     10.71931648     28.99931526
H         6.14931583     12.13068295     30.41068268
B         6.85500002     11.42499924     29.70499992
H         7.56068325     10.71931648     30.41068268
H         7.56068325     16.70068359      1.57931626
H         6.14931583     15.28931522      1.57931626
H         6.14931583     16.70068359      2.99068356
B         6.85500002     15.99499989      2.28499985
H         7.56068325     15.28931522      2.99068356
H         7.56068325     16.70068359      6.14931583
H         6.14931583     15.28931522      6.14931583
H         6.14931583     16.70068359      7.56068325
B         6.85500002     15.99499989      6.85500002
H         7.56068325     15.28931522      7.56068325
H         7.56068325     16.70068359     10.71931648
H         6.14931583     15.28931522     10.71931648
H         6.14931583     16.70068359     12.13068295
B         6.85500002     15.99499989     11.42499924
H         7.56068325     15.28931522     12.13068295
H         7.56068325     16.70068359     15.28931522
H         6.14931583     15.28931522     15.28931522
H         6.14931583     16.70068359     16.70068359
B         6.85500002     15.99499989     15.99499989
H         7.56068325     15.28931522     16.70068359
H         7.56068325     16.70068359     19.85931396
H         6.14931583     15.28931522     19.85931396
H         6.14931583     16.70068359     21.27068329
B         6.85500002     15.99499989     20.56499863
H         7.56068325     15.28931522     21.27068329
H         7.56068325     15.28931522     25.84068108
H         7.56068325     16.70068359     24.42931557
H         6.14931583     15.28931522     24.42931557
H         6.14931583     16.70068359     25.84068108
B         6.85500002     15.99499989     25.13500023
H         7.56068325     15.28931522     30.41068268
H         7.56068325     16.70068359     28.99931526
H         6.14931583     15.28931522     28.99931526
H         6.14931583     16.70068359     30.41068268
B         6.85500002     15.99499989     29.70499992
H         7.56068325     19.85931396      2.99068356
H         7.56068325     21.27068329      1.57931626
H         6.14931583     19.85931396      1.57931626
H         6.14931583     21.27068329      2.99068356
B         6.85500002     20.56499863      2.28499985
H         7.56068325     19.85931396      7.56068325
H         7.56068325     21.27068329      6.14931583
H         6.14931583     19.85931396      6.14931583
H         6.14931583     21.27068329      7.56068325
B         6.85500002     20.56499863      6.85500002
H         7.56068325     19.85931396     12.13068295
H         7.56068325     21.27068329     10.71931648
H         6.14931583     19.85931396     10.71931648
H         6.14931583     21.27068329     12.13068295
B         6.85500002     20.56499863     11.42499924
B         6.85500002     20.56499863     15.99499989
H         7.56068325     19.85931396     16.70068359
H         7.56068325     21.27068329     15.28931522
H         6.14931583     19.85931396     15.28931522
H         6.14931583     21.27068329     16.70068359
B         6.85500002     20.56499863     20.56499863
H         7.56068325     19.85931396     21.27068329
H         7.56068325     21.27068329     19.85931396
H         6.14931583     19.85931396     19.85931396
H         6.14931583     21.27068329     21.27068329
B         6.85500002     20.56499863     25.13500023
H         7.56068325     19.85931396     25.84068108
H         7.56068325     21.27068329     24.42931557
H         6.14931583     19.85931396     24.42931557
H         6.14931583     21.27068329     25.84068108
B         6.85500002     20.56499863     29.70499992
H         7.56068325     19.85931396     30.41068268
H         7.56068325     21.27068329     28.99931526
H         6.14931583     19.85931396     28.99931526
H         6.14931583     21.27068329     30.41068268
H         6.14931583     25.84068108      2.99068356
B         6.85500002     25.13500023      2.28499985
H         7.56068325     24.42931557      2.99068356
H         7.56068325     25.84068108      1.57931626
H         6.14931583     24.42931557      1.57931626
H         6.14931583     25.84068108      7.56068325
B         6.85500002     25.13500023      6.85500002
H         7.56068325     24.42931557      7.56068325
H         7.56068325     25.84068108      6.14931583
H         6.14931583     24.42931557      6.14931583
H         6.14931583     25.84068108     12.13068295
B         6.85500002     25.13500023     11.42499924
H         7.56068325     24.42931557     12.13068295
H         7.56068325     25.84068108     10.71931648
H         6.14931583     24.42931557     10.71931648
H         6.14931583     25.84068108     16.70068359
B         6.85500002     25.13500023     15.99499989
H         7.56068325     24.42931557     16.70068359
H         7.56068325     25.84068108     15.28931522
H         6.14931583     24.42931557     15.28931522
H         6.14931583     25.84068108     21.27068329
B         6.85500002     25.13500023     20.56499863
H         7.56068325     24.42931557     21.27068329
H         7.56068325     25.84068108     19.85931396
H         6.14931583     24.42931557     19.85931396
H         6.14931583     24.42931557     24.42931557
H         6.14931583     25.84068108     25.84068108
B         6.85500002     25.13500023     25.13500023
H         7.56068325     24.42931557     25.84068108
H         7.56068325     25.84068108     24.42931557
H         6.14931583     24.42931557     28.99931526
H         6.14931583     25.84068108     30.41068268
B         6.85500002     25.13500023     29.70499992
H         7.56068325     24.42931557     30.41068268
H         7.56068325     25.84068108     28.99931526
H         6.14931583     28.99931526      1.57931626
H         6.14931583     30.41068268      2.99068356
B         6.85500002     29.70499992      2.28499985
H         7.56068325     28.99931526      2.99068356
H         7.56068325     30.41068268      1.57931626
H         6.14931583     28.99931526      6.14931583
H         6.14931583     30.41068268      7.56068325
B         6.85500002     29.70499992      6.85500002
H         7.56068325     28.99931526      7.56068325
H         7.56068325     30.41068268      6.14931583
H         6.14931583     28.99931526     10.71931648
H         6.14931583     30.41068268     12.13068295
B         6.85500002     29.70499992     11.42499924
H         7.56068325     28.99931526     12.13068295
H         7.56068325     30.41068268     10.71931648
H         6.14931583     28.99931526     15.28931522
H         6.14931583     30.41068268     16.70068359
B         6.85500002     29.70499992     15.99499989
H         7.56068325     28.99931526     16.70068359
H         7.56068325     30.41068268     15.28931522
H         6.14931583     28.99931526     19.85931396
H         6.14931583     30.41068268     21.27068329
B         6.85500002     29.70499992     20.56499863
H         7.56068325     28.99931526     21.27068329
H         7.56068325     30.41068268     19.85931396
H         6.14931583     28.99931526     24.42931557
H         6.14931583     30.41068268     25.84068108
B         6.85500002     29.70499992     25.13500023
H         7.56068325     28.99931526     25.84068108
H         7.56068325     30.41068268     24.42931557
H         6.14931583     28.99931526     28.99931526
H         6.14931583     30.41068268     30.41068268
B         6.85500002     29.70499992     29.70499992
H         7.56068325     28.99931526     30.41068268
H         7.56068325     30.41068268     28.99931526
H        12.13068295      2.99068356      1.57931626
H        10.71931648      1.57931626      1.57931626
H        10.71931648      2.99068356      2.99068356
B        11.42499924      2.28499985      2.28499985
H        12.13068295      1.57931626      2.99068356
H        12.13068295      2.99068356      6.14931583
H        10.71931648      1.57931626      6.14931583
H        10.71931648      2.99068356      7.56068325
B        11.42499924      2.28499985      6.85500002
H        12.13068295      1.57931626      7.56068325
H        12.13068295      2.99068356     10.71931648
H        10.71931648      1.57931626     10.71931648
H        10.71931648      2.99068356     12.13068295
B        11.42499924      2.28499985     11.42499924
H        12.13068295      1.57931626     12.13068295
H        12.13068295      2.99068356     15.28931522
H        10.71931648      1.57931626     15.28931522
H        10.71931648      2.99068356     16.70068359
B        11.42499924      2.28499985     15.99499989
H        12.13068295      1.57931626     16.70068359
H        12.13068295      2.99068356     19.85931396
H        10.71931648      1.57931626     19.85931396
H        10.71931648      2.99068356     21.27068329
B        11.42499924      2.28499985     20.56499863
H        12.13068295      1.57931626     21.27068329
H        12.13068295      2.99068356     24.42931557
H        10.71931648      1.57931626     24.42931557
H        10.71931648      2.99068356     25.84068108
B        11.42499924      2.28499985     25.13500023
H        12.13068295      1.57931626     25.84068108
H        12.13068295      2.99068356     28.99931526
H        10.71931648      1.57931626     28.99931526
H        10.71931648      2.99068356     30.41068268
B        11.42499924      2.28499985     29.70499992
H        12.13068295      1.57931626     30.41068268
H        12.13068295      7.56068325      1.57931626
H        10.71931648      6.14931583      1.57931626
H        10.71931648      7.56068325      2.99068356
B        11.42499924      6.85500002      2.28499985
H        12.13068295      6.14931583      2.99068356
H        12.13068295      7.56068325      6.14931583
H        10.71931648      6.14931583      6.14931583
H        10.71931648      7.56068325      7.56068325
B        11.42499924      6.85500002      6.85500002
H        12.13068295      6.14931583      7.56068325
H        12.13068295      6.14931583     12.13068295
H        12.13068295      7.56068325     10.71931648
H        10.71931648      6.14931583     10.71931648
H        10.71931648      7.56068325     12.13068295
B        11.42499924      6.85500002     11.42499924
H        12.13068295      6.14931583     16.70068359
H        12.13068295      7.56068325     15.28931522
H        10.71931648      6.14931583     15.28931522
H        10.71931648      7.56068325     16.70068359
B        11.42499924      6.85500002     15.99499989
H        12.13068295      6.14931583     21.27068329
H        12.13068295      7.56068325     19.85931396
H        10.71931648      6.14931583     19.85931396
H        10.71931648      7.56068325     21.27068329
B        11.42499924      6.85500002     20.56499863
H        12.13068295      6.14931583     25.84068108
H        12.13068295      7.56068325     24.42931557
H        10.71931648      6.14931583     24.42931557
H        10.71931648      7.56068325     25.84068108
B        11.42499924      6.85500002     25.13500023
H        12.13068295      6.14931583     30.41068268
H        12.13068295      7.56068325     28.99931526
H        10.71931648      6.14931583     28.99931526
H        10.71931648      7.56068325     30.41068268
B        11.42499924      6.85500002     29.70499992
B        11.42499924     11.42499924      2.28499985
H        12.13068295     10.71931648      2.99068356
H        12.13068295     12.13068295      1.57931626
H        10.71931648     10.71931648      1.57931626
H        10.71931648     12.13068295      2.99068356
B        11.42499924     11.42499924      6.85500002
H        12.13068295     10.71931648      7.56068325
H        12.13068295     12.13068295      6.14931583
H        10.71931648     10.71931648      6.14931583
H        10.71931648     12.13068295      7.56068325
B        11.42499924     11.42499924     11.42499924
H        12.13068295     10.71931648     12.13068295
H        12.13068295     12.13068295     10.71931648
H        10.71931648     10.71931648     10.71931648
H        10.71931648     12.13068295     12.13068295
B        11.42499924     11.42499924     15.99499989
H        12.13068295     10.71931648     16.70068359
H        12.13068295     12.13068295     15.28931522
H        10.71931648     10.71931648     15.28931522
H        10.71931648     12.13068295     16.70068359
H        10.71931648     12.13068295     21.27068329
B        11.42499924     11.42499924     20.56499863
H        12.13068295     10.71931648     21.27068329
H        12.13068295     12.13068295     19.85931396
H        10.71931648     10.71931648     19.85931396
H        10.71931648     12.13068295     25.84068108
B        11.42499924     11.42499924     25.13500023
H        12.13068295     10.71931648     25.84068108
H        12.13068295     12.13068295     24.42931557
H        10.71931648     10.71931648     24.42931557
H        10.71931648     12.13068295     30.41068268
B        11.42499924     11.42499924     29.70499992
H        12.13068295     10.71931648     30.41068268
H        12.13068295     12.13068295     28.99931526
H        10.71931648     10.71931648     28.99931526
H        10.71931648     16.70068359      2.99068356
B        11.42499924     15.99499989      2.28499985
H        12.13068295     15.28931522      2.99068356
H        12.13068295     16.70068359      1.57931626
H        10.71931648     15.28931522      1.57931626
H        10.71931648     16.70068359      7.56068325
B        11.42499924     15.99499989      6.85500002
H        12.13068295     15.28931522      7.56068325
H        12.13068295     16.70068359      6.14931583
H        10.71931648     15.28931522      6.14931583
H        10.71931648     15.28931522     10.71931648
H        10.71931648     16.70068359     12.13068295
B        11.42499924     15.99499989     11.42499924
H        12.13068295     15.28931522     12.13068295
H        12.13068295     16.70068359     10.71931648
H        10.71931648     15.28931522     15.28931522
H        10.71931648     16.70068359     16.70068359
B        11.42499924     15.99499989     15.99499989
H        12.13068295     15.28931522     16.70068359
H        12.13068295     16.70068359     15.28931522
H        10.71931648     15.28931522     19.85931396
H        10.71931648     16.70068359     21.27068329
B        11.42499924     15.99499989     20.56499863
H        12.13068295     15.28931522     21.27068329
H        12.13068295     16.70068359     19.85931396
H        10.71931648     15.28931522     24.42931557
H        10.71931648     16.70068359     25.84068108
B        11.42499924     15.99499989     25.13500023
H        12.13068295     15.28931522     25.84068108
H        12.13068295     16.70068359     24.42931557
H        10.71931648     15.28931522     28.99931526
H        10.71931648     16.70068359     30.41068268
B        11.42499924     15.99499989     29.70499992
H        12.13068295     15.28931522     30.41068268
H        12.13068295     16.70068359     28.99931526
H        10.71931648     19.85931396      1.57931626
H        10.71931648     21.27068329      2.99068356
B        11.42499924     20.56499863      2.28499985
H        12.13068295     19.85931396      2.99068356
H        12.13068295     21.27068329      1.57931626
H        10.71931648     19.85931396      6.14931583
H        10.71931648     21.27068329      7.56068325
B        11.42499924     20.56499863      6.85500002
H        12.13068295     19.85931396      7.56068325
H        12.13068295     21.27068329      6.14931583
H        10.71931648     19.85931396     10.71931648
H        10.71931648     21.27068329     12.13068295
B        11.42499924     20.56499863     11.42499924
H        12.13068295     19.85931396     12.13068295
H        12.13068295     21.27068329     10.71931648
H        10.71931648     19.85931396     15.28931522
H        10.71931648     21.27068329     16.70068359
B        11.42499924     20.56499863     15.99499989
H        12.13068295     19.85931396     16.70068359
H        12.13068295     21.27068329     15.28931522
H        12.13068295     21.27068329     19.85931396
H        10.71931648     19.85931396     19.85931396
H        10.71931648     21.27068329     21.27068329
B        11.42499924     20.56499863     20.56499863
H        12.13068295     19.85931396     21.27068329
H        12.13068295     21.27068329     24.42931557
H        10.71931648     19.85931396     24.42931557
H        10.71931648     21.27068329     25.84068108
B        11.42499924     20.56499863     25.13500023
H        12.13068295     19.85931396     25.84068108
H        12.13068295     21.27068329     28.99931526
H        10.71931648     19.85931396     28.99931526
H        10.71931648     21.27068329     30.41068268
B        11.42499924     20.56499863     29.70499992
H        12.13068295     19.85931396     30.41068268
H        12.13068295     25.84068108      1.57931626
H        10.71931648     24.42931557      1.57931626
H        10.71931648     25.84068108      2.99068356
B        11.42499924     25.13500023      2.28499985
H        12.13068295     24.42931557      2.99068356
H        12.13068295     25.84068108      6.14931583
H        10.71931648     24.42931557      6.14931583
H        10.71931648     25.84068108      7.56068325
B        11.42499924     25.13500023      6.85500002
H        12.13068295     24.42931557      7.56068325
H        12.13068295     25.84068108     10.71931648
H        10.71931648     24.42931557     10.71931648
H        10.71931648     25.84068108     12.13068295
B        11.42499924     25.13500023     11.42499924
H        12.13068295     24.42931557     12.13068295
H        12.13068295     25.84068108     15.28931522
H        10.71931648     24.42931557     15.28931522
H        10.71931648     25.84068108     16.70068359
B        11.42499924     25.13500023     15.99499989
H        12.13068295     24.42931557     16.70068359
H        12.13068295     25.84068108     19.85931396
H        10.71931648     24.42931557     19.85931396
H        10.71931648     25.84068108     21.27068329
B        11.42499924     25.13500023     20.56499863
H        12.13068295     24.42931557     21.27068329
H        12.13068295     25.84068108     24.42931557
H        10.71931648     24.42931557     24.42931557
H        10.71931648     25.84068108     25.84068108
B        11.42499924     25.13500023     25.13500023
H        12.13068295     24.42931557     25.84068108
H        12.13068295     24.42931557     30.41068268
H        12.13068295     25.84068108     28.99931526
H        10.71931648     24.42931557     28.99931526
H        10.71931648     25.84068108     30.41068268
B        11.42499924     25.13500023     29.70499992
H        12.13068295     28.99931526      2.99068356
H        12.13068295     30.41068268      1.57931626
H        10.71931648     28.99931526      1.57931626
H        10.71931648     30.41068268      2.99068356
B        11.42499924     29.70499992      2.28499985
H        12.13068295     28.99931526      7.56068325
H        12.13068295     30.41068268      6.14931583
H        10.71931648     28.99931526      6.14931583
H        10.71931648     30.41068268      7.56068325
B        11.42499924     29.70499992      6.85500002
H        12.13068295     28.99931526     12.13068295
H        12.13068295     30.41068268     10.71931648
H        10.71931648     28.99931526     10.71931648
H        10.71931648     30.41068268     12.13068295
B        11.42499924     29.70499992     11.42499924
H        12.13068295     28.99931526     16.70068359
H        12.13068295     30.41068268     15.28931522
H        10.71931648     28.99931526     15.28931522
H        10.71931648     30.41068268     16.70068359
B        11.42499924     29.70499992     15.99499989
B        11.42499924     29.70499992     20.56499863
H        12.13068295     28.99931526     21.27068329
H        12.13068295     30.41068268     19.85931396
H        10.71931648     28.99931526     19.85931396
H        10.71931648     30.41068268     21.27068329
B        11.42499924     29.70499992     25.13500023
H        12.13068295     28.99931526     25.84068108
H        12.13068295     30.41068268     24.42931557
H        10.71931648     28.99931526     24.42931557
H        10.71931648     30.41068268     25.84068108
B        11.42499924     29.70499992     29.70499992
H        12.13068295     28.99931526     30.41068268
H        12.13068295     30.41068268     28.99931526
H        10.71931648     28.99931526     28.99931526
H        10.71931648     30.41068268     30.41068268
B        15.99499989      2.28499985      2.28499985
H        16.70068359      1.57931626      2.99068356
H        16.70068359      2.99068356      1.57931626
H        15.28931522      1.57931626      1.57931626
H        15.28931522      2.99068356      2.99068356
H        15.28931522      2.99068356      7.56068325
B        15.99499989      2.28499985      6.85500002
H        16.70068359      1.57931626      7.56068325
H        16.70068359      2.99068356      6.14931583
H        15.28931522      1.57931626      6.14931583
H        15.28931522      2.99068356     12.13068295
B        15.99499989      2.28499985     11.42499924
H        16.70068359      1.57931626     12.13068295
H        16.70068359      2.99068356     10.71931648
H        15.28931522      1.57931626     10.71931648
H        15.28931522      2.99068356     16.70068359
B        15.99499989      2.28499985     15.99499989
H        16.70068359      1.57931626     16.70068359
H        16.70068359      2.99068356     15.28931522
H        15.28931522      1.57931626     15.28931522
H        15.28931522      2.99068356     21.27068329
B        15.99499989      2.28499985     20.56499863
H        16.70068359      1.57931626     21.27068329
H        16.70068359      2.99068356     19.85931396
H        15.28931522      1.57931626     19.85931396
H        15.28931522      2.99068356     25.84068108
B        15.99499989      2.28499985     25.13500023
H        16.70068359      1.57931626     25.84068108
H        16.70068359      2.99068356     24.42931557
H        15.28931522      1.57931626     24.42931557
H        15.28931522      1.57931626     28.99931526
H        15.28931522      2.99068356     30.41068268
B        15.99499989      2.28499985     29.70499992
H        16.70068359      1.57931626     30.41068268
H        16.70068359      2.99068356     28.99931526
H        15.28931522      6.14931583      1.57931626
H        15.28931522      7.56068325      2.99068356
B        15.99499989      6.85500002      2.28499985
H        16.70068359      6.14931583      2.99068356
H        16.70068359      7.56068325      1.57931626
H        15.28931522      6.14931583      6.14931583
H        15.28931522      7.56068325      7.56068325
B        15.99499989      6.85500002      6.85500002
H        16.70068359      6.14931583      7.56068325
H        16.70068359      7.56068325      6.14931583
H        15.28931522      6.14931583     10.71931648
H        15.28931522      7.56068325     12.13068295
B        15.99499989      6.85500002     11.42499924
H        16.70068359      6.14931583     12.13068295
H        16.70068359      7.56068325     10.71931648
H        15.28931522      6.14931583     15.28931522
H        15.28931522      7.56068325     16.70068359
B        15.99499989      6.85500002     15.99499989
H        16.70068359      6.14931583     16.70068359
H        16.70068359      7.56068325     15.28931522
H        15.28931522      6.14931583     19.85931396
H        15.28931522      7.56068325     21.27068329
B        15.99499989      6.85500002     20.56499863
H        16.70068359      6.14931583     21.27068329
H        16.70068359      7.56068325     19.85931396
H        15.28931522      6.14931583     24.42931557
H        15.28931522      7.56068325     25.84068108
B        15.99499989      6.85500002     25.13500023
H        16.70068359      6.14931583     25.84068108
H        16.70068359      7.56068325     24.42931557
H        15.28931522      6.14931583     28.99931526
H        15.28931522      7.56068325     30.41068268
B        15.99499989      6.85500002     29.70499992
H        16.70068359      6.14931583     30.41068268
H        16.70068359      7.56068325     28.99931526
H        15.28931522     10.71931648      1.57931626
H        15.28931522     12.13068295      2.99068356
B        15.99499989     11.42499924      2.28499985
H        16.70068359     10.71931648      2.99068356
H        16.70068359     12.13068295      1.57931626
H        16.70068359     12.13068295      6.14931583
H        15.28931522     10.71931648      6.14931583
H        15.28931522     12.13068295      7.56068325
B        15.99499989     11.42499924      6.85500002
H        16.70068359     10.71931648      7.56068325
H        16.70068359     12.13068295     10.71931648
H        15.28931522     10.71931648     10.71931648
H        15.28931522     12.13068295     12.13068295
B        15.99499989     11.42499924     11.42499924
H        16.70068359     10.71931648     12.13068295
H        16.70068359     12.13068295     15.28931522
H        15.28931522     10.71931648     15.28931522
H        15.28931522     12.13068295     16.70068359
B        15.99499989     11.42499924     15.99499989
H        16.70068359     10.71931648     16.70068359
H        16.70068359     12.13068295     19.85931396
H        15.28931522     10.71931648     19.85931396
H        15.28931522     12.13068295     21.27068329
B        15.99499989     11.42499924     20.56499863
H        16.70068359     10.71931648     21.27068329
H        16.70068359     12.13068295     24.42931557
H        15.28931522     10.71931648     24.42931557
H        15.28931522     12.13068295     25.84068108
B        15.99499989     11.42499924     25.13500023
H        16.70068359     10.71931648     25.84068108
H        16.70068359     12.13068295     28.99931526
H        15.28931522     10.71931648     28.99931526
H        15.28931522     12.13068295     30.41068268
B        15.99499989     11.42499924     29.70499992
H        16.70068359     10.71931648     30.41068268
H        16.70068359     16.70068359      1.57931626
H        15.28931522     15.28931522      1.57931626
H        15.28931522     16.70068359      2.99068356
B        15.99499989     15.99499989      2.28499985
H        16.70068359     15.28931522      2.99068356
H        16.70068359     16.70068359      6.14931583
H        15.28931522     15.28931522      6.14931583
H        15.28931522     16.70068359      7.56068325
B        15.99499989     15.99499989      6.85500002
H        16.70068359     15.28931522      7.56068325
H        16.70068359     16.70068359     10.71931648
H        15.28931522     15.28931522     10.71931648
H        15.28931522     16.70068359     12.13068295
B        15.99499989     15.99499989     11.42499924
H        16.70068359     15.28931522     12.13068295
H        16.70068359     15.28931522     16.70068359
H        16.70068359     16.70068359     15.28931522
H        15.28931522     15.28931522     15.28931522
H        15.28931522     16.70068359     16.70068359
B        15.99499989     15.99499989     15.99499989
H        16.70068359     15.28931522     21.27068329
H        16.70068359     16.70068359     19.85931396
H        15.28931522     15.28931522     19.85931396
H        15.28931522     16.70068359     21.27068329
B        15.99499989     15.99499989     20.56499863
H        16.70068359     15.28931522     25.84068108
H        16.70068359     16.70068359     24.42931557
H        15.28931522     15.28931522     24.42931557
H        15.28931522     16.70068359     25.84068108
B        15.99499989     15.99499989     25.13500023
H        16.70068359     15.28931522     30.41068268
H        16.70068359     16.70068359     28.99931526
H        15.28931522     15.28931522     28.99931526
H        15.28931522     16.70068359     30.41068268
B        15.99499989     15.99499989     29.70499992
H        16.70068359     19.85931396      2.99068356
H        16.70068359     21.27068329      1.57931626
H        15.28931522     19.85931396      1.57931626
H        15.28931522     21.27068329      2.99068356
B        15.99499989     20.56499863      2.28499985
B        15.99499989     20.56499863      6.85500002
H        16.70068359     19.85931396      7.56068325
H        16.70068359     21.27068329      6.14931583
H        15.28931522     19.85931396      6.14931583
H        15.28931522     21.27068329      7.56068325
B        15.99499989     20.56499863     11.42499924
H        16.70068359     19.85931396     12.13068295
H        16.70068359     21.27068329     10.71931648
H        15.28931522     19.85931396     10.71931648
H        15.28931522     21.27068329     12.13068295
B        15.99499989     20.56499863     15.99499989
H        16.70068359     19.85931396     16.70068359
H        16.70068359     21.27068329     15.28931522
H        15.28931522     19.85931396     15.28931522
H        15.28931522     21.27068329     16.70068359
B        15.99499989     20.56499863     20.56499863
H        16.70068359     19.85931396     21.27068329
H        16.70068359     21.27068329     19.85931396
H        15.28931522     19.85931396     19.85931396
H        15.28931522     21.27068329     21.27068329
H        15.28931522     21.27068329     25.84068108
B        15.99499989     20.56499863     25.13500023
H        16.70068359     19.85931396     25.84068108
H        16.70068359     21.27068329     24.42931557
H        15.28931522     19.85931396     24.42931557
H        15.28931522     21.27068329     30.41068268
B        15.99499989     20.56499863     29.70499992
H        16.70068359     19.85931396     30.41068268
H        16.70068359     21.27068329     28.99931526
H        15.28931522     19.85931396     28.99931526
H        15.28931522     25.84068108      2.99068356
B        15.99499989     25.13500023      2.28499985
H        16.70068359     24.42931557      2.99068356
H        16.70068359     25.84068108      1.57931626
H        15.28931522     24.42931557      1.57931626
H        15.28931522     25.84068108      7.56068325
B        15.99499989     25.13500023      6.85500002
H        16.70068359     24.42931557      7.56068325
H        16.70068359     25.84068108      6.14931583
H        15.28931522     24.42931557      6.14931583
H        15.28931522     25.84068108     12.13068295
B        15.99499989     25.13500023     11.42499924
H        16.70068359     24.42931557     12.13068295
H        16.70068359     25.84068108     10.71931648
H        15.28931522     24.42931557     10.71931648
H        15.28931522     24.42931557     15.28931522
H        15.28931522     25.84068108     16.70068359
B        15.99499989     25.13500023     15.99499989
H        16.70068359     24.42931557     16.70068359
H        16.70068359     25.84068108     15.28931522
H        15.28931522     24.42931557     19.85931396
H        15.28931522     25.84068108     21.27068329
B        15.99499989     25.13500023     20.56499863
H        16.70068359     24.42931557     21.27068329
H        16.70068359     25.84068108     19.85931396
H        15.28931522     24.42931557     24.42931557
H        15.28931522     25.84068108     25.84068108
B        15.99499989     25.13500023     25.13500023
H        16.70068359     24.42931557     25.84068108
H        16.70068359     25.84068108     24.42931557
H        15.28931522     24.42931557     28.99931526
H        15.28931522     25.84068108     30.41068268
B        15.99499989     25.13500023     29.70499992
H        16.70068359     24.42931557     30.41068268
H        16.70068359     25.84068108     28.99931526
H        15.28931522     28.99931526      1.57931626
H        15.28931522     30.41068268      2.99068356
B        15.99499989     29.70499992      2.28499985
H        16.70068359     28.99931526      2.99068356
H        16.70068359     30.41068268      1.57931626
H        15.28931522     28.99931526      6.14931583
H        15.28931522     30.41068268      7.56068325
B        15.99499989     29.70499992      6.85500002
H        16.70068359     28.99931526      7.56068325
H        16.70068359     30.41068268      6.14931583
H        15.28931522     28.99931526     10.71931648
H        15.28931522     30.41068268     12.13068295
B        15.99499989     29.70499992     11.42499924
H        16.70068359     28.99931526     12.13068295
H        16.70068359     30.41068268     10.71931648
H        15.28931522     28.99931526     15.28931522
H        15.28931522     30.41068268     16.70068359
B        15.99499989     29.70499992     15.99499989
H        16.70068359     28.99931526     16.70068359
H        16.70068359     30.41068268     15.28931522
H        15.28931522     28.99931526     19.85931396
H        15.28931522     30.41068268     21.27068329
B        15.99499989     29.70499992     20.56499863
H        16.70068359     28.99931526     21.27068329
H        16.70068359     30.41068268     19.85931396
H        16.70068359     30.41068268     24.42931557
H        15.28931522     28.99931526     24.42931557
H        15.28931522     30.41068268     25.84068108
B        15.99499989     29.70499992     25.13500023
H        16.70068359     28.99931526     25.84068108
H        16.70068359     30.41068268     28.99931526
H        15.28931522     28.99931526     28.99931526
H        15.28931522     30.41068268     30.41068268
B        15.99499989     29.70499992     29.70499992
H        16.70068359     28.99931526     30.41068268
H        21.27068329      2.99068356      1.57931626
H        19.85931396      1.57931626      1.57931626
H        19.85931396      2.99068356      2.99068356
B        20.56499863      2.28499985      2.28499985
H        21.27068329      1.57931626      2.99068356
H        21.27068329      2.99068356      6.14931583
H        19.85931396      1.57931626      6.14931583
H        19.85931396      2.99068356      7.56068325
B        20.56499863      2.28499985      6.85500002
H        21.27068329      1.57931626      7.56068325
H        21.27068329      2.99068356     10.71931648
H        19.85931396      1.57931626     10.71931648
H        19.85931396      2.99068356     12.13068295
B        20.56499863      2.28499985     11.42499924
H        21.27068329      1.57931626     12.13068295
H        21.27068329      2.99068356     15.28931522
H        19.85931396      1.57931626     15.28931522
H        19.85931396      2.99068356     16.70068359
B        20.56499863      2.28499985     15.99499989
H        21.27068329      1.57931626     16.70068359
H        21.27068329      2.99068356     19.85931396
H        19.85931396      1.57931626     19.85931396
H        19.85931396      2.99068356     21.27068329
B        20.56499863      2.28499985     20.56499863
H        21.27068329      1.57931626     21.27068329
H        21.27068329      2.99068356     24.42931557
H        19.85931396      1.57931626     24.42931557
H        19.85931396      2.99068356     25.84068108
B        20.56499863      2.28499985     25.13500023
H        21.27068329      1.57931626     25.84068108
H        21.27068329      2.99068356     28.99931526
H        19.85931396      1.57931626     28.99931526
H        19.85931396      2.99068356     30.41068268
B        20.56499863      2.28499985     29.70499992
H        21.27068329      1.57931626     30.41068268
H        21.27068329      6.14931583      2.99068356
H        21.27068329      7.56068325      1.57931626
H        19.85931396      6.14931583      1.57931626
H        19.85931396      7.56068325      2.99068356
B        20.56499863      6.85500002      2.28499985
H        21.27068329      6.14931583      7.56068325
H        21.27068329      7.56068325      6.14931583
H        19.85931396      6.14931583      6.14931583
H        19.85931396      7.56068325      7.56068325
B        20.56499863      6.85500002      6.85500002
H        21.27068329      6.14931583     12.13068295
H        21.27068329      7.56068325     10.71931648
H        19.85931396      6.14931583     10.71931648
H        19.85931396      7.56068325     12.13068295
B        20.56499863      6.85500002     11.42499924
H        21.27068329      6.14931583     16.70068359
H        21.27068329      7.56068325     15.28931522
H        19.85931396      6.14931583     15.28931522
H        19.85931396      7.56068325     16.70068359
B        20.56499863      6.85500002     15.99499989
H        21.27068329      6.14931583     21.27068329
H        21.27068329      7.56068325     19.85931396
H        19.85931396      6.14931583     19.85931396
H        19.85931396      7.56068325     21.27068329
B        20.56499863      6.85500002     20.56499863
B        20.56499863      6.85500002     25.13500023
H        21.27068329      6.14931583     25.84068108
H        21.27068329      7.56068325     24.42931557
H        19.85931396      6.14931583     24.42931557
H        19.85931396      7.56068325     25.84068108
B        20.56499863      6.85500002     29.70499992
H        21.27068329      6.14931583     30.41068268
H        21.27068329      7.56068325     28.99931526
H        19.85931396      6.14931583     28.99931526
H        19.85931396      7.56068325     30.41068268
B        20.56499863     11.42499924      2.28499985
H        21.27068329     10.71931648      2.99068356
H        21.27068329     12.13068295      1.57931626
H        19.85931396     10.71931648      1.57931626
H        19.85931396     12.13068295      2.99068356
B        20.56499863     11.42499924      6.85500002
H        21.27068329     10.71931648      7.56068325
H        21.27068329     12.13068295      6.14931583
H        19.85931396     10.71931648      6.14931583
H        19.85931396     12.13068295      7.56068325
H        19.85931396     12.13068295     12.13068295
B        20.56499863     11.42499924     11.42499924
H        21.27068329     10.71931648     12.13068295
H        21.27068329     12.13068295     10.71931648
H        19.85931396     10.71931648     10.71931648
H        19.85931396     12.13068295     16.70068359
B        20.56499863     11.42499924     15.99499989
H        21.27068329     10.71931648     16.70068359
H        21.27068329     12.13068295     15.28931522
H        19.85931396     10.71931648     15.28931522
H        19.85931396     12.13068295     21.27068329
B        20.56499863     11.42499924     20.56499863
H        21.27068329     10.71931648     21.27068329
H        21.27068329     12.13068295     19.85931396
H        19.85931396     10.71931648     19.85931396
H        19.85931396     12.13068295     25.84068108
B        20.56499863     11.42499924     25.13500023
H        21.27068329     10.71931648     25.84068108
H        21.27068329     12.13068295     24.42931557
H        19.85931396     10.71931648     24.42931557
H        19.85931396     12.13068295     30.41068268
B        20.56499863     11.42499924     29.70499992
H        21.27068329     10.71931648     30.41068268
H        21.27068329     12.13068295     28.99931526
H        19.85931396     10.71931648     28.99931526
H        19.85931396     15.28931522      1.57931626
H        19.85931396     16.70068359      2.99068356
B        20.56499863     15.99499989      2.28499985
H        21.27068329     15.28931522      2.99068356
H        21.27068329     16.70068359      1.57931626
H        19.85931396     15.28931522      6.14931583
H        19.85931396     16.70068359      7.56068325
B        20.56499863     15.99499989      6.85500002
H        21.27068329     15.28931522      7.56068325
H        21.27068329     16.70068359      6.14931583
H        19.85931396     15.28931522     10.71931648
H        19.85931396     16.70068359     12.13068295
B        20.56499863     15.99499989     11.42499924
H        21.27068329     15.28931522     12.13068295
H        21.27068329     16.70068359     10.71931648
H        19.85931396     15.28931522     15.28931522
H        19.85931396     16.70068359     16.70068359
B        20.56499863     15.99499989     15.99499989
H        21.27068329     15.28931522     16.70068359
H        21.27068329     16.70068359     15.28931522
H        19.85931396     15.28931522     19.85931396
H        19.85931396     16.70068359     21.27068329
B        20.56499863     15.99499989     20.56499863
H        21.27068329     15.28931522     21.27068329
H        21.27068329     16.70068359     19.85931396
H        19.85931396     15.28931522     24.42931557
H        19.85931396     16.70068359     25.84068108
B        20.56499863     15.99499989     25.13500023
H        21.27068329     15.28931522     25.84068108
H        21.27068329     16.70068359     24.42931557
H        19.85931396     15.28931522     28.99931526
H        19.85931396     16.70068359     30.41068268
B        20.56499863     15.99499989     29.70499992
H        21.27068329     15.28931522     30.41068268
H        21.27068329     16.70068359     28.99931526
H        19.85931396     19.85931396      1.57931626
H        19.85931396     21.27068329      2.99068356
B        20.56499863     20.56499863      2.28499985
H        21.27068329     19.85931396      2.99068356
H        21.27068329     21.27068329      1.57931626
H        19.85931396     19.85931396      6.14931583
H        19.85931396     21.27068329      7.56068325
B        20.56499863     20.56499863      6.85500002
H        21.27068329     19.85931396      7.56068325
H        21.27068329     21.27068329      6.14931583
H        21.27068329     21.27068329     10.71931648
H        19.85931396     19.85931396     10.71931648
H        19.85931396     21.27068329     12.13068295
B        20.56499863     20.56499863     11.42499924
H        21.27068329     19.85931396     12.13068295
H        21.27068329     21.27068329     15.28931522
H        19.85931396     19.85931396     15.28931522
H        19.85931396     21.27068329     16.70068359
B        20.56499863     20.56499863     15.99499989
H        21.27068329     19.85931396     16.70068359
H        21.27068329     21.27068329     19.85931396
H        19.85931396     19.85931396     19.85931396
H        19.85931396     21.27068329     21.27068329
B        20.56499863     20.56499863     20.56499863
H        21.27068329     19.85931396     21.27068329
H        21.27068329     21.27068329     24.42931557
H        19.85931396     19.85931396     24.42931557
H        19.85931396     21.27068329     25.84068108
B        20.56499863     20.56499863     25.13500023
H        21.27068329     19.85931396     25.84068108
H        21.27068329     21.27068329     28.99931526
H        19.85931396     19.85931396     28.99931526
H        19.85931396     21.27068329     30.41068268
B        20.56499863     20.56499863     29.70499992
H        21.27068329     19.85931396     30.41068268
H        21.27068329     25.84068108      1.57931626
H        19.85931396     24.42931557      1.57931626
H        19.85931396     25.84068108      2.99068356
B        20.56499863     25.13500023      2.28499985
H        21.27068329     24.42931557      2.99068356
H        21.27068329     25.84068108      6.14931583
H        19.85931396     24.42931557      6.14931583
H        19.85931396     25.84068108      7.56068325
B        20.56499863     25.13500023      6.85500002
H        21.27068329     24.42931557      7.56068325
H        21.27068329     25.84068108     10.71931648
H        19.85931396     24.42931557     10.71931648
H        19.85931396     25.84068108     12.13068295
B        20.56499863     25.13500023     11.42499924
H        21.27068329     24.42931557     12.13068295
H        21.27068329     25.84068108     15.28931522
H        19.85931396     24.42931557     15.28931522
H        19.85931396     25.84068108     16.70068359
B        20.56499863     25.13500023     15.99499989
H        21.27068329     24.42931557     16.70068359
H        21.27068329     24.42931557     21.27068329
H        21.27068329     25.84068108     19.85931396
H        19.85931396     24.42931557     19.85931396
H        19.85931396     25.84068108     21.27068329
B        20.56499863     25.13500023     20.56499863
H        21.27068329     24.42931557     25.84068108
H        21.27068329     25.84068108     24.42931557
H        19.85931396     24.42931557     24.42931557
H        19.85931396     25.84068108     25.84068108
B        20.56499863     25.13500023     25.13500023
H        21.27068329     24.42931557     30.41068268
H        21.27068329     25.84068108     28.99931526
H        19.85931396     24.42931557     28.99931526
H        19.85931396     25.84068108     30.41068268
B        20.56499863     25.13500023     29.70499992
H        21.27068329     28.99931526      2.99068356
H        21.27068329     30.41068268      1.57931626
H        19.85931396     28.99931526      1.57931626
H        19.85931396     30.41068268      2.99068356
B        20.56499863     29.70499992      2.28499985
H        21.27068329     28.99931526      7.56068325
H        21.27068329     30.41068268      6.14931583
H        19.85931396     28.99931526      6.14931583
H        19.85931396     30.41068268      7.56068325
B        20.56499863     29.70499992      6.85500002
B        20.56499863     29.70499992     11.42499924
H        21.27068329     28.99931526     12.13068295
H        21.27068329     30.41068268     10.71931648
H        19.85931396     28.99931526     10.71931648
H        19.85931396     30.41068268     12.13068295
B        20.56499863     29.70499992     15.99499989
H        21.27068329     28.99931526     16.70068359
H        21.27068329     30.41068268     15.28931522
H        19.85931396     28.99931526     15.28931522
H        19.85931396     30.41068268     16.70068359
B        20.56499863     29.70499992     20.56499863
H        21.27068329     28.99931526     21.27068329
H        21.27068329     30.41068268     19.85931396
H        19.85931396     28.99931526     19.85931396
H        19.85931396     30.41068268     21.27068329
B        20.56499863     29.70499992     25.13500023
H        21.27068329     28.99931526     25.84068108
H        21.27068329     30.41068268     24.42931557
H        19.85931396     28.99931526     24.42931557
H        19.85931396     30.41068268     25.84068108
H        19.85931396     30.41068268     30.41068268
B        20.56499863     29.70499992     29.70499992
H        21.27068329     28.99931526     30.41068268
H        21.27068329     30.41068268     28.99931526
H        19.85931396     28.99931526     28.99931526
H        24.42931557      2.99068356      2.99068356
B        25.13500023      2.28499985      2.28499985
H        25.84068108      1.57931626      2.99068356
H        25.84068108      2.99068356      1.57931626
H        24.42931557      1.57931626      1.57931626
H        24.42931557      2.99068356      7.56068325
B        25.13500023      2.28499985      6.85500002
H        25.84068108      1.57931626      7.56068325
H        25.84068108      2.99068356      6.14931583
H        24.42931557      1.57931626      6.14931583
H        24.42931557      2.99068356     12.13068295
B        25.13500023      2.28499985     11.42499924
H        25.84068108      1.57931626     12.13068295
H        25.84068108      2.99068356     10.71931648
H        24.42931557      1.57931626     10.71931648
H        24.42931557      2.99068356     16.70068359
B        25.13500023      2.28499985     15.99499989
H        25.84068108      1.57931626     16.70068359
H        25.84068108      2.99068356     15.28931522
H        24.42931557      1.57931626     15.28931522
H        24.42931557      1.57931626     19.85931396
H        24.42931557      2.99068356     21.27068329
B        25.13500023      2.28499985     20.56499863
H        25.84068108      1.57931626     21.27068329
H        25.84068108      2.99068356     19.85931396
H        24.42931557      1.57931626     24.42931557
H        24.42931557      2.99068356     25.84068108
B        25.13500023      2.28499985     25.13500023
H        25.84068108      1.57931626     25.84068108
H        25.84068108      2.99068356     24.42931557
H        24.42931557      1.57931626     28.99931526
H        24.42931557      2.99068356     30.41068268
B        25.13500023      2.28499985     29.70499992
H        25.84068108      1.57931626     30.41068268
H        25.84068108      2.99068356     28.99931526
H        24.42931557      6.14931583      1.57931626
H        24.42931557      7.56068325      2.99068356
B        25.13500023      6.85500002      2.28499985
H        25.84068108      6.14931583      2.99068356
H        25.84068108      7.56068325      1.57931626
H        24.42931557      6.14931583      6.14931583
H        24.42931557      7.56068325      7.56068325
B        25.13500023      6.85500002      6.85500002
H        25.84068108      6.14931583      7.56068325
H        25.84068108      7.56068325      6.14931583
H        24.42931557      6.14931583     10.71931648
H        24.42931557      7.56068325     12.13068295
B        25.13500023      6.85500002     11.42499924
H        25.84068108      6.14931583     12.13068295
H        25.84068108      7.56068325     10.71931648
H        24.42931557      6.14931583     15.28931522
H        24.42931557      7.56068325     16.70068359
B        25.13500023      6.85500002     15.99499989
H        25.84068108      6.14931583     16.70068359
H        25.84068108      7.56068325     15.28931522
H        24.42931557      6.14931583     19.85931396
H        24.42931557      7.56068325     21.27068329
B        25.13500023      6.85500002     20.56499863
H        25.84068108      6.14931583     21.27068329
H        25.84068108      7.56068325     19.85931396
H        24.42931557      6.14931583     24.42931557
H        24.42931557      7.56068325     25.84068108
B        25.13500023      6.85500002     25.13500023
H        25.84068108      6.14931583     25.84068108
H        25.84068108      7.56068325     24.42931557
H        25.84068108      7.56068325     28.99931526
H        24.42931557      6.14931583     28.99931526
H        24.42931557      7.56068325     30.41068268
B        25.13500023      6.85500002     29.70499992
H        25.84068108      6.14931583     30.41068268
H        25.84068108     12.13068295      1.57931626
H        24.42931557     10.71931648      1.57931626
H        24.42931557     12.13068295      2.99068356
B        25.13500023     11.42499924      2.28499985
H        25.84068108     10.71931648      2.99068356
H        25.84068108     12.13068295      6.14931583
H        24.42931557     10.71931648      6.14931583
H        24.42931557     12.13068295      7.56068325
B        25.13500023     11.42499924      6.85500002
H        25.84068108     10.71931648      7.56068325
H        25.84068108     12.13068295     10.71931648
H        24.42931557     10.71931648     10.71931648
H        24.42931557     12.13068295     12.13068295
B        25.13500023     11.42499924     11.42499924
H        25.84068108     10.71931648     12.13068295
H        25.84068108     12.13068295     15.28931522
H        24.42931557     10.71931648     15.28931522
H        24.42931557     12.13068295     16.70068359
B        25.13500023     11.42499924     15.99499989
H        25.84068108     10.71931648     16.70068359
H        25.84068108     12.13068295     19.85931396
H        24.42931557     10.71931648     19.85931396
H        24.42931557     12.13068295     21.27068329
B        25.13500023     11.42499924     20.56499863
H        25.84068108     10.71931648     21.27068329
H        25.84068108     12.13068295     24.42931557
H        24.42931557     10.71931648     24.42931557
H        24.42931557     12.13068295     25.84068108
B        25.13500023     11.42499924     25.13500023
H        25.84068108     10.71931648     25.84068108
H        25.84068108     12.13068295     28.99931526
H        24.42931557     10.71931648     28.99931526
H        24.42931557     12.13068295     30.41068268
B        25.13500023     11.42499924     29.70499992
H        25.84068108     10.71931648     30.41068268
H        25.84068108     16.70068359      1.57931626
H        24.42931557     15.28931522      1.57931626
H        24.42931557     16.70068359      2.99068356
B        25.13500023     15.99499989      2.28499985
H        25.84068108     15.28931522      2.99068356
H        25.84068108     15.28931522      7.56068325
H        25.84068108     16.70068359      6.14931583
H        24.42931557     15.28931522      6.14931583
H        24.42931557     16.70068359      7.56068325
B        25.13500023     15.99499989      6.85500002
H        25.84068108     15.28931522     12.13068295
H        25.84068108     16.70068359     10.71931648
H        24.42931557     15.28931522     10.71931648
H        24.42931557     16.70068359     12.13068295
B        25.13500023     15.99499989     11.42499924
H        25.84068108     15.28931522     16.70068359
H        25.84068108     16.70068359     15.28931522
H        24.42931557     15.28931522     15.28931522
H        24.42931557     16.70068359     16.70068359
B        25.13500023     15.99499989     15.99499989
H        25.84068108     15.28931522     21.27068329
H        25.84068108     16.70068359     19.85931396
H        24.42931557     15.28931522     19.85931396
H        24.42931557     16.70068359     21.27068329
B        25.13500023     15.99499989     20.56499863
H        25.84068108     15.28931522     25.84068108
H        25.84068108     16.70068359     24.42931557
H        24.42931557     15.28931522     24.42931557
H        24.42931557     16.70068359     25.84068108
B        25.13500023     15.99499989     25.13500023
B        25.13500023     15.99499989     29.70499992
H        25.84068108     15.28931522     30.41068268
H        25.84068108     16.70068359     28.99931526
H        24.42931557     15.28931522     28.99931526
H        24.42931557     16.70068359     30.41068268
B        25.13500023     20.56499863      2.28499985
H        25.84068108     19.85931396      2.99068356
H        25.84068108     21.27068329      1.57931626
H        24.42931557     19.85931396      1.57931626
H        24.42931557     21.27068329      2.99068356
B        25.13500023     20.56499863      6.85500002
H        25.84068108     19.85931396      7.56068325
H        25.84068108     21.27068329      6.14931583
H        24.42931557     19.85931396      6.14931583
H        24.42931557     21.27068329      7.56068325
B        25.13500023     20.56499863     11.42499924
H        25.84068108     19.85931396     12.13068295
H        25.84068108     21.27068329     10.71931648
H        24.42931557     19.85931396     10.71931648
H        24.42931557     21.27068329     12.13068295
H        24.42931557     21.27068329     16.70068359
B        25.13500023     20.56499863     15.99499989
H        25.84068108     19.85931396     16.70068359
H        25.84068108     21.27068329     15.28931522
H        24.42931557     19.85931396     15.28931522
H        24.42931557     21.27068329     21.27068329
B        25.13500023     20.56499863     20.56499863
H        25.84068108     19.85931396     21.27068329
H        25.84068108     21.27068329     19.85931396
H        24.42931557     19.85931396     19.85931396
H        24.42931557     21.27068329     25.84068108
B        25.13500023     20.56499863     25.13500023
H        25.84068108     19.85931396     25.84068108
H        25.84068108     21.27068329     24.42931557
H        24.42931557     19.85931396     24.42931557
H        24.42931557     21.27068329     30.41068268
B        25.13500023     20.56499863     29.70499992
H        25.84068108     19.85931396     30.41068268
H        25.84068108     21.27068329     28.99931526
H        24.42931557     19.85931396     28.99931526
H        24.42931557     25.84068108      2.99068356
B        25.13500023     25.13500023      2.28499985
H        25.84068108     24.42931557      2.99068356
H        25.84068108     25.84068108      1.57931626
H        24.42931557     24.42931557      1.57931626
H        24.42931557     24.42931557      6.14931583
H        24.42931557     25.84068108      7.56068325
B        25.13500023     25.13500023      6.85500002
H        25.84068108     24.42931557      7.56068325
H        25.84068108     25.84068108      6.14931583
H        24.42931557     24.42931557     10.71931648
H        24.42931557     25.84068108     12.13068295
B        25.13500023     25.13500023     11.42499924
H        25.84068108     24.42931557     12.13068295
H        25.84068108     25.84068108     10.71931648
H        24.42931557     24.42931557     15.28931522
H        24.42931557     25.84068108     16.70068359
B        25.13500023     25.13500023     15.99499989
H        25.84068108     24.42931557     16.70068359
H        25.84068108     25.84068108     15.28931522
H        24.42931557     24.42931557     19.85931396
H        24.42931557     25.84068108     21.27068329
B        25.13500023     25.13500023     20.56499863
H        25.84068108     24.42931557     21.27068329
H        25.84068108     25.84068108     19.85931396
H        24.42931557     24.42931557     24.42931557
H        24.42931557     25.84068108     25.84068108
B        25.13500023     25.13500023     25.13500023
H        25.84068108     24.42931557     25.84068108
H        25.84068108     25.84068108     24.42931557
H        24.42931557     24.42931557     28.99931526
H        24.42931557     25.84068108     30.41068268
B        25.13500023     25.13500023     29.70499992
H        25.84068108     24.42931557     30.41068268
H        25.84068108     25.84068108     28.99931526
H        24.42931557     28.99931526      1.57931626
H        24.42931557     30.41068268      2.99068356
B        25.13500023     29.70499992      2.28499985
H        25.84068108     28.99931526      2.99068356
H        25.84068108     30.41068268      1.57931626
H        24.42931557     28.99931526      6.14931583
H        24.42931557     30.41068268      7.56068325
B        25.13500023     29.70499992      6.85500002
H        25.84068108     28.99931526      7.56068325
H        25.84068108     30.41068268      6.14931583
H        24.42931557     28.99931526     10.71931648
H        24.42931557     30.41068268     12.13068295
B        25.13500023     29.70499992     11.42499924
H        25.84068108     28.99931526     12.13068295
H        25.84068108     30.41068268     10.71931648
H        25.84068108     30.41068268     15.28931522
H        24.42931557     28.99931526     15.28931522
H        24.42931557     30.41068268     16.70068359
B        25.13500023     29.70499992     15.99499989
H        25.84068108     28.99931526     16.70068359
H        25.84068108     30.41068268     19.85931396
H        24.42931557     28.99931526     19.85931396
H        24.42931557     30.41068268     21.27068329
B        25.13500023     29.70499992     20.56499863
H        25.84068108     28.99931526     21.27068329
H        25.84068108     30.41068268     24.42931557
H        24.42931557     28.99931526     24.42931557
H        24.42931557     30.41068268     25.84068108
B        25.13500023     29.70499992     25.13500023
H        25.84068108     28.99931526     25.84068108
H        25.84068108     30.41068268     28.99931526
H        24.42931557     28.99931526     28.99931526
H        24.42931557     30.41068268     30.41068268
B        25.13500023     29.70499992     29.70499992
H        25.84068108     28.99931526     30.41068268
H        30.41068268      2.99068356      1.57931626
H        28.99931526      1.57931626      1.57931626
H        28.99931526      2.99068356      2.99068356
B        29.70499992      2.28499985      2.28499985
H        30.41068268      1.57931626      2.99068356
H        30.41068268      2.99068356      6.14931583
H        28.99931526      1.57931626      6.14931583
H        28.99931526      2.99068356      7.56068325
B        29.70499992      2.28499985      6.85500002
H        30.41068268      1.57931626      7.56068325
H        30.41068268      2.99068356     10.71931648
H        28.99931526      1.57931626     10.71931648
H        28.99931526      2.99068356     12.13068295
B        29.70499992      2.28499985     11.42499924
H        30.41068268      1.57931626     12.13068295
H        30.41068268      2.99068356     15.28931522
H        28.99931526      1.57931626     15.28931522
H        28.99931526      2.99068356     16.70068359
B        29.70499992      2.28499985     15.99499989
H        30.41068268      1.57931626     16.70068359
H        30.41068268      2.99068356     19.85931396
H        28.99931526      1.57931626     19.85931396
H        28.99931526      2.99068356     21.27068329
B        29.70499992      2.28499985     20.56499863
H        30.41068268      1.57931626     21.27068329
H        30.41068268      1.57931626     25.84068108
H        30.41068268      2.99068356     24.42931557
H        28.99931526      1.57931626     24.42931557
H        28.99931526      2.99068356     25.84068108
B        29.70499992      2.28499985     25.13500023
H        30.41068268      1.57931626     30.41068268
H        30.41068268      2.99068356     28.99931526
H        28.99931526      1.57931626     28.99931526
H        28.99931526      2.99068356     30.41068268
B        29.70499992      2.28499985     29.70499992
H        30.41068268      6.14931583      2.99068356
H        30.41068268      7.56068325      1.57931626
H        28.99931526      6.14931583      1.57931626
H        28.99931526      7.56068325      2.99068356
B        29.70499992      6.85500002      2.28499985
H        30.41068268      6.14931583      7.56068325
H        30.41068268      7.56068325      6.14931583
H        28.99931526      6.14931583      6.14931583
H        28.99931526      7.56068325      7.56068325
B        29.70499992      6.85500002      6.85500002
H        30.41068268      6.14931583     12.13068295
H        30.41068268      7.56068325     10.71931648
H        28.99931526      6.14931583     10.71931648
H        28.99931526      7.56068325     12.13068295
B        29.70499992      6.85500002     11.42499924
B        29.70499992      6.85500002     15.99499989
H        30.41068268      6.14931583     16.70068359
H        30.41068268      7.56068325     15.28931522
H        28.99931526      6.14931583     15.28931522
H        28.99931526      7.56068325     16.70068359
B        29.70499992      6.85500002     20.56499863
H        30.41068268      6.14931583     21.27068329
H        30.41068268      7.56068325     19.85931396
H        28.99931526      6.14931583     19.85931396
H        28.99931526      7.56068325     21.27068329
B        29.70499992      6.85500002     25.13500023
H        30.41068268      6.14931583     25.84068108
H        30.41068268      7.56068325     24.42931557
H        28.99931526      6.14931583     24.42931557
H        28.99931526      7.56068325     25.84068108
B        29.70499992      6.85500002     29.70499992
H        30.41068268      6.14931583     30.41068268
H        30.41068268      7.56068325     28.99931526
H        28.99931526      6.14931583     28.99931526
H        28.99931526      7.56068325     30.41068268
H        28.99931526     12.13068295      2.99068356
B        29.70499992     11.42499924      2.28499985
H        30.41068268     10.71931648      2.99068356
H        30.41068268     12.13068295      1.57931626
H        28.99931526     10.71931648      1.57931626
H        28.99931526     12.13068295      7.56068325
B        29.70499992     11.42499924      6.85500002
H        30.41068268     10.71931648      7.56068325
H        30.41068268     12.13068295      6.14931583
H        28.99931526     10.71931648      6.14931583
H        28.99931526     12.13068295     12.13068295
B        29.70499992     11.42499924     11.42499924
H        30.41068268     10.71931648     12.13068295
H        30.41068268     12.13068295     10.71931648
H        28.99931526     10.71931648     10.71931648
H        28.99931526     12.13068295     16.70068359
B        29.70499992     11.42499924     15.99499989
H        30.41068268     10.71931648     16.70068359
H        30.41068268     12.13068295     15.28931522
H        28.99931526     10.71931648     15.28931522
H        28.99931526     12.13068295     21.27068329
B        29.70499992     11.42499924     20.56499863
H        30.41068268     10.71931648     21.27068329
H        30.41068268     12.13068295     19.85931396
H        28.99931526     10.71931648     19.85931396
H        28.99931526     10.71931648     24.42931557
H        28.99931526     12.13068295     25.84068108
B        29.70499992     11.42499924     25.13500023
H        30.41068268     10.71931648     25.84068108
H        30.41068268     12.13068295     24.42931557
H        28.99931526     10.71931648     28.99931526
H        28.99931526     12.13068295     30.41068268
B        29.70499992     11.42499924     29.70499992
H        30.41068268     10.71931648     30.41068268
H        30.41068268     12.13068295     28.99931526
H        28.99931526     15.28931522      1.57931626
H        28.99931526     16.70068359      2.99068356
B        29.70499992     15.99499989      2.28499985
H        30.41068268     15.28931522      2.99068356
H        30.41068268     16.70068359      1.57931626
H        28.99931526     15.28931522      6.14931583
H        28.99931526     16.70068359      7.56068325
B        29.70499992     15.99499989      6.85500002
H        30.41068268     15.28931522      7.56068325
H        30.41068268     16.70068359      6.14931583
H        28.99931526     15.28931522     10.71931648
H        28.99931526     16.70068359     12.13068295
B        29.70499992     15.99499989     11.42499924
H        30.41068268     15.28931522     12.13068295
H        30.41068268     16.70068359     10.71931648
H        28.99931526     15.28931522     15.28931522
H        28.99931526     16.70068359     16.70068359
B        29.70499992     15.99499989     15.99499989
H        30.41068268     15.28931522     16.70068359
H        30.41068268     16.70068359     15.28931522
H        28.99931526     15.28931522     19.85931396
H        28.99931526     16.70068359     21.27068329
B        29.70499992     15.99499989     20.56499863
H        30.41068268     15.28931522     21.27068329
H        30.41068268     16.70068359     19.85931396
H        28.99931526     15.28931522     24.42931557
H        28.99931526     16.70068359     25.84068108
B        29.70499992     15.99499989     25.13500023
H        30.41068268     15.28931522     25.84068108
H        30.41068268     16.70068359     24.42931557
H        28.99931526     15.28931522     28.99931526
H        28.99931526     16.70068359     30.41068268
B        29.70499992     15.99499989     29.70499992
H        30.41068268     15.28931522     30.41068268
H        30.41068268     16.70068359     28.99931526
H        30.41068268     21.27068329      1.57931626
H        28.99931526     19.85931396      1.57931626
H        28.99931526     21.27068329      2.99068356
B        29.70499992     20.56499863      2.28499985
H        30.41068268     19.85931396      2.99068356
H        30.41068268     21.27068329      6.14931583
H        28.99931526     19.85931396      6.14931583
H        28.99931526     21.27068329      7.56068325
B        29.70499992     20.56499863      6.85500002
H        30.41068268     19.85931396      7.56068325
H        30.41068268     21.27068329     10.71931648
H        28.99931526     19.85931396     10.71931648
H        28.99931526     21.27068329     12.13068295
B        29.70499992     20.56499863     11.42499924
H        30.41068268     19.85931396     12.13068295
H        30.41068268     21.27068329     15.28931522
H        28.99931526     19.85931396     15.28931522
H        28.99931526     21.27068329     16.70068359
B        29.70499992     20.56499863     15.99499989
H        30.41068268     19.85931396     16.70068359
H        30.41068268     21.27068329     19.85931396
H        28.99931526     19.85931396     19.85931396
H        28.99931526     21.27068329     21.27068329
B        29.70499992     20.56499863     20.56499863
H        30.41068268     19.85931396     21.27068329
H        30.41068268     21.27068329     24.42931557
H        28.99931526     19.85931396     24.42931557
H        28.99931526     21.27068329     25.84068108
B        29.70499992     20.56499863     25.13500023
H        30.41068268     19.85931396     25.84068108
H        30.41068268     21.27068329     28.99931526
H        28.99931526     19.85931396     28.99931526
H        28.99931526     21.27068329     30.41068268
B        29.70499992     20.56499863     29.70499992
H        30.41068268     19.85931396     30.41068268
H        30.41068268     25.84068108      1.57931626
H        28.99931526     24.42931557      1.57931626
H        28.99931526     25.84068108      2.99068356
B        29.70499992     25.13500023      2.28499985
H        30.41068268     24.42931557      2.99068356
H        30.41068268     25.84068108      6.14931583
H        28.99931526     24.42931557      6.14931583
H        28.99931526     25.84068108      7.56068325
B        29.70499992     25.13500023      6.85500002
H        30.41068268     24.42931557      7.56068325
H        30.41068268     24.42931557     12.13068295
H        30.41068268     25.84068108     10.71931648
H        28.99931526     24.42931557     10.71931648
H        28.99931526     25.84068108     12.13068295
B        29.70499992     25.13500023     11.42499924
H        30.41068268     24.42931557     16.70068359
H        30.41068268     25.84068108     15.28931522
H        28.99931526     24.42931557     15.28931522
H        28.99931526     25.84068108     16.70068359
B        29.70499992     25.13500023     15.99499989
H        30.41068268     24.42931557     21.27068329
H        30.41068268     25.84068108     19.85931396
H        28.99931526     24.42931557     19.85931396
H        28.99931526     25.84068108     21.27068329
B        29.70499992     25.13500023     20.56499863
H        30.41068268     24.42931557     25.84068108
H        30.41068268     25.84068108     24.42931557
H        28.99931526     24.42931557     24.42931557
H        28.99931526     25.84068108     25.84068108
B        29.70499992     25.13500023     25.13500023
H        30.41068268     24.42931557     30.41068268
H        30.41068268     25.84068108     28.99931526
H        28.99931526     24.42931557     28.99931526
H        28.99931526     25.84068108     30.41068268
B        29.70499992     25.13500023     29.70499992
B        29.70499992     29.70499992      2.28499985
H        30.41068268     28.99931526      2.99068356
H        30.41068268     30.41068268      1.57931626
H        28.99931526     28.99931526      1.57931626
H        28.99931526     30.41068268      2.99068356
B        29.70499992     29.70499992      6.85500002
H        30.41068268     28.99931526      7.56068325
H        30.41068268     30.41068268      6.14931583
H        28.99931526     28.99931526      6.14931583
H        28.99931526     30.41068268      7.56068325
B        29.70499992     29.70499992     11.42499924
H        30.41068268     28.99931526     12.13068295
H        30.41068268     30.41068268     10.71931648
H        28.99931526     28.99931526     10.71931648
H        28.99931526     30.41068268     12.13068295
B        29.70499992     29.70499992     15.99499989
H        30.41068268     28.99931526     16.70068359
H        30.41068268     30.41068268     15.28931522
H        28.99931526     28.99931526     15.28931522
H        28.99931526     30.41068268     16.70068359
H        28.99931526     30.41068268     21.27068329
B        29.70499992     29.70499992     20.56499863
H        30.41068268     28.99931526     21.27068329
H        30.41068268     30.41068268     19.85931396
H        28.99931526     28.99931526     19.85931396
H        28.99931526     30.41068268     25.84068108
B        29.70499992     29.70499992     25.13500023
H        30.41068268     28.99931526     25.84068108
H        30.41068268     30.41068268     24.42931557
H        28.99931526     28.99931526     24.42931557
H        28.99931526     30.41068268     30.41068268
B        29.70499992     29.70499992     29.70499992
H        30.41068268     28.99931526     30.41068268
H        30.41068268     30.41068268     28.99931526
H        28.99931526     28.99931526     28.99931526
