832

Na       -3.02005172     20.09678459     24.19122887
Na     -115.02848816     32.28643799    -13.76696777
Na       -2.74327445      9.79000282    105.80932617
Na       92.15686798     77.62297058     67.98721313
Na     -117.93059540     -4.23440695    -27.02343559
Na       17.94033051     71.04830933    -60.76830673
Na       -1.85685897    -27.75876427   -159.04138184
Na       68.39096069    -17.47070312     95.12986755
Na       24.27891350     60.43515778     44.27472305
Na      -58.03737259      6.07146168    -23.26712990
Na      123.35032654     70.75502014    136.60020447
Na      -20.04022980     81.00409698     17.81166458
Na      -27.77529335     74.46984100    -23.64116287
Na        8.03307438    -17.30047226    -33.97968674
Na      -42.29733658     -6.76760340     85.14124298
Na       44.78677750      9.55572414    163.73036194
Na      -30.58096695    105.27743530    102.67513275
Na      140.18544006     64.59113312    -33.75064468
Na       10.13216400    -44.43020630     89.37782288
Na       44.89965057     44.12035751     37.17092514
Na       -2.95161867    -10.95342159     40.68050003
Na       -6.49158239     88.48175812     71.03009033
Na       61.54428482     71.78273773     13.85855103
Na      157.24223328    -13.75061703    -13.02149677
Na      109.73521423      6.70853615     -3.49915051
Na       78.64981842    -11.03630161    -27.15279770
Na       51.78273773    -10.75527668     98.38214111
Na      -71.44940186     67.69862366    -57.42438889
Na        7.10998154     -0.70731997    130.14611816
Na       55.23260498    -26.76284790    -13.18724060
Na       34.62371826    -62.25964355     -7.04972458
Na      -60.67901993     -3.23051429     88.64472961
Na      -66.56027222     50.31724167    -54.48883820
Na       41.43288422    -45.37553787   -108.91915894
Na      -36.14640427    -30.93646431    -37.43477249
Na       27.65996361     29.81438446    -47.12579727
Na       14.25177765    -61.16804123     41.04703903
Na       47.96035004   -143.60623169    108.74701691
Na       34.64583206    -27.03313065      7.07166338
Na      -50.09089279     50.46560669      3.17062378
Na      -71.80975342     53.67114258    -16.96494293
Na        7.34640694    -67.91802216    -17.03284836
Na       51.34115601    -55.16478729    -16.41701889
Na       86.16650391    -30.91309166   -118.63622284
Na       17.78012848    152.37092590      2.86270189
Na      -87.61362457    -28.27521133      0.11524712
Na      113.17831421    -27.42919540      4.05476999
Na      -47.81665802    -89.41576385    -20.65014267
Na      -91.48519897    139.87411499    122.91731262
Na      135.98371887    -21.20781326    -46.73511124
Na       24.99539566     84.76490784    -36.78411865
Na       -2.92825413     57.06760788    146.95507812
Na      143.27011108     -6.25850868     27.10338020
Na       38.25242615    -24.46033096     12.97684193
Na        5.76860332     67.77382660     57.91551590
Na      -17.52961349     16.40953827     47.92305756
Na      -65.12292480      6.04132271    -16.81171036
Na       35.26155090   -105.96132660     13.78730583
Na      -64.17578125     30.36326027     44.40824509
Na      -43.64758301    132.08433533    -33.74060822
Na       51.44233704     12.48155499    -44.47201538
Na      111.91927338    173.03558350    -17.10877991
Na        0.63197410     12.90794563    -40.51751709
Na       59.23267746     63.79124451    -27.27736664
Na      -50.39839172    -84.93015289     68.63408661
Na       31.23488808    -92.28160095    -51.02712250
Na       65.73440552    -31.23765373    -71.37522888
Na       48.75982666    -24.47698784     -0.14989208
Na       95.95883179     61.34609604    105.74967194
Na      -54.66313553     16.30682564     47.79557419
Na       34.48412704     33.94464874      0.48304281
Na       41.52752304     43.55884171     68.66130066
Na      -40.80119324    135.97103882    -87.84617615
Na      -64.04845428      9.62576771     34.58093262
Na      -27.29561234     33.61886978    -77.75237274
Na       24.30768585    -72.00908661    -16.39666367
Na       -3.14086437     -3.61282396     31.38862801
Na     -125.77300262     34.05984497     51.41019440
Na       79.22869110     44.07485580     30.33124542
Na      -10.11678123     93.40620422      4.04682446
Na      102.72446442    -27.72025299     31.11637497
Na       -3.01302528     23.53977394     61.68736649
Na       18.07050705    108.26350403    -30.01535797
Na       40.93411255    -41.01790237    -22.92179108
Na      -74.94851685    -50.96898270    -19.34111214
Na       20.95945358      5.68675327    -30.37454987
Na      -74.43001556     -7.72038555     37.84055328
Na       37.41360092    135.17013550     17.24052811
Na      -56.95425797     33.50676727   -125.71891022
Na       48.81993484    -41.76220703     23.26983643
Na       31.75588036      2.76520658    -53.55648804
Na        0.75402546    -27.84893608      0.45343018
Na      -26.73487473     70.85773468     27.53487778
Na      -64.19313812     -6.88355875     37.76553345
Na      -42.95758820   -109.69140625    -50.84405899
Na      -13.25685120      6.26047850     21.24506187
Na       75.59204865    -37.90969849     68.41774750
Na       24.01940155    104.59614563     68.30405426
Na       30.37410164    129.83096313    -10.03696156
Na       27.67200279    101.77890778     23.56970978
Na       74.60816193    -75.52162933    -44.28868484
Na      -98.18565369    -45.02777863    -13.18017387
Na       41.33432007    -21.00084305    -37.21494675
Na       44.86608887    -44.80741501    -37.60120392
Na      -38.17019653     29.79488945     85.67270660
Na      -19.57802582     95.52439880     88.06968689
Na       47.68561554    -75.28591156     85.06308746
Na      -13.48956490      3.25851059     68.40226746
Na      112.36695862    145.96725464     23.94584656
Na      -23.69159889    105.23682404     37.59934616
Na        7.63521051     33.23890686    -57.18284988
Na      -33.74356842    -17.59734535    -20.12549782
Na      -30.36509514     77.37861633     64.80749512
Na      -67.71099854     77.88829041     89.15235138
Na      -51.35992432     60.62708282     10.72545052
Na       75.37433624     81.61636353    -46.71836472
Na      -16.57340622     13.74671650     85.16505432
Na      -10.18335438     84.81446075     75.51175690
Na      127.25080109     13.23276711     38.05328751
Na       51.36002350     64.39332581     34.23845673
Na      -27.12856865      6.41009855     16.95252800
Na      -54.01758575     67.23891449     10.09293842
Na      146.89830017     23.10712624     58.37041092
Na       64.50305176    -61.80482483    -17.27500725
Na       55.06183624     81.44067383     58.19216537
Na        3.02458906    -34.25510025     64.85033417
Na      -13.11238956    -14.36867332    106.42925262
Na       45.01541901     50.66545868     61.29777145
Na       17.10809517    -51.75420380      7.30984020
Na       47.84165955     33.27195740     54.98532486
Na       92.57158661     -6.46946812     51.19730759
Na      115.99863434     43.52069855     -0.37796035
Na      -60.82776642     54.43376541     17.48792458
Na       67.78224182      6.67160940     64.75827789
Na      -12.88245583     53.91479111    136.40159607
Na      -30.16475487    -13.85606289      3.61280656
Na       14.22809029     -0.13159721    -16.64309692
Na       21.01610947     61.29879761     48.38166046
Na      -27.13045311    -41.69046783     50.76647186
Na       92.81837463    -44.27475739    -10.20758629
Na      -19.99378395    115.10872650     -6.08343506
Na       68.77401733     26.58164787     89.19418335
Na        0.43404716     27.03089714     75.46437073
Na       37.90065765     57.37889099     58.86421967
Na       11.32371521    132.96833801     24.61899948
Na     -104.72148132    -61.22997284     77.99928284
Na       92.09951019     84.59471893      9.82728481
Na       75.43955994     12.85455894      4.01351213
Na       27.81918907    -78.67362976     14.87288666
Na       75.61141968     19.79372025      3.34475827
Na       61.65670013    -71.41392517      6.60757542
Na       20.81005478     30.82956696     20.83012009
Na      -17.09181404    -71.72058105     23.62672997
Na       -0.40443343     46.54633713    143.56372070
Na       51.08309174    -71.42028809     71.57458496
Na      -22.39620399     23.51991844     81.56397247
Na       14.26424026    -54.64203262     72.18182373
Na      -40.29827118     13.04365730     27.20439148
Na       71.94751740     26.83895874    119.62572479
Na       37.33244705    -65.16843414     34.04424286
Na      -33.00548172     50.49665833      0.48419780
Na       17.75914192     -7.84509373    -30.07485962
Na        0.48255056    -20.73535728    129.32606506
Na       67.59523773    121.93381500     75.93695068
Na       27.98763466   -112.94193268   -136.53929138
Na       -6.81425381     20.62401581    -58.87991333
Na       -0.02253009     54.23365402     -2.58085418
Na      238.47456360     74.38436890    -16.95426750
Na      -33.33683014      9.99012280     27.93088341
Na        0.84611684     60.89417267    -67.75779724
Na        0.34953022    -44.98920822     13.79608250
Na      -36.70067215    -10.52337742    -21.24784851
Na       55.19065094    -38.02214813     87.96736145
Na      -34.27871704     33.10298157    -47.33825684
Na      -67.73304749    -78.67557526    -47.37176514
Na      -29.97273827     -7.36786604     10.33685493
Na     -145.86746216    -14.58961678    -37.10387039
Na      -67.43790436     47.75786972    -57.46328735
Na       27.88591576     11.08471584    -27.07678604
Na       75.84989166     13.23613930     34.58131027
Na       44.71488571     60.39502716    105.69593048
Na       78.36940002     44.50117493    -46.44633102
Na       30.90287018     -3.77151513    -74.73088837
Na       53.06745148    -14.34958172    -36.93898392
Na      -53.57837296     67.68871307     31.07689285
Na       23.82241249     91.48084259    -33.79153061
Na        3.51926661     17.08738708     13.86003304
Na       95.94770813     94.92761993     -9.64292622
Na      105.90622711     16.42698479     24.24123383
Na       92.16646576     30.30834961      7.38575888
Na      -81.62433624    101.64289856    126.20251465
Na      102.20863342    -24.06104088    -73.72487640
Na       41.75409698    -27.61642647    -77.68389893
Na       99.20334625     53.83757401    -23.33332062
Na       82.08975220     71.20670319     41.55094147
Na       27.54689598     19.88455391     27.02908516
Na       34.01346588      6.36646795    -37.31703186
Na      -61.18373489    -14.28003788      0.45008069
Na        7.38151693      6.71487665    -41.20287323
Na       78.55166626    138.67427063    -77.71954346
Na       23.83521271     70.97260284     20.48648262
Na       28.14698982    -27.93790436    -16.30669785
Na      -67.80699921     33.50205231     28.17852783
Na       13.97449875    -54.90665817     14.52376175
Na       51.72465897    -17.88330078     40.91138840
Na       66.98833466    118.32901001    101.93773651
Na       50.78760147    108.55920410     24.13663101
Na       75.11561584    -30.74501991     -6.63351154
Na       98.46254730     -3.99238205     -7.19694757
Na      -43.76509476    120.90779877    -71.16381836
Na       72.00765228    -10.54864311     14.06859970
Na        6.23666859      6.95470905      3.51902843
Na       82.45135498    -68.12763977    197.88880920
Na      -22.88886833     58.19493484     41.24499893
Na       86.10729980     26.78576851    -16.56846046
Na      120.06079102     23.70096588     81.99798584
Na       57.49276733    -92.62565613    -37.35785294
Na       20.56135941     55.02358246     -5.95711040
Na     -143.15760803    -60.80878067    -47.04224777
Na        3.48623037     46.67280960     30.72827148
Na      -24.15089035   -108.57793427     51.30442810
Na      -23.37853241    -37.59793472     37.77155304
Na       62.06298828    -69.25267029     81.83155060
Na       37.46385574     59.96608734     17.40876389
Na       -2.35795045     50.69326401    -30.35623169
Na      -11.15990162     -7.33491325     31.25716400
Na      -13.69956398    -75.11878967     31.25158691
Na      -29.57899094     69.99403381     37.52631378
Na     -115.27149200     50.54722595    -39.88336945
Na      -13.15890884     46.79974365     62.06898499
Na      -73.72882080     -6.95178938    -24.41824341
Na      -37.63530350     37.18827057     -6.56372595
Na     -128.76983643     19.61440277     51.02152634
Na      -10.22215748    -17.91162682     24.06953049
Na      -50.95076752    -16.94690514     33.65764236
Na      -29.77503395    118.86454773    -81.34436798
Na        4.21276283     64.64442444    -91.98781586
Na       31.19596291    152.43722534    108.94819641
Na     -125.51560974   -106.50247955    -64.18292999
Na       13.94276619    -35.08107758    -37.20532227
Na       85.90477753     57.34126663     37.98952866
Na      -57.73245239      3.21838975    -30.37476158
Na      -81.50617218    -60.05455017    102.15040588
Na     -133.35916138     23.67910385     20.72747803
Na      -23.85191917    -51.24110413     31.53128433
Na       34.32865143    159.22009277     61.03804779
Na      -21.04261971    -14.49082947     -3.47215414
Na     -104.05965424    139.30628967     25.01299477
Na      -33.11063004    -81.03085327    -43.48602295
Na      -40.07150650     12.01230812     64.94056702
Na       57.11722946    -41.34536362     44.24157333
Na       24.87313271     84.76394653    -33.50740433
Na        6.55985594    -41.11854172    -10.08139896
Na     -153.06632996     16.98330116     23.91334152
Na       28.04611778     -2.92084408    -13.40651703
Na       72.24476624     56.81598282    133.87797546
Na       76.23640442     13.18004513    -37.33547592
Na       31.29296303    -10.36389637    -20.50380516
Na       -9.54003716     16.73635483     45.19128418
Na       92.50509644     57.99117661     24.45557785
Na       -0.00699982      6.21752882     27.97949409
Na       37.48070526     33.60726166      3.81798196
Na      -13.25091648    -34.52937698    -27.27492142
Na     -105.27865601    -40.82518387     -3.24029851
Na      -16.48304176     23.54343224   -101.98709869
Na      -20.59492874     14.54567528     -6.81401825
Na       -9.29400635     -4.35091448     30.55672264
Na       10.56352425     53.90402222     -2.85784197
Na       41.60930634     51.15591812     40.35593796
Na      -20.09145927     33.54732895     61.62871552
Na       31.31034470    111.88677216     61.66918182
Na      -67.64651489     37.03086472    -74.66622162
Na      -15.87072945     17.05042839     81.68901825
Na       34.74411011     27.05814362    -80.91294098
Na       57.64777756    -37.81580734     48.11074448
Na      -73.93299866    -41.09361649     13.66512966
Na      -30.86487770    -78.64753723     61.58936691
Na      -88.12488556     98.64442444    -33.31406784
Na      -53.36502075      3.34798145    102.75100708
Na       44.85129929     -3.60916233     93.13008881
Na       84.70330048     37.87535477     30.01070404
Na       10.21830368     30.09825134     -6.62047148
Na       -2.05031371    -75.73985291     24.28074455
Na       55.32820129     81.70244598    -64.00975037
Na       88.99868774     47.46796799     44.33328247
Na       68.97472382    -82.18213654     -3.09843206
Na       61.49913025     22.00748825     40.97073746
Na      -60.78981400     47.49752045    -36.01424789
Na       -9.93394947    -33.91855621     17.15337753
Na       31.76289558     30.18041039     75.07545471
Na       95.26561737     30.03485489     20.18901443
Na      -23.53116989    -58.38570404     79.01396179
Na       10.16445160     23.20809937    -10.31578255
Na       68.55622864    -38.18615341    -47.26749039
Na        7.92577362    -27.54831886      4.14702511
Na       89.26985168     10.19344330     95.53571320
Na        0.18343124     -3.50124264    -46.94070435
Na       44.48772812     70.84947968    -30.22266960
Na      -19.81403923    -81.77428436     -2.50980473
Na       57.88892365     33.23703384    -57.11056137
Na        9.78242588    -51.30732346     27.86682320
Na      -67.95211792     84.91163635     27.37203407
Na      -67.58213806     -7.33752012     75.49967194
Na       27.69804001    -33.94862747    -13.64859009
Na       23.63614845    -17.81134224    139.80088806
Na        7.05114365     53.30837250     13.16501522
Na       -9.46603870    -20.64426994     17.23061752
Na       21.05760574     16.61967087     -0.56848657
Na      -57.14592743     51.22206497     -9.65275860
Na       69.01603699     40.46308136    -46.99691772
Na       74.62036133     10.36320686     47.85729218
Na       10.92569256    -38.27733231    -13.37454510
Na       -6.04225349    -10.09061909    -75.11338043
Na       10.36830997    -91.28681183    -64.88018036
Na       98.42274475     88.54773712     31.17720604
Na      -36.96231842     57.33886719    -16.33126068
Na       10.95358849    -71.41693115    -54.10338211
Na      -40.97182846    -38.33890915    -33.99791718
Na      -61.02142334     47.31161118    -13.18293285
Na      -16.87898064    115.62003326     10.88037968
Na       27.03106689    -44.92940903     35.03749466
Na       51.96363449     81.08252716     44.79270172
Na       10.44324684     37.28435135      3.92779875
Na       21.01411057      9.77067661     13.91609192
Na      123.50868225    -95.90951538    -13.46557999
Na      -51.57213974     61.29943466    112.92073822
Na       18.40484047      3.01106477     28.64775467
Na      143.30308533     61.28631210    -17.07158852
Na       99.02405548     12.63691330    105.59513092
Na       38.18053436    -37.01095963   -105.32716370
Na      106.18580627     -3.89077020    -26.64902306
Na      153.18115234     -0.34775496     44.49048996
Na      174.27885437     43.07059479     10.63977623
Na       14.06575680    -30.96973991     47.84283829
Na        4.07032108    -44.15283585     40.17379761
Na     -126.06798553     13.90940571     17.15185356
Na       86.02108765    -68.87560272     91.98500824
Na      -78.32922363     29.89246178   -118.11891937
Na      -33.49004745     27.46604919    -12.78742981
Na      -67.34176636     -7.31469774    -43.88829422
Na       20.17971039    -13.69715500     75.04761505
Na       61.19137955     50.39584351     -6.39290047
Na        3.55347204    170.60621643   -118.34955597
Na       51.33819962     29.80145264    -67.17454529
Na       58.53998566     16.39834976     24.02814674
Na      -53.95540237    -24.44736862    -53.51369858
Na       51.18547058     73.67903137     -9.71329498
Na        0.47046342     91.34040833     -6.37904358
Na       17.85811615   -126.32907104    -13.53791428
Na      -77.43822479     -0.05325244     44.86777878
Na       17.62247086     23.33174896     -3.75026274
Na       44.29845047     36.98041916     10.27549171
Sn        4.01957464     13.49565792      7.22294235
Sn        4.04579926     26.96403885      7.46508741
Sn       17.73090363     13.33669090      7.26411915
Sn       17.79763412     26.69995308      7.16689253
Sn        3.90915322     -0.56392157     21.04383659
Sn        2.93730998     13.48203850     20.53491592
Sn       17.17646408     -0.26571125     21.13769531
Sn       16.51378632     13.36548805     20.80458069
Sn        4.13887548      0.28122792     14.45745468
Sn        4.05509567     13.55817699     13.94544601
Sn       17.34346771      0.08667139     14.28710651
Sn       17.80928993     13.40995884     14.01029205
Sn        4.09183359     12.72623158      0.11537170
Sn        3.98424602     26.75474358      0.35922000
Sn       17.35820961     12.99825954      0.59387887
Sn       17.94028091     26.58921623      0.68612123
Sn       10.97671795      6.46742773     20.92613220
Sn       10.74776649     19.62787247     20.49443245
Sn       24.40467072      6.61796331     20.71807671
Sn       24.35553932     19.87487793     20.69709969
Sn       10.65531158      6.46094847      7.44744062
Sn       10.32903671     19.94767189      6.81701183
Sn       23.38696289      6.49940586      7.17035103
Sn       23.76296806     20.58014297      6.37692499
Sn       10.80390263      6.40548897     27.76029015
Sn       10.63312340     20.45247841     27.13036537
Sn       23.79786301      6.40283871     27.71116447
Sn       24.39042473     19.90092850     27.24999809
Sn       10.95869350      5.92496443     14.26024628
Sn       10.81933212     19.70125008     13.54831409
Sn       24.54148102      5.98337555     13.72220898
Sn       23.95249748     19.70506668     13.83794022
Sn       10.39320183     -0.76169169     20.94038773
Sn       10.06954956     13.30284786     20.75059128
Sn       24.16499710     -0.25091696     20.82729530
Sn       23.93442917     13.44838810     20.54538345
Sn       11.02121067     13.01480103      7.08471823
Sn       11.10060215     26.84957314      7.00829887
Sn       24.68173409     13.39857769      6.75688696
Sn       24.47136116     26.88354683      7.38867664
Sn       11.13946247     12.57141495     13.93037128
Sn       10.38852215     26.32712746     13.81741238
Sn       24.41716957     12.90130901     13.44336033
Sn       24.41679573     26.66324806     13.98319054
Sn       10.90288830     -0.11717651      0.17636026
Sn       11.01466560     13.39887238      0.12396622
Sn       24.74138069     -0.20356882      0.68150097
Sn       24.24007034     13.15986156     -0.04171790
Sn        3.18894792      6.41573715      7.23426723
Sn        3.31907916     20.31811333      7.07226706
Sn       16.78810883      6.38851976      6.99590063
Sn       17.20496941     19.72633362      7.17569685
Sn        4.22503233      6.57234478     20.92691612
Sn        4.15466213     20.04414177     20.47612190
Sn       17.70688629      6.41377640     20.59063721
Sn       17.81854820     20.05187607     20.52144241
Sn        3.43267560      6.14728117      0.48915586
Sn        4.12382030     19.53549576     -0.02027370
Sn       17.47494125      5.72742510      0.65632135
Sn       17.23628998     19.34030151      0.77368951
Sn        3.96618533      6.70307684     13.96623516
Sn        3.86196876     20.44913673     13.81484032
Sn       17.07889938      6.83966494     13.75616646
Sn       17.32497978     20.33804893     13.86894226
S         1.95011151      4.75018215      2.13635135
S         2.73223686     18.02316475      1.46555030
S        15.76464176      4.42587233      1.64198101
S        15.60424519     18.09426689      1.93474519
S         5.36725616      8.45927334     14.98139381
S         5.05696297     21.78933716     15.28973961
S        18.90702057      8.09698486     15.16287613
S        18.65862656     22.11415482     14.79454422
S        12.49674129     11.52034664      8.35820198
S        12.30050659     25.38994026      8.43606186
S        25.76465797     11.65650368      8.12917519
S        25.69434166     25.40182877      8.86521149
S         9.46358109      1.01492822     22.26814079
S         8.67086506     14.47383690     22.30055428
S        22.92905426      1.33834898     22.12895584
S        22.18877983     14.95565510     21.57668877
S         5.39337349      4.88678455     26.85707283
S         5.43740845     18.01601219     25.88147736
S        19.10202408      4.65383673     26.29882431
S        18.45166206     17.87777328     26.52640533
S         2.39978051      8.02632999     12.61443043
S         2.31487894     21.93039703     12.29837513
S        15.76008224      8.40372181     12.30751991
S        15.99298477     21.93149757     12.29840183
S         8.22829914     12.33275509     19.09947968
S         8.55455780     25.09340286     19.71355629
S        22.47712708     11.63814640     19.27114296
S        22.42176247     25.94131088     19.53197098
S        12.40799236      1.02218974      5.66726589
S        12.22320175     14.67549610      5.80558062
S        25.73812485      1.12629831      6.13490057
S        26.22846603     14.61048603      5.22181463
S         9.64645767     11.55797005     15.44659138
S         8.84789848     24.71727943     14.98108578
S        23.06912041     11.40779018     14.62591839
S        22.83158684     25.28877449     15.21967602
S        12.45415497      0.95397758      1.73625803
S        12.58559132     14.62094498      1.35392797
S        26.07781982      1.02037156      2.17779493
S        25.63199234     14.75261402      1.65483654
S         5.35936356      5.00145578     22.60903168
S         5.46181154     18.84856415     21.95604134
S        19.25751305      5.02510834     21.71453476
S        18.81300735     18.60251808     22.20244408
S         1.82908058      7.51815081      8.78396511
S         2.02881074     21.95858765      8.36837578
S        15.52109432      7.98783779      8.32130623
S        15.77134132     21.44125175      8.53161335
S        12.71311760     11.75520039     12.39151669
S        12.13647079     25.19723892     12.50430393
S        26.10757637     11.73889923     12.17419243
S        25.76539421     25.24930763     12.68276215
S         9.37996864      1.32040000     26.24981117
S         9.42091846     14.96638680     26.01261139
S        23.05357742      1.02767372     26.49909401
S        22.66086960     14.17559147     25.71046829
S         1.89398468      4.67313623      5.96171713
S         1.93821204     18.72709465      5.85353374
S        15.40285873      4.92622757      5.79740143
S        15.68995571     18.27698135      6.02574921
S         5.64326334      7.77757025     19.55192947
S         5.37702465     21.40781975     19.23782539
S        19.24068260      8.11654472     19.46690941
S        18.79729652     21.57524300     18.97813416
S        12.23974323      7.66648960     26.25448990
S        12.63764191     21.96307564     26.00208664
S        25.32148170      7.70705366     26.54426384
S        25.61683464     21.66892052     26.11474037
S         9.61963081      4.76937294     12.38027573
S         9.86496258     18.20584679     11.93144512
S        23.34547997      4.42722321     12.46896839
S        22.84520531     18.12781906     12.47482300
S         2.51866436      1.18054891     19.99643326
S         1.55577230     14.81405449     18.97100639
S        15.90309906      0.98931974     19.56396866
S        15.38800430     14.76268768     19.21248055
S         5.04445648     12.11708546      5.70761871
S         5.50401115     25.83555222      5.85643673
S        19.28405952     11.60905457      6.36486578
S        19.22803307     25.73904037      5.52342224
S         9.45515060      7.73930979      1.90866089
S         9.27207279     21.93449974      1.16125834
S        22.33770561      7.88626385      1.87691629
S        22.94257355     21.15148544      1.21966517
S        12.13414860      4.54712677     15.73574257
S        12.19514370     18.07400703     14.92059898
S        25.70576096      4.68479013     15.37945366
S        25.47203827     18.48416328     15.07536793
S         5.57743597      1.22669756      8.80146217
S         5.45801306     14.99258041      8.38102627
S        18.95356560      1.18611515      8.30145073
S        19.04291916     14.77967644      8.42065144
S         2.07415628     11.58423519     21.70469475
S         2.14696288     25.72949409     22.47690582
S        15.42176723     11.81669998     22.16546631
S        15.67579842     25.55251122     22.02991104
S         5.52164364      1.33037162     12.85058308
S         5.09064102     14.66839218     12.02671146
S        18.59147644      1.58509791     12.85544300
S        19.04418564     15.27189732     12.62452221
S         3.00217152     11.01603985     26.17284775
S         2.66135478     25.56653786     25.94025421
S        16.08305931     11.60305786     26.29036140
S        16.59207916     25.11365318     26.03853416
S         9.00579071      7.67890024      6.19404888
S         9.29724407     21.37864876      4.98246145
S        22.19830132      7.88025904      5.65240192
S        22.20026016     21.99357414      5.47539616
S        12.10224056      4.91465616     19.54237938
S        12.31734371     18.24898911     19.47455978
S        25.85136795      5.14301729     19.16414070
S        26.10307312     18.72609329     19.38108826
S         2.79106545      1.94680047     15.66968441
S         2.42667127     15.00609112     14.83002377
S        15.80962753      0.97576898     15.76877213
S        16.25465393     14.64878845     15.55425930
S         5.68824816     11.31430721      1.68033624
S         5.46509981     25.29500389      1.53701973
S        18.72346878     11.67440033      2.10683322
S        19.16016960     24.98134422      1.87842095
S        12.09617329      8.14759922     22.56759644
S        12.29742336     21.23383331     21.86337280
S        25.86478424      7.78000593     22.17576218
S        25.53361511     21.21355820     22.24492645
S         9.07555676      5.20468760      9.11934853
S         8.78972340     18.45956039      8.02238274
S        22.26027870      5.09806967      9.11266899
S        22.55745316     19.50337791      8.47298908
S         2.59258509      0.69569707      1.86899674
S         2.73803687     14.24642467      1.66197968
S        16.17119217      0.88914174      1.88032091
S        15.69919682     14.21731186      1.71489763
S         5.45586252     12.16103554     15.12524986
S         5.62331915     26.24088669     15.83718395
S        19.31511688     12.14598274     15.38648796
S        19.18676758     26.18528175     15.57129765
S         2.63193893     11.98014641      8.68412590
S         2.89038658     25.48691750      8.80654335
S        16.33320999     12.05509758      8.66806221
S        16.51161957     25.17927551      8.44094563
S         5.17932892      0.81081170     22.56618118
S         4.60293198     14.75868225     21.97248077
S        18.27317429      1.16120005     22.73924065
S        18.05645180     14.49607182     22.16104126
S         5.41608477      1.00016522     26.40433311
S         5.52924919     13.98916531     25.95458794
S        19.05136681      0.84792858     26.56151962
S        18.39969254     14.13552380     25.82877350
S         2.61363101     12.13288689     12.61247444
S         2.76519418     25.94022369     13.06793499
S        16.65748978     11.94203472     12.54956913
S        15.91298962     26.03247833     12.54166412
S         4.30055475     11.82027721     18.95755386
S         5.08058548     25.21592331     19.43266106
S        18.12898827     12.00770283     19.83262444
S        18.47222900     25.61894989     19.38821030
S         2.62724614      0.93696040      5.88016510
S         2.69150710     14.72936153      5.46894169
S        16.07233810      0.80820632      5.91935921
S        16.30184746     14.46707630      5.58955669
S         8.94331837      7.30430889     15.30981159
S         9.25899029     20.91676140     15.02757835
S        23.06797028      7.45631742     15.05760956
S        22.56245422     20.88890457     15.77694416
S        11.89543533      4.77611446      1.93152463
S        11.87876797     19.15815926      1.55069709
S        25.20259857      4.83000374      2.12778783
S        25.92850304     18.68295288      1.53744709
S         9.49804020      5.03011990     22.19655991
S         9.23513031     18.56763458     22.01413727
S        23.44663811      5.19011974     22.12658882
S        22.94756317     18.60601807     22.07085037
S        11.28958130      8.13370132      9.09101295
S        11.60414314     21.30320549      8.44711876
S        25.02389336      7.81788445      8.22537422
S        25.29758835     21.42938042      8.21619129
S        12.35391235      7.23452330     12.94462395
S        12.25156689     21.04338264     12.02553940
S        25.95277977      7.30185270     12.22501755
S        25.41107941     21.32084846     12.39915848
S         9.53501415      5.07438278     26.14635658
S         9.28365421     19.20156479     25.64176750
S        22.83031464      4.89983940     26.02805138
S        22.77752876     18.69923019     25.85159111
S        11.58866405      4.95260143      5.74167061
S        11.96193981     18.63670731      6.03895187
S        24.97929001      5.04967642      6.18337345
S        24.88405991     18.61955261      5.65672541
S         9.51751995      7.49625063     19.42350197
S         9.44037819     21.08503532     19.04178619
S        22.84326744      7.64747667     19.31145477
S        23.17336273     21.45760727     19.13982391
S        12.18870163     12.07934952     25.76122475
S        12.54894733     25.97097588     25.84231758
S        25.68710136     11.82065773     25.79370117
S        26.10255814     25.50027275     26.52868080
S         9.27258015      0.62620801     12.45149612
S         9.73597717     14.04575729     12.32178688
S        23.26486397      0.85021645     12.62183475
S        23.13249207     14.31261635     11.96240520
S        11.65635109      0.26605669     19.22718048
S        11.49820900     14.66337299     19.16524315
S        25.72883797      1.07224524     19.65825462
S        25.01911926     14.72085762     18.98821259
S         9.23619747     11.81359577      5.61504364
S         9.84026146     25.38475037      5.42963600
S        23.04180908     11.88268661      5.53382826
S        23.37314224     25.55213356      5.85488844
S         9.54642487     11.96536064      1.41503727
S         9.43074703     25.58470154      1.58764815
S        22.84410095     12.00670338      1.84820604
S        23.40834999     25.51981926      2.17340398
S        11.61408806      0.70327789     15.39486885
S        12.26421833     14.13241959     15.44611359
S        25.97597885      0.69000393     15.59757137
S        25.69984055     13.95262241     15.23814392
S         9.82962513      1.03986132      8.18726063
S         9.74628830     14.31441402      8.51157761
S        22.75911522      1.22160816      8.58165169
S        23.55882454     14.61860180      8.51492977
S        11.18098736     11.22888660     21.67695618
S        11.74794483     25.17008781     22.35815048
S        24.89628220     11.80910301     22.06514359
S        25.43128967     25.39663887     22.06059265
S         5.36793709      5.62174511     12.32930470
S         5.08710861     18.95275307     12.30240631
S        18.49428749      5.45157480     12.33974171
S        18.81347275     18.79533577     12.55933475
S         2.03760600      7.82334471     26.25234413
S         2.70152378     21.08454323     25.84181213
S        16.22815895      7.30257559     26.17265129
S        16.51405907     21.07979774     26.46068573
S         4.70363474      7.81661320      5.92065382
S         4.41106939     21.48962021      5.33502769
S        18.44534111      7.51211166      5.80389166
S        18.17665863     20.77976227      5.28786516
S         2.73541164      4.97827244     19.40907860
S         2.46786189     18.83423615     19.06307030
S        16.67969131      4.86453104     18.94259071
S        16.21161842     18.83846092     19.07829285
S         2.62312984      5.39954710     15.55947399
S         2.21495295     19.28601646     15.28336143
S        16.01959229      5.53245878     15.25859451
S        15.89423656     18.99377251     15.16481209
S         4.56391859      7.75364828      2.01681495
S         5.01105547     21.21258926      1.42143929
S        18.63829994      7.45000839      1.83325994
S        18.95598221     20.73987770      1.79929698
S         2.69884086      7.66420078     22.37656593
S         2.35687423     21.05044937     21.84166527
S        16.25060844      7.73644590     22.17340279
S        16.33954620     21.63234901     21.91541672
S         4.75755787      5.31010294      8.66795731
S         4.61210728     19.02101135      8.61237812
S        17.93739891      5.11188173      8.65389824
S        18.82859230     18.57007980      8.35802937
S         1.95703042      1.47656918      9.38016319
P         0.68108970      2.81579685     10.52364349
S        -0.86201054      3.83146906      9.27236366
S        -0.44236591      1.42338514     11.61137962
S         1.78771913      3.88459969     11.74798489
S         1.35228860     15.47467899      9.48087978
P         0.15917780     16.67578125     11.08066750
S        -0.70702738     17.70252609      9.74529934
S        -0.78679699     15.30095577     12.10498238
S         1.22827137     18.14607048     12.17369556
P        13.84894085      3.10333896     10.79680634
S        14.97567177      1.84991777      9.28902340
S        12.75108814      4.24342251      9.35249329
S        12.81842518      1.61019480     11.89740276
S        14.83343697      4.47439098     11.87846851
S        15.54564953     15.20188904      9.54448032
P        14.42471886     16.26214600     10.83543682
S        13.02388382     17.40288544      9.63533688
S        13.14659595     15.05247688     11.80313301
S        15.38223362     17.64503479     11.84878826
S         8.29920959      8.20547104     22.77170944
P         6.97487545      9.15636063     23.96060753
S         5.72111464     10.24646187     22.85846710
S         5.97550964      7.88217592     25.14871788
S         8.43347740     10.30903625     25.27591133
S         8.72868538     22.45312881     22.74851418
S         6.15978336     24.51343918     23.05493164
P         7.56298351     23.24774933     24.05978394
S         6.19055510     22.09680939     25.24795341
S         8.68704700     24.61956406     25.18752480
S        21.83951378      8.67294025     23.02258492
P        20.56053352      9.61388588     24.32560921
S        18.96200752     10.75931168     22.88047981
S        19.37348175      8.24305725     25.42005157
S        21.93455505     10.54286098     25.38959885
S        22.19799995     22.51401520     22.99715233
P        21.23583794     23.57670975     24.26646805
S        19.89894485     24.60692024     23.13631058
S        20.11236763     22.21689224     25.43922806
S        22.35809898     24.73779297     25.62183952
S        26.11402512     10.53028107     18.61797905
S        28.49121284      8.40471745     18.46325874
S        28.61401176     10.61177826     16.19404984
P        27.21867943      9.55696964     17.22011566
S        25.97359467      8.51152611     15.94268608
S        26.74949646     24.55486679     18.84815598
S        29.06430435     22.29606247     18.70369720
S        29.27390099     24.75209045     16.05040741
P        27.89703178     23.63987732     17.44715500
S        26.70837212     22.52699661     15.98549271
S        13.25914669     11.13514805     18.36387825
S        15.54977417      8.45365047     18.40950966
P        14.49472809      9.92523670     17.15247917
S        15.50328445     11.26246452     16.09958458
S        13.13561630      8.82375336     15.90386486
S        12.66034031     24.43000031     18.55186844
S        15.19707012     21.96134186     18.42004204
S        15.21026134     24.42834282     16.29722023
P        13.84155941     23.08584595     17.24992943
S        12.57441139     22.17540550     16.02762413
S         5.63354540      4.42275524      5.49004650
S         8.26793861      2.13239813      5.64819574
S         8.18774700      4.46170759      3.04024982
P         7.05413485      3.20080519      4.30177259
S         6.12366867      1.80491436      3.02540159
S         5.95488262     17.81734467      4.52750826
S         8.76669216     15.59446335      4.67185497
S         8.59921551     17.77741814      2.39798737
S         6.45863008     15.27494526      2.30410242
P         7.34249592     16.58566284      3.56632233
S        19.27085304      4.00213957      5.00021076
S        21.97174263      1.81653798      5.19323540
S        21.82924652      4.02860212      2.80378366
P        20.61884499      2.88548827      4.01905060
S        19.68775368      1.46050751      2.69970894
S        19.56207466     17.72703171      4.20459700
S        22.36519623     15.53529549      4.50462151
S        22.12255287     17.76610184      2.17087984
P        20.93678093     16.41899490      3.24169636
S        19.91778755     15.21035099      2.01609564
S         6.15202761      1.67342973     19.07527161
P         7.19942474      2.84280586     17.77074051
S         8.35332298      3.83095288     18.91196251
S         8.41122723      1.58985341     16.43199539
S         5.96815395      3.97557259     16.52906990
S         5.60958529     15.57987118     18.40361786
P         6.79982042     16.71693039     16.99755669
S         8.04328918     17.73027039     18.10597610
S         8.15393639     15.57820129     15.60407257
S         5.68842125     17.74352455     15.87904358
P        20.89674950      2.95190454     17.14256668
S        19.69274139      2.07007575     18.53957939
S        22.05704498      4.09083700     18.37195206
S        22.10506058      1.99326730     15.79473400
S        19.58097839      4.15759277     15.96173668
S        19.75245476     15.47440052     19.02341652
P        20.89297295     16.51581383     17.62376785
S        22.22532082     17.58927155     18.71981049
S        22.21782684     15.60096836     16.36237335
S        19.77338028     17.66173553     16.45937729
S        26.03311157      8.61202908      5.28787327
P        27.24101257      9.56652546      3.84742832
S        28.50844193     10.80125713      5.03406000
S        28.27857208      8.41295052      2.77071357
S        26.18678856     11.09762573      2.81963968
S        26.29131508     22.29049873      5.04336882
S        28.97143936     24.25548553      4.85517788
P        27.71672630     23.25720024      3.72663045
S        28.74468803     21.99167061      2.26417160
S        26.53129578     24.36391830      2.52493715
S        12.50554848      8.83858204      5.03384542
P        13.44553566     10.07737637      3.77582097
S        14.83621311     10.88509846      4.93764114
S        14.68254662      8.41645432      2.69091320
S        12.36457825     11.34686852      2.68172669
S        15.54940224     24.48064613      4.83371639
S        13.10928631     22.24101067      4.95164013
P        14.30411720     23.31487465      3.76508117
S        15.26170826     21.96129608      2.51118064
S        13.20627975     24.70413971      2.59082985
P         7.12371874     10.22821522     10.83991051
S         8.26163006     11.36619186      9.59499168
S         5.80246401      9.08158302      9.66490459
S         6.31269836     11.66839409     12.05094242
S         8.46276760      8.80072308     12.07702923
P         7.25937605     23.15863800     10.12364864
S         8.47806740     24.13427925      8.92887211
S         5.71525240     21.96816444      9.08781719
S         6.18270636     24.43033600     11.46364212
S         8.40508842     21.89032173     11.24668312
S        21.89597511     10.66822338      9.16693783
S        19.21897888      8.57525444      9.31184196
S        19.76999283     10.85027027     11.60524464
P        20.68479347      9.57816887     10.38694572
S        21.98990822      8.34383583     11.63445663
S        22.05627441     24.76190948      9.16534710
P        20.74942398     23.80345535     10.68193531
S        19.50234985     22.68852234      9.46336842
S        19.87518692     24.96779442     11.84708977
S        22.06269073     22.40227318     11.77288628
S        15.41551685      4.35892582     22.55096054
S        12.99061108      1.95328724     22.83195686
S        13.21230412      4.54733706     25.18944550
P        14.40103340      3.12221861     23.99506760
S        15.17504025      1.80427897     25.27350616
S        14.95431232     17.83489037     22.87002945
S        12.39007664     15.46026230     23.03775787
S        12.76521111     17.95832253     25.22215080
P        13.70997047     16.51909065     24.01185226
S        14.76394844     15.35449696     25.40365791
S         1.81016982      3.81683016     23.29403687
S        -1.11569798      1.80368876     23.61166382
S        -1.01647341      4.10461712     25.68286133
S         1.51830149      1.63482070     25.61599159
P         0.28161374      3.08653021     24.61279869
S         1.62091613     17.39618683     22.88333702
S        -1.14362776     15.17072678     22.84433746
S        -0.68112612     17.64557838     25.22875404
S         1.41057611     15.30061817     25.23121452
P         0.27012041     16.37784576     24.09388733
