832

Na       43.03311920    145.54240417     40.12316132
Na      -69.87738037     36.26115799    -68.79674530
Na       69.85638428     -4.82742500     41.44092178
Na      212.25059509     40.10601044     47.51446915
Na     -103.97624969    -52.74271011   -108.68288422
Na      -18.70272636     32.72865677     10.29735279
Na      -76.73551178    -92.82019806    -67.77519989
Na       93.64419556     59.73982239   -132.85037231
Na        8.93921566     90.23669434    204.55732727
Na      -11.90482426    -15.30239105   -163.08859253
Na       90.99790955     39.64850235    252.01190186
Na      -42.15939331    137.81193542    -77.69113159
Na      -72.96161652    108.47430420    -98.31143188
Na      -66.14411163     -7.76747465     48.38758850
Na      -63.58209610    -28.15252495     78.54653168
Na      -76.15616608    -14.74852848    221.22441101
Na      -52.62653732    111.18030548    129.85830688
Na      147.66218567    182.75216675     17.78545761
Na     -131.29682922     -4.48632145     51.49356079
Na       -8.39669418     63.46229172     71.58124542
Na      -25.71947098     22.24509430    108.74875641
Na      -14.92825603     36.58374786    136.31196594
Na       53.28926086    107.91808319     50.98849106
Na      144.44581604     18.93773651     60.96166229
Na       73.03237152      6.25703621    -16.92470360
Na       -4.80918264     26.86641121    -43.74261856
Na      128.45913696    124.09542847     74.70246887
Na       21.78567886    168.98352051     85.76770020
Na      -63.49614716    107.38183594    181.09320068
Na      311.38323975    -38.66208649    -16.69981194
Na      -73.00834656     -0.82037979     34.53835678
Na        2.01772356      5.26009369     74.45347595
Na      -15.93116951    154.70681763    -77.93418121
Na       56.23426056   -133.69638062    -53.87906265
Na     -162.45747375    -69.02836609    -60.69008255
Na      140.85139465    114.22675323    -43.88004303
Na       29.72275734   -116.47427368     51.52330780
Na       39.43259048   -205.28410339     51.03625107
Na       59.77114868    -68.77648926    -10.17430592
Na     -140.80696106    110.26086426    -47.00884628
Na      -59.08417892     -9.07755280     -6.77205515
Na      -63.57898712   -107.04853058      7.40675354
Na      171.77337646   -140.93139648    -25.96832657
Na       69.83568573   -147.15129089   -170.79495239
Na       52.72954559    185.64694214     -9.41752148
Na     -120.57955170    -34.02985382    -70.78636932
Na      124.05445099     25.80122566     14.70287418
Na      -76.82039642    -45.60905075   -114.93365479
Na     -157.95481873     94.54431915     64.97994995
Na      106.45378876     15.46173573    -61.68572235
Na       69.71234131    118.34698486     34.86811447
Na       87.41973877    162.03880310    139.96115112
Na      188.89312744    -73.75500488     13.49319363
Na       43.45224380     52.21946716    -44.29050064
Na       73.19631958    118.06137848     41.19119644
Na      -39.13211060    -15.19765282    -34.02205658
Na        8.09733391    104.62141418    -40.08612442
Na       62.96646881     60.60816956    -36.79474258
Na      -90.34600067     15.52415085      7.36135864
Na      -90.68072510    111.13056183    -33.31960678
Na       79.51556396   -116.85836029    -71.16804504
Na       28.67726517    257.83865356     -9.48057938
Na      -86.57166290     -1.27440846    -54.00518036
Na       -5.02715969    128.19343567     -9.76171207
Na      107.39981842   -161.49099731    103.10572052
Na      124.51687622   -103.46019745    -14.16666412
Na      111.86078644     63.35248947     27.23730659
Na       36.34966278    -35.59130096    -88.19641113
Na       60.10939789    128.17982483    105.77091980
Na      -79.62076569     16.94201279     13.87288570
Na      100.03714752    152.34407043     13.73909092
Na      -73.12615204    -18.14861679     75.11736298
Na       29.49219894    236.94439697    -43.69078827
Na     -107.22142029     -2.58530998    -39.94309616
Na      -11.98753548    107.44627380    -25.66900635
Na      -12.07794666   -123.36104584   -118.49327087
Na     -138.49079895      8.65519238    -36.92500687
Na      -99.91473389    100.37402344    -57.16350174
Na       -4.65567160     32.75388718      0.46759453
Na       42.76630020    151.99966431     14.35925579
Na       19.35565567     73.47347260    106.06156158
Na      -79.91309357     97.62238312      0.74871492
Na        6.12143946    233.48886108     -3.55918789
Na       39.05003357    -86.01028442    108.93318939
Na      -90.73387909    -38.13467407   -119.11874390
Na       -8.05354118    -38.62375641   -193.58605957
Na      -49.51076889     74.18812561      3.88741493
Na      -49.33059692    -48.29381180    -23.31023788
Na      -56.12748337     29.21665955   -118.39501190
Na       83.23783875   -143.80648804     88.41060638
Na       -1.84934282     50.15544128    -51.05693054
Na       73.20066833     67.21562958    -37.27141190
Na       11.56839085      8.98825932     88.95012665
Na      -80.43054199   -154.12649536     48.23226929
Na     -168.41423035   -104.17353821    -70.94963074
Na       63.96962738   -159.26029968     70.07263947
Na      161.75590515    -99.93430328    115.86085510
Na       -5.15203381    165.91590881     -6.37417173
Na      100.23148346    101.31562805     72.08322906
Na      121.24910736    152.06816101     75.25577545
Na       42.95468521   -113.58738708    -73.98802948
Na     -117.83153534     49.64140701     20.16114998
Na        5.03237009     83.61038208     -6.05163002
Na      -11.13871002   -113.81859589     27.41848373
Na      -83.61053467     -1.86911058     38.24748993
Na       22.23627853     19.24980545     85.81807709
Na       77.18893433     -7.78138638    190.81105042
Na      -86.63185883    100.77552795     95.32212067
Na      202.95570374     93.99227905    119.38755798
Na      -65.78326416     96.82737732    109.23217773
Na      -36.56757736     -4.76109457    -57.25852585
Na      -40.31852722     15.13932991    -74.22832489
Na      -56.18331146    110.47308350     10.53420162
Na      -26.44497108     25.94026184    181.25759888
Na      -76.65660095     98.01570129    -64.84434509
Na      141.43478394    233.22378540   -115.74897766
Na       22.38722038     32.73438644     75.63876343
Na       21.16740608     66.64912415     85.51498413
Na      171.80998230     42.90893173     48.61703491
Na      175.28097534    -72.55245972     50.74270248
Na        7.78625250    169.21923828    -20.18189621
Na     -103.64539337     76.96315002     82.28534698
Na      133.91156006    121.14463806     71.86964417
Na      100.88382721   -266.88732910    -64.06251526
Na       -5.70018148     80.11190796    -33.20867920
Na      -39.29498672    -22.30212593     85.46585083
Na      -15.01365185    -72.76061249     20.10752487
Na      -53.45001221    161.99279785     49.09712982
Na        6.65316916    -79.22130585    -16.88873482
Na      -39.08967972    120.72210693     24.15200806
Na      -52.44404984    -63.43766785     58.00496674
Na       83.69646454      5.51405239    123.10478210
Na     -141.18901062     32.26343536    -12.91479492
Na      154.43730164    121.40283966     -2.77362084
Na       86.45410156    -24.46798706     71.28991699
Na       -8.65475845    -51.84542084     37.93578720
Na       90.43230438     86.93960571     -3.41818762
Na       25.52775955    -18.23873329     37.57848358
Na       -8.14340973     -8.43723297      3.86290121
Na       81.05362701    -69.22943115    -98.24305725
Na       59.32525635    145.36958313     37.83151245
Na      -22.21274757     59.42492676     78.42621613
Na      -96.89334106    -59.48822021      3.58164525
Na       77.25442505   -123.20585632     34.68759537
Na      -66.51257324    128.24147034    126.14755249
Na      -28.90041161    -99.44452667     58.20436096
Na      139.07849121      9.26132774      7.21520233
Na      -15.24847031    -66.05086517    -67.58624268
Na       72.89621735   -113.36269379     42.16636658
Na      150.69047546   -109.74526215    -60.42695618
Na      130.03903198   -137.87838745     -9.72952366
Na      -82.90177917     49.51124954     24.00675583
Na      -15.52925777   -189.13615417     38.23083496
Na     -127.78779602     32.94416046    221.92167664
Na       15.44446182   -106.65223694     28.23335075
Na      -59.10136414    -29.16318130     89.48326874
Na      150.59860229     26.10534668    133.02452087
Na     -134.31369019    120.87268829     55.65556717
Na      -79.88386536     39.88075256     95.44541931
Na       59.57453156   -100.35822296     79.11164093
Na      -97.85365295      1.84519255    -57.44375992
Na      -18.95921135   -133.79374695      6.54181242
Na      -28.69010735    107.91258240     57.95470428
Na       50.22734451     43.15625763     27.36967278
Na      124.31465912     53.24364471   -254.08151245
Na      -11.37484646     73.29775238    -30.42486954
Na       83.93179321     12.42196369     34.92798233
Na      253.32682800     35.83329010    -81.46436310
Na      161.65716553    -49.19493866    -16.36031914
Na       -5.05499649    -14.82738590   -125.39085388
Na      -16.39658356    -55.16347504     17.81945992
Na     -131.04232788     50.64021683    -16.34097290
Na      -39.71130753    -90.57238007    140.08282471
Na       29.21081352     69.84911346    -88.04881287
Na      -72.93524933    -92.48088074    -67.79308319
Na      -63.46559143    142.08798218    139.75273132
Na     -233.92396545   -113.54790497    -36.69388962
Na      -97.26467896     36.46175385    -50.85952759
Na      -38.71783066    114.16740417    -91.57259369
Na     -103.58740234     83.95201111     95.58480835
Na       16.77427101      5.08457136    187.56602478
Na      103.86735535     80.86434937    105.96894836
Na       -4.63097525    -59.32141113    -67.51760101
Na       86.80445862   -195.30244446     -6.10680532
Na      -65.99665070      5.47818089     74.99079132
Na      -58.90948868     72.96300507    -57.47045898
Na      117.23442078   -140.47795105    -87.83399963
Na      -79.43955994     98.00006866     34.31409073
Na       90.14965820   -134.23513794     -6.58428669
Na      216.77159119     70.06945801     27.20698357
Na      -73.02210236     66.23882294     98.87968445
Na       52.28887558     42.26803970     51.26927948
Na       28.80744362     52.43996429     10.72979259
Na       39.42568588     -4.55544996     64.90038300
Na       66.74119568    100.92269897     37.90244675
Na       93.87177277    152.21658325     81.41359711
Na      -62.49866867    -59.32787704     30.64553833
Na      -69.82234955    -11.67211342     -3.24768949
Na       -5.55898428    -14.88383865    -10.21187019
Na      103.28878784    168.87353516   -101.78165436
Na       63.65142822    154.96228027     55.94184875
Na       76.31978607     12.55710411     68.28453827
Na       -4.54382133      8.12459469     68.37195587
Na       35.88308334    -28.80271339    -54.05612564
Na       36.11106873    -69.69477081     85.44886017
Na       77.09223175    161.93803406     58.68519211
Na      141.12519836    108.31189728    -71.22851562
Na      145.01010132    -89.07187653     91.12084198
Na       69.86801910    -15.38154030     41.89434052
Na      -32.49906921    108.12651825   -176.18583679
Na       83.79673004     20.95818710     41.01938248
Na      -14.88485050    -65.87078857    -50.44649887
Na       58.78971481   -109.74005890    133.45893860
Na      -93.72345734     73.47859192     61.47298431
Na       83.88361359     66.73751068    -23.12876320
Na      182.55879211    -45.01068115     58.39342117
Na      130.78172302    -32.22202682      6.47385693
Na      -73.48836517     83.44528961      0.17344417
Na     -150.78086853     87.57556152   -119.79672241
Na       32.64571762    172.56748962    -23.81852913
Na      -59.24547577    -97.64762115     54.57545853
Na      -20.12583733    -72.26461792      7.35954380
Na     -110.72659302   -177.67762756     31.68219376
Na      162.22489929    137.53567505    -40.60184860
Na       83.15364075    104.46115875    -47.86152649
Na        8.40933704    107.96231842     68.43911743
Na       83.61013031     -8.62467957    -81.56214905
Na      -65.98686981     12.59716511     37.65073013
Na     -151.08790588     46.67719269   -138.99154663
Na       42.86600113     59.52542877     81.43058777
Na      -52.57664108    -89.97734070     48.30947113
Na       59.26209641    104.65677643     88.13588715
Na     -151.70785522     29.72653961    109.01451874
Na      -28.77981377     16.07057190     85.64793396
Na      -63.00799179     81.24587250    -71.33078766
Na      -41.84498596    107.38561249    -70.80143738
Na     -138.22486877    -49.17229080   -105.13513184
Na      -59.67711258    144.85586548    143.21862793
Na     -121.05243683   -103.64235687    -47.49878693
Na      -52.37618256   -172.39466858    -91.39325714
Na      128.01759338    213.60908508     11.08127689
Na       31.82290268     77.45874786     41.51938248
Na      -87.15660858      9.12013626     75.63279724
Na     -291.10183716    -34.96395874     71.65798187
Na      -93.73645782    -24.97606468     20.43532181
Na      -69.62380981    186.26609802     68.98905945
Na      -97.20641327     29.45301247     34.76380539
Na      -46.34463882    120.80739594     75.15429688
Na       24.13751602   -140.91667175     20.99593163
Na      -39.19052124    110.75125885    197.57167053
Na      162.09748840    -76.07504272    -90.93278503
Na       70.47955322    121.24321747     61.38296890
Na      -25.39703560    -82.88041687    -27.41527367
Na     -223.44255066    -65.81153107      7.51965857
Na      114.04977417    -12.05574799     54.59698868
Na       -8.14328480    158.43118286     89.22809601
Na       80.78398895     18.90373039   -172.79632568
Na       26.53706932    111.39624786     57.50231934
Na      -28.87222290    -24.66063690     -0.76403522
Na      114.16436005    -25.54286194     85.69385529
Na      147.45335388    -52.58876419    -87.85897827
Na      -22.19096375    -11.11976433     30.96434593
Na       -4.29307985    -79.37387085    -27.15429115
Na     -127.15275574    -48.80142593     20.80417824
Na      -74.12689209    -27.99621010   -166.66502380
Na      -55.95246887     69.57056427     17.10197449
Na     -134.94688416    -20.99337006     92.37419128
Na      113.63481903     26.62910271     17.65568161
Na       59.93590546     49.76498032     17.79432297
Na       45.85544205    -19.13821220     78.06091309
Na      143.78919983     25.66630554    153.93962097
Na      -89.43402863     76.80194855    -81.23149872
Na      -22.64721489    -48.88426590     44.74806595
Na      -35.22806931     35.57352448    -54.37031555
Na       48.96389389     -8.21321297      8.20979881
Na       12.05122185    -66.18781281    -10.47403336
Na     -107.65753937   -266.67816162      3.74421525
Na     -192.05995178    206.28137207    -19.96565437
Na      -35.11557770    -97.41019440    119.60527039
Na     -103.27990723      1.95409095    105.93093109
Na       70.48625946     63.29993820     75.26403046
Na       -8.43723774    111.16996002     41.41821671
Na      -55.64207840    -25.53277969      6.11896801
Na       59.17005920     29.52053452    -73.78576660
Na       97.69622803    -89.75385284     82.72424316
Na       45.66879272   -100.26449585    -74.83657837
Na       -8.03189468     -7.82394552    -43.42419434
Na      -25.35602760      5.59144545    -26.47166634
Na       76.06587982     43.20049667    -13.46107292
Na       42.35080338      8.81454468    136.33673096
Na      124.25166321     79.81559753    -22.27711868
Na      141.26869202    -18.14693069     95.79515839
Na       39.36112976     59.84847260    -71.68550873
Na      301.22497559   -161.65821838    -67.88492584
Na       39.49243546     22.28647804     33.95985794
Na      217.15519714     97.10762787     68.21528625
Na       73.32242584     55.94857788    -50.13425064
Na       80.35427094     32.64567947     51.77844620
Na       55.92214584    -69.97445679     -3.25864697
Na      121.29404449     22.81403732    -29.99629974
Na      -55.95989990    -35.27293015    -23.61713600
Na     -134.04725647    103.97528076     48.52658844
Na     -110.22789001    117.86978912     -2.54363227
Na       -1.13510704     21.60673904    -67.21706390
Na      -70.09735107    -25.49742889     95.74551392
Na      -38.10965347     39.56906891    -23.24308586
Na      -36.13360596      1.91659653    180.54595947
Na       -7.96234655    -11.86699677    -16.91551399
Na      -18.32653618     67.80356598     37.81897736
Na       26.09416199     18.70333290    -57.53894043
Na      165.60623169    -82.35673523    116.16961670
Na      161.83033752    -32.14946747    -20.54614258
Na       24.84910774     36.54081345     27.70244980
Na      -41.68298340   -123.68161011   -132.64445496
Na       35.84484482    121.57321167     40.99710083
Na       11.79240513     87.44382477    -57.94379425
Na       63.59499359    -56.21601486   -105.42587280
Na       -8.09694672    -40.00992966    -23.42638969
Na      -63.02962494     79.95016479    -50.76823425
Na       -5.00260115    149.25073242    133.32643127
Na        8.70627499    -22.26039505    -53.89865112
Na      -35.36742783      2.25175834     24.72037506
Na      -45.54701614    124.61922455    -47.09524918
Na       26.08061600    -11.48170090     38.05089951
Na       83.10905457    -49.00233078     88.78739166
Na      -79.69654083    145.61088562     68.72343445
Na      -32.22102356    -76.20508575     99.00028992
Na      111.20270538   -130.40347290     51.18752670
Na      141.79820251     70.85016632     92.11962891
Na       46.96913910     69.73749542   -162.99528503
Na      226.30778503     39.25388718    -30.27376938
Na      144.49954224     22.88347244    -19.73518753
Na      103.76050568     59.74330139    -84.48332977
Na      -25.20098495    107.07698059     85.32028198
Na       39.15277100    -98.97685242    152.84782410
Na      -56.73549271     22.92129898     -0.09051879
Na        5.49939251    -89.17582703    173.92544556
Na     -103.92056274    -45.53052521   -227.68859863
Na       12.22283268      2.42105699    126.18389130
Na      -88.65644073     -5.99161386    -59.64982224
Na      178.58460999    -52.52040482    150.40350342
Na      -39.57069397   -140.67987061    -60.26633072
Na      -84.03281403    216.74606323   -200.27555847
Na      -28.12517929    103.98584747    -98.80693817
Na       52.59151840    117.59310150    157.48036194
Na     -155.04197693   -116.68651581    -68.11930847
Na        8.34018517    -39.51490784   -108.86907959
Na     -152.49415588    189.02925110     78.93544769
Na      128.63238525   -161.46730042     28.41924095
Na     -121.15996552     32.87028885     37.09165192
Na      -76.75778198     93.84709167    -57.78190994
Na       33.00111771     97.75284576      7.19639015
Sn        5.63958740     12.60279274      6.93519497
Sn        5.58323288     26.29676628      7.26386213
Sn       19.28538895     11.74689198      7.34434795
Sn       19.05834389     25.97243118      7.13187790
Sn        4.18818474     -1.57066393     21.16576004
Sn        4.74689913     12.23527431     20.57003784
Sn       18.23026276     -1.50097775     20.97303391
Sn       18.56158066     12.09007168     20.75114441
Sn        4.89720345     -0.81672484     14.04484367
Sn        5.24136829     12.84817314     13.68090534
Sn       18.78085327     -1.45641088     13.79588032
Sn       18.57438278     12.65504456     13.87274647
Sn        5.30059671     12.31497478      0.14976832
Sn        5.20304155     25.65943909      0.63439214
Sn       18.92351151     11.71393776      0.53112316
Sn       19.32045174     25.69129944      0.41516170
Sn       12.20889664      5.17803717     20.15364647
Sn       12.18192673     19.35970688     20.86321068
Sn       25.74204063      5.13048077     21.16560555
Sn       25.81780052     18.93166351     20.73335457
Sn       11.65829086      5.32182693      6.72864532
Sn       11.78852463     18.90009117      6.95644760
Sn       25.02196121      5.40823984      7.30767822
Sn       25.27746773     18.80960274      7.18664646
Sn       12.03110027      5.69883204     27.14229393
Sn       12.20281029     19.60286713     27.63266182
Sn       25.72051048      6.08703136     27.73722267
Sn       25.79128075     19.13931084     27.63230515
Sn       11.88210106      5.31701374     13.15258789
Sn       11.95828819     19.39617920     14.09492970
Sn       25.62047005      4.75069714     14.44727802
Sn       25.61630249     18.57250595     14.07799244
Sn       10.95633984     -1.57687628     20.88557434
Sn       11.68818378     12.61450195     20.43273354
Sn       25.12805557     -1.32093275     20.61020660
Sn       25.00772667     11.98378849     20.87033463
Sn       12.71545219     12.54127502      6.72384739
Sn       12.35203743     25.98202133      7.52560091
Sn       25.80678749     12.23925209      7.36945963
Sn       25.86831284     25.90018654      7.16680098
Sn       12.25801754     12.34543705     13.78056717
Sn       11.98258114     25.82998848     14.45969963
Sn       25.40447235     11.45922089     13.75492382
Sn       25.81075287     25.38786507     14.19103718
Sn       12.10447788     -0.97117716      0.78189969
Sn       11.90707493     12.78100300      0.39422214
Sn       25.56411362     -1.20147824      0.14913401
Sn       25.83911324     12.49378109      0.59450370
Sn        4.65599251      5.99919605      7.32418823
Sn        5.07071114     19.75597572      7.16530561
Sn       18.44222832      5.27299690      7.12875128
Sn       18.62126350     18.96549225      7.37568283
Sn        5.73691463      5.15334845     20.82202148
Sn        5.28576183     19.22980690     20.59340858
Sn       18.97984505      5.15538168     20.98896790
Sn       19.07460022     18.41921997     21.00164413
Sn        5.17480612      5.06331825      0.47347173
Sn        5.54978275     18.85917854      0.10102882
Sn       19.07966423      4.88895798      0.44074222
Sn       18.95263290     18.64463997      0.42400169
Sn        5.83399105      5.78749275     13.84729004
Sn        5.10455656     19.55680084     13.91214657
Sn       19.01064682      5.98949528     13.82626438
Sn       19.00211525     19.62885475     14.08603668
S         3.63854122      3.67148471      1.73412144
S         3.99863052     17.46404076      1.61058319
S        17.40858269      4.04642057      1.88112807
S        17.59451485     17.10049820      1.85842657
S         6.56481504      7.12640476     15.53106785
S         6.66113186     20.98112488     15.40145493
S        20.05798912      7.38951206     15.28915405
S        20.39576721     20.83423233     15.64607906
S        14.04687691     11.45860672      8.34420204
S        13.80737019     24.30596924      8.73956776
S        27.43778419     10.65554810      8.44461727
S        27.20200920     24.41758728      8.50441265
S         9.77769470     -0.05087133     22.32261848
S        10.17822170     13.76595783     22.08482933
S        23.74351501      0.16481601     21.92445374
S        23.87174034     13.78430748     22.06668472
S         6.49617815      3.51047778     26.28842735
S         6.68014240     17.15242195     26.09003258
S        20.60367393      3.71204352     26.45113182
S        20.72028160     17.62271881     26.41483879
S         3.72647977      7.21242571     12.82966614
S         3.93925214     21.10640526     12.19938850
S        17.44767570      7.34930182     12.51740837
S        17.91596031     21.54505539     12.89107037
S        10.30089092     11.00313663     19.12538719
S         9.19840050     24.51036835     19.55351067
S        23.31623650     10.45473766     19.81849289
S        23.46945953     24.76368713     19.28795624
S        13.41874313      0.16993524      5.85838699
S        14.11878395     13.82293510      5.12764072
S        27.36293983     -0.53354198      5.57361650
S        27.24250221     13.71327972      6.17989779
S        10.51552200     10.68882656     14.64916134
S        10.32705784     24.58326149     15.61215305
S        24.20612144     10.11351967     15.32179070
S        24.75924110     23.91258812     15.81560421
S        13.36858940      0.31040031      2.31136036
S        13.66801929     14.04580688      1.59130883
S        27.26145744      0.53755474      1.24331987
S        27.23584175     13.80860996      1.95411277
S         7.31585646      3.65641117     22.48653221
S         6.68182611     17.70667648     21.88286591
S        19.97473526      3.62705660     22.64740181
S        20.64348984     17.17980766     22.40584755
S         3.40787101      6.93229771      8.96639729
S         3.12131786     21.23457146      8.37366867
S        16.73664856      6.88761950      8.09465504
S        17.50061417     20.60934448      8.78941917
S        13.90614605     10.85155582     12.53794289
S        13.36181164     24.70364571     13.11569881
S        26.86400223     10.35541439     12.28125286
S        27.03547859     23.75861168     12.91322517
S        10.58630943      0.36111537     26.59160805
S        10.81319618     14.08741474     26.09055710
S        24.34156418      0.48599964     26.06768417
S        24.10090828     13.65812683     26.46829987
S         3.71491814      4.27743578      5.85771132
S         3.69887018     18.20956612      5.87486696
S        17.37189484      3.74080086      5.40693426
S        17.26119804     17.95478249      5.92184639
S         6.95947218      6.74112844     19.50726128
S         6.79952526     20.76929855     19.63723564
S        20.48718452      6.55415964     19.59568214
S        20.40394783     20.01312637     19.73884583
S        13.68266773      6.91780424     25.69743156
S        13.76931572     20.86478424     26.47235680
S        27.26370049      7.46236944     26.38764954
S        26.59453773     20.54586411     26.03090286
S        10.36708450      3.70170069     11.93023300
S        10.80433559     17.53978539     12.60050106
S        24.15999985      3.31501937     12.97569180
S        24.54551125     16.75073814     13.07749462
S         2.98777962      0.13068934     19.83250046
S         3.37612939     13.70149040     19.06225395
S        16.74471664      0.12959330     19.89891624
S        17.02739143     13.55549049     19.30335808
S         6.94907093     11.29372120      5.52298975
S         7.11096621     24.87755966      5.95004940
S        20.69683075     10.64425659      5.88321018
S        20.56388474     24.45905113      5.88498974
S        10.85770607      7.08840561      1.46522379
S        10.70321846     20.84795189      1.61119139
S        24.10183907      7.10040379      2.03283191
S        24.39989662     20.73704910      1.69576800
S        13.34093761      4.11042356     14.53750992
S        13.03097630     17.95996666     15.73500252
S        27.01152611      3.40064836     15.82724762
S        27.08434486     17.17501068     15.67693233
S         6.71559191      0.74329567      8.53414631
S         6.97768068     14.21085072      8.46661186
S        20.49088287      0.18631509      8.44804478
S        20.51837158     13.51152420      8.72048569
S         3.27097750     10.92149544     21.94018173
S         3.01455808     24.28093719     22.67165375
S        17.22778320     10.54654408     22.27377510
S        16.94618607     24.41467285     22.59145164
S         6.52707767      0.32776716     12.40551949
S         6.50844812     14.37956238     12.39268208
S        19.93363762      0.38052344     12.75671577
S        20.09751511     13.90293407     12.32281017
S         3.82370377     10.81731319     26.16474152
S         3.74556851     24.14703560     26.47831154
S        17.51603699     10.46873760     26.21488190
S        17.54944038     24.65738297     26.37489128
S        10.59639263      6.79322100      4.82900190
S        10.47272205     20.30508041      5.72845650
S        23.71204567      6.84400654      5.82405186
S        24.03618431     20.24994850      5.83216429
S        13.71361542      3.78085399     18.90703392
S        13.61279964     18.22264290     19.13812065
S        27.11543083      3.69991589     19.78914261
S        27.12714195     17.21048355     19.54745674
S         3.83007741      0.56984770     15.58648586
S         3.70724964     14.42199421     14.81353474
S        17.26257706     -0.04644306     15.35970592
S        17.49826050     14.23906708     15.27543449
S         6.70204258     10.92764282      1.61141622
S         6.79493427     24.31032372      1.89030635
S        20.35061073     10.35123634      1.90779006
S        20.54769707     24.24704170      1.84774423
S        13.38953876      6.91809416     21.53493881
S        13.56471348     20.55057144     22.41138649
S        27.37855148      6.31484985     22.50237274
S        27.34361267     20.34941101     22.04903030
S         9.87276268      4.17027712      7.76886034
S        10.15053654     17.86397934      8.22447300
S        23.72805786      3.87494493      8.73523712
S        23.90892410     17.41576958      8.59865761
S         3.77726936     -0.24046080      1.87037015
S         3.76349139     13.69051361      1.70094407
S        17.87030220     -0.16035302      1.93111324
S        17.70249748     13.13755989      1.87245297
S         6.44187307     11.47765446     15.26614952
S         5.83771420     24.99989891     15.61954308
S        20.08472252     11.21497631     14.98566723
S        20.11858749     24.80547905     15.49071312
S         4.37315178     11.34081268      8.37848949
S         4.02834511     24.71919060      8.55221653
S        17.82210541     10.74587250      8.69148159
S        18.29953194     24.48969078      8.75783253
S         5.80755329     -0.04156550     22.21628189
S         6.45213985     13.26769352     22.07507515
S        19.69629288      0.14118606     22.42174149
S        19.84185791     13.51282406     22.30242920
S         6.55407619     -0.08685832     26.06120872
S         6.86666203     13.48613930     25.91105270
S        20.05140305      0.36631638     26.11144447
S        20.32904625     13.29666710     26.42535019
S         3.88061261     11.23800945     12.59638119
S         3.35438514     25.09538269     12.82281685
S        17.05144501     11.52186775     12.41644955
S        17.08723068     24.78686523     12.55236721
S         6.33703041     10.40059948     19.52663422
S         5.48182631     24.43861198     19.52306938
S        19.87333488     10.76740646     19.49082375
S        19.57371712     24.44929314     19.59809303
S         3.99016881     -0.66992313      5.57657671
S         4.42155886     14.01291084      5.33788967
S        17.40898705     -0.26882583      5.91461992
S        18.13513756     13.40946674      5.95140934
S        10.68651485      6.39410973     14.78649235
S        10.21192169     20.70101166     15.58496094
S        24.36227036      6.69573784     15.72671604
S        24.08120346     19.62376595     15.56614780
S        13.31487560      4.12063217      1.27480233
S        13.17985344     17.60459328      1.78667879
S        27.27990532      4.32853079      1.43184793
S        27.09572220     17.69621658      1.95278943
S        10.83815289      4.05641174     21.95227814
S        10.95554924     17.77270699     22.35458374
S        24.08099747      3.79238629     22.56482697
S        24.62213326     17.33571243     22.24804878
S        12.77339935      6.89674854      8.20616722
S        12.86162376     20.46561050      8.40157223
S        26.39736938      6.87472010      8.60663223
S        26.77947998     20.15456581      8.43430901
S        13.35707569      6.65397882     12.01776600
S        13.04509544     21.09543419     12.61471176
S        27.03916931      6.08161402     12.94516277
S        27.07943153     19.82396889     12.55059242
S        10.58855438      4.35979605     25.60480118
S        10.83713818     18.10502625     26.28090286
S        24.32640266      4.57816172     26.22619057
S        24.51497841     17.70590401     26.19004631
S        12.90762138      3.75513101      5.38713646
S        13.20190907     17.29573059      6.02690840
S        26.42164421      4.29762888      5.85327625
S        27.02931976     17.72251892      5.72866392
S        10.80931664      6.77363205     18.64339256
S        10.70121288     20.88876152     19.93419075
S        24.45195007      6.65828276     19.76908684
S        24.12321281     19.98701668     19.35377884
S        13.18866444     11.35886860     26.20665741
S        13.57032776     24.98101234     26.56759834
S        27.28995323     10.87259579     26.77110291
S        26.86878777     24.75953102     25.85174942
S        10.62507153     -0.57743108     12.80769920
S        10.63703918     13.69305325     12.46349430
S        24.28965950     -0.13975644     12.94017506
S        24.19214630     13.05467606     12.64752865
S        12.46328545      0.10681929     19.58012772
S        13.10427380     13.90510941     19.11978149
S        26.49624062      0.18308450     19.15404892
S        26.31345940     13.55480099     19.31053925
S        11.37612820     10.95961094      5.90495872
S        11.01516819     24.62646103      6.16399527
S        24.07320023     11.05150127      6.09472942
S        24.48303986     24.51668549      5.65577364
S        10.75870419     11.19503403      1.82630932
S        11.00892639     24.68446922      2.19574690
S        24.25095177     11.55572033      2.11089897
S        24.25213432     24.90109825      1.82666767
S        13.41603374      0.18027410     15.93842411
S        13.54116917     13.80953312     15.39075851
S        27.56334686     -0.46126211     15.30748940
S        26.69786453     13.03063107     15.24048138
S        10.87063026     -0.01680521      9.05623627
S        11.48278141     14.00446129      8.16942501
S        24.27978897     -0.30808967      8.82932377
S        24.49852371     13.38582611      9.09525204
S        12.95209694     10.87031269     21.68501854
S        12.43627930     24.39288902     22.32782173
S        26.41194916     10.87156963     22.57002831
S        26.14412880     24.21401978     21.92131042
S         7.22196484      4.10136366     12.73256969
S         6.51772404     18.34629822     12.54616070
S        20.28211212      4.31847954     12.70315361
S        20.17803192     18.00968552     12.60360909
S         3.59964132      6.30079842     25.99833488
S         4.15224075     20.32196236     26.37370872
S        17.97671509      6.22299719     26.09046936
S        17.62080193     20.21721077     26.31430626
S         5.84093714      7.75220394      5.95994663
S         6.58493185     20.76471138      5.65794992
S        19.93828583      6.95989370      5.70678711
S        20.01350212     20.48493767      6.22085238
S         4.59325743      3.69728589     19.42433929
S         4.04866886     17.51124573     19.39061546
S        17.52087402      3.97505403     19.21534538
S        17.41351700     17.55299568     19.57635689
S         4.18090916      4.54197168     15.20773029
S         3.51363206     18.56755447     15.24852943
S        17.34424019      4.78653765     15.43561649
S        17.35944557     18.31112480     15.44635773
S         6.98219299      6.32930851      2.07367492
S         6.68789577     20.11520576      1.88972020
S        20.27435303      6.19250345      2.09698677
S        20.31911659     20.29001427      1.70039630
S         4.19974375      6.70803976     22.24680138
S         3.98548388     20.74631119     22.12970924
S        17.34712219      6.75854588     21.95347023
S        17.75392723     20.31936073     22.15699768
S         6.11890841      4.47761679      8.38716125
S         6.40050840     18.45341301      8.56510830
S        19.91269684      4.00705242      8.51256180
S        19.75743103     17.39721680      8.69575787
S         3.07372451      0.88874471      9.24505615
P         1.73770738      2.07725120     10.34479904
S         0.33411470      2.94823790      9.13811874
S         0.61937475      0.70500624     11.60632133
S         2.95329428      3.02982545     11.64578056
S         3.50875449     14.72093201      9.43554020
P         2.08654261     15.78484058     10.27722931
S         0.74891293     16.88700867      9.21761990
S         1.10627711     14.49598694     11.58572006
S         3.30611897     16.76372719     11.48198700
P        15.15511036      1.99604654     10.86143208
S        16.45910454      0.96055806      9.68764496
S        13.90412235      2.95843172      9.64820480
S        14.08374023      0.74431098     12.29021645
S        16.33206940      3.08562803     12.28433704
S        16.77077675     14.74236774      9.50811195
P        15.43152237     16.03209496     10.75626755
S        14.07393837     16.97385979      9.73508167
S        14.18302345     14.69864845     11.91648388
S        16.51494598     17.26696396     11.99539852
S         9.84585381      7.41568613     22.89667702
P         8.59401417      8.65919399     24.09904289
S         7.33577156      9.94291973     22.87469864
S         7.75212002      7.12268019     25.19970703
S         9.83964539      9.74055767     25.23536301
S         9.79891014     21.06661797     23.19762611
S         7.21572351     23.37593842     23.48482323
P         8.59136391     22.16382599     24.56944084
S         7.43778563     20.88220024     25.68425941
S         9.71942520     23.40832901     25.76016426
S        23.65999031      7.80033493     23.17296791
P        22.36838531      8.78433323     24.35564995
S        21.09653282      9.99690628     23.31208801
S        21.28039169      7.43098545     25.62221909
S        23.62737846      9.93782425     25.55178070
S        23.05418968     21.28563690     23.12757683
P        21.81512260     22.39330482     24.28686333
S        20.47628975     23.60150719     23.17746353
S        20.82782555     21.00419044     25.50192451
S        22.99934006     23.42134666     25.48646355
S        27.34066200     10.06333923     18.77916718
S        30.15262032      7.62133312     18.63953400
S        30.14210510     10.01310825     16.68401337
P        28.69170952      9.00864029     17.62397957
S        27.27696228      7.84220505     16.41160393
S        27.62320328     23.14681625     19.14129829
S        29.79297447     20.71765709     18.76721954
S        29.97599030     23.09624481     16.64107704
P        28.72566223     22.08708382     17.83843040
S        27.73031616     20.85791588     16.50261688
S        14.18968391     10.24685287     18.71340942
S        16.60985947      7.67579126     18.57428169
P        15.34500694      8.90810680     17.49527168
S        16.51288605     10.14932919     16.25729561
S        14.20421600      7.99345016     15.98171997
S        13.91231155     24.02477837     19.14703369
S        16.16616440     21.62547493     18.88902473
S        16.39273262     24.12845421     16.51301575
P        14.97664165     22.91448593     17.79790115
S        13.91611099     21.79056358     16.40890884
S         7.30324984      3.17408657      4.60362196
S         9.88841248      1.04732406      4.83726454
S         9.78041649      3.29602599      2.58905673
P         8.52307606      2.09942150      3.55342555
S         7.60000134      0.63629466      2.47298288
S         7.40222120     16.47300529      5.05374336
S        10.21143150     14.66068363      5.15205097
S        10.23249340     16.54816818      2.55008340
S         7.93198442     14.36111450      2.59835982
P         8.93759823     15.56517315      3.91497946
S        21.11276627      3.01216197      4.90896034
S        23.58573532      0.94753283      5.05807781
S        23.68631554      3.23893523      2.44284749
P        22.44302940      2.01235604      3.65908003
S        21.51730919      0.58099926      2.54619241
S        20.88952446     16.83231544      5.01265574
S        23.48383141     14.88418293      4.97262335
S        23.61870384     16.90793610      2.58957028
P        22.27170372     15.98235798      3.74155951
S        21.35063362     14.37357044      2.56146598
S         7.18764496      0.86712402     18.95147133
P         8.24233150      1.95601308     17.58562851
S         9.61008644      3.26931787     18.70684433
S         9.52253819      1.00728309     16.35346985
S         7.21321583      3.27906227     16.43006134
S         7.58730364     14.75268650     18.69122314
P         8.61188126     15.77333832     17.31711388
S         9.80397797     17.15563202     18.59428215
S         9.82012653     14.62578583     15.89732933
S         7.57051897     17.06364822     16.18469620
P        21.64932442      1.81737947     17.61131287
S        20.51846504      0.72111726     18.81433868
S        23.06656075      3.16686630     18.64818573
S        22.97544098      0.78134167     16.38813591
S        20.44695091      3.19095302     16.45001221
S        20.92941284     14.35766411     18.35250282
P        22.12687111     15.57396030     17.25907707
S        23.34447479     16.81864738     18.36835289
S        23.26503181     14.21387005     15.99207878
S        20.79393196     16.73136711     16.17658806
S        27.57193375      7.51595402      5.26063299
P        28.89059067      8.50519466      3.97027874
S        30.31999207      9.78969479      4.84270525
S        30.03313065      7.51132536      2.55689001
S        28.06388664      9.88088131      2.73804498
S        27.62808037     21.18676567      4.93009901
S        30.29910660     23.37474251      4.77992439
P        29.05724335     22.23004913      3.70817709
S        29.85251808     21.09482574      2.29989028
S        27.88588142     23.43762970      2.36874008
S        14.06091309      7.69212627      5.12421846
P        14.97778988      8.75688553      3.81680202
S        16.40510750      9.78247356      4.95544529
S        16.11458778      7.49456501      2.51244855
S        14.09933090     10.09535217      2.47583914
S        17.16364861     23.24927139      4.98006105
S        14.63335419     21.29007530      5.03425646
P        15.91573143     22.43112564      3.76510310
S        16.89447403     20.93950462      2.70983028
S        14.55238724     23.59755898      2.70014524
P         8.66870213      9.08474922     10.44154644
S         9.78572655     10.22126293      9.20742035
S         7.28444004      7.88669443      9.52017403
S         7.69590282     10.35354137     11.63721657
S         9.62139893      7.72915649     11.51735592
P         8.42897129     23.13728142     10.88280296
S         9.63059616     24.16592979      9.42373466
S         6.94933701     22.10261917      9.68325233
S         7.42108870     24.31904984     12.05199718
S         9.61815357     21.87776947     12.00866032
S        23.36561966      9.60441494      9.09153748
S        21.06522751      7.32606125      9.38062954
S        21.37182808      9.87699509     11.81884384
P        22.22146225      8.53173923     10.60409737
S        23.27898216      7.13764381     11.61570454
S        23.64163399     23.36023712      9.31579971
P        22.29812431     22.23610115     10.47306061
S        20.85317993     21.15409660      9.49471188
S        21.36780167     23.57977104     11.77127743
S        23.50856590     21.11742592     11.57757759
S        16.17767334      2.94275665     22.94682693
S        13.68244076      1.11687791     22.94722557
S        13.99585342      3.24604201     25.39834595
P        15.00236034      2.01618171     24.25551796
S        16.15732193      1.02639008     25.50649834
S        16.55944633     16.75012779     22.92379379
S        14.07101917     14.36574364     22.99812889
S        14.44103432     16.96966553     25.16199684
P        15.47599792     15.63357353     24.02791214
S        16.36324883     14.36532974     25.22739601
S         3.29912639      3.28650665     22.97272873
S         0.79979473      1.19091916     23.30016899
S         0.92248267      3.50093865     25.44598198
S         3.06032300      0.98530263     25.48865509
P         2.01334023      2.47540379     24.35089684
S         3.19209456     16.76001930     23.06036758
S         0.63800800     14.55379963     23.25687218
S         0.89715683     16.96938896     25.46008682
S         3.09657621     14.31686592     25.65428734
P         2.03791881     15.49454594     24.42869759
