832

Na       44.88301468     64.34203339     12.08680344
Na      140.53907776     44.38973999    128.09492493
Na      154.09317017     20.81378174    -63.22076416
Na       99.93007660   -188.02932739    -82.50402069
Na       21.00402641    105.76925659     19.22015953
Na       37.80681610   -185.38249207   -161.65219116
Na       92.45491791     23.98437119   -102.86847687
Na       24.51590919    241.41522217     59.79107666
Na       65.90546417   -109.58596039   -127.17633820
Na     -129.14114380    224.73858643     36.13039017
Na       83.12228394   -174.75028992    -39.08438873
Na      116.21311188     -3.37020564    182.74760437
Na     -111.26866150     54.69153214     32.70298386
Na       34.31821823    -31.10403252   -103.28003693
Na       10.63284874     44.36823273   -109.71115112
Na        4.14213705     26.49204826     60.09811783
Na      -56.82808304   -254.58184814   -117.33103180
Na      133.14279175    140.16172791     32.53138351
Na       10.25820732    152.72262573    -49.08228302
Na      -95.00637054    -16.81397247     45.14631271
Na     -159.57234192     -0.38235834    209.66047668
Na      -70.55488586    -19.81230736     -5.26997805
Na       17.49995422    204.87480164     80.36084747
Na       24.58041763     47.38821030     97.01570129
Na      208.04887390     79.38368988   -144.77468872
Na      149.87017822     78.81407928     32.76471710
Na       44.58287430     92.54131317    -62.45902634
Na      -57.31605148     20.74329376     66.51809692
Na      211.93756104    -91.22230530     63.83768845
Na     -149.04777527    153.02037048     80.46849060
Na       35.37705612     81.49414062    -11.61765289
Na      -88.26316833    165.32714844    -52.62485886
Na       86.14888000      1.19945478    -55.15686417
Na      -16.01324463     35.19517136     52.57787323
Na      -63.98143768    -20.48210144    -39.04829788
Na       61.38624573     74.77020264   -133.96495056
Na      109.30975342     11.40825367    246.60975647
Na      -91.52719879    -81.08470917     66.54988098
Na      -16.49513054   -122.26699829    110.80818939
Na      252.14610291     71.27023315     32.44156647
Na       21.42242813      7.39699316     97.31948853
Na       -9.68727398     87.79131317   -109.56401062
Na      -46.53393936     43.47243500     39.53699493
Na       31.03681946     68.45935059   -107.27567291
Na      126.60816956     -3.16327286    -14.92203808
Na      -64.31219482     14.43223858    185.65228271
Na      163.95678711    -78.03815460    -21.65491676
Na     -268.41784668     78.54725647   -117.44467926
Na       74.95176697   -220.62660217    -52.73969650
Na      -49.76523590    -35.51735687    -17.92173004
Na     -136.64439392     55.14037323     90.75853729
Na       65.12503815    -54.16712952    -59.14187622
Na       17.95433807   -118.78744507    -48.63964462
Na      126.44436646    164.03286743    144.81567383
Na      -47.63118362    123.52311707    -52.15439606
Na      132.95594788     96.58235931    114.95035553
Na     -128.19380188     28.01281548    199.25181580
Na       52.85470581   -143.43492126    158.94033813
Na     -131.52148438    146.30874634    216.39944458
Na      -36.76413345    136.34942627    169.08996582
Na      110.00301361   -119.18595886    182.68289185
Na      174.53939819   -190.43916321    -28.61675644
Na     -124.98198700   -105.10414886    -56.23835373
Na       86.16967773     27.44415283    -11.56356812
Na     -166.36621094    -20.30643654    -97.05178070
Na       14.27311802     81.83560944    274.14852905
Na       28.06183243     78.93170166    -14.50847340
Na       21.59426308    -51.28639984    -66.25538635
Na       42.01691818    -13.67075634     83.17063904
Na      -22.85706902    108.54983521    111.44972992
Na      -66.82041168     44.91667557     62.93885422
Na      102.79103851     64.66940308    117.05864716
Na      -73.11433411   -115.59156799    124.67404175
Na      -16.53375244    272.80618286     -7.90948963
Na       48.82845306      7.36451101    103.86428070
Na       95.56269073    -44.46227646     80.16359711
Na     -172.93222046   -135.52342224    -63.05076981
Na      -19.44272041     51.09798050    152.03948975
Na      265.96286011    -70.85772705     -8.14720058
Na      -26.76155090    -16.40871429    103.74238586
Na       21.06601715    -20.77871132     29.14710617
Na       18.20875359    252.32751465     -4.73298264
Na      -87.97071075   -295.73248291    185.59617615
Na      116.96758270     54.22217178    111.56954193
Na      -36.87711334    162.21397400    161.88668823
Na     -104.93228912    -22.56172752     66.32814026
Na      207.99070740    -33.49969864     32.60193253
Na      -16.52805710     55.09386063    -15.87060738
Na       45.23628998    119.19922638     26.06551743
Na     -166.36920166    102.47205353    108.27869415
Na       55.79994965    220.46263123    -55.93015289
Na     -176.49504089    -34.09283066      8.79021645
Na       95.57923889     30.86111259      3.14320016
Na      -95.03535461    157.06689453    165.32054138
Na      -43.86069870     -4.07047844   -137.24662781
Na      157.92964172   -139.86656189    240.08013916
Na        0.84959900    289.19924927     -0.98744178
Na      -16.09202194    -14.37600040    -49.74811172
Na       17.50812149    -37.71398163   -116.59577179
Na      -59.86624908    -95.34976196    -72.90458679
Na      115.98216248    122.52407837   -141.14535522
Na        8.05040359    142.80636597    103.93418884
Na      170.53594971   -101.87628937    -52.89098358
Na     -257.86416626    -91.97814941   -212.57908630
Na       79.41699219    -71.01953125     80.34131622
Na      170.25468445    180.61160278    -27.13738060
Na       42.55510712   -275.54718018    124.75997162
Na       34.81687927    -44.42844391    -49.45597076
Na       21.45680618     44.40982437     70.19308472
Na       38.28446198     82.28663635   -161.40621948
Na      140.41336060      9.94658661     66.93608093
Na       47.97387314   -187.55760193      5.47189569
Na       88.41117859     48.59830856     22.65239143
Na      269.95043945     68.65940857   -147.91653442
Na      -50.55918884    204.25346375     42.36267090
Na      -16.39934349    105.98076630     19.17877197
Na      -29.31606293   -115.51251221     46.10659027
Na      129.39361572      9.99585629    -52.12257385
Na      116.45102692    -85.28067780      9.17106724
Na      -66.66529083      7.38812304   -113.90023804
Na      167.62699890     68.14443970    -62.53975677
Na      221.86325073   -135.43251038   -140.74252319
Na       -3.18269968    112.75274658    -63.23342133
Na      -29.94664383    187.67071533     -7.67116594
Na      248.31623840     47.73450851    -75.76322937
Na       88.52962494   -126.12727356     73.72612762
Na       24.09994698     -0.52915144      9.23503780
Na      -34.63570023    122.71399689   -106.92618561
Na       -2.30645299    115.60542297    -62.66352081
Na      -63.95475388   -109.00632477    192.94340515
Na        0.95832419    -13.64639187     36.28467941
Na      -33.92463684     -6.29160690   -161.13819885
Na      166.06134033     47.49007416     22.69685364
Na     -115.17348480    139.25456238    117.57524109
Na      140.95945740    -33.42379761    -89.58856201
Na      -26.04732132     51.11972809     32.81101990
Na       72.06791687    115.48622894     12.34369755
Na       41.96100616    -27.04887581    158.37396240
Na      133.87628174    -54.67443466    -83.69624329
Na      -33.61122513    -43.67668152     -4.94868183
Na       85.32243347     17.01213455     12.69378281
Na     -121.99729919     51.12308884      1.62655377
Na      -40.17598343    -77.68950653     74.30932617
Na      -40.94547653    -46.79825592    -25.12591934
Na       45.53081512     41.17557526    -99.75056458
Na      143.32302856     45.49783325     35.53955460
Na     -162.48260498    272.73123169   -297.44079590
Na       27.26846313    139.42948914     56.10849380
Na      -12.51920509    119.31524658    -52.70185471
Na       20.92225075     54.34140396     70.16696930
Na      -70.20145416    -34.19406509     -8.10958481
Na      334.63482666   -126.00594330   -114.21878052
Na      -60.22774887   -206.88047791     -1.03009748
Na       67.91031647    -91.42229462   -178.61045837
Na       77.24564362    -54.34122467    -32.25737381
Na      123.31021881    -64.34882355   -113.46120453
Na      -53.54624557      4.61359930     15.54097462
Na      102.42473602    -43.77251816     43.22982407
Na      170.15008545    -57.18265915    107.53036499
Na       48.63474655    -23.98146439     39.36660385
Na       47.98110580   -194.17442322   -103.71681976
Na     -101.67749023      3.89149714   -140.69113159
Na       38.13568497    122.73585510    185.84332275
Na      -70.79150391     58.12411499      5.39893913
Na      188.37081909     98.67097473     53.23554230
Na     -135.37670898      0.18026520    124.59774017
Na       47.70549011    -68.24213409     69.72012329
Na      253.38800049    133.04786682   -195.12347412
Na       65.29443359   -251.38302612     49.83058167
Na     -149.01918030    -84.86756897    -89.97801971
Na      -84.48333740   -125.99327087    -69.52585602
Na       34.45020676   -159.85815430     63.75271225
Na      -33.17642212   -112.01930237    -68.35546875
Na       78.47073364   -197.70591736     87.49335480
Na        6.95191813   -184.08987427     42.50507355
Na      102.63976288    -91.35533905     29.53659821
Na      -84.89777374     61.16233826     86.95835114
Na        8.12808609    159.70791626     93.75631714
Na     -101.54090118     40.73495483     90.53054810
Na      -12.79112434    194.17584229   -283.99600220
Na       95.05665588    -10.52500439      1.65586090
Na       58.29706955   -128.55796814    192.57463074
Na      146.40249634    183.45372009     90.28156281
Na       -3.01054382     40.69417953     -8.44161129
Na       11.12385273   -102.66026306     15.45997238
Na       82.39892578     38.08544922   -146.89144897
Na       33.65829468     11.18693066    137.42631531
Na       17.58416748    252.47268677      8.37914753
Na     -148.91517639     58.05540085     81.75753784
Na      217.75085449    115.62422180    -79.92946625
Na       45.52865601     74.48384857     39.87908173
Na      119.83457947    -13.34354496    -42.66497421
Na     -107.97347260     26.06751823     22.91984558
Na      208.86343384   -108.00589752    267.16232300
Na      -91.61956024   -132.23240662    -21.48666954
Na      102.66771698    153.87689209     -1.43262458
Na      249.64736938     34.20991898     49.58626556
Na      -33.02787399   -200.59167480   -130.52156067
Na       89.20141602   -125.73021698    172.10685730
Na     -104.52516937    -33.80395889    -93.36136627
Na      187.75915527     24.61638641     12.18788815
Na        3.92967510    275.15130615    223.80235291
Na      164.76029968     57.39709854    155.25775146
Na       -0.32098427     99.12822723    114.12458038
Na      -24.07929611    153.32609558    141.62907410
Na      -57.54962921    224.94110107    -52.57492065
Na     -122.28465271    -70.94480896     -5.23647261
Na       48.07876587     -3.68122339    -44.82477188
Na     -254.23957825     97.88263702    148.24571228
Na       14.00999260    -23.18315125    120.87061310
Na      136.39407349    102.04215240    219.70089722
Na     -138.40692139    -17.49107552    -89.62377167
Na      119.52626801    225.85923767     32.30457687
Na       55.11635971     23.94446564      1.37016881
Na       27.33272743   -112.93276215     -4.72869253
Na       75.30944061     80.50098419      8.39928055
Na      -23.10775948     81.16828918     93.56934357
Na      119.47555542    118.74391174    -69.47229004
Na     -110.44265747     60.60011673     22.36335182
Na      -26.44339180    167.52949524     36.25326538
Na      230.50234985   -326.82373047   -174.72532654
Na     -207.12664795     74.68001556     53.38734818
Na       98.79103088     37.34149170    -76.80908966
Na      -97.46678925    -20.34426117   -199.39550781
Na      -23.95998001    -30.46085548    107.34671783
Na     -100.16321564     84.71971893    -11.52648163
Na      -32.24377060     47.89041519     76.56077576
Na       61.83220673    -78.51284790    -69.64727783
Na       34.38137436    139.74578857   -130.69975281
Na      146.89732361      3.73316264     93.81060791
Na      -33.50184631    -20.96200752    118.07132721
Na     -145.93008423   -122.74362946     96.88674927
Na     -207.62355042    -12.57839394    -34.58715439
Na     -101.72491455     99.45094299    -31.69008255
Na      129.67929077    -36.83974457    158.92350769
Na      -26.93171883     10.19830513     32.72615814
Na       78.13414764    102.56120300    111.43450928
Na       -7.15570593      9.63444996    -21.67293549
Na      -71.97144318   -132.21855164     18.85318756
Na       17.36416435     74.64402771    118.24203491
Na     -220.46363831    -67.99394989   -195.46492004
Na      -27.16460419    170.89414978    151.59339905
Na      -14.33753490    -17.24695396    -21.86526108
Na      -57.47568130    -81.17669678     70.45654297
Na      -74.30261230    173.21618652    202.00198364
Na     -461.74972534    101.79310608    124.73499298
Na        3.57603812    -44.38299561      5.21699286
Na      126.28457642    -33.27888489    -25.51309967
Na      -16.34230232     27.30961609     32.80028915
Na     -156.01361084    262.20440674    -63.00609207
Na      -23.67195511     40.74367142    148.09300232
Na      -70.84373474   -221.38659668    -69.50820923
Na       85.60823059     34.44515610    178.32609558
Na      -29.91627121      0.64899737     55.85675430
Na      -54.50497818   -173.13973999     38.89100266
Na     -149.38011169     88.52973175    172.09556580
Na      195.04479980   -170.09210205     39.95341110
Na      177.63220215     99.32856750     19.35133171
Na      136.27514648     95.48854828   -141.11566162
Na      269.82760620    105.49057770    -55.58112717
Na      -43.87432861      7.04917336     90.60113525
Na       58.18604660     67.76576233    117.30727386
Na     -155.69372559    -97.84244537   -191.96182251
Na       35.29373550    -37.81118393     69.99287415
Na       69.10443115    194.22612000    -18.65431023
Na       58.12560272   -122.58102417    -76.90447998
Na      112.91597748     20.72816277    216.23719788
Na      -77.77061462    141.69230652     26.08960915
Na       24.59204483   -149.17687988    120.75025177
Na     -131.62440491    132.81524658   -150.39299011
Na      -21.21344185   -132.73475647    -35.88272858
Na       18.02218819   -129.34242249     19.11593437
Na      -40.49024200    -30.37425995     76.59536743
Na      -33.97873306    177.50720215   -168.20666504
Na      -43.11134338   -149.24952698     15.29823780
Na      -47.57868195      4.27871227     80.49349976
Na       99.20371246    105.95608521    168.78727722
Na      -32.85520172   -173.53517151    -62.29813385
Na      204.63865662    -46.84880829    -93.31011963
Na      218.53636169    161.04907227    -18.11776352
Na      -54.01819992   -101.75218201    145.01834106
Na      -37.27914810   -170.08174133     49.66285324
Na       -2.63227081     47.97074509     36.24766541
Na      125.67461395    224.69281006    111.56977081
Na     -111.35579681    111.97393799    148.82351685
Na       65.30487823     19.76862335     39.55292511
Na      -77.18340302   -102.67157745   -144.17402649
Na      219.11152649    220.80778503     40.65223312
Na      -81.37214661    -58.13909912   -144.30581665
Na       89.29698944     84.83644104      2.25640225
Na      -53.73945618   -139.54486084    -65.76877594
Na     -227.29687500    167.19186401   -151.69677734
Na       95.75177002    282.02996826     35.94666672
Na       21.26394463   -146.78616333    121.12474060
Na       68.83377838    -15.48959637     15.15048599
Na      156.53483582    -30.75325012    161.09536743
Na        4.15825748    149.59674072     25.19483376
Na     -115.82961273     75.16792297     90.39767456
Na       14.22940159    160.52938843    -15.00899124
Na       54.78448105    201.28208923    145.33041382
Na     -132.41151428   -114.87739563   -270.83770752
Na      262.17388916    -27.26407242    -66.63532257
Na       45.21787262     58.38608932    -89.89964294
Na      -64.22579956    -87.40962982   -165.13583374
Na       78.73458862     34.48005295     79.21000671
Na      -94.52639008     37.66719818    120.74413300
Na      -61.17754364    119.10234833    -15.14353943
Na       34.75230789    163.79658508     77.16298676
Na      -98.01833344     40.20328522    117.33574677
Na      -23.43983459    -53.86325836     36.16915512
Na     -105.57647705     60.96963501    -49.76108932
Na       39.23469925    102.26260376   -202.04489136
Na       28.58231544    -37.17103958   -141.10641479
Na      -40.58912277   -118.85418701    -11.58222485
Na       51.90209579    -54.70962524    155.02041626
Na      256.03472900    201.05052185    128.15563965
Na      252.22093201     95.03775787    151.77763367
Na      -33.23741913     23.05084038    -38.58348083
Na       30.86861229     16.83082581    162.00787354
Na       64.79475403     75.08639526     29.95972633
Na      -43.33730698    149.02354431     25.99387932
Na      166.82331848   -183.56576538      8.58090496
Na      -33.36271667   -186.78559875     -1.38622475
Na       24.10042000    225.15242004    117.64192200
Na      -60.85665131    292.46997070    -38.77159500
Na      110.12133026    -17.10110855     80.37648010
Na      119.63906860   -146.36573792     -8.06854439
Na       27.96078873    -70.69419861     12.23821163
Na      160.77066040   -149.44197083     -1.96363449
Na       -2.65859890    -78.00868225     53.07632065
Na      164.55264282   -105.19081879    103.77811432
Na       99.25437164     44.84082794    -28.87198639
Na     -135.75466919     75.68936920      9.32413387
Na      163.00904846   -118.78331757     29.34039497
Na       14.48514652     79.03989410    118.27596283
Na      -17.12584877     74.98209381    141.48271179
Na       14.02182961     41.16194534     76.79313660
Na     -202.56384277    -30.97468758   -110.83192444
Na      139.06474304     91.80071259    -35.14056015
Na      116.22166443     92.08290863   -120.58616638
Na     -210.39070129   -112.84725189    -79.44497681
Na      215.01826477     40.93223190     83.32118225
Na       44.89532852     -6.42568493    151.62564087
Na       86.10554504    -66.51280975    -86.58524323
Na      153.24871826    -40.89659882    154.76336670
Na       28.06139755     16.92713356     35.95217896
Na      105.95549011     34.00287247    151.91369629
Na       78.77274323    -98.64671326    114.06396484
Na       72.97480774    -68.12686157     87.29602814
Na      -13.19327831     -6.87970924     76.76751709
Na      232.89842224   -160.50859070   -112.86670685
Na       41.66582108   -122.62411499    -18.58337975
Sn        0.28129986     13.60242176      5.44283724
Sn        0.91663867     27.42184067      5.56579351
Sn       14.92012501     13.70640278      5.03164911
Sn       14.21138763     27.73861504      5.43762684
Sn        0.58847862      0.06798362     19.47335243
Sn        0.64752865     13.71759033     18.83561134
Sn       14.16583347      0.47567037     18.89935875
Sn       13.67764473     13.90396023     18.90305519
Sn        0.63708574      0.49121618     12.27710533
Sn        0.49127808     14.04910183     12.04301548
Sn       13.91970539      0.62710923     12.10392189
Sn       14.44572926     13.90185928     11.98888397
Sn        0.64968717     13.66171551     -1.42683041
Sn        0.99055070     26.73556328     -1.48467898
Sn       14.11316872     13.25289726     -1.77443600
Sn       14.40244675     27.09133148     -1.44715500
Sn        7.87934637      7.02980947     18.57697105
Sn        7.85308838     20.44590187     19.24683952
Sn       21.63161278      7.12796021     19.02617073
Sn       21.53096008     20.96803474     19.09604263
Sn        6.91140509      6.81903076      5.09572411
Sn        6.87798834     20.33553314      5.20046043
Sn       20.58667755      6.50959587      5.56208229
Sn       20.37697601     20.60290718      5.34766054
Sn        7.49830198      7.44453287     25.79969215
Sn        7.04694271     20.71127510     25.89755630
Sn       21.33516312      7.36609411     25.46583748
Sn       20.97623444     21.02546692     25.86948395
Sn        7.65285492      6.29429960     11.99738121
Sn        7.70082235     20.00934029     12.54846191
Sn       21.35193062      6.84457922     12.72936249
Sn       21.30220795     20.54846382     12.36831760
Sn        7.46182108     -0.15913108     19.02511787
Sn        7.55056477     13.32685184     18.67638397
Sn       21.29333115      0.49198157     19.28750229
Sn       20.39570618     14.02846050     18.75555801
Sn        7.35747433     13.33681011      5.57271385
Sn        7.45810747     27.22757721      5.77510309
Sn       21.35155678     13.51330853      5.21352959
Sn       21.31456947     26.93616486      5.28344393
Sn        7.65750360     13.16182518     12.11956501
Sn        7.50547838     26.82722664     12.48354912
Sn       21.19989777     13.39066982     12.21859455
Sn       20.81277466     27.02590942     12.29231167
Sn        7.62300682      0.66320026     -1.02549171
Sn        7.59526873     14.45516682     -1.39796269
Sn       21.57818604      0.31851512     -1.57803655
Sn       21.19262123     14.11260033     -1.55510795
Sn        0.33939150      6.87288761      5.15107203
Sn        0.13337053     20.65587997      5.38630962
Sn       14.06467915      6.97023058      5.54631090
Sn       13.56026936     20.60922623      5.34438467
Sn        0.73742235      6.85693598     18.95576859
Sn        1.14138031     20.35648918     19.16253471
Sn       14.94584084      7.20627642     18.93112183
Sn       14.87415695     21.00527191     18.53916740
Sn        0.71585506      6.75937319     -1.72141814
Sn        0.30588153     20.55407143     -1.29153168
Sn       14.37788868      6.33799744     -1.31975543
Sn       14.28145695     20.14660263     -1.35454309
Sn        0.84650952      7.42810392     12.10893631
Sn        0.74842954     20.78757286     12.40925789
Sn       14.33180141      7.23555756     12.09334183
Sn       14.52471066     21.14004517     12.04747200
S        -0.47983685      5.24707603     -0.03978287
S        -1.14632583     18.98630524      0.19549851
S        12.57411480      5.21599197     -0.15404464
S        12.78426933     18.66061401      0.03947276
S         1.49337089      9.10131264     13.75260448
S         2.33898544     22.18417740     14.25851154
S        15.96846485      8.49239254     13.53583622
S        15.88504982     22.14876938     13.74453259
S         8.84668255     11.69756126      6.80535173
S         8.68967152     25.83686447      7.33486414
S        22.78247833     12.07794476      6.58833313
S        22.87329102     25.67108727      6.63549185
S         5.81319237      1.09462488     20.43122292
S         6.11930656     15.28296757     20.29947090
S        19.79969978      2.03530335     20.20191574
S        18.85867119     14.89672565     20.46931076
S         2.02672863      5.21209860     24.15692711
S         1.99177146     19.01074600     24.63333130
S        15.81650448      4.73173904     25.02022934
S        15.65393734     18.79160118     24.23572731
S        -0.71607220      8.71339703     10.50221252
S        -0.50037682     22.52548027     11.27091217
S        12.81842327      8.82939434     11.03025246
S        13.03844070     22.26969719     10.51571369
S         5.74222755     12.18085480     17.68505287
S         6.08516645     25.52507019     17.69911575
S        19.05555725     12.25873661     17.64863968
S        19.90916061     26.20527649     18.11816788
S         8.73931885      1.63475859      4.80883884
S         8.77350330     14.73379898      4.05727243
S        22.57965469      1.52893507      4.21379614
S        22.29860878     14.90863228      3.43706727
S         6.33548784     11.50259113     13.35336113
S         6.39618540     25.59906769     14.24622154
S        19.52161407     11.83562088     13.68852139
S        19.45527649     25.92695045     14.08265495
S         9.37263870      1.96396506      0.05134258
S         8.85360813     15.47539806      0.27306589
S        22.99668884      1.84909558     -0.17384049
S        22.55967140     15.61599350     -0.31248063
S         2.16675091      5.56921625     20.51778603
S         2.61516500     18.89399338     20.43339539
S        16.12669945      5.79724264     20.52348709
S        16.12416840     19.62753677     20.11398697
S        -1.19978547      7.85644865      6.55758142
S        -1.13954771     22.08237267      7.02295303
S        12.43749714      8.13906956      6.96456575
S        12.36794567     21.88801384      7.03213406
S         8.94423485     11.79017830     10.77174091
S         8.93609524     25.71817780     10.94960403
S        22.54602623     11.99415779     10.71635628
S        21.91583252     25.21627426     10.77346516
S         6.19807196      2.12657905     24.70624733
S         5.96495867     16.09654427     25.00521469
S        20.47558975      1.89040077     24.20384407
S        19.54706573     15.63476753     24.38747406
S        -0.90387774      5.22010183      3.76245189
S        -1.49531889     19.60603333      3.85930014
S        12.53889751      5.69296932      4.25437737
S        12.59447956     19.13157654      3.82190037
S         2.43688297      8.16059589     17.61858559
S         2.43781328     22.07729149     17.61418343
S        16.56131363      8.43421173     17.60315132
S        16.36943626     22.55605888     17.58480453
S         8.91681385      8.87958527     24.12077141
S         8.93068504     21.77882004     24.71828842
S        22.35810471      9.18668556     24.09416580
S        22.75937080     22.19000626     24.40460777
S         6.13756037      5.03922033     10.66704750
S         6.06675482     18.85747910     11.05250835
S        19.81259346      5.46014071     11.36699295
S        19.91133499     18.86088943     11.25477123
S        -0.72140521      1.30974150     17.99782753
S        -0.63865089     15.23549938     17.64212608
S        12.91791344      2.15797281     17.77336121
S        12.68136692     15.48278809     17.57500267
S         1.57497954     12.50462723      3.54483318
S         2.31856871     26.26098633      3.67701435
S        16.46876144     12.96838665      3.52787232
S        15.44242954     26.21446800      4.04428911
S         6.38371801      8.77359581      0.19729124
S         5.81808853     22.41740036     -0.25715464
S        19.59501839      8.08251381     -0.00874872
S        19.58971786     22.70686531     -0.26338413
S         8.59311867      4.85714912     13.61838531
S         8.82908154     18.27414513     13.73336983
S        23.09650612      5.13231277     13.69422436
S        22.51842117     18.87323189     13.72784328
S         1.79320741      1.62811339      7.17171669
S         2.06540370     14.46615696      6.83144331
S        15.83795929      1.79739594      6.68212080
S        16.16585732     14.95481491      6.73659706
S        -0.96599072     12.29863739     19.99719810
S        -0.84720421     25.83477974     20.59346199
S        12.34079266     12.50737667     20.54671669
S        13.30340862     26.15603638     20.66833496
S         1.59758282      2.02665710     10.84463310
S         1.99928439     15.28009510     10.63304901
S        15.62016869      2.21296406     10.97563457
S        15.81481838     15.85322475     10.46922493
S        -0.69014549     12.31460953     24.39757538
S        -0.50951153     25.21314430     24.78362846
S        12.76636505     11.60532665     24.17346764
S        13.19562531     25.62643242     24.34871864
S         5.56807280      8.06632423      3.70755768
S         5.57566023     21.73057556      3.73082113
S        19.32604980      7.84284592      3.97116685
S        19.13109016     22.22860146      4.04936075
S         9.28019428      5.49368048     16.68637848
S         9.19928551     18.90492630     18.03103065
S        22.63247681      5.65494537     17.25295830
S        22.84617233     19.20859337     17.71692085
S        -0.77549446      1.57060194     14.08610916
S        -0.73532683     15.68396282     13.62630367
S        12.69858074      2.03642106     13.33187103
S        13.05450344     15.09096813     13.41990185
S         2.23096919     12.31869984     -0.18518966
S         2.75478125     25.76534271     -0.06092321
S        15.65087795     12.03023815     -0.39256325
S        15.81036949     25.61737061      0.28998545
S         9.17793751      8.22222328     20.23056793
S         9.22904968     22.10158730     20.82872391
S        22.84155846      8.89225769     19.98790550
S        23.06130409     22.18125153     20.36365700
S         5.32270384      5.57683992      6.45688200
S         5.45136452     18.65071869      6.32509422
S        19.40495110      4.78302574      6.95931435
S        19.11305046     19.35878372      6.91353178
S        -0.60637963      1.03528917     -0.33932951
S        -0.88082105     14.70580864      0.13972214
S        13.11354923      1.46044946     -0.25020370
S        12.62965488     14.55421543     -0.55052274
S         2.03903008     12.62330246     13.50655460
S         2.42572832     26.23768616     13.46934509
S        15.86077595     12.05315590     13.07094860
S        15.46040058     26.28636551     13.35940361
S        -0.81061071     12.01417255      6.81104565
S        -0.54276079     25.80447197      6.62460089
S        13.22385597     12.36801147      6.51933670
S        12.81534100     26.26005936      6.88494349
S         2.25828767      1.30921900     20.58135223
S         2.17784214     14.72728443     20.46421242
S        15.66164589      1.85687590     20.07700539
S        15.27964592     15.27382374     20.21138191
S         2.51645136      0.84260893     24.57116318
S         1.87324905     15.06654358     24.16638565
S        16.24839401      1.01529741     24.01299477
S        15.24686337     15.17267323     24.44356155
S        -0.84935039     12.45046806     10.94267559
S        -1.03170788     26.63713074     11.30773163
S        12.87056160     12.68215847     10.67221069
S        12.69061375     26.09875107     11.07103252
S         2.35205507     12.22105503     17.83510780
S         1.68246841     25.63107491     17.72451019
S        15.22168636     12.68469238     17.55578995
S        15.50218487     25.98862267     17.64078140
S        -0.50731778      1.42234945      3.99262381
S        -1.53415084     15.18541431      4.16684961
S        12.37663078      1.61109686      3.94999409
S        13.33077908     15.05831718      3.89289451
S         5.94937563      7.72287416     13.34232998
S         6.47913837     21.40493393     14.09514046
S        19.88320732      8.36670017     13.87546635
S        19.76959229     21.86001205     13.73914528
S         8.81453991      5.88621044     -0.13062245
S         8.65597439     19.50863266      0.14229357
S        22.82038689      6.21988344     -0.43157920
S        22.04528999     19.57797050      0.40528888
S         7.01258230      5.30730343     19.88362885
S         6.55994272     19.08662033     20.69282150
S        20.26003265      5.74336100     20.25351906
S        20.52859116     19.31455421     20.61903381
S         8.32984066      8.15878391      6.70422983
S         8.08763123     21.56292343      6.97280025
S        21.63357353      7.95895529      7.11229420
S        21.90786934     21.72290230      7.00182056
S         9.14875317      7.75557423     10.99538326
S         9.19949150     21.60755920     10.95657253
S        22.17529106      8.36591339     10.88386250
S        22.41277313     21.45984840     10.53954124
S         6.18752956      6.05711412     24.34581184
S         5.87006092     19.43387413     24.28004837
S        19.89852524      6.08875847     24.20820045
S        19.27952957     19.58853722     24.66474342
S         8.25559521      5.17300320      3.66319275
S         8.39462662     19.11860466      3.67611861
S        22.23262024      5.35839939      4.10324812
S        22.07516861     19.31104279      4.19229269
S         5.95000029      8.03615379     17.31900406
S         6.63021183     21.84248543     17.59162712
S        19.90582275      8.38927937     17.64362144
S        20.07653046     22.14065361     17.70079803
S         9.09565067     12.96365643     24.23937035
S         8.88455009     26.38848686     24.79620552
S        22.52710152     12.64083481     24.28851128
S        22.41103935     25.56166267     24.39899063
S         6.10667944      1.06651652     11.05896187
S         5.94082594     14.59462070     11.08813667
S        19.50723648      1.27925718     10.66159534
S        20.01939011     14.90488625     10.63834190
S         8.58759212      1.50344956     17.74783897
S         9.00586128     14.91738319     17.45281219
S        22.76816940      1.66438580     17.85833740
S        21.84861374     15.14198303     17.59163094
S         5.97374535     12.26121521      3.89977336
S         6.40677404     25.47025871      4.41017914
S        19.74026108     11.80498600      4.16354370
S        19.40361786     25.57188797      3.93454432
S         6.03985023     13.21604347      0.05908133
S         6.38227177     26.40963554      0.45088741
S        19.60864639     12.71348763     -0.41204312
S        19.67907715     27.08733749     -0.07397640
S         9.01223564      1.12980282     13.49398136
S         9.06624794     14.09110451     13.73576641
S        22.59280014      0.81717002     13.34100628
S        22.38025856     14.77943897     13.54046440
S         5.91536951      1.42771816      7.05178881
S         5.81648922     14.88045120      6.58119631
S        19.90604591      1.05678201      6.63117313
S        20.38639069     15.04414654      6.92155933
S         8.80866432     12.33398247     20.33725548
S         8.95603371     26.06034470     20.74129677
S        21.89701271     12.92475986     20.71442413
S        22.31667137     25.82232094     20.38307571
S         2.38914466      6.26197100     10.89569569
S         2.05834627     19.02297974     10.94604778
S        15.79255104      6.44755745     10.34921646
S        15.61555958     19.11234283     11.12714767
S        -0.66901499      8.64999294     24.76946640
S        -1.08695531     21.60055351     24.51548958
S        13.38889980      7.69107199     24.12990761
S        12.84443092     21.84157562     24.93714714
S         1.63946366      8.45843124      3.94011211
S         1.83834136     21.92558479      3.89681840
S        14.87045765      8.43155479      3.84234476
S        15.18412018     22.27979660      4.24624252
S        -0.41669074      5.43606806     17.54849625
S        -0.04658989     18.66931725     18.08457756
S        14.08787537      5.57614899     17.47101021
S        13.70287037     19.36456680     17.43215370
S        -0.26675627      5.79140759     13.46036530
S        -0.73137510     19.16870880     13.78569412
S        13.07472897      5.72261000     13.69055080
S        13.03394794     19.87721825     13.42567062
S         1.88118231      7.92188215      0.06891806
S         1.70770848     21.81864357      0.32092586
S        15.38984203      7.85300350      0.24754554
S        15.39273071     21.74671173     -0.03365154
S        -0.61359715      8.22974968     20.61660385
S        -0.46119198     21.48146439     20.68313789
S        13.07396698      8.44477940     19.88505745
S        13.08619308     22.18169975     20.71529770
S         1.47262418      5.45998287      6.77034426
S         1.13117898     18.89644814      6.77439022
S        15.41427708      5.78724527      6.88491678
S        15.11683655     19.12463951      6.68947220
S        -1.18004632      2.73117208      7.75200129
P        -2.61534643      3.65855312      8.82813931
S        -4.10370302      4.87918425      7.79057550
S        -3.86814117      2.62796044     10.03677177
S        -1.41700006      5.00048923     10.05581093
S        -1.64264011     16.23752403      7.68369913
P        -2.92340922     17.39097023      8.92759418
S        -4.11967325     18.51248169      7.79398394
S        -3.87665892     16.24196815     10.25301266
S        -1.94815087     18.60829163     10.29558945
P        10.97043610      3.43913221      8.82050133
S        12.38442326      2.37721372      7.72409678
S         9.50882912      4.59517527      7.87680006
S         9.62778950      2.25615382      9.99715137
S        12.12649155      4.81774712      9.99445057
S        11.77963352     15.68074036      7.32416821
P        10.55475712     16.65048218      8.59800625
S         9.46019650     17.85842896      7.40369415
S         9.48438835     15.41771889      9.87956047
S        11.63508511     18.09246635      9.82162189
S         5.64684057      9.29175663     21.41276741
P         4.31423044     10.41453266     22.65056229
S         3.20089650     11.66913795     21.65978813
S         3.38526917      9.05064678     23.67503738
S         5.57546043     11.69120121     23.70691872
S         5.71470642     22.96407509     20.97669411
S         2.90732932     25.11532593     21.31904793
P         4.42400694     23.97985077     22.14934158
S         3.20701289     22.93255997     23.33602333
S         5.53289223     25.10571289     23.43553352
S        18.83289528      9.42995930     21.33148956
P        17.71254349     10.63230991     22.63197708
S        16.39208603     11.81659126     21.44614983
S        16.61336899      9.08392525     23.62894249
S        19.09663200     12.04693604     23.90482903
S        18.90344048     22.95012093     21.33293152
P        17.95638657     24.21669769     22.59075737
S        16.72461700     25.20576096     21.68857384
S        16.76880646     22.71616554     23.49277878
S        18.96779442     25.49124527     23.66770554
S        23.07494354     11.64735889     16.63735962
S        25.41054344      9.15427876     16.60347748
S        25.41434097     11.73394012     14.43426991
P        24.24683571     10.48363876     15.57122803
S        23.07349777      9.53308868     14.34002018
S        23.40110779     25.17404366     16.90079117
S        25.62868881     22.62031746     16.79656219
S        25.62540054     25.21034622     14.36922932
P        24.70352936     24.00286674     15.62724495
S        23.39575768     22.94675827     14.19323540
S         9.59457493     11.12290955     16.93390465
S        11.72363949      8.62308025     16.60076332
P        10.75989437     10.09888554     15.40919781
S        12.06589031     11.26965618     14.41171741
S         9.52564240      8.64648342     14.27228737
S        10.00854969     25.04904556     17.07243156
S        12.35912991     22.85287094     16.64797020
S        12.62804890     25.00851822     14.81098747
P        11.12371254     24.02128601     15.56473827
S         9.84924030     22.67213249     14.42642117
S         2.54091668      4.23669338      3.49068666
S         5.28668785      2.48158789      3.58847213
S         5.35380030      4.38406277      1.19087160
P         4.00335121      3.43646121      2.44258499
S         2.94889355      2.07118773      1.18553150
S         2.09221292     18.51003647      3.20567346
S         4.74026155     16.25343513      3.63421512
S         4.48063469     18.64257622      1.03457880
S         2.39331508     16.00846672      0.95021504
P         3.54704022     17.21186447      2.25004148
S        16.41061974      4.43086004      3.27903318
S        18.78740311      2.48473978      3.62378597
S        18.78639030      4.76441383      1.14610600
P        17.61828613      3.48756123      2.14529610
S        16.46869850      1.95158756      1.01583886
S        16.03582382     18.34328270      2.99358106
S        18.59338570     16.25628090      3.24943566
S        18.46394348     18.45343781      0.93442613
P        17.31950951     17.15526581      1.97599673
S        16.29508400     15.82383347      0.77226877
S         2.99937415      2.24222779     16.62678528
P         4.19013596      3.49974394     15.51147938
S         5.47769976      4.77379513     16.57354927
S         5.29224968      2.27307963     14.17550945
S         2.98592806      4.62884760     14.30993652
S         3.31706452     15.84972763     17.15077400
P         4.54197693     17.14789963     15.82163143
S         5.50484371     18.61252403     17.04483032
S         5.46666002     15.79018021     14.54259872
S         3.28542042     18.55317688     14.73664761
P        17.95245361      3.43291450     15.29386711
S        16.65127373      2.59378934     16.48916054
S        19.01538467      4.72753668     16.26791191
S        19.17356873      2.47307777     13.95746422
S        16.57333946      4.82878113     14.18763924
S        17.03719330     15.91332054     16.99515724
P        18.07765961     17.09388542     15.90359020
S        19.33625603     18.31279564     17.03018188
S        19.26641083     15.74446297     14.67078590
S        16.88623810     18.22721672     14.85967255
S        23.08647537      9.02095699      3.14227724
P        24.38141632      9.97899151      1.90534234
S        25.74500847     11.21161842      3.04464793
S        25.47927475      8.65457344      0.55262822
S        23.26445198     11.32274818      0.79738003
S        22.84856224     22.94064522      3.38125801
S        25.53781891     25.31365013      3.12580228
P        24.08485413     24.14745712      2.24889445
S        25.13912773     22.90826607      1.10129845
S        23.02364922     25.61998177      0.98508537
S         9.48919487      9.15399361      2.64095020
P        10.75982285     10.07323360      1.51081812
S        12.23077583     11.58668613      2.59923768
S        11.85251904      8.84093094      0.42370242
S         9.73714638     11.59858322      0.65945733
S        12.15007305     25.00452423      3.64209723
S         9.53752136     22.97416687      4.00381994
P        10.79423809     23.90853119      2.48328090
S        11.89227867     22.91036606      1.17343783
S         9.84660244     25.21054459      1.26310301
P         3.95545101     10.07939243      8.94885731
S         5.20500660     10.80196190      7.57368040
S         2.25756836      9.24997902      7.79152584
S         2.65402699     11.09041786     10.22463036
S         5.35162592      8.92171669     10.15685272
P         3.71733975     23.55334854      8.99147701
S         4.85585165     24.71613312      7.85558081
S         2.30333424     22.41963768      7.85916710
S         2.93819571     24.96662140     10.26463223
S         5.03404713     22.23675537     10.31331635
S        18.79764748     11.42831326      7.29966545
S        16.11555481      9.46238613      7.52023077
S        16.46602821     11.75322342      9.85767937
P        17.52333450     10.53381824      8.68428612
S        18.83307076      9.21434689      9.69747734
S        18.78650856     25.03761292      7.52642298
P        17.51511002     23.99300575      8.99459648
S        16.18322754     22.73283768      7.82219267
S        16.63411331     25.19865417     10.30445290
S        18.54533768     22.71103859     10.06316090
S        12.16443443      5.01091003     21.04489136
S         9.45134258      2.62732244     21.24820709
S         9.78888226      5.15349817     23.28141785
P        10.93579292      3.72356176     22.00041962
S        11.96083260      2.48112082     23.44661903
S        12.20592499     18.58783913     21.45866585
S         9.32296181     16.30858231     21.53756523
S         9.60853481     18.92534828     23.57890701
P        10.63093853     17.39440155     22.61833572
S        12.03985119     16.23038292     23.58749008
S        -1.24294662      4.24342537     20.79004478
S        -3.72786379      2.40561080     20.97971344
S        -3.55892301      4.52111292     23.38405609
S        -1.32450187      2.18704247     23.48447609
P        -2.38891912      3.26950717     22.25317764
S        -1.38802350     17.85594940     21.08874321
S        -4.15435171     15.80885887     21.07054138
S        -3.83524990     18.22728539     23.42599678
S        -1.49159765     15.79485416     23.42094994
P        -2.81361079     16.88056755     22.19267845
