832

Na       -4.98886824     38.12036133    -10.80429840
Na       73.57879639     54.45132065     -1.05554342
Na       62.68922424     17.86259651    -17.28632355
Na        9.19517422     54.47803116     16.47103119
Na      104.19194031     44.41259384    -69.00447083
Na       -4.46309853     31.04316521      3.28887343
Na       12.28163528      6.86904716      2.82166934
Na      -14.91151047     -1.98042834      6.05184555
Na       25.90400696    -12.53567982     53.47270966
Na      -69.62245178     14.30794048     15.96294689
Na      -29.25718498     55.11979294     77.42101288
Na       33.40366364      0.78545254      2.77235317
Na       -0.98103738      7.29145241     19.87881088
Na        9.22845364      3.64187241     43.56629562
Na       62.92296600     44.65458679     13.26736927
Na       26.07936478     41.46128464     16.59410667
Na        1.83119833     65.81598663      6.10624838
Na      -28.71423149     35.06332016     26.86773491
Na      -11.57927799    -16.19112778     33.63390350
Na       52.84945297     41.13931274    -14.59791088
Na       40.13192368     27.99497986    -10.93312168
Na      -25.16028786     -2.75696373      6.20343113
Na      -58.93867111     47.88948059     36.53915024
Na       12.26287365     24.48885155     39.78136063
Na      -69.10108185     17.96355629      6.25732088
Na      -55.67917252    -36.89975357     81.15481567
Na       -1.68289161     -5.95377779     67.91564178
Na       73.20286560    -23.26052284     47.35198593
Na        9.12072659     17.78136444     57.27858734
Na        2.61261678     17.38797951     50.45033264
Na       -8.61321926      7.51901722      9.55738449
Na       56.50045013    -29.79651642     40.58722687
Na       -7.89729309     68.96552277     60.87843323
Na       -1.52785563     17.59644699    -13.97143555
Na       43.41500473    -43.80107498      2.71835208
Na      -38.77628708     24.42744064    -20.81702614
Na       32.62022400     -9.95692253     47.46994781
Na       -1.47766864     38.30448914     26.27281952
Na       35.71215820     -0.25443226     23.12694168
Na       49.58725739     14.20794106      9.42426586
Na       -7.84832191     -3.02217364     26.88121414
Na       33.11323929     75.10539246     47.05049515
Na       -8.10375023     -6.19176340     26.54405975
Na       -1.44118643    -20.06797600    -68.95243073
Na      -24.53788376    -47.09574890     71.05921936
Na       29.57750893     17.26404381     54.09169006
Na       63.25202560     38.17766190     36.82641602
Na      -14.44923592    123.25727081    -23.87204552
Na      -45.62043381     68.97232056    -17.44900322
Na      -22.07262421     21.13206100    -14.64544487
Na       26.44864082      7.49767256     77.58029938
Na       73.55634308     14.06920910     50.41982651
Na       38.84619904     41.15685654     22.91875648
Na        8.55737114     92.62451172      6.57131433
Na       -1.32267129     48.17639923     80.88312531
Na       49.42123032     92.27184296     36.71102142
Na      -29.28686714     10.95087624     -7.23625898
Na      -11.46626282      4.08126497      5.85773039
Na      -56.07136154      7.90950394     33.45773315
Na       87.62123871     68.34928894     53.34053802
Na       42.78932190     17.41156006     -6.40093374
Na      -24.73274231     -6.54564714     50.56900787
Na       66.98179626    -16.65812874     19.92177582
Na       83.85441589     17.88792992     40.73118973
Na        2.25100470    -30.35830688     16.83049393
Na      -96.32564545     10.63031101     26.45335388
Na        1.77387977     29.09024048     36.94083786
Na       25.96730232     41.35590363     36.31816101
Na      -11.42753887     10.72290421     16.47465706
Na       -0.80531180    -40.73962784      5.74380875
Na      -22.09979057    -19.80040932      9.25317001
Na       15.10041523     14.15435982    -10.68736935
Na        8.95611858     49.12143326      2.85368085
Na        7.75929070     88.76259613    -24.58152390
Na       18.85507584      0.50254482     43.81731796
Na       -1.22047067     24.37668228     -0.90520477
Na      -55.43966675    -87.91293335     22.52825546
Na       18.54442024     48.68633652      6.19013309
Na       97.32291412     78.44096375     -0.71716177
Na       43.08053207     31.73789597    -68.70009613
Na      -15.56449318      7.50878096      6.33641481
Na       28.67867279     -2.13921666     37.08872223
Na       39.25407791     75.63277435    -38.34789276
Na       63.74307632     45.32155609    -10.62378025
Na      -31.24214935     34.73212433     77.69310760
Na      101.39936829    -40.10055542     29.98223114
Na        8.91341019    -19.54729843     77.74320984
Na       39.55604553     21.54737663     32.45343781
Na       15.90365982    -36.56518173     33.17097092
Na      -14.85474205     65.08448029      6.34837961
Na       25.92113876    -20.28332901     15.81166077
Na        8.05103302     13.84472656     -3.92250919
Na       -4.33861494     79.20032501     54.07275009
Na       53.30710602      1.21442103     34.38566971
Na       45.92636108     -9.81129360     20.09957314
Na       73.54402161     65.31472778     40.72082901
Na       -5.52992487     24.03796387    -11.19191074
Na       86.97100830     34.46114731     81.14913940
Na       97.05416870     31.53859711    -44.68086243
Na      -39.16831589     78.60119629     73.96576691
Na      -39.04711151   -119.03546906     -1.15019262
Na        9.37769604     10.77182388     -0.26079187
Na       25.83074379      4.32753801     -0.72395462
Na        2.15311408     75.00020599    -24.22156715
Na       22.86656761     44.54065323     30.20253181
Na       91.03040314     13.78819656     30.16229630
Na       33.31140137     -6.36425734    -11.05735779
Na      111.62428284     62.08100128     50.53124619
Na       66.88958740    -12.74175358      6.84676409
Na       59.76832962     99.57670593    -14.58621216
Na       34.99156570     85.48198700     -7.42093372
Na      -38.66601944     37.91174698     -3.47476268
Na        5.08740902     14.04273987    -61.87678528
Na        5.33054209     28.22031021     19.35879135
Na       25.29807854     14.54053020     -7.38351965
Na       80.24323273     -6.64788342      2.56542182
Na        2.08094692     15.04275703    -38.28396606
Na        8.57054901     31.41806412      6.38341045
Na       46.06055450    -63.78116226     60.66344070
Na       97.66147614     51.60869980     30.01053047
Na       12.25793743    -33.65250015     12.96376038
Na      -31.90793228     24.48591423    -62.06788635
Na        8.65697956    -30.26232910     75.12929535
Na      -24.82795143     -5.87500668      9.38006687
Na      -42.42595291      0.73617810    -19.34762764
Na       -7.67922354     61.51759338     22.64804840
Na       60.06404877     51.51338577     54.12628937
Na       63.59789658     10.52956963     73.59709930
Na       -4.44549561    -50.60929871     43.88158798
Na        8.63740158    -36.98778915     22.90497971
Na       46.04393768    -20.15735054     29.73383331
Na       29.30124092    -47.17703629    -24.39135933
Na       -4.95967007     21.40772820     50.36631775
Na       32.88083649      6.29144287     50.61081314
Na      -21.65900803    -23.15643883     -0.89066046
Na      -24.75292015     31.15050507     -7.73170567
Na        8.77610683    -23.38828659     13.06755447
Na        1.36983788     27.58790207    -58.32024384
Na       22.36346245     44.91462326     -3.70934153
Na       29.15002060      3.78592300     22.84757805
Na      104.42043304    -30.43309784     36.86987686
Na       33.14854050     61.97150040     47.29365921
Na      -15.11232185     -2.96228671     -0.92625386
Na      -21.58690643    -12.33025265     64.27613831
Na       19.08624458     27.47265053    -20.53933334
Na       63.38388062     92.40495300     30.47132301
Na       32.62855148      4.16863298     67.32118988
Na        9.00026131    -50.45637131     57.00783920
Na       18.23215675     37.87308884     26.51962090
Na        5.15411997     68.79595184    -41.53374863
Na       32.52079773    -40.58229446    -10.76125717
Na        1.60475743      3.81261396     30.08506966
Na       12.27288723    -40.08722305    -28.01211548
Na      -65.88909149     51.46936417     23.41859436
Na       -5.43052244     38.28137970    -27.65716362
Na        8.43547344      7.25565147     63.92897034
Na       52.93027115    -16.41669464    -14.60581684
Na        2.67851424     14.79320145      2.70682764
Na        1.97728467    -16.70975685     19.46859169
Na      -22.34253693      0.95493907    -17.25790405
Na       15.50237370     -6.12701321     16.97945213
Na       -1.22117960     82.93639374     39.62151337
Na       38.28844833     44.81151581     -7.49177361
Na       11.93882656      0.36328483     -7.64151239
Na       52.37620926     54.57447052     73.61234283
Na       26.12230110     18.05173492     -7.91181517
Na       32.79726028     10.98824692     -8.31627846
Na      -32.39407349     31.60756683     -0.29203147
Na       46.61830902    -22.95537376     67.38108063
Na       25.62025833      7.31533670    -51.50054932
Na      -55.65015411     21.22585869      9.76958370
Na        1.62192833    -43.58196640    -45.26476288
Na       -8.11471939     -6.31557417    -10.95811749
Na      -21.54251671     44.51564407     -0.95381826
Na       46.24831009     -3.13826823     13.19945717
Na       75.90126038    -16.26765633     19.71963882
Na        6.12040615     37.73451614    -13.87772846
Na       29.51946831     -3.42042279     26.39245605
Na       59.54016495    -26.17273521     -3.84147739
Na       -1.27206171    -73.52089691    -17.57758904
Na       18.66873360    -12.49775219    -14.43761539
Na      -11.58392525     21.56018639     37.04395294
Na       43.78791809     92.33176422     20.12129211
Na      -39.31042099     58.43569565     80.81501007
Na       19.24068642      7.42461014     19.59859848
Na      -21.81336212    -16.85537910     -0.26407984
Na       32.07162857    -19.79606819      5.46487188
Na       43.36176682      7.50113630     -4.11413717
Na      114.91458893    -12.91043282      6.41373634
Na       -1.07464492     14.49731922      2.67975760
Na       -5.07691813    -13.17766762    -11.15416431
Na      -21.58855820     20.94077110    -27.86358261
Na       39.73466873      7.57170963     -7.87947130
Na       56.39744186     -2.61830115     -4.08068752
Na        5.43174934     37.95751953      5.64456606
Na       22.42036629    -37.09600830     70.84482574
Na      -18.64226532     51.50623703      9.51192951
Na       39.40959167     34.94322586    -41.17317581
Na       15.29171371     14.16471004     23.49871635
Na       56.03469086     30.89632416    -28.27153397
Na       11.97882843     54.13554001     50.17311859
Na      -22.07668304     54.57224274     43.75313568
Na       53.27725220     47.66269302     44.21866608
Na      -66.51231384    -50.80852890    -10.57534981
Na        1.22264922    -54.07678604    -65.24272919
Na       -5.17747593     31.18410492     19.68829727
Na       90.54013062     88.73271942    -10.67414379
Na       32.78602600     74.93363953    -31.26127434
Na       12.78322220    -13.20524216     10.16652203
Na        2.18237638     41.64559555      9.52466488
Na       33.05170441      7.90128517     16.80115509
Na       46.26440430      7.37189722     -1.04479551
Na       25.71845818     20.82369804      6.37003613
Na      -32.51583099     -8.94917965    -21.21723557
Na       69.92151642    -43.43563461     13.11857986
Na       66.52982330    -16.20392036     40.02690125
Na      -35.54813766     20.75633621    -72.01757050
Na        8.45947266     27.74063683      9.22009468
Na      -18.42036438     -1.94306815     30.03881073
Na      -52.45303345    -64.50222778     46.81103897
Na      -11.88545227    -77.65523529     -7.03354549
Na      -93.41139984    -64.25884247     56.63208771
Na       -5.65497160     24.67801094     60.92831802
Na       43.03258133     52.10386658    -44.45527649
Na       29.80583763     27.75600052     30.06677628
Na      -32.23798752      4.17786741     -4.04958344
Na      -21.69708824     28.31143188      5.85884619
Na       69.72837067     34.79027939      9.55552959
Na       18.68210030    -36.59436798     12.48423576
Na       49.66475677     -3.09446573    -41.68729401
Na      -32.93527222    -54.12520599     77.70299530
Na       56.36663437     37.88316727     30.00745392
Na        2.21057320    -15.97183323     15.54127979
Na       22.89261055     27.72055626     84.28369904
Na       15.45818424    -37.15402222    -10.50358105
Na      -24.75300407     20.88191223     16.36845970
Na      -49.11774445      0.46334967    -55.25722504
Na      -45.68553543     45.21628189     60.67826462
Na       39.41180801    -36.73041916     54.29462433
Na       80.81958008     68.31211090    -31.11819458
Na       11.68717957    -39.94959641     -7.30729866
Na       39.09110641    -77.49250031     19.93759727
Na        8.18866062    -23.28752708     10.00966454
Na       56.77837372     24.15291023     84.29062653
Na       43.06487656      7.67440510     16.54478645
Na      -35.73664474     28.53617859     91.59215546
Na       42.81276321     30.57491302     23.23514366
Na       49.54098511     44.64475632     36.48131561
Na        5.09974146     -6.06048536      6.66054106
Na       49.95603180     30.80241966     67.25238037
Na       29.21388817    -19.91853714     36.79116440
Na       -5.05924702     27.60781288     36.58238220
Na      -18.24063301    -30.39181137    -13.96383953
Na       59.81792068     -2.85882139     46.84179688
Na       15.32691097      3.29571390      2.65943599
Na      -39.20418167     20.27564240     -4.00344086
Na      -24.85178375     10.57981491     26.34926605
Na      -32.09732437     41.32016373     23.03014565
Na       -4.32890081     35.08567810    -10.77314377
Na      -69.96635437     -9.66614151    -13.94266319
Na       70.13265228     51.87845230     16.36767578
Na      -25.63156128     92.74222565     50.13739777
Na       50.49591446     11.33289528     60.34741211
Na      -11.70337772     -9.22690010     13.47365379
Na      -31.77249336      0.22905621    -11.04492283
Na       39.63714600      6.52024031     -0.60221308
Na       90.38834381     -2.16267157     -1.21818054
Na      -21.89634323      4.09350777     61.01698685
Na      -42.28434753     33.99359512     43.29378891
Na       43.66449356    -12.66029835     84.54884338
Na       46.37015152    -33.84023666     23.46633911
Na       -4.65332222     10.61161900     67.47834015
Na       45.66463089     13.50046921     46.79672623
Na       70.30774689     52.22780228     40.39044952
Na       53.15644073      1.70885551    -11.16988182
Na       12.55839252     55.35727310     39.46079254
Na      -38.66598511     11.32870388     36.98051453
Na      100.25771332     30.93251610     26.78007317
Na       56.14348602    -22.63068962     66.79162598
Na       -8.45865822     14.36381721    -37.97714996
Na       90.72395325     -9.32714558     -0.77105451
Na       23.06022644     14.04345322      2.56922889
Na       35.70508575     -2.67783332      6.43902922
Na       16.43865013     14.51218128      9.79463196
Na       53.07491302    -30.07551384     12.68194580
Na       89.88237762     48.38497925    -44.79594421
Na      107.83613586     44.59334183      6.18547869
Na        8.47852898     31.11094856     -4.12039757
Na       16.12523079    -27.13228989     50.21166611
Na       12.10078526      1.61622548     -0.74388176
Na       30.39577484    -13.54640770     23.35657120
Na      -34.69790649    112.90847015    -20.90338326
Na       15.68184757      7.03905201    -24.35399055
Na       25.45537758     79.15436554     33.52488708
Na       19.19830132    -85.08990479     -7.78953028
Na       56.30822754    -23.12962914     16.12919426
Na      -31.61409950    -16.67295265    -31.59251595
Na       22.14883041     62.78771591     57.38300705
Na      -28.54921341     31.44662094     87.66545105
Na       18.79701233     -5.55295992      3.19196224
Na       63.60540009      4.53603315     -1.06921411
Na       22.66512299    -84.16889191      3.35814905
Na       29.69829559     11.43851566     12.32637596
Na       25.81018257    -23.50127792     -7.51437187
Na       26.19856262    -30.15733337     19.57403564
Na        5.47102737     -3.14799571    -13.97935390
Na       41.86960983     21.21208000      2.73458242
Na       60.43464661     41.29048157    -24.45492554
Na      -11.89984512     28.38480568      9.46256638
Na       -4.69870520      7.25497723      9.64692783
Na       39.19533539     51.45164871     46.98418427
Na       12.40773296    -26.84622574     29.92110634
Na      -11.72381306     18.21546173     36.96010208
Na       11.99579620     21.38617897     64.18392944
Na       19.17421341     34.48592758    -38.06105423
Na       29.34222031     99.53989410      9.56266594
Na      -25.00259209     44.85989761     32.71704483
Na        8.40583706     42.07184219     16.33539581
Na       12.28712749      4.02320528    -14.00980377
Na       12.35325527      3.65931249      6.00191498
Na       46.53889084     13.99560642     53.80373383
Na      121.07360077     -6.07443476     23.43639946
Na       18.94653130      7.97085857     13.00564289
Na       19.52344704     20.79630089     47.16956329
Na      -18.16274643     -4.15176725    -10.80089855
Na       63.43933105     65.66531372     42.43733215
Na      -42.62159729    -46.29174805     63.74317551
Na       72.81554413      0.44377869     -7.34604597
Na       19.64463043     11.09913254      5.09853506
Na       49.91864395     17.38781738     47.09012222
Na      -31.29549026     -2.56433010     23.26977539
Na      -35.17501068     28.21875763     40.48712540
Na       -5.14760971     -6.02141476      2.56214905
Na      -21.72075272     21.18358612      2.59101844
Na       39.97731018     -6.36021519     -7.66659117
Na       26.01575661     27.44683075     27.10847473
Na      -25.17856216    -50.41453171      7.25065279
Na       87.11708832    -36.68712997      6.23969507
Na       63.31997681     48.49856186     -4.05419016
Na       -4.60726929     31.05044937    -45.42139816
Na       12.81254292      7.55653191     50.60166168
Na       43.33233261    -27.35939980     29.89619255
Na       59.95109558     61.86809158     13.17898655
Na       46.71523666      0.14621750      2.54396701
Na       -1.00183046     27.63031006      3.43538284
Na       36.30509949    -16.31097031     -3.87512398
Na       87.01363373    -57.06055832     60.25783539
Na       46.51229858    -64.14595795     -0.99250168
Na       18.61554337    -19.71582794     60.79639816
Na       76.82904816    -61.03473282     16.24354362
Na        5.54686356     54.97478867     40.15845871
Na      -14.98642063    -33.56778717     -0.24086288
Sn        2.33094883     14.53737164      6.05789614
Sn        2.28773475     28.05361938      6.42591953
Sn       15.86057663     14.35519600      6.48383331
Sn       15.78039932     27.95682716      6.14401436
Sn        1.52971745      0.58565694     19.87739372
Sn        1.71708262     13.98016167     19.68600845
Sn       15.27845287      0.69860113     19.75246429
Sn       15.10840988     14.09452438     19.99597740
Sn        2.13619351      0.85702914     13.25623608
Sn        1.72697568     14.49992466     12.74562073
Sn       16.01035881      1.02540231     13.13379574
Sn       15.26716709     14.44155502     13.12493706
Sn        2.32595825     13.93567276     -0.77776682
Sn        2.16748548     27.48705482     -0.31032634
Sn       16.09967422     13.88703442     -0.37992832
Sn       15.61345196     27.44452095     -0.72707671
Sn        9.40983963      7.12336540     19.87632370
Sn        9.28047657     20.80083656     19.68177032
Sn       23.00141525      7.33449602     19.82830048
Sn       23.02267838     21.03907776     19.74120712
Sn        8.34872723      7.74428463      5.92951441
Sn        8.40670776     21.18330956      6.17991161
Sn       22.10949707      7.40623093      6.11462355
Sn       22.10754013     21.26256561      5.99058628
Sn        8.94442749      7.83351755     26.74259758
Sn        8.97249508     20.97202110     26.57072067
Sn       22.40785599      7.67009687     26.41048241
Sn       22.77960968     21.18970871     26.54463959
Sn        9.00346279      7.20818186     13.15858555
Sn        8.71320629     20.92255020     13.07275200
Sn       22.45380020      7.21092701     13.06618500
Sn       22.24681282     20.69318771     12.73980045
Sn        8.45940971      0.38701180     19.79792976
Sn        8.49262524     14.44151402     19.63594627
Sn       22.06657791      0.46820131     19.62695503
Sn       21.81820107     14.14847183     19.43650246
Sn        9.41285229     14.65080833      6.48545599
Sn        8.99538136     28.04916573      5.97700024
Sn       22.79348373     14.47589207      6.13253164
Sn       22.65525436     27.93902779      6.15365934
Sn        8.92730522     14.05921173     12.97721863
Sn        8.95464325     27.61216545     12.81567001
Sn       22.26914978     14.14664650     12.74772453
Sn       22.24930382     27.49030495     12.81284142
Sn        8.78274345      1.20011497     -0.58398753
Sn        9.19703102     14.44999409     -0.30699635
Sn       22.61915779      0.96189088     -0.83709627
Sn       22.81386566     14.67879486     -0.88787699
Sn        1.65693676      7.47490549      6.35797787
Sn        1.68291831     21.17105293      6.30726290
Sn       15.32174015      7.53995037      6.35085964
Sn       15.24659920     21.16505051      6.45276308
Sn        2.62381101      7.09332514     19.93795204
Sn        2.60889673     20.86396980     19.90417862
Sn       15.78359318      7.56634760     19.83525085
Sn       16.16498566     20.92427826     19.97764397
Sn        1.81611145      7.18605328     -0.45360312
Sn        2.23607254     20.63213158     -0.55096304
Sn       15.64315796      7.33625460     -0.43736324
Sn       15.77231693     20.61614990     -0.61434436
Sn        2.14316940      7.98547983     12.94798470
Sn        1.77448988     21.32852554     12.90990925
Sn       15.50429344      7.79979277     12.89252472
Sn       15.84263325     21.43056679     13.17805386
S         0.43013933      5.89275312      1.02678680
S         0.76687664     19.38881683      0.79957044
S        14.36466980      5.81154346      0.91638893
S        14.26904678     19.38392448      0.86975175
S         3.74945045      9.23432159     14.39386940
S         3.46039367     22.52914810     14.37695026
S        16.91769028      9.30074406     14.30020905
S        17.32503891     22.74385071     14.79765892
S        10.49918842     12.94804955      7.87363768
S         9.92628384     26.39735031      7.54483223
S        23.99294090     13.12184811      7.74047852
S        23.91723442     26.47284126      7.55992222
S         7.16127729      1.55098581     21.48864746
S         6.96831083     15.20956135     21.16935921
S        20.49563408      1.91463161     20.89032555
S        20.48072815     15.40231323     21.27827072
S         3.24034929      5.52555466     25.30040550
S         3.72483587     19.13353920     25.22609711
S        16.96403885      5.69621325     25.34078789
S        17.25076866     19.29015732     25.16503525
S         0.75454324      9.62762356     11.57502460
S         0.31305280     22.68571472     11.58587551
S        14.02288437      9.09673882     11.54462242
S        14.45731163     22.95882034     11.96687984
S         7.16663218     12.62890148     18.01057243
S         7.04776001     26.40055656     18.30611229
S        20.66929436     12.76403809     17.88413620
S        20.65108871     26.07244682     18.42566109
S        10.57976341      1.96439695      4.76050711
S        10.79205036     15.84206104      4.90792227
S        24.34319305      2.04292202      4.73009062
S        24.38933754     15.45749855      4.49210358
S         7.22334433     12.66033173     14.25364590
S         7.41141605     26.23219490     14.03975105
S        20.83859253     12.86394787     14.20366955
S        20.95849037     26.10336113     14.32710266
S        10.14650059      2.83221722      0.40098834
S        10.62872791     15.77499008      1.09473085
S        24.03931999      2.37708211      0.76030838
S        24.12975502     15.99793720      0.63014275
S         3.88178039      5.79063797     21.43282509
S         3.86154795     19.40318680     21.32499695
S        17.39665031      6.24772835     21.19638443
S        17.23084450     19.55319595     21.65670776
S         0.54603505      8.97780037      7.84154320
S         0.20116377     22.73989487      7.39894295
S        13.98991299      9.09033489      7.70402384
S        13.87082386     22.60697556      7.96315861
S        10.04257965     12.58051300     11.46980953
S        10.47491074     26.37568665     11.28702545
S        23.50339890     12.49176693     11.38633251
S        23.77285957     26.22401428     11.31440926
S         7.20671225      2.33882761     25.13448143
S         7.68140364     15.52832985     25.28612518
S        21.18708420      2.18406105     24.92247009
S        20.99308586     15.68589020     25.00241470
S         0.30438730      6.11063910      4.85839033
S         0.42599857     19.81324387      4.84624720
S        13.84603596      6.15621281      5.02099228
S        14.09233952     19.76750946      4.74468517
S         3.84003186      8.70274162     18.74131775
S         3.66159868     22.28648376     18.27544212
S        17.39188004      8.86178780     18.42620277
S        17.46213341     22.32768440     18.33713341
S        10.43370533      9.03559875     25.28511238
S        10.44984818     22.40579224     25.28067017
S        23.66171074      9.36596012     25.17147446
S        23.93928337     22.65077400     25.20052338
S         7.52359676      5.82053232     11.79595947
S         7.24807405     19.67534447     11.60976410
S        20.84845352      5.98644400     11.65518761
S        20.96575737     19.13634491     11.38491058
S         0.18478492      2.13803720     18.55619621
S         0.33386865     15.35001755     18.36758614
S        13.80745792      2.18699121     18.62451172
S        13.81712627     15.57673264     18.49122429
S         3.99168324     13.28082275      4.74695063
S         3.66822457     26.69940186      5.13580656
S        17.45004463     12.91611481      5.05661964
S        17.17675018     26.47378922      4.97320843
S         7.39044571      9.16559410      0.88412517
S         7.63058472     22.59998703      0.59220427
S        20.67067909      8.84595585      0.43498877
S        21.26200485     22.67049408      0.77928609
S        10.22724915      5.60442162     14.70190907
S        10.12661648     19.53416443     14.33690071
S        23.64597130      5.60188723     14.53933525
S        23.61630058     19.15584946     14.21498394
S         3.74930453      2.36266351      7.83111048
S         3.82526755     15.89909458      7.60082579
S        17.11080551      2.37037134      7.51844883
S        17.08665848     16.16329193      7.63293743
S         0.28313562     12.46147633     20.86149406
S         0.06811701     26.36242485     21.17168236
S        13.55590534     12.73496914     21.39166832
S        14.01894283     26.32601166     21.09697723
S         3.53358650      2.24318099     11.80413532
S         3.22769976     16.05023766     11.54425907
S        17.28071022      2.46481276     11.69841194
S        16.36898804     16.17692566     11.74461174
S         0.84209609     12.50805092     25.06804276
S         0.75887889     26.08697701     25.62083054
S        14.60721684     12.43397903     25.66804123
S        14.11226463     26.11586761     24.93123817
S         6.90851688      9.09165192      4.61531496
S         6.83991146     22.49891281      4.72790766
S        20.66019440      8.70975494      4.99754667
S        20.64899635     22.61791039      4.64654970
S        10.63022232      5.92524338     18.30497742
S        10.62178802     19.61754227     18.12114716
S        24.22734451      5.62527704     18.42901802
S        23.91467476     19.40519714     18.01307297
S         0.66848618      2.43789577     14.41891575
S         0.19116910     15.47777367     14.37614155
S        14.40561008      2.48761463     14.07583141
S        14.16701698     15.97025585     14.96551991
S         3.74211574     12.57071495      0.63797498
S         3.62722230     26.29496193      1.00363111
S        17.76831627     12.66113186      1.11974025
S        17.18846321     25.96845627      0.37099874
S        10.69953346      8.69921970     21.20718575
S        10.64493942     22.10521507     21.18260956
S        24.45927238      8.59263611     21.28704643
S        24.31295967     22.47523308     21.21541405
S         7.09569979      6.14778137      7.42943668
S         7.16096830     19.79873466      7.61646175
S        20.86126137      6.00026846      7.60445261
S        20.74093246     19.93651772      7.48452473
S         0.92483777      1.89119649      0.85481632
S         0.85762435     15.33255196      0.38830516
S        14.19298649      1.25714004      0.95790225
S        14.45786667     15.29270554      0.93876994
S         3.29166555     13.43276024     14.28220844
S         3.45164108     26.43977356     14.53545666
S        16.96437836     13.25643444     14.20979309
S        17.22339249     26.95693779     14.68692303
S         1.09436703     13.08649731      7.44777918
S         0.86670572     26.68987656      7.76778698
S        14.52055454     13.06878281      7.84122324
S        14.45446587     26.51414299      7.68792486
S         3.04499555      1.81418109     21.30102730
S         3.09992361     15.40713406     21.19570923
S        16.71118164      2.08031988     21.14306450
S        16.85445786     15.26487064     21.27098274
S         3.02264094      1.67324090     25.26067734
S         3.65007281     15.52283573     25.04144287
S        17.11956406      1.79046988     25.21396065
S        17.36886787     15.32970810     25.37865448
S         0.75016522     12.77469254     11.46484852
S         0.64721280     26.83173943     11.77664757
S        14.24193573     12.76266766     11.75955105
S        14.74235916     26.75386047     11.60918713
S         3.13127470     12.75094700     18.09795380
S         2.85502148     26.63445473     18.30582619
S        16.29311943     12.61769962     18.45378876
S        16.64876366     26.47794151     18.45440292
S         1.00347006      2.02289248      4.89024019
S         0.72268927     15.71912289      4.81350660
S        14.27614212      1.87175822      4.72865629
S        14.33036900     15.77489281      5.27780294
S         7.54879570      8.69891167     14.55722427
S         7.23165178     22.32214355     14.47163010
S        21.01286697      8.50832748     14.67965508
S        20.90013123     22.16309929     14.21480274
S        10.16965389      6.47557259      1.04773772
S        10.39460278     19.79161072      0.97377998
S        23.71788025      6.44947386      0.71739620
S        23.92414856     19.85152626      0.90473747
S         7.93362617      5.91769171     21.33921432
S         7.88040495     19.56129074     21.27801704
S        21.59404373      6.02286196     21.26934814
S        21.64578819     19.51295280     21.15035439
S         9.71631336      8.86130619      7.56968641
S         9.92340946     22.42585182      7.46398830
S        23.54050827      8.92041206      7.50904894
S        23.69945908     22.65202904      7.34619904
S        10.13680935      8.58715630     11.74113369
S        10.38272190     22.31070328     11.68020058
S        23.66063309      8.54457569     11.62616062
S        23.90661240     22.07807159     11.43857670
S         7.57626581      6.38340807     25.24494171
S         7.56349707     19.72681808     25.06361008
S        21.27289581      6.29171276     24.82632637
S        21.30370712     19.93396759     25.03813362
S         9.36212063      5.99859238      4.62544823
S         9.83144569     19.81949806      4.78448915
S        23.70128250      6.28262854      4.48830748
S        23.73980713     19.96703529      4.90731478
S         7.90105581      8.40401077     18.52573586
S         7.67166996     22.22974586     18.66548157
S        21.51859665      8.65240574     18.37493134
S        21.56462288     22.19697571     18.22533035
S        10.20210743     12.89059258     25.42344856
S        10.34761429     26.92069817     25.26009941
S        24.09297371     13.14295673     25.07671738
S        24.22470093     26.64089203     25.30512810
S         7.28371763      1.76787353     11.31743622
S         7.33520365     15.68444443     11.74594307
S        21.16038322      1.75153840     11.52949905
S        20.94051552     15.69671154     11.45585155
S         9.68007851      1.89165652     18.50140381
S         9.69523525     15.97373199     18.14968491
S        23.45205688      1.84946370     18.24607277
S        23.40521622     15.36380482     18.06373787
S         8.25073814     13.02705574      5.00324965
S         7.52961731     26.72573853      4.75994110
S        21.47228813     13.06014156      4.73529148
S        21.48275185     26.45682335      4.62431622
S         7.59330702     13.01067162      0.95011848
S         7.58527517     26.79615402      0.63844603
S        21.38795853     13.54402542      0.73269993
S        21.38148308     26.59869957      0.69889647
S        10.31191635      1.90552926     14.22101688
S        10.00751114     15.45828629     14.36276531
S        23.83375931      1.61061680     14.18627357
S        23.83145905     15.27839565     14.23677349
S         7.48799849      2.32980657      7.45798588
S         7.91778564     15.84418201      7.92826128
S        21.08402634      1.86294699      7.59590054
S        21.25270653     16.03922081      7.19388819
S         9.75335789     12.89335537     21.20972824
S        10.06681538     26.30012512     21.13772202
S        23.22123909     12.76961040     20.79603958
S        23.31552505     26.40671158     21.33646584
S         3.47838616      6.40685701     11.61428547
S         2.95960450     19.77470016     11.42085171
S        16.84341049      6.42018175     11.35381126
S        16.83970833     19.80283928     11.59221935
S         0.59095073      8.59939289     25.17534065
S         0.88925922     21.91437531     25.07734299
S        14.14393806      8.56341934     25.29947281
S        14.39318085     21.94284630     25.11779976
S         2.86018205      9.11732292      4.95844316
S         3.32536936     22.39567947      4.72599697
S        16.86354828      8.78861141      4.99204636
S        16.72630882     22.45442963      4.83461618
S         1.21859634      5.87014103     18.38888359
S         1.32040763     19.47622490     18.31222343
S        14.66947460      6.10776758     18.41110992
S        14.75828648     19.24378967     18.72929192
S         0.76607490      6.49305630     14.40540409
S         0.45773420     20.02599716     14.40098286
S        14.31754684      6.50477886     14.41624260
S        14.36237907     20.13999748     14.62480736
S         3.22728086      8.59284306      0.71995741
S         3.56628966     22.11403847      0.75086915
S        17.25667763      8.70522022      0.83055431
S        17.08909988     22.15784454      0.81345856
S         1.09501767      8.55967617     21.30397797
S         1.22945738     22.07442665     21.30786133
S        14.60141277      9.23248005     21.08449173
S        14.88958931     22.20828629     21.67905426
S         3.40251780      6.19416428      7.56471062
S         2.91432762     19.55564117      7.61229420
S        16.65382385      6.08599854      7.70351696
S        16.82127762     19.90282440      7.87791681
S        -0.08222420      3.40194559      8.61277008
P        -1.36699665      4.52159262      9.84638596
S        -2.70426559      5.59905434      8.68274593
S        -2.57653832      3.22481060     10.90250301
S        -0.18530403      5.89521742     10.99183369
S         0.01404852     16.34448814      8.51185417
P        -1.32080328     17.59964943      9.63737774
S        -2.68221235     18.74225807      8.34015369
S        -2.34650588     16.13124275     10.72769070
S        -0.10795414     18.77773285     10.74864483
P        11.93628120      4.37500811      9.63259315
S        13.31084061      3.10972834      8.52681160
S        10.57538033      5.56685638      8.44264603
S        10.96961498      3.05067897     10.78809452
S        13.03581429      5.52372169     10.80507469
S        13.21554756     16.53727913      8.75802517
P        11.88570786     17.66650581      9.93860722
S        10.68784428     18.75807762      8.78114510
S        10.83342552     16.33595467     11.00026417
S        13.11715412     19.00491524     11.06004047
S         6.68574572      9.47675228     21.91190720
P         5.50387526     10.48079014     23.14932632
S         4.30379677     11.64683247     22.03947639
S         4.56486464      9.18586445     24.55952072
S         6.68618965     11.58109951     24.58947754
S         6.43745327     23.37236404     22.00488663
S         4.09413242     25.69234657     22.14174080
P         5.41574955     24.44227982     23.32777786
S         4.33530617     23.06121254     24.59753227
S         6.45591927     25.65877151     24.64140701
S        20.56334305      9.51893425     21.73280907
P        19.48990250     10.58405685     22.96085930
S        18.11426735     11.85776615     22.00901985
S        18.31672478      9.31981277     24.12065506
S        20.53721809     11.94058800     24.23741722
S        20.57332611     23.24670601     21.82061577
P        19.32000732     24.31795311     23.13638306
S        17.90340996     25.29562950     22.03562737
S        18.21336937     23.09518623     24.39950371
S        20.53070450     25.28137016     24.51244354
S        24.66675758     11.75150967     17.62430763
S        26.86065102      9.21612835     17.43664742
S        26.99542809     11.83465099     15.18306351
P        25.85763550     10.52433681     16.35709763
S        24.62576485      9.41664982     15.01952362
S        24.58775902     25.39476776     17.51263809
S        26.85750580     23.06146240     17.32152176
S        27.00916672     25.48420143     15.02208710
P        25.82470894     24.27818108     16.16618538
S        24.59214973     23.28315163     14.91776562
S        10.98855782     11.89143372     17.52638245
S        13.40979385      9.34111977     17.34106255
P        12.39988327     10.72399521     16.41825485
S        13.50394630     11.92151260     15.30399990
S        11.02869415      9.61391068     15.19670486
S        11.23832321     25.70088196     17.66299820
S        13.53332806     23.31591797     17.46434212
S        13.59278488     25.69540977     15.16069698
P        12.35212994     24.60131073     16.30551147
S        11.15930748     23.46491432     14.87399769
S         3.78272367      5.14479637      3.78863430
S         6.43390083      3.00707674      3.98627663
S         6.38585043      5.28211546      1.57217634
P         5.14645290      4.08112907      2.62236190
S         4.19226551      2.67207003      1.57859957
S         4.34322786     18.63146019      3.91305208
S         6.83122253     16.51940346      4.16192150
S         6.82015705     18.85395813      1.65984511
S         4.60715151     16.08504295      1.61467588
P         5.62704086     17.49778175      2.76859593
S        17.59512329      4.75682831      3.96355629
S        19.99924469      2.72507811      4.06562281
S        20.06834221      4.90427542      1.61520934
P        18.94613457      3.68528938      2.77452374
S        17.95192909      2.26736951      1.59318435
S        17.64737892     18.79420853      3.85263276
S        20.22469139     16.66412735      4.00121737
S        20.19529724     18.88487625      1.50999022
P        19.02278328     17.70781136      2.60660720
S        18.06564140     16.28397751      1.48030114
S         4.43311214      2.70341277     17.45089912
P         5.49165487      4.01150990     16.24579620
S         6.78083992      5.14873838     17.39863205
S         6.56351376      2.77143598     15.03164387
S         4.21934319      5.20087624     14.94594097
S         4.16224813     16.13134193     17.85563278
P         5.38355303     17.42932129     16.73377609
S         6.56541586     18.72313118     17.80501747
S         6.38048458     16.16174126     15.44298840
S         4.12294006     18.60612106     15.54811859
P        18.94383812      3.99870825     16.64203835
S        17.85989952      2.87731051     17.87919807
S        20.22253227      5.16174507     17.76139641
S        20.21629143      2.80877376     15.45605183
S        17.71227455      5.22271061     15.56558418
S        17.85805893     16.27359581     17.66566658
P        19.03115463     17.35234833     16.48572922
S        20.14781570     18.57951546     17.59361076
S        20.10058403     16.20144463     15.34260082
S        17.59577179     18.71079445     15.34243584
S        24.56812286      9.71611500      3.87966108
P        25.70085716     10.94340706      2.64709425
S        27.13114357     11.97454643      3.69170618
S        26.71123123      9.64608860      1.28708041
S        24.73048592     12.18882370      1.23073125
S        24.83429146     23.04571724      4.03822422
S        27.61748505     25.43370056      3.81296563
P        26.19005775     24.22091293      2.89021850
S        27.22195435     22.95648193      1.71370947
S        25.11105537     25.59743500      1.75370109
S        11.39349651      9.61075592      4.27370024
P        12.47988987     10.74033642      3.02570367
S        13.83728886     11.83151722      4.18209219
S        13.55671692      9.29270172      1.81447482
S        11.43180561     12.09210110      1.87573349
S        13.70190620     25.32766533      3.78877020
S        11.08941460     23.54298019      3.98403931
P        12.31180096     24.52283096      2.53269243
S        13.41917419     23.35246277      1.25655973
S        11.16071796     25.61368179      1.26386917
P         5.41926622     11.04559994      9.27213383
S         6.63187122     12.09120274      8.03037739
S         4.00533962      9.95469570      8.30265617
S         4.32204342     12.39456654     10.53212357
S         6.59158993      9.71415710     10.34894180
P         5.25649881     24.48391533      9.75424194
S         6.44963455     25.43654633      8.34071350
S         3.93892813     23.42727661      8.50112343
S         4.30336428     25.80502510     11.03589153
S         6.53647137     23.20265961     10.87090111
S        20.04688644     11.90033245      8.32844257
S        17.61782265      9.87924480      8.53084564
S        17.96851158     12.22025204     11.04392624
P        18.92140388     11.03303719      9.67582703
S        20.04159164      9.71081448     10.84184647
S        20.25324821     25.42858315      8.43731976
P        19.09443092     24.42706108      9.67835712
S        17.79259109     23.24912071      8.70983505
S        18.04586411     25.77571106     10.91183758
S        20.19256401     23.02247429     10.67498589
S        13.63131428      5.16870737     21.99917984
S        11.08568478      3.04795027     22.09712410
S        11.31247044      5.50132561     24.21316719
P        12.38576889      4.14956617     23.17147446
S        13.58973885      2.84572029     24.32776833
S        13.46884918     18.55166626     22.26046944
S        10.93894482     16.35684776     22.34724998
S        11.27390575     18.78165054     24.55885887
P        12.32819939     17.49585152     23.43377876
S        13.34877491     16.26397133     24.68333054
S        -0.27767721      5.14158916     21.73216629
S        -2.76961374      2.82655430     21.81535339
S        -2.47202635      5.45039415     24.37287521
S        -0.47985974      2.84299564     24.34886932
P        -1.44069934      4.10666513     23.02109528
S        -0.01537802     18.63235855     21.91064262
S        -2.51152134     16.29206848     21.86367416
S        -2.18599486     19.04331017     24.38564110
S        -0.12343275     16.32872009     24.35229874
P        -1.22066200     17.58425903     23.09067154
