832

Na       51.46586227      2.45922279     22.07087708
Na       55.21971893    -34.28743744      8.29092216
Na       29.35876656     -0.20088589    -76.75837708
Na       76.04291534     19.53171921     -1.75934398
Na      -70.79965210     -6.12661934     80.06529236
Na       21.20904922    -24.49541855    -25.92218971
Na       31.58178711    -20.99112129   -103.67720795
Na       48.39533615     70.90670776     76.77660370
Na        0.77297413    -62.83172226    -93.96784973
Na     -134.58634949     67.45132446     11.52868748
Na       82.60255432     41.20630646    -11.60888672
Na      -12.58551693    -10.82785034     42.49748230
Na      -39.16335297    -54.99618149     39.10268402
Na       24.26317596     16.63788033     53.42347717
Na      -67.35298157     68.06980896    -86.21841431
Na      -22.50677681     36.85440063    -22.25921822
Na       20.69144821    152.45812988      1.80070484
Na       11.08978271     -3.99464917     22.28674316
Na      110.11331940    -27.76165390     55.92068863
Na      112.83753204     57.45171356     82.17663574
Na      -60.57244110    -55.09881210    127.75290680
Na       28.29523468     -3.73621058    -45.59489059
Na      -22.53145981    -81.09392548     38.83819580
Na        8.13095570     30.62693977     28.73798561
Na       41.72448730     47.04140472     55.93210602
Na      -87.77149200     40.92595291     52.89650345
Na       10.60784626    -51.35840225     80.29335785
Na      -35.84949112     78.16205597    -45.55544281
Na      -66.88995361    -27.34485626     15.28588676
Na       31.41420937    132.62388611     53.06924057
Na      171.47619629    -68.14268494     -1.10162699
Na       61.88856888     71.36859894    -45.36816406
Na      -84.26772308      2.65441489    -38.73859787
Na       38.47760391    -42.24325180     11.89740658
Na       41.77767181    -41.21289825    -62.79453659
Na       21.77890778      5.96650934    -31.93703651
Na        1.55703652    142.14617920    -89.76412201
Na       14.99945354     64.27154541    171.93225098
Na      -36.58300781     -4.18979263     -5.29228258
Na       18.70343590    -30.62615776     59.80978775
Na       65.92935181     91.59513855     63.82255173
Na       14.48734474     -4.17552757     22.53270149
Na       14.50368977     40.02438736     25.44748688
Na      -49.23853302     39.87726212     39.03837585
Na      -12.91312408     16.34707069     21.76531410
Na       -9.53376102     30.27876663    -18.18127441
Na      -57.02107239     12.86232185     46.56618500
Na       82.39472961     57.47931671     83.30451965
Na       37.89050674    -78.83786774      8.54142284
Na     -118.33348083     80.26071167    -29.34820366
Na       31.20184898    -24.14716339    -35.55158615
Na      -40.06782913     75.20867157      8.32877827
Na       35.42150116    115.20862579    107.05056763
Na       -5.83371353      6.00976133     15.72107124
Na       18.00005722     84.77877808     15.29406548
Na      -29.88508797     36.73581696     33.24008560
Na       25.23714828     -3.99978948    -65.91431427
Na       -9.28645611     70.83673096     -4.98318672
Na       28.46221161      6.00096273    -59.36225510
Na      -45.87594986    -14.48901653    -21.37783051
Na      -43.09977341    -38.32197189     39.44779968
Na       35.44852448      9.97112846    -11.90083027
Na       28.86024094     36.78998184    -86.27148438
Na       55.25194550     26.06931305     76.51869965
Na       38.86249924     26.94845772     59.73157120
Na       -5.66622829    -69.55285645    -35.17193985
Na       -8.91378117     10.20557690     15.89317799
Na      -66.25213623     33.53836823    -32.21543884
Na       45.46041107    -17.47510338    101.11544037
Na       58.64325333     20.19286919    -22.55038071
Na       59.17723465     78.38432312     59.57240295
Na      -18.95859528     77.31985474     15.66146183
Na       -8.56345272    105.12083435    -37.11491776
Na      -49.77678680    -10.54532909    -42.12258911
Na      -67.14612579     84.58010864     35.82542419
Na      -97.16204071     33.82335281    -55.92551422
Na       80.55026245    -13.83355713    -21.77065277
Na       21.70026016     -3.92498183      8.61800957
Na      -12.64590645     -0.49098241    -28.88530540
Na     -124.09623718    -91.59406281    -25.55253410
Na       79.34239960    -38.22941589    -14.93211842
Na       -2.26056075    -20.75884247    134.72753906
Na       45.36413193    -88.25993347     18.84936523
Na        4.24325228    117.92634583    -42.85675430
Na       -2.63856173     23.18083572    -28.96239662
Na      -46.65530014     81.71256256     56.33039474
Na       79.11995697      4.82809162     -8.44063759
Na       48.93789291    -72.18335724     69.72571564
Na       18.05687141     27.13616562    -35.45381165
Na       -8.64088821     44.12363052     15.54080391
Na       28.21780968    122.28747559     73.39658356
Na       32.04502869     23.82726669     -8.93488789
Na       51.43322754     17.09643173     59.80899811
Na       24.64923477    111.54793549    -18.84223557
Na       18.13524055     44.10914612     35.60527420
Na       -3.11814833    -10.16650105    -24.96138954
Na      -12.43137360     94.81678772     12.00047398
Na       75.87402344      6.30997229     83.82293701
Na        4.05003881    -21.85092545     -1.80164337
Na      113.45181274    -14.53945827     18.72386742
Na       11.80656624    -65.11009216    -18.04668617
Na       14.60764408     -3.60601330      1.52926373
Na       -5.68402147    -89.72550201    -11.27758217
Na       55.61316681     34.10818100    -39.29035568
Na     -101.69384766     37.37674332    -25.44905853
Na      -63.60479355    -27.69242668     59.88938522
Na      -46.48484421     26.69407845    127.37743378
Na      -25.05940247     92.16898346    -24.77701569
Na        0.40657777     81.23340607     -8.73702049
Na       -5.94308949     40.37123489      2.15672183
Na      103.56705475     12.83570385    -18.24542809
Na      -50.41880417    132.50952148     76.27648926
Na       -2.44109845    -71.29631042    -52.76680374
Na      -49.88563538     51.14927673     96.76334381
Na      -30.04574203     84.57522583    -28.54059982
Na       21.31083107     -3.72052455     22.21334457
Na      -36.96092987      2.57243705      4.97284603
Na       37.96182632     17.52067375     -1.62817049
Na      -12.36677456      9.79261112     -4.77179766
Na       58.70397949    203.72810364     26.05030251
Na       66.32375336      6.55945396     86.91278076
Na      -47.04793549     15.91977215     22.37694168
Na       21.81230736     50.02130890    -65.92318726
Na       66.20175171     84.74240112     -4.90733242
Na       -1.98423135     43.38769913    -93.46820831
Na        8.23026752     54.25133896    -46.50104523
Na       58.86128235    -37.99848938    -35.10569382
Na       28.94333267    108.52149963      8.27823448
Na       85.73757172     16.67119980     49.77496719
Na      188.59008789      9.62868404    -45.58159637
Na       50.23670959    -21.18264771    -14.71699238
Na      116.93568420     69.01079559    -69.26295471
Na        3.83088875    -27.26118660    -28.65004349
Na       21.64042664      6.36069584     25.58377266
Na      136.31539917     60.06101608   -123.67421722
Na      -14.93693924    -57.73514557     -1.34033799
Na       -5.71050882     57.07173157     15.47190666
Na      -29.10955811    -60.84326935   -103.94795227
Na       55.52603912     61.14513016    -52.55870819
Na      -16.12691879    -21.00312424     45.78785324
Na      103.61991882     -1.04392469     15.61420822
Na       52.81893158     -0.38823652    -15.26429558
Na       -9.19894886     -3.08880758     12.59930706
Na      -43.10138702    -17.56611061     22.05699921
Na      -36.01077271     20.60834503     39.10027695
Na       72.35533905     64.48796844    -29.06009483
Na      -61.97170639    -51.51863480     49.16720581
Na       89.20546722      3.13390732    -17.35557938
Na      -53.49962234    -20.61558723     -2.05271029
Na       17.65133286    -24.32678795     28.65573311
Na       79.72261047     84.62660217     32.50612259
Na       11.39874554    -14.07541275     45.93520355
Na       18.58817863    -20.39197350    -15.17561054
Na       69.37735748    112.10453796     56.63119125
Na       44.83281326     16.42854500    -22.52601624
Na        4.10765886    -78.95017242     32.31560898
Na     -100.87795258    -35.42242050     15.84874344
Na       49.03938675     61.30996323     19.34332466
Na      -56.24374771     13.11307907     39.52985001
Na      -66.84890747     -7.20041800     15.10274696
Na      -19.18365288      6.93437624      1.54851377
Na      -30.26176262     26.93203735     -8.39984989
Na       89.48372650    -30.31031990     -4.93570948
Na       -2.10031438    -31.08137703     -5.71864223
Na       31.98429489     77.61658478     28.54444695
Na       -2.64102268     16.33099747     21.96574020
Na       52.75284195     98.02243042     -8.32068634
Na      -39.61872864    -26.90641403    -21.84996796
Na      -43.21132278    -21.29539299    -69.64672089
Na       25.28907585    -34.61595535     52.73797607
Na      -18.78255653     51.09439087     83.66480255
Na       -7.21735096     37.83875656   -127.14877319
Na      -64.24201202    -78.60052490    -35.74561691
Na       21.50197983    -44.77185822    -24.22144699
Na      -43.55839539     74.54358673    -49.37592697
Na       72.54173279    -24.68554497     25.23986053
Na       89.23695374    -37.81669235     56.50728226
Na       21.33263397     40.69728088    -32.62052155
Na        4.46788454     -7.14055634    -62.99510574
Na       48.09035492    -20.51517296      9.35904121
Na      -56.68386459    -37.68770599     63.44411087
Na       -6.25175571     80.83519745     49.88423157
Na        8.10982132    -42.30546951    -58.89402390
Na       83.20686340     -0.90496492     11.51471424
Na       -3.52413011     -0.66302931     79.98118591
Na       -7.90045071     44.23392487     39.05200195
Na     -100.57915497    -81.92773438     11.71491909
Na        5.16378880     36.62488556     73.92401886
Na       10.80946732      9.37812424     18.08063507
Na       11.40516090     -4.03244019     90.62234497
Na       18.61148643    -23.99344444    -15.03244209
Na       38.29573059     22.44838333     18.30844116
Na       69.56820679    -35.23584366     18.50139427
Na       -9.38770390     19.13084412    -56.32105255
Na       38.90486908     57.15810013     18.87707710
Na      103.60909271     13.72980499     66.92465973
Na       15.31634521     51.30953217     35.80137634
Na        1.54513061    112.06089783    -38.93318176
Na       41.70134735     87.83691406     66.57633972
Na      -53.42764664    101.44917297     93.53089142
Na       82.91783142    -61.70553207      5.06591749
Na      103.07151031     -7.28583431     38.60972977
Na      -15.91051197      2.85461187     59.73627090
Na       39.08694458    -31.56052399     42.96282578
Na       21.66235924     27.13595200    168.59422302
Na      -59.98109436     40.16564178      5.49620533
Na      123.94513702     23.52999687    -12.48515511
Na       17.85187149     -4.22542953     29.19198799
Na        4.41709042     30.66994667     42.15053558
Na      -83.06307983     20.64719391    -62.99533463
Na       31.33274651    -64.90838623    -21.91530800
Na       11.28198147    -72.22808075     68.97642517
Na      -26.31637764     98.05178070     49.18066406
Na      -61.15394974     37.34030914     -4.96092463
Na        7.79190397     -0.88629514    -66.68473053
Na       11.45873451     30.42003632      1.66359615
Na      -73.27789307     56.93459320     69.62273407
Na      -63.47766113    -13.59928608     11.95382500
Na       75.96234894    -55.45722580    137.60034180
Na        4.93751049    -30.53186226     39.23642349
Na     -118.18178558     22.93311501    107.46240234
Na       62.38084793     19.97040367     19.32996368
Na       49.00626755     -0.33397481      8.54219437
Na      -56.76477051     -4.31835556    175.41647339
Na       79.85014343     -0.39092162     32.37294006
Na      -23.00781250     47.12632751     11.74389553
Na      -70.83084869    -34.46985245     12.12153435
Na      -39.47443771     84.72930908     76.64910126
Na       89.01265717     -7.38060570     32.49810791
Na       96.76220703    -45.32167435    -11.89237118
Na       44.63801193      9.69018555    -15.38438320
Na        1.52181077     37.82027817     70.17945099
Na      -29.46111870     -4.04453421    -46.31707382
Na      -46.61333084     67.68359375    -24.54323578
Na        7.05605698    115.16246796    -15.40713120
Na       78.95078278    -35.05713654     93.66746521
Na      -16.43096733      0.07108780    -56.09463120
Na       11.15930367     37.55946732     56.33898544
Na      140.48239136    -51.35196686     35.73911667
Na      -50.36662292    -38.29907608     56.36456680
Na      -21.69158745    -17.09061050    -67.00914001
Na       28.22778320     -4.65579939    -79.95059204
Na       69.05161285    -20.52965164    -29.08862305
Na       24.97607040     64.11590576    100.75180817
Na      -46.20087051      6.47792196      4.96990490
Na       38.48020554     51.14660263      4.67989349
Na      124.25493622    -95.83470917    -73.28660583
Na      -42.84698105     -3.99754810     39.13425446
Na       66.18839264     71.95469666    141.39962769
Na       90.23268127      6.63876677     49.15062332
Na       62.34899139    -34.03932953     -4.36709881
Na      -12.72161674    -20.63107491      7.38604450
Na       48.51042557     -7.03525448     87.18173218
Na      -56.62607193    -17.57062721    -28.60374451
Na       17.89393044     33.23009872     52.94985580
Na       78.69384766    -48.34799957     59.99675751
Na       62.23244476     20.78661156    -53.31710434
Na        3.67464876     -0.22829908     45.98730087
Na       76.63684082     74.20561981     -5.11342716
Na        1.39283121    -34.39756775     79.55007172
Na      -26.56753922    -91.36100769     56.44770813
Na       86.12649536     23.03152084     35.58067703
Na       55.28488922    -14.72779179     52.77672577
Na      -29.74366570     58.08682251     29.06255531
Na       48.47845459    -10.14223385      8.45536518
Na       89.87653351     30.39378929    -59.55884552
Na      160.77294922    -17.73913193    -31.77142715
Na        4.73370981    -17.71634102     -1.11337912
Na      -12.48567104    -27.61282158      1.77783310
Na       28.94996071     74.01530457     18.76210594
Na      -36.18184662    -17.36629868    -48.68896103
Na       -9.31286430    -17.82955551     28.99172020
Na        1.04074383     71.09803772    -45.86021042
Na      -66.73048401    -10.67651749    -45.95786667
Na       49.27322769     19.89409637     18.92761040
Na       85.57719421    142.01721191     12.10770988
Na        5.62200594    -72.06642914    -58.62062073
Na      -49.94893646     16.34582901     26.07330322
Na      -73.52593231     36.43350601      8.26679516
Na       21.38656044     -7.41048241      1.85435402
Na      -43.08981323    -13.63507652     59.98015594
Na      -53.80867386    -79.28966522    -32.37133408
Na     -107.75286102     -4.44600391    -39.28060913
Na       14.85127831     40.59986877    -49.64688110
Na       41.65851212    101.75971985    -76.65829468
Na      -26.35855865     12.60868740     22.35493660
Na       38.41137695     13.72933006    -56.16213226
Na       41.93688583     12.76577759    -93.37868500
Na       14.66716957     60.81760788     18.38578415
Na       17.71200752     74.16038513      5.36829948
Na        8.04535389      6.28538799     45.85927582
Na      -39.32469559    128.92466736     49.25655365
Na       35.42974091    -68.18161011    -38.84129715
Na       86.07895660     30.24190521     77.10521698
Na       69.20809937      7.12736416    -24.95026207
Na      -12.39605904     26.84145927    -36.15760040
Na      -91.39632416     16.74662971      0.83744675
Na       24.71067810     23.76399422     84.54132843
Na      -15.79969406     57.19670868     93.33816528
Na     -118.29377747    -68.76171112     59.37915802
Na      -66.81704712     47.53432465    -56.53308868
Na      -59.99356842     81.53320312     66.37149811
Na       18.20111656     67.77160645     -8.41895294
Na      -71.21681213    -10.11213970     -5.41194296
Na       66.04229736     29.42773438    -38.95536423
Na      168.46794128     13.24175644    -48.95998764
Na        1.32093859     74.54983521     -5.16250515
Na       89.28015900     81.79244995     21.61307335
Na       55.80404663    -71.84489441     36.55796432
Na       14.77124023     41.83744049    -25.71767235
Na      -53.38684464    -21.43091965    -18.07994080
Na      -39.88147354     92.15007782    -52.85896683
Na        7.89980841      5.80267859     35.24284744
Na        0.73316145    135.43321228     52.16070938
Na       25.36983109    145.46217346     16.03948402
Na      -19.56238174     -0.60130775   -131.28852844
Na      -15.82398987     17.07815170    -36.20159531
Na       20.98568153     58.01319504    -45.90116501
Na       44.94052887     68.76290131     -1.69477415
Na       35.02956772    -31.00003052    -45.66158295
Na     -117.61403656      6.37923813     18.96934128
Na      106.29431152     67.68469238     80.70696259
Na      -26.13665390     26.92703629    -66.69224548
Na      -15.04793549    -27.55019188     66.39266205
Na      -19.27273178    128.74383545    -69.79966736
Na      -22.83856964     17.07625580    -11.52847862
Na       71.90495300    -75.03138733     32.13715744
Na        8.06504059    -21.08244705    -67.03356934
Na      -29.97809792      3.33474016     11.61840725
Na       52.30454254    145.90176392     12.11097717
Na       14.42719078    -23.32663727     15.53866005
Na      -25.62912560     68.00991821     55.93930054
Na       28.22886467    -24.18228912      8.06145096
Na       20.96011162     -4.53046656     29.31527519
Na        1.64329243    -68.99948120    -18.89268875
Na       12.12903881     26.00492287     46.24003601
Na       68.80847931    -61.19215775    -97.09372711
Na      -74.02421570     13.12530994     19.20780945
Na      -59.89847946    -40.84793854    -11.29107571
Na       68.83294678     81.34030914     49.25580978
Na      -46.69371414    -27.06237793     52.74974442
Na       72.43167114     44.06069946     18.59837723
Na      -45.88378525    -13.95354843      9.18397427
Na        4.78065252     36.95937729     63.13791275
Na      -98.01586914    -44.56620026    -21.72990036
Na        4.45692348     19.56322289     25.36498260
Na       55.46916199    -21.36760712    -21.45722008
Na       39.07829666    -98.80901337    -55.77686310
Na       18.68428421    -54.80450821     11.88903332
Na       21.06623650     33.76346970     87.24417877
Na      119.66219330     16.24287605     42.89426041
Na      -19.27483368     19.22542381     35.34055328
Sn        5.13193321     13.41300583      8.68952751
Sn        4.97809887     26.48514366      8.59501553
Sn       18.42084503     13.53763199      8.58656788
Sn       18.22420311     26.94173622      8.43896389
Sn        4.16616535     -0.40948686     22.36107254
Sn        4.49886513     13.09473705     22.59325027
Sn       17.71531868     -0.29430398     21.96130753
Sn       17.84844589     13.05414104     22.06397438
Sn        4.53481531      0.04667291     15.23667431
Sn        4.99679661     13.25632668     15.65268326
Sn       18.12511444     -0.38355020     15.40530777
Sn       18.38477325     13.35514259     15.12847805
Sn        4.76627970     12.81984043      2.26875377
Sn        4.67822981     26.51817322      1.71516144
Sn       17.83874702     12.70077133      1.61257875
Sn       18.25090218     26.61334610      1.70520449
Sn       11.94407272      6.53256035     21.96126938
Sn       11.56717205     20.05665588     22.04874420
Sn       25.03928947      6.17191219     22.32951927
Sn       25.47999001     19.83583641     22.17907143
Sn       10.96427727      6.36342621      8.79889584
Sn       11.06912708     19.75215149      8.67387772
Sn       24.39493752      6.32537746      8.72430611
Sn       24.40986061     19.89301872      8.39435863
Sn       11.23831844      6.87103081     28.91602135
Sn       11.22052479     20.86012077     29.16091728
Sn       24.87575150      7.04563284     29.07267380
Sn       25.02534294     20.29199982     28.69776154
Sn       11.34113216      5.62733889     15.43463898
Sn       11.81528759     19.67651939     15.33680534
Sn       24.79306030      5.88217545     15.75854206
Sn       24.82603836     19.20286179     15.37483501
Sn       11.01216602     -0.26020107     22.18980217
Sn       11.28034401     13.35790634     21.97624016
Sn       24.39868164     -0.68386692     22.09070969
Sn       24.65822792     13.01354027     22.62998581
Sn       11.85879993     13.25635529      8.74926758
Sn       11.80545425     26.58753204      8.55127430
Sn       25.42587662     13.02713776      9.19188595
Sn       25.26113510     26.35074425      8.66210079
Sn       11.51349258     12.98705864     15.21684933
Sn       11.19249535     26.30135155     15.43537045
Sn       25.04071999     12.43151474     15.90118313
Sn       24.89806938     26.29987907     15.45142937
Sn       11.28029251     -0.12229145      1.74734271
Sn       11.43268681     13.84357166      2.06805921
Sn       24.59203720      0.20318350      1.63746142
Sn       24.66603088     13.81570148      2.35947728
Sn        4.41017532      6.54978657      8.47708797
Sn        4.08888340     19.65411568      8.38856125
Sn       17.54471588      6.51356792      8.83151245
Sn       17.79489517     20.12148857      8.55659008
Sn        5.02620029      6.27966976     22.09700966
Sn        4.81633282     19.97466850     22.14837837
Sn       18.41691971      6.45003271     22.35925102
Sn       18.49584198     19.83875275     22.22261047
Sn        4.75238609      6.08211660      1.85188067
Sn        4.26754332     19.81453705      1.73344004
Sn       18.32426071      6.37836552      1.93036532
Sn       18.03107071     19.83651543      1.74968243
Sn        4.62210655      6.97515774     15.58453369
Sn        4.56944799     20.48004913     15.02149105
Sn       17.98642349      6.69630146     15.52799225
Sn       18.37394142     20.37612534     15.05986595
S         3.36367464      4.62348700      2.91505647
S         2.82329464     18.44465446      3.14905787
S        16.77695465      4.85086060      3.06085992
S        16.64125824     18.36365318      3.09154201
S         6.36157465      8.27430916     16.60022736
S         5.80903053     21.79903221     16.53195000
S        19.49994850      8.06648159     17.07904434
S        19.82705879     21.32101059     16.84304619
S        13.19620895     11.78094673     10.08557320
S        13.19501877     25.21431160     10.10757542
S        26.84649658     11.50314999     10.50146675
S        26.47871780     24.88071060     10.16455078
S         9.59101677      1.38119793     23.53438759
S         9.83658314     14.67830181     23.34359169
S        23.25794411      0.67548549     23.50649071
S        23.08480835     14.79232025     23.93614197
S         6.08485317      4.99887371     27.56773949
S         5.56667185     18.10420227     27.82931328
S        19.67688751      4.80143690     27.89615631
S        19.51289749     18.38599014     27.76601791
S         3.05065131      8.46540070     14.32734585
S         3.33675051     21.92979240     13.62301826
S        16.84528923      8.16335678     14.05716038
S        17.05109978     21.96538925     14.02062035
S         9.99176311     11.81149483     20.71573448
S         9.54209232     25.74624252     20.66805840
S        23.10816002     11.67844200     21.47809410
S        23.21749687     25.07363129     20.56261253
S        13.10983944      0.85077542      7.27107525
S        13.06796360     14.73359203      7.32173347
S        26.60325432      0.64189273      7.31726646
S        26.76858139     14.45148659      7.77362823
S        10.06253147     11.51451302     16.42600822
S        10.04909325     24.65730286     16.66087723
S        23.44759941     11.11248875     17.12019348
S        23.76372719     24.81198120     16.98849487
S        12.74029732      1.43732095      3.09281731
S        12.81595516     15.07071590      3.62994075
S        26.25918770      1.65802836      3.11408854
S        25.81840706     15.39217281      3.49585414
S         6.24301004      5.02582741     23.73697281
S         6.28183460     18.14767456     23.36174583
S        19.52882576      5.03940821     23.96710968
S        20.11704063     18.40268517     23.57097626
S         2.78366470      7.69279528      9.84645462
S         2.66247463     21.12391663      9.73256016
S        16.08413315      7.81377840     10.25170994
S        16.57621574     21.70217896      9.90694046
S        13.03263378     11.39422989     14.20329666
S        12.63191223     25.12901497     13.97547150
S        26.65551567     11.46469021     14.61324883
S        26.23575783     24.96836090     13.92634392
S         9.72974110      1.26148081     27.68817139
S        10.18980026     15.37349224     27.77694321
S        23.07879639      1.31793964     27.48641968
S        23.05735779     14.86905098     28.02134514
S         2.93972826      4.97836590      7.20942354
S         2.54893398     18.49544716      7.03021479
S        16.43817902      4.89908028      7.53013659
S        16.27334213     18.93548965      7.21336794
S         6.42706251      7.93146801     21.02061081
S         5.92812538     21.71296310     20.88803673
S        19.89615631      7.76035452     20.94526863
S        20.08028984     21.28761101     21.07908630
S        12.72589302      8.42054939     27.76873589
S        12.97193623     21.68876457     27.40743828
S        26.25752258      8.39311218     27.65788269
S        26.32841110     21.88091278     27.17580795
S         9.92456627      4.38485289     13.97744083
S        10.15846062     18.24884796     13.93564320
S        23.22998047      4.28248549     14.71601105
S        23.43660164     17.83337784     13.97601700
S         2.69695044      1.12635887     20.99390984
S         3.17349768     14.42395687     21.03119469
S        16.14153481      1.27852654     20.78892708
S        16.16648293     14.59784412     20.66361809
S         6.60281324     11.87919426      7.48140955
S         6.33219910     25.06360435      7.20415020
S        19.56846809     12.17307377      6.78210688
S        19.72375679     25.73937988      7.07455969
S         9.89379120      8.27395916      3.17757797
S         9.67717457     22.04904747      3.52324128
S        23.42284012      7.99784946      3.54680538
S        23.24463463     21.34508324      2.95595455
S        12.62661648      4.59036350     17.31708717
S        13.14890575     18.26118469     16.53265762
S        26.38994598      4.51365137     16.77846146
S        26.51386642     18.04226112     16.88595009
S         6.44263601      0.58572018      9.69191551
S         6.28483582     14.46286869     10.47010612
S        19.83560753      1.15309489     10.13757133
S        19.85583115     14.66345882      9.95784664
S         3.02003503     11.71210194     24.04908180
S         2.85151601     25.18972778     23.60914993
S        16.51120758     11.97761154     23.75241280
S        16.15405273     25.20154190     22.92296028
S         6.02860355      1.37119901     13.98854256
S         6.13365030     14.89285851     14.32892704
S        19.73478508      0.83546615     14.03600407
S        19.73504448     15.06393814     13.85756588
S         3.40255713     11.56236362     27.83548355
S         3.06117606     25.00965118     27.86200523
S        16.50365067     11.39326096     27.32320786
S        16.83365059     25.10836029     27.69200134
S         9.77754879      7.51395607      6.98932552
S         9.72129822     21.35692024      7.48973465
S        22.94786835      7.43245840      7.11338425
S        23.13102722     21.36073875      7.21589804
S        13.31763268      4.86936855     20.97790909
S        12.82345772     18.51200676     20.65641212
S        26.36230469      4.61597729     21.15390587
S        26.97829437     18.53461647     20.72429276
S         2.83282042      1.22923839     16.61554337
S         3.62497687     14.69353008     17.04907417
S        16.63791084      1.06327605     16.83835411
S        17.05684662     14.94086170     16.48359489
S         6.10643148     11.58156109      3.59087396
S         6.17137241     25.24819183      3.00361705
S        19.16569138     11.40677071      3.31928825
S        19.55357552     25.11046600      3.08341146
S        13.22205830      7.87544012     23.44227219
S        12.81715012     21.37494850     23.53140640
S        26.40539551      7.91809034     23.32303238
S        26.70762444     21.47906303     23.35613632
S         9.26160336      4.92593098      9.80571651
S         9.69110107     18.30191612     10.06416416
S        22.97284317      4.85047960      9.86605263
S        23.28183556     18.35302162      9.79119301
S         3.22020721      0.88555622      2.79247761
S         3.28500652     14.04331779      3.56128192
S        16.64513588      0.38760120      3.43809867
S        16.66595078     14.29723167      3.09468269
S         6.36475372     11.54475975     17.05670547
S         6.06045723     26.19487762     16.84491920
S        19.67424011     12.11578274     16.78634262
S        19.61688614     25.75034332     17.12802696
S         3.79652095     11.54253387     10.18649006
S         3.44903588     25.35128212     10.17291832
S        17.60468864     11.76882935      9.94533443
S        17.02913475     25.52594566      9.89874458
S         5.49682999      1.13964570     23.59806633
S         5.79863167     14.53422165     24.15633774
S        18.93698502      0.67665201     23.84109879
S        19.45864677     14.40525818     23.29722595
S         5.84892130      0.91204673     27.55353928
S         6.06132507     14.47281361     28.07336807
S        19.49476814      0.79827863     27.49308777
S        19.09833336     14.57914543     27.71837425
S         3.35618639     12.10575771     14.28822899
S         3.14997864     25.91349030     13.71073627
S        16.84952164     12.04168129     13.80884743
S        16.55760574     25.67840195     13.95254707
S         5.96275139     11.86616135     21.06388664
S         5.51527023     25.56429291     20.65093422
S        19.09597206     11.74646759     20.58759499
S        19.21528625     25.41321373     20.87174797
S         3.54912806      0.78892577      7.15157127
S         3.55618930     14.56970882      7.18467665
S        16.97262764      1.22821403      7.01543379
S        17.02742195     14.94959545      7.30469322
S         9.84684277      7.41666126     16.46349144
S        10.02525234     20.49373627     16.93123245
S        23.68978310      7.25625277     17.39035988
S        23.58935547     20.68762779     16.75404358
S        12.80722427      5.28849411      2.88007498
S        12.60368156     19.20557785      3.33415723
S        26.02036476      5.49483633      3.41810632
S        26.22504234     19.20306969      3.07027650
S        10.53848743      5.05955839     23.48120689
S        10.05013847     19.01203728     23.51243019
S        23.72945786      4.77352381     23.97032738
S        24.08452797     18.39170456     23.38850784
S        12.23284435      7.68949175     10.24479485
S        12.43953991     21.26778984     10.04645252
S        26.05552673      7.45199633     10.20902157
S        25.64666176     21.12577629      9.77632141
S        12.88765240      6.97143650     14.16649723
S        12.67776203     21.42750740     13.72515488
S        25.79834938      7.17086077     13.76315689
S        26.14765358     20.79003334     14.00741100
S         9.89873505      5.38201380     27.50741005
S         9.76655102     19.35142517     27.94861603
S        23.46872330      5.64238071     27.77388000
S        23.41819000     18.81019783     27.44942284
S        12.36590099      4.96739674      7.32567501
S        12.83963013     18.71277618      7.45492029
S        25.61517525      4.74561501      7.35667276
S        25.99519730     18.67708969      6.71452141
S        10.55614090      7.77467537     20.47324371
S        10.25612450     21.23565865     20.45643234
S        23.71173477      7.60807800     20.98185349
S        24.03438377     21.14318466     20.79144478
S        12.83776093     12.54225540     27.88001442
S        12.78423500     26.15043259     27.29263306
S        26.28246117     12.60797405     28.19044113
S        25.90098572     25.82263565     27.69195747
S        10.11767483      0.54846412     13.90155792
S        10.13125038     14.18115902     13.80803871
S        23.31080818      0.48735851     14.14276314
S        24.06147385     14.13034058     14.40217495
S        12.49528217      0.86413974     20.72689056
S        12.62733459     14.86054039     20.62160492
S        25.97845078      0.71069473     20.72515297
S        26.14508247     14.22789860     21.28219032
S        10.50211620     11.92807484      7.34535217
S        10.40302086     25.12667084      7.21453333
S        24.04099464     11.66649055      7.69439793
S        23.89806175     24.99276543      6.95129776
S        10.16724586     12.24080563      3.54444242
S        10.00118351     25.85651207      3.26125145
S        23.37304497     12.26941204      3.62312436
S        23.23623657     26.14548683      3.39254665
S        12.66451836      0.45359015     16.96383095
S        12.84117889     14.55129147     16.51585197
S        26.18435669      0.61822736     16.74619865
S        26.18344879     14.12923241     17.36479568
S        10.39782524      0.87919313     10.08488750
S        10.45396137     14.56284809     10.33386898
S        23.91007233      0.51979399     10.07903385
S        23.75741005     14.46471500     10.39452744
S        12.32948303     11.93157387     23.71322441
S        12.16523743     25.40837860     23.71544838
S        25.90825272     11.72269726     24.15679550
S        25.84072304     25.45986366     23.78357315
S         5.74482632      5.55312872     14.00528240
S         5.87557602     19.03305626     13.61297035
S        19.41443443      5.11883259     14.28660011
S        19.90896606     19.02562141     13.69638443
S         3.14524531      7.37499809     27.78771210
S         3.23352623     21.30770874     27.28979683
S        16.88380814      7.59553957     27.64727020
S        16.53249931     21.01500320     27.38763237
S         5.88113213      7.65647840      6.99288702
S         5.34205770     21.08382225      6.79562092
S        19.08318710      8.02660656      7.60769081
S        19.29270172     21.60420799      7.44305706
S         3.35521531      4.89998198     20.95113945
S         3.47226834     18.49079704     20.58864975
S        17.35621452      4.69282246     21.02884674
S        17.10629082     18.61893463     20.76325989
S         3.34720445      5.33811855     16.80025864
S         3.11329150     19.20638275     16.46430397
S        16.79103088      5.25130415     17.09120178
S        17.11453056     18.90999031     16.69033623
S         6.09597301      7.67742586      3.29491162
S         6.04894781     21.04333878      3.14827752
S        19.41519547      7.74634075      3.53353548
S        19.38459587     21.13941956      3.33949208
S         3.58724785      7.50079918     23.83493805
S         3.63263583     21.33685112     23.70820427
S        16.96975708      7.90022802     23.78402138
S        16.99771309     21.19642639     23.65871239
S         5.41055155      5.06051493     10.14283562
S         5.42390585     18.48251534      9.95072746
S        18.86882782      5.08556223     10.13123035
S        19.20961380     18.52900887      9.70175743
S         2.35394192      1.64741635     10.50112629
P         1.21370101      2.68698978     11.73141098
S        -0.14199971      3.90522861     10.37923908
S         0.16630378      1.48513675     12.92586136
S         2.19152975      3.92051125     12.93497849
S         2.75617409     15.29100704     10.90686893
P         1.31513643     16.33590889     11.95485878
S        -0.14629477     17.37608910     10.90761662
S         0.03129882     15.08323860     13.15807056
S         2.60828948     17.55534554     13.16649437
P        14.91226578      2.86121297     12.13376141
S        16.13591194      1.83055413     10.93288422
S        13.51680279      4.01078033     10.97731304
S        13.69215488      1.68501496     13.30462646
S        16.01527786      4.25629425     13.39895916
S        16.01182175     15.43506622     10.99618912
P        14.87971020     16.61381721     12.28489876
S        13.54735088     17.68356514     11.02940941
S        13.71099949     15.27106285     13.26253128
S        15.93611336     17.96598816     13.38478947
S         9.54242992      8.92501640     24.66410637
P         8.28803539      9.95256805     25.89619255
S         6.94255400     11.12855530     24.96214104
S         7.10770512      8.72267342     26.87860489
S         9.46992683     11.20883942     26.93503761
S         9.18900871     22.80821228     24.17897224
S         6.41355896     24.91363716     24.50726509
P         7.86923218     23.82596397     25.55409241
S         6.62467480     22.65404701     26.70029068
S         9.08025742     24.96005440     26.76195717
S        22.62425995      8.72659302     24.61751556
P        21.57042885      9.80415630     26.06765556
S        20.42984962     10.90658665     25.00482750
S        20.39951515      8.41759491     27.09812546
S        22.62492752     11.13680458     27.13945389
S        22.48603249     21.87929535     24.32669449
P        21.32980728     23.00268173     25.61695290
S        20.12057686     24.26613617     24.50862885
S        20.24287605     21.48872375     26.75161743
S        22.50670624     24.30754852     26.73775291
S        27.16050720     10.82585335     20.62356949
S        29.54843140      8.34688187     20.35392952
S        29.64207268     10.78394032     18.17098618
P        28.40596581      9.68431377     19.26230049
S        27.15730476      8.50255299     17.93162346
S        27.50384521     24.50134850     19.88090897
S        29.54131889     21.91981697     19.91747665
S        29.54805756     24.67140961     17.66475105
P        28.44582367     23.20072556     18.71209908
S        27.22729492     22.12337685     17.34740448
S        13.48224640     10.87571526     20.19549751
S        15.72439861      8.36983109     20.05392456
P        14.67878342      9.85846901     18.91388893
S        15.87060547     11.01073837     17.74596214
S        13.52802563      8.69064045     17.72765160
S        14.07688999     24.49789619     20.29147911
S        16.08913231     22.01844788     20.07566452
S        16.19487381     24.52104950     18.02642441
P        14.92500591     23.21913528     18.89191055
S        13.90273666     22.05620384     17.67137909
S         6.53251839      4.05958033      6.38322592
S         9.17811871      2.19849586      6.59102011
S         9.17749119      4.23623991      4.05778503
P         7.97380543      3.00563240      5.12099791
S         6.90260410      1.85687852      4.06961489
S         6.49815702     17.61977768      6.61733198
S         9.18973637     15.27615547      6.92344379
S         8.94333267     17.64550781      4.41742659
S         6.98334980     15.10962486      4.41005993
P         7.88254356     16.37070656      5.64276600
S        19.37504196      4.12652254      6.13796663
S        22.28172302      2.22005415      6.55112886
S        22.19643784      4.44447374      3.94736671
P        20.88576889      3.10928082      5.06757975
S        19.63919067      1.93072057      3.96895003
S        19.75336266     17.78179741      6.27285194
S        22.23254013     15.47329426      6.45052910
S        22.25584602     17.96893311      3.90497923
P        21.19495964     16.62683678      5.16491270
S        20.17264938     15.12513542      3.98249912
S         7.00322628      1.78751123     19.82400894
P         8.17126274      3.03441596     18.54170227
S         9.53996563      4.06953430     19.68134689
S         9.41544151      1.85994971     17.41656685
S         6.86401844      4.13592815     17.40708923
S         6.73516846     15.30113411     19.80384254
P         7.92344093     16.53043938     18.57213402
S         9.20158291     17.67310143     19.67831993
S         9.19291878     15.24861050     17.61590576
S         6.56380081     17.76896286     17.68258667
P        21.18763733      2.54437852     18.79586601
S        20.12203217      1.33424175     20.05093956
S        22.35794067      3.91831970     19.87211418
S        22.36284256      1.31885529     17.59076881
S        20.09496117      3.93111324     17.74973297
S        20.42829132     15.11574459     19.96998405
P        21.80492210     16.23931503     18.66296005
S        22.93401337     17.46491051     19.85075951
S        22.92663002     15.04569435     17.56963539
S        20.40314102     17.40526772     17.79260826
S        27.11355972      8.45701027      6.90196800
P        28.29666901      9.61450100      5.65550184
S        29.80314827     10.70169163      6.76490450
S        29.39226151      8.30981064      4.48222399
S        27.23151207     10.92931366      4.44747734
S        27.28381538     22.39572906      6.65404320
S        29.69305801     24.48456192      6.34679794
P        28.44742775     23.44209290      5.12748528
S        29.51036453     22.20808411      3.88984251
S        27.46586609     24.78121567      3.97153330
S        13.36739445      9.17975616      6.54976416
P        14.74366379     10.08803463      5.22375441
S        16.12571526     11.12927723      6.38427258
S        15.91872597      8.82669830      3.87761450
S        13.51846981     11.32501221      4.09426880
S        16.19909859     24.75874710      6.34784937
S        13.47423267     22.69801331      6.35243034
P        14.75342846     23.70236778      5.13694334
S        15.76409531     22.43976784      3.87136245
S        13.56077290     24.86450958      3.94380593
P         7.99149323      9.86023331     11.63418770
S         9.15693378     10.96041965     10.38835430
S         6.68966675      8.59276009     10.46289635
S         7.30111265     11.17575455     13.10221958
S         9.05422783      8.66090488     12.92197800
P         8.05972958     23.16258430     11.99667168
S         9.14223766     24.39272118     10.62376595
S         6.54992294     22.10061836     10.92808151
S         6.99538279     24.51904869     13.15146351
S         9.08652592     21.84851074     13.12621212
S        22.76900482     11.18755817     11.01079464
S        20.11583328      8.75487804     11.08660984
S        20.66297340     11.49285507     13.46848774
P        21.49312401     10.05058289     12.24297428
S        22.69377136      8.75088024     13.25868702
S        22.63164520     24.37997246     10.70687580
P        21.49681664     23.21728897     12.01574898
S        20.27538300     22.16860390     10.80960560
S        20.78604698     24.62255478     13.23401737
S        22.67788506     22.03828239     13.16306591
S        15.77634716      4.36025333     24.35551453
S        13.25067997      1.94802296     24.46141434
S        13.59140015      4.59443569     26.74799538
P        14.46618366      3.14905834     25.49370003
S        15.54268265      1.95625222     26.77298355
S        15.86951542     17.97543526     24.14027786
S        13.37525082     15.45870590     24.31566620
S        13.64071178     18.23240852     26.48164940
P        14.57870674     16.86324883     25.27406693
S        15.55809021     15.47411156     26.42338562
S         2.18791389      4.03072453     24.50572014
S        -0.39640647      1.63077080     24.60997200
S        -0.06649696      4.27041292     26.62150383
S         2.03561306      1.53148520     26.73228836
P         0.91727054      2.86209655     25.49197388
S         2.27912807     17.68345070     24.24218178
S        -0.47258222     15.36173630     24.39523315
S        -0.20645237     17.96080399     26.46566772
S         2.05526948     15.28470612     26.47584915
P         0.80511159     16.60477448     25.33610916
