832

Na      -14.85334206     75.30599213    -63.90943146
Na      -22.24753380     47.95996475    -74.65941620
Na      -97.07323456    -50.59002304      7.71098518
Na       14.92034817   -111.53076935     65.51416779
Na      -35.62477112    -40.20192337     55.77137756
Na      121.20056915    129.55569458    -53.97843552
Na       32.55933762     11.02975178      7.28277779
Na      -73.34547424     24.21238136    -60.38251114
Na      114.41527557     96.15803528    -43.40234756
Na      -58.66443634     -6.02327967     51.79061508
Na      158.33047485     65.35677338     21.58780861
Na       60.20926285     14.13149929    -74.03990173
Na       59.88246918     21.59698296     67.97103882
Na       -5.32753277     92.06604004    -39.98684692
Na       77.08098602    -16.95469284     31.56417465
Na        5.77883577     82.22132111     28.67495155
Na      -66.17462158      3.76735830    126.51828766
Na       35.82826233   -108.81897736    -36.40320587
Na       80.17897034     68.36077118    -15.93024921
Na       93.64281464     -6.33378696    -16.31646729
Na      -45.55519867    -36.99593735      4.41292429
Na      -11.65344620     41.75737000    119.55944061
Na      -28.51137543    -63.91832733     96.39226532
Na       39.08349991    -19.31005478    -16.28562737
Na      -24.94585419   -104.98059845     -2.44401860
Na        8.90535831     44.71803665    -46.81646347
Na       -1.72515678    -32.98952103    -19.49921417
Na      113.98364258    -12.77581310     20.86359978
Na      -25.13158417     -5.88636732    -36.81786728
Na       21.75340843      3.57969546    -66.58009338
Na       25.61347961    -53.03964233     41.31016541
Na       83.34322357    -41.14604187     79.01087189
Na       -8.56104279    -60.39238358     38.14679718
Na       60.42034531    109.87371063    -16.36191368
Na       72.91231537      4.21691179     14.20999527
Na       52.99371719     92.66854858    -32.92872238
Na     -116.74678802    -57.61202621     20.85467911
Na      -59.33501053    -15.94742489    126.95558929
Na      185.81694031      0.18246329     11.30511761
Na      -11.84440041    -10.05647373     27.90613174
Na        5.53181791     76.28764343     17.79218864
Na      -59.01102448    -64.20121002    -23.05647850
Na      -56.46035004      7.07128620    -22.84200287
Na       12.19539642    126.50413513     20.93513680
Na      131.40686035     -2.64326453    -16.21443939
Na      -17.68527603    -23.26216316    -13.16737175
Na       84.66845703     54.80529404     31.22031021
Na       52.53363419     21.11828804     -9.49189758
Na       53.01715088    106.44937134     -5.63113451
Na       15.32393837    -44.12026215    109.77829742
Na       90.65290070    -23.40357018     55.72937775
Na      -19.38374138     65.17964935     44.93019867
Na       53.57336044      0.40823618     28.18019485
Na      -21.83025932     20.92474174     27.65443420
Na      -82.98325348     55.35840988    -16.48971939
Na       77.01988220    -27.20767593     18.12253952
Na      -14.17241192     82.55010223    -46.47898483
Na       91.66697693     10.32467461     21.16760254
Na       80.50607300    143.22285461    -26.88229561
Na       93.78050995    -16.55577278     54.15437698
Na       -8.27396584    -47.42481995     56.07897949
Na       36.04795074     14.24588013     51.91014099
Na      -89.78507233    -34.01428986     24.52119637
Na       15.17130756    -56.92039490      7.48184586
Na       62.40458679   -145.73268127     20.53278542
Na      -62.09500122      0.07512346      4.25637674
Na      113.91587067   -118.62691498     21.16655922
Na       59.59728622      0.91944635    -29.66213417
Na      -52.60999680      8.24577808    -63.87343597
Na      -19.27878761     21.01362801     65.23933411
Na      -90.02264404     27.33650780     22.08229065
Na       83.62631226     93.22838593     65.39347839
Na      -25.02467918    -30.34528351     31.10870934
Na        5.41199446    -67.34324646     17.96936226
Na       46.13145447     85.20533752    -53.31779480
Na        1.69468343     34.92782974      4.47124815
Na       -1.32070243     68.48806763    -53.02689743
Na       36.62273407     21.49548912     -9.90042400
Na       36.14516068    -57.53419113     37.81348419
Na        5.59227610     45.12575531     14.39042664
Na      -32.02782822      4.47111750     45.76341629
Na      103.35463715     34.31620026    -50.50804520
Na      -49.14373398    -22.97597694     21.58821869
Na       -1.70035589     74.98070526     85.83407593
Na       19.05987930    -60.72933197     44.61604309
Na      -38.85343933     60.98260880     24.34504700
Na      -39.34352493      7.65841007     11.02867603
Na       46.00195312      7.50152206     65.35555267
Na       12.20281029    -54.70669174     28.04915237
Na      -48.93241882      7.42872095    -22.91320610
Na      100.54187012     17.19825554    -33.05859375
Na       25.51919556     60.62379456     96.13854218
Na      -72.68613434    -36.97913361     11.57610321
Na      -45.60814285    119.94178772     65.92266083
Na       22.82939339    -29.65084648     -6.19652557
Na       76.82749176     -6.42642832     65.44414520
Na       25.46111298     -5.81869078    -39.95771027
Na      -73.29727936     65.60671997     58.31470108
Na        2.31861115    -26.22634888     65.28896332
Na      120.94560242     48.60943222     68.89299011
Na      -66.14710999     -3.41533256     52.38724136
Na       22.39180565     68.78098297    -70.64592743
Na       25.81441116    -74.16507721    -36.91515732
Na      -52.94298935     -8.90623856     44.84385300
Na        1.23495400     -5.94782209     58.69058990
Na      -18.04947090     28.12673759     10.75857735
Na       -4.25133991    112.90367126    198.59486389
Na       -8.21386623     41.79365540     24.95354080
Na      -14.82046127     75.57685852    -57.10774994
Na       15.60527325    -36.97884750     48.40610886
Na      -12.28119183      7.68111658    -63.64509964
Na       76.53329468      3.86878991     24.37747192
Na       15.47773457     -5.89144897     45.10884857
Na       29.85185432     31.37202072     65.30885315
Na      121.35723877     55.49218369    -40.64131546
Na       60.61718750    133.11866760     54.92707825
Na        2.50818634    144.46205139     -2.52222204
Na       60.00997543    -57.00345612     41.70296478
Na       73.09937286    -14.65204144    -87.38591766
Na      145.16470337    235.80233765     27.33828735
Na      -80.71819305     30.81894302     55.22645950
Na        2.74517226     24.69849014    -19.48410034
Na      -69.77625275    -47.35297775    -47.25296783
Na       59.10596848     89.00224304    -47.09864807
Na      -18.70016861    -47.00727844     38.35339355
Na       39.45520782     10.85305500      7.93589592
Na      151.59429932    126.32057190    -29.86080933
Na      -76.32433319    -43.68688202     75.65898132
Na      -92.94129181    -29.59841728     44.54925919
Na      -38.91099167    -43.43403625     38.11854553
Na       18.64669418     72.60992432    -94.83059692
Na      -45.25215912     31.01496696     31.59206390
Na      -86.34608459     68.41519928      4.00994444
Na     -127.42929840      7.07058001     24.65053558
Na       29.23517990     44.75413513      0.30488873
Na       56.44460297    133.29248047    -26.63535881
Na      117.33110046     58.32585526    102.36134338
Na       70.45078278    139.93998718    -60.36431122
Na       43.19883728     75.10991669    -30.07119370
Na       22.27851105    -84.84432220     14.52993584
Na      -65.73535919     64.92115021     31.66969299
Na       28.90526390     51.86076355     10.95853519
Na      -35.87240601     -3.08469439     34.44274902
Na      -66.29236603     44.94727325     31.48842049
Na     -120.90836334      3.55289078    -23.17407799
Na        8.68593502     10.72591496     35.00235748
Na       73.61755371   -109.16760254    -27.21761703
Na       73.52861023    -53.49132538     69.09060669
Na      -14.92289066    -53.30761719    -36.93422318
Na       16.10472488     88.52723694     31.34347153
Na        2.19195080     37.88544083     21.46824074
Na      127.76895905    -19.48236275    -19.71704483
Na       56.87213516    -43.83103180    -26.77961159
Na       15.27858829     10.74965858    -87.81137848
Na      141.51715088    -64.14483643      7.59289694
Na       -1.14516068     20.92422485    -27.37596321
Na       35.89599228     31.81313324    -16.34833145
Na       42.96841431     -2.81666183     21.17067337
Na      -38.53502655      3.34347320     -2.43242598
Na       12.35655594     34.92151260     -6.27194262
Na       12.02580738     -2.13704252     95.86641693
Na       -1.31869221     79.77951813     34.74641037
Na       26.04352760    -60.78076553    -32.93680954
Na       46.19070816    -46.80292511     -9.49330044
Na      -28.44222832     -2.58740902     14.30476189
Na       66.84461975     40.70790482    -16.23316383
Na       32.69692230     10.21840477      0.92013091
Na      -28.31037140    -36.40752411     27.90782928
Na       94.27441406    -12.00280380     35.00510025
Na      -25.00007057    -27.11072159    -29.88527489
Na      -90.05187988    -57.02444839     68.91232300
Na      -35.45966721    -39.81156921    -12.76891422
Na      -25.94140625      3.93571115     48.73042679
Na     -103.35703278    -47.03845215     76.21520996
Na       83.36956787     17.82044220     21.77649879
Na        4.87776709     48.14815903     10.50674248
Na       85.96276093     51.88881683    -87.80632019
Na      107.37373352     51.97537231      0.63792783
Na      -21.15733910    -54.09894562     31.42750740
Na        8.87312698    -98.29269409    -26.42060280
Na       37.08829880     27.22487068    -22.98120880
Na       76.71960449     48.08103943     58.84305573
Na      -28.84800339    -16.54200935    -46.62024689
Na       56.41863632     24.58206558    -13.03335571
Na      123.79420471     44.84143448     34.79274368
Na       42.45983505    149.74699402     31.55145264
Na       -8.39058781    -57.95580673      0.93361151
Na       32.40027237    157.20561218     51.57291031
Na       86.07054901     27.81416321     48.24733734
Na      104.06481171    -37.15402985    124.37028503
Na       87.11786652     14.33811760     27.92794800
Na       25.23220825      4.29485321     21.58063507
Na       11.52888012    -57.62624359    -60.85290146
Na      103.79067230     61.86058807    -43.28386688
Na       28.53390694    119.82481384    -73.99101257
Na       59.47128296    -23.10363579     27.81141281
Na       59.59737396    -13.37413692    -50.41909027
Na       70.36252594    -84.14176941     14.04285526
Na      -22.23938179    -19.94586372     65.38420105
Na       32.16077805    -20.37648582     25.87868500
Na      -15.20779514    -20.04475784     44.59152222
Na       22.53241730     10.51146126     38.00291824
Na       39.53899384    -10.02246857      0.98175400
Na      104.37516022     72.57196045    -46.16079330
Na      -29.12828636     89.02526093     62.18623734
Na      -63.10622025     61.67304230     52.14571381
Na       49.05384064    -61.42457581     17.75823784
Na      121.68609619    109.53199005    -22.88053894
Na        5.33029222     -9.57232857     27.05504417
Na       25.77997780     92.65870667    -12.54861927
Na       83.50260925     78.48423004    -29.84707451
Na       38.88434219     -9.67029476    -94.18107605
Na       96.86993408    118.83120728     79.37007141
Na      -42.81370163     54.70806885    -87.74504089
Na       35.95881653    -67.76350403     17.88726234
Na       -7.85574770     27.77156258     17.79275322
Na       21.83721161     -9.13418579     24.87888336
Na       83.54448700     11.43905163     68.97339630
Na        5.60964108     48.45238495     -6.56462193
Na      -18.34981728      7.22910261     -9.58194828
Na       67.21359253   -101.51342773      4.40956879
Na      -97.03773499     19.69895172     31.53857231
Na       -5.44385624    109.10066223     51.86336136
Na      -66.28593445    -26.04898071     11.11516094
Na       32.69090652     86.33359528     14.34608269
Na       69.85005951     30.54270172    -54.10350800
Na      -15.06713486     58.12634659     48.50308228
Na      158.48083496     11.01578903    -29.49624252
Na      -52.49775696   -117.84535217     41.59218216
Na       22.55997276     45.12014771     38.95576096
Na       90.88965607     51.54840469     14.10053158
Na       28.96959686     -6.59268856     51.23609543
Na      -35.33538055     31.42939758     48.92370605
Na      -42.75310516     41.02600098    -33.26037216
Na       76.98105621     17.77688217     55.58715439
Na       -1.29212058      7.86590862     -6.18074131
Na       -8.17502880     11.57240200      7.69414473
Na      -18.52738190    -98.19977570     51.50255966
Na       12.05059338    -26.77810860     -2.79536247
Na       25.54586792     54.65243912     -2.41680694
Na      -37.37070847     11.40974522     68.89583588
Na      -96.71966553     51.24893188     82.00843048
Na        2.12406874    -39.61833954     -8.95054817
Na       15.69613457   -108.59324646      4.05306816
Na      -31.56234932     85.72738647     66.05880737
Na      -28.49469185    103.00000763     38.33646774
Na       24.91541100    123.20738983    -32.97627640
Na      -22.34806633    -18.31405258     68.53189087
Na       59.99054718     55.11056900    -12.81083870
Na     -124.17424774     88.91914368    -26.67329025
Na      114.97973633   -107.95829010      7.61664581
Na       77.00493622     24.66451263    -19.70635414
Na      -96.45891571     40.74971008     51.79584503
Na       49.59146500    -29.65963173     55.36872864
Na      -18.19172668     51.56448746    -23.46953201
Na       59.94699097    -39.94870758     68.93424225
Na      103.38159943     14.68016243     18.11323547
Na       22.59363174     10.73064518     89.10306549
Na       22.88138962      0.44720328    -50.11810303
Na       42.78969193     27.79967880     45.15866470
Na       18.92102432    -39.60176468     11.29818439
Na       77.18067169    -19.90170097     -2.42211413
Na      110.60887146     45.84744644    -16.28135300
Na      120.75349426     14.86368847     -9.72358513
Na       25.29047966    -26.58989334     48.62815475
Na       70.69737244     58.70354462    -43.33404922
Na       35.27164841     20.48919106    -23.28720474
Na       52.50562286     14.09136009     -2.42337227
Na      -15.58309269     -6.92219877    -46.69522095
Na      -55.22883606    -79.07012177    -19.74225235
Na      -22.58022881    -33.00693893    112.93569946
Na      -39.59241486    119.99450684      6.88692570
Na      -25.23369789     -9.31803417    -47.04936600
Na      148.21643066      3.81656837    -26.11698914
Na       -8.40818596     58.44704819      7.68830156
Na       56.54154205    -12.56451035     38.44596863
Na      -19.18675613     38.29648590    -67.31245422
Na       39.52286911     14.29258060     30.69374847
Na       57.17562485     85.99458313     57.62265396
Na        8.25650311     85.17179108     24.90541077
Na       -4.91312313     -2.90628147     58.93155670
Na        8.69352913     44.92195892     -3.37195635
Na       60.96802521     78.57527161     34.67565155
Na      -12.13674736    -36.34365082    -36.99958038
Na      -11.83684158     54.57010651     -2.66460037
Na      -42.53542328     -2.46390557    -19.77592087
Na      100.84565735    -18.88041687     68.64206696
Na      124.96501160     72.27493286     10.87380791
Na       19.11614799    -91.70052338    -19.23200226
Na       25.67028618     35.06275940     10.90441418
Na       29.23462677      4.24167109      7.41369486
Na       77.02421570    -57.86798096     18.08197975
Na       76.57756805    -39.67397690    -57.11767960
Na       53.25942230    -12.67968750    -12.80590534
Na      -93.90275574    -67.42181396    -36.50341034
Na       83.38410187     72.09529114    112.85636902
Na       56.77114868    -29.64109230     -9.56654263
Na       12.28021526    -16.24343109    -12.94668674
Na        0.94263810     41.51120758   -104.88589478
Na       69.57244873     75.96606445     65.23864746
Na       22.60435677    -49.96014023    -26.51042366
Na       63.17324829    -57.18176651     79.28384399
Na       60.34154892    -50.52573013     35.13945389
Na       49.93096924    -23.52627754     58.87574005
Na     -113.44927216     51.30964661     -2.33965492
Na       73.28205872    -40.56569290     72.76253510
Na       -7.95069885    -46.79589844     48.66924286
Na      -38.98709488     24.11860847   -105.49060822
Na      -25.39923859      7.88531876     38.16581726
Na       63.08781433     54.96604919     24.81766319
Na        2.00966454     31.38724709     -9.01955605
Na       29.30548096    -15.94949722     99.66138458
Na      101.02732849     14.46148491     59.34091949
Na       11.84467602     88.85581207     14.07940006
Na       89.93668365     18.56881714    -64.87948608
Na       46.86233902    -26.05088425    -16.05449677
Na       -1.79260850   -107.86083221    -36.34560394
Na      -38.75950241     -6.28043938    -77.44281006
Na      -28.74044037     -9.59592247      7.60365057
Na       53.05232239    -13.31161404    -20.04246330
Na      -35.35779572    -33.94231796     21.15104103
Na       22.39251709    -46.98644257     45.24650955
Na       80.40966797    -39.77378464     72.90581512
Na       69.68580627     41.38391876     51.85793686
Na      -49.47953415     41.53287506    -30.03394318
Na       29.02252388    -43.61931992      3.54024529
Na       94.01007843     14.57921886     95.56657410
Na       18.80919456     37.72959518     28.27095222
Na       35.83790970     41.18320084     11.22002220
Na      -62.95449066     21.09216118    -22.89315796
Na       22.74179268    -43.54903412      0.90450251
Na        1.69669831     55.12135315    -36.52410889
Na      -21.61063194     62.01055527     45.02462769
Na      -66.36243439     -9.19171524    -13.35342312
Na       -8.45868683     73.91176605      0.87204254
Na       25.97455025    -19.31830406     51.38401794
Na      -62.68867874     47.87675476    -19.98237610
Na      -27.89944649    -70.78463745      0.75592023
Na      -32.34528351     45.09043121    -60.71183395
Na       59.71451950     27.29014587     17.74048805
Na       63.42078018     21.50160599     24.63742065
Na      -38.64845276     92.43641663     -9.54827404
Na      -18.66438866     41.60627365     86.05171204
Na      -72.74578857     85.37339783     98.98704529
Na       41.35402679     58.93949509     68.86288452
Na     -109.84986115      0.86046773      4.31168938
Na       39.65272522      7.07963467    -30.48551750
Na       25.78472328     44.52273941    -33.14286041
Na      -34.85437775     54.96097183      7.93409872
Na      -52.83616638    -77.29882050    -12.89525509
Na      -45.27047729    -73.96195221     58.56113815
Na      -65.82519531    -50.17475128     34.86624908
Sn        2.19998193     14.36789131      7.56882429
Sn        2.62210608     27.90965843      7.29828501
Sn       15.99168301     14.11481762      7.75739574
Sn       16.22515297     27.91766739      7.55980110
Sn        1.46944189      0.65131396     21.40461349
Sn        1.40808356     14.34618950     21.42958450
Sn       15.25465012      0.49804670     21.19489479
Sn       15.06788063     14.10541439     21.20592308
Sn        1.86507571      0.96188557     14.21252823
Sn        2.00293589     15.07467365     14.65162754
Sn       15.73207283      0.63037735     14.28493881
Sn       15.57610321     14.62526798     14.17247677
Sn        2.07730412     14.32804394      0.68047357
Sn        2.33834338     27.41219139      0.82100624
Sn       15.39896011     13.81820488      0.68580514
Sn       15.68982792     27.23692894      0.75982189
Sn        8.88685989      7.18792677     21.07990837
Sn        9.09360981     20.84015465     20.71211243
Sn       22.62373924      7.68283892     21.45175743
Sn       22.82989311     21.15898514     20.98717690
Sn        8.17036152      7.24245882      7.37176657
Sn        8.13774109     20.82802200      7.43172598
Sn       21.94605064      7.40212631      7.60079861
Sn       22.11061096     21.31383324      7.70620871
Sn        8.60344601      7.41378117     28.26739502
Sn        8.77371502     21.34315491     27.88176537
Sn       22.19840240      7.65780926     28.07588387
Sn       22.48811722     21.28604126     28.33696747
Sn        8.71200085      7.32493782     14.45779324
Sn        8.64723396     20.97705841     13.94615555
Sn       22.43021393      6.97597027     14.71833515
Sn       22.07879257     20.83891296     14.43912888
Sn        8.01273155      0.51008070     21.12177849
Sn        8.39776707     14.05878639     21.42868233
Sn       22.01086998      1.10494757     21.21728134
Sn       21.80484009     14.43293285     21.27272606
Sn        8.91522598     14.24761677      7.75110054
Sn        9.47694016     28.03140831      7.54814625
Sn       22.29934502     14.26342773      7.80094290
Sn       22.70960808     27.92588425      7.80220366
Sn        8.71184158     14.13914967     14.50044250
Sn        8.85395527     27.84140778     14.52359104
Sn       22.41803169     14.06630993     14.79997921
Sn       22.44721222     27.35606575     14.65546608
Sn        8.95018673      0.43607062      0.77634203
Sn        8.77167511     14.29699039      0.81794488
Sn       22.60376167      0.82295477      0.97649580
Sn       22.03112602     14.56928062      0.77212203
Sn        1.61821783      7.45191908      7.73812199
Sn        1.34566021     21.18428230      7.79984713
Sn       15.32895660      7.35760450      7.62544966
Sn       14.99688244     21.11795616      7.44750023
Sn        2.26315999      7.37664843     21.31947899
Sn        2.24863434     21.21839523     20.90413857
Sn       16.02635956      7.38729000     21.05759430
Sn       16.06441307     20.77665710     21.11692619
Sn        2.01414108      7.38901615      1.16860795
Sn        2.03417134     21.04107475      0.39981198
Sn       15.75358772      6.97188044      0.69221735
Sn       15.46092510     20.66873360      0.63108391
Sn        1.88972545      8.09112930     14.34944916
Sn        1.78086245     21.52746582     14.36273766
Sn       15.66700649      7.92608404     14.35173321
Sn       15.38271332     21.37199783     14.08611584
S         0.56085593      5.90097427      2.47508812
S         0.53470528     19.59481812      1.85623813
S        14.32903099      5.61717796      2.13230395
S        14.07458687     19.41147232      2.13750577
S         2.98337126      9.54162312     16.04000473
S         3.49199820     22.93535042     15.61406231
S        17.10342407      9.16712379     15.94985962
S        16.98154831     22.42751503     15.40429974
S        10.04474068     12.94557953      9.39643574
S        10.91920662     26.90229797      9.07252789
S        23.79365540     12.83369350      9.11031628
S        23.93903542     26.40448380      9.37073231
S         6.94212818      1.95986283     22.74047279
S         6.98377800     15.55088997     22.83471870
S        20.65402603      2.25630999     22.54285240
S        20.72951317     15.96346855     22.68423271
S         2.88854647      5.56889391     27.02350235
S         3.32680368     19.56675148     26.29752541
S        17.07141304      5.49700928     26.51127243
S        16.57713699     19.10708237     26.44649887
S         0.55229169      9.61486626     13.01045322
S         0.38541591     22.92301941     12.93349934
S        14.19165134      9.32662487     13.00916672
S        13.89200211     22.83294868     12.75062561
S         6.99921036     12.99276638     19.69076920
S         6.41361046     26.22200775     19.85200310
S        20.66664696     12.77966881     19.73491096
S        20.81764030     26.59439278     20.07948685
S        11.06428528      1.86732471      6.07441807
S        10.58359814     15.55357361      6.16855860
S        24.03645706      2.11317444      6.20579720
S        23.73221970     15.99306870      6.69881630
S         7.01070261     12.95122147     15.86885357
S         7.27211905     26.60262680     15.78052330
S        21.08588791     12.60476494     16.21249199
S        21.00790405     25.99594879     15.87625885
S        10.35732937      1.76706803      2.15861797
S         9.91694832     15.98180676      2.42981315
S        24.03857422      2.08683348      2.43923521
S        23.76190376     15.66604233      2.24394894
S         3.37129545      6.20340395     23.08077240
S         3.72353840     19.71044540     22.43147469
S        17.44001389      5.97160673     22.51395607
S        17.22521591     19.13534927     22.68558121
S         0.09174950      8.98328686      9.06681919
S         0.22235782     22.79803276      9.07817554
S        13.57504272      8.70895481      8.78515530
S        13.35009575     22.49680519      8.88266277
S        10.42629433     12.59066963     13.22642326
S        10.17845631     26.50190163     12.98263550
S        23.46570587     12.48036194     13.27307510
S        23.92797089     26.04536438     13.15102863
S         7.36768913      2.15920544     26.94043159
S         7.73158693     15.71343136     26.49712181
S        21.18275642      2.02946377     26.82854462
S        20.64983940     15.97714710     26.77892303
S         0.21765174      6.26487923      6.23384476
S         0.03295087     19.58484077      6.52208424
S        14.04719067      5.70854330      6.22058964
S        13.81250858     19.56044388      5.86677122
S         3.86389089      8.67450809     19.98501015
S         3.61217427     22.77277756     19.47292328
S        17.27452660      8.82500744     19.83112144
S        17.63169861     22.10719681     19.74224091
S         9.91805172      8.80904675     26.66031456
S         9.99179649     22.72963333     26.47131538
S        23.86780930      8.87061596     26.69050026
S        23.89933014     22.74400330     27.16146660
S         7.63042450      5.59600258     13.13673306
S         7.21326160     19.39406204     13.00515175
S        21.03487778      5.52718925     13.34097767
S        20.83383751     19.18540192     13.09398937
S        -0.05816781      2.09220839     20.14720154
S         0.35926256     15.98451138     19.92902565
S        13.58722210      1.90196311     19.90283966
S        13.80363464     15.75841618     20.02125740
S         3.30768299     12.88602924      6.13106346
S         4.31224966     26.31648064      6.19758081
S        17.14602661     12.69402695      6.22314644
S        17.79317474     26.42285728      6.24810839
S         7.36734772      9.00285912      2.17505002
S         7.34801149     22.45631027      2.14641047
S        21.06606483      9.34528351      2.21965003
S        21.09078789     22.65182686      2.61741304
S        10.06401157      5.84308052     15.96123505
S        10.43292046     19.76544380     15.58149910
S        23.63735962      5.31002426     16.09050560
S        23.88891602     19.62435150     15.92129135
S         3.97868538      2.11443210      8.80780983
S         3.52803516     15.86724281      8.98044395
S        17.33388329      2.32691526      9.07652092
S        17.25457382     15.69201565      8.90979671
S        -0.27261728     13.13280392     22.69552422
S         0.12309729     26.52444267     22.93041039
S        13.77046299     12.62862396     22.84608459
S        13.99844170     25.79400635     22.44549942
S         3.32197499      2.34437990     12.87394524
S         3.54158092     16.06533813     12.86859417
S        17.02669144      2.28980923     13.03090000
S        17.03036308     16.21134758     12.85000324
S         0.42669201     12.86293030     26.62532997
S         0.79290426     26.44673347     26.57605171
S        14.05647659     12.30120754     26.81996727
S        14.22570324     26.12073135     26.46422577
S         6.88769197      8.96453094      6.09252357
S         6.87094069     22.08666229      5.79651642
S        20.88471413      9.07200050      6.19924450
S        20.80900764     22.76522827      6.30737734
S        10.17716885      5.78052187     19.47828484
S        10.38722324     19.37606812     19.40719414
S        23.93802834      6.11378622     19.98113441
S        24.33967590     19.56644821     19.54570961
S         0.61263168      2.39533353     15.68614292
S         0.56374490     16.23042488     16.17130661
S        14.31888199      2.10444212     15.79536533
S        13.97630024     16.05533218     15.59855556
S         3.24043059     12.77940273      2.09035397
S         3.69190502     25.87014961      2.14163637
S        16.78681374     12.68844032      2.36794019
S        17.22615433     25.91707993      2.06141233
S        10.33098984      8.07296276     22.82960510
S        10.41986084     21.95870972     22.21715164
S        24.10754013      9.19516277     22.56575966
S        23.90479851     23.01942444     22.34550285
S         6.76873684      6.09375191      9.07574081
S         6.94554853     19.51144028      8.83621693
S        20.71455002      5.86193037      9.18223763
S        20.75118446     19.92924690      9.01843739
S         0.84447008      1.38040674      2.62450218
S         0.70206523     15.81029797      1.93999588
S        14.40972996      1.49935281      2.03100729
S        14.13461781     15.31113529      2.07896781
S         3.32074642     13.67543888     16.06621742
S         3.17202616     26.89970398     15.74780750
S        16.81657410     13.61056232     15.79764462
S        17.18031120     26.46190071     15.73994160
S         0.74757493     13.07766628      8.86111641
S         1.14153147     26.62931824      8.74958229
S        14.63033772     12.77888298      9.10844612
S        14.94187260     26.55718613      9.15089035
S         2.90499043      1.94686306     22.85961533
S         2.70782208     15.53215885     22.88521767
S        16.80957222      1.75532877     22.66565323
S        16.54622459     15.40897274     22.56375504
S         3.70780253      1.64621007     26.85096550
S         3.43766236     15.65152931     26.40034676
S        17.31311989      1.25425982     26.59921837
S        16.92906380     15.24353027     26.59591484
S         0.72584516     13.57874203     13.04434872
S         0.32832876     26.71106911     12.82384968
S        14.29314899     13.06714249     12.85199833
S        14.10583973     26.68733025     13.08386898
S         2.79661369     12.83727360     20.16084671
S         2.41188097     26.27203560     19.86198425
S        16.54827118     12.78512192     19.70009232
S        17.03460503     26.53460312     19.86515236
S         1.23865962      2.03555846      5.82615519
S         1.04189742     15.77580643      6.04553175
S        14.73015118      1.97198761      6.24629164
S        14.59418392     15.36072540      6.10351944
S         7.12339830      8.54427147     15.90201569
S         7.27946711     22.26598167     15.43449306
S        21.05265617      8.55668259     16.01702499
S        20.87692070     22.26338577     15.89507008
S        10.33627319      6.07691050      2.28544044
S        10.13608742     19.83912849      1.98946583
S        23.37580299      6.27615833      2.59210300
S        24.13852119     19.82144165      2.24150014
S         7.56260586      5.80121279     22.47418976
S         7.51442766     19.67212868     22.26560593
S        21.25738525      6.17280865     22.73139763
S        21.57722664     19.71321869     22.56941795
S         9.87300110      8.58631611      8.82951260
S         9.56960583     22.24369240      8.67495728
S        23.40233040      8.70205498      9.00599957
S        23.47763634     22.74425507      8.96599483
S         9.87449074      9.05763531     12.96212387
S        10.08692837     22.07472610     12.39502811
S        23.86256027      8.15903187     13.29980469
S        23.59631920     22.14480400     12.88236046
S         7.44902372      5.63207912     26.93448639
S         7.25529242     19.95098495     26.52386475
S        20.76991463      6.41966677     26.78349686
S        21.25674820     19.88539886     26.85397911
S         9.59435368      5.81431770      6.35422611
S         9.69774437     19.35584259      5.98634291
S        23.40113258      5.99706697      6.27609730
S        23.64585876     19.89378738      6.38551474
S         7.69532061      9.05135250     20.03979874
S         7.70120239     22.24336433     19.31786156
S        21.18931007      8.98775959     20.07373428
S        21.30110550     22.17262650     19.62686348
S        10.40823746     13.11801624     26.74989700
S        10.28733730     26.35237122     26.32251740
S        23.47137451     13.20807266     26.48629570
S        23.90801239     26.43758965     26.75008202
S         7.43609333      1.87250006     13.12403584
S         7.36599064     15.36412334     12.96692371
S        21.14990044      1.74851143     13.25211334
S        21.15934944     15.56325245     13.36614513
S         9.51213455      1.80251968     19.76534271
S         9.56134892     15.71526432     19.94203377
S        23.39066505      2.12795925     19.55280495
S        23.30500984     15.69803619     19.82548904
S         7.85960197     12.49180698      6.20529890
S         8.07058716     26.35385132      6.54739141
S        21.05196953     12.88623810      6.38116598
S        21.51454926     26.62225151      6.27871275
S         7.18445206     12.90443039      2.10222769
S         7.61340952     26.32532310      2.35263109
S        21.27392578     13.07307529      2.18555140
S        21.23984337     26.64503479      2.32732487
S        10.25251198      1.93295753     15.88734055
S        10.28067589     15.43333149     15.62994480
S        23.68990707      1.56922340     15.97477531
S        24.11202049     15.56628513     15.81327629
S         8.08104420      2.46375394      8.81517124
S         7.43135118     15.75621510      9.07773399
S        21.50648880      2.31365061      9.20575809
S        21.13718987     15.87561131      9.15183926
S         9.64523220     12.50260067     22.54043770
S         9.58454323     26.34130478     22.40365410
S        23.07312965     13.02729893     22.82438087
S        23.48853111     26.80790710     22.61967659
S         3.33904648      6.75859070     12.99946213
S         3.14223766     20.14175034     12.86367416
S        17.36931038      6.75144482     12.98696995
S        16.89838028     19.95664978     12.55572414
S         0.74042457      8.66403961     26.63212776
S         0.72658628     22.34210968     26.20301628
S        14.08325958      7.84169722     26.30830574
S        14.05326176     21.94616699     26.52337837
S         3.03460789      8.99983025      6.63010311
S         2.80465508     22.34645653      6.23230171
S        16.62585258      8.83196259      6.38819408
S        16.48357391     22.55354881      6.07033300
S         0.78636009      5.99631214     20.05020905
S         0.65228927     19.83408356     19.53439903
S        14.52771950      5.75006199     20.02556038
S        14.19927979     19.63689613     20.01984787
S         0.70374620      6.46954870     15.80715370
S         0.21077879     20.46508598     15.87213707
S        14.15078068      6.62927675     15.61680603
S        14.05076694     19.81391335     15.30086231
S         3.53741550      8.73476315      2.53512216
S         3.36189938     22.38775635      1.98930573
S        16.84222984      8.44166946      2.35294318
S        16.99847221     21.85990334      1.97754359
S         0.73442590      8.93448448     22.50634956
S         1.05073345     22.60281181     22.39669609
S        14.48506355      8.52783489     22.57421303
S        14.82970238     22.17750931     22.43572998
S         3.13386679      6.11152887      9.05988979
S         3.01228833     19.76062584      8.75826454
S        16.91374779      6.33417940      9.06679535
S        16.47263336     20.07190514      8.93798351
S         0.13492179      3.07182908      9.99810600
P        -0.98632413      4.36441469     11.11466312
S        -2.28731441      5.46925783      9.91449547
S        -2.10850692      2.79185104     12.20374966
S         0.07096500      5.64945269     12.21924973
S        -0.00988749     16.61240959      9.84761429
P        -1.38485444     17.69660568     11.07124710
S        -2.57038260     19.00395584     10.00413895
S        -2.41121292     16.55360985     12.35240841
S        -0.37426257     19.09654617     12.28676510
P        12.26547146      4.52412128     10.94290638
S        13.52534294      3.24984908      9.72241402
S        11.11206245      5.67860222      9.79811764
S        11.33896351      3.19242597     12.11710739
S        13.25900173      5.79279757     12.14573479
S        13.49622154     16.23589897      9.81806469
P        12.14543247     17.33307648     10.83928680
S        10.83825016     18.46286011      9.83554649
S        11.00485802     16.04260445     12.04959297
S        13.27265263     18.56640244     11.98425961
S         6.65257931      9.66238403     23.23281479
P         5.46563435     10.73440933     24.36921692
S         4.16366863     12.14712906     23.37953568
S         4.48646879      9.43839836     25.65573120
S         6.54024172     11.99858284     25.65847397
S         6.57591486     23.58325386     23.17743111
S         4.16792297     25.74820137     23.44932747
P         5.39915991     24.47069168     24.50319290
S         4.24369907     23.24830818     25.66862297
S         6.50910711     25.78707314     25.60415268
S        20.08434296      9.75818539     23.51078987
P        18.87030029     10.82617092     24.92527962
S        17.45928764     11.98282242     23.81190491
S        17.70578575      9.60069084     26.21445847
S        19.93368149     11.93506432     26.23521996
S        20.20547867     22.72412872     23.08387184
P        18.95948982     23.73310852     24.46581841
S        17.63267517     24.94359589     23.34579468
S        17.82334137     22.48286247     25.61801529
S        20.09777641     24.92029572     25.60170555
S        24.70071793     12.25920963     19.21276474
S        26.95714951      9.88840961     18.99828339
S        27.15345383     12.35972309     16.90749168
P        25.75685883     11.27561188     17.84352112
S        24.64434433     10.02472210     16.76078033
S        24.74493790     25.62373734     18.97556496
S        27.08811188     23.17806053     18.76036644
S        27.23648071     25.67894745     16.64872742
P        25.92025375     24.58119774     17.71093750
S        24.70158577     23.33723068     16.47062683
S        10.82196903     12.12457943     18.95775414
S        13.26995373      9.78125191     18.87689018
P        11.96990490     11.08781147     17.63308525
S        13.30340576     12.19456959     16.57412338
S        10.67128181      9.97569466     16.29936790
S        11.17601013     25.92319107     18.77871132
S        13.57146358     23.31846237     18.66093063
S        13.61421204     25.97448158     16.47396469
P        12.47418880     24.70841026     17.64798927
S        11.19139767     23.64624786     16.35326958
S         4.24085283      5.21646690      5.13330984
S         6.95950699      2.94783473      5.35654449
S         6.76294947      5.20316696      2.84859443
P         5.75040293      4.03907919      4.09159470
S         4.74963665      2.71629691      2.81073809
S         3.78093338     18.67952156      5.30313110
S         6.59818840     16.23853111      5.68351173
S         6.27400494     18.68646431      2.99219894
S         4.34494257     16.20313454      3.04438019
P         5.36081362     17.32009506      4.39795589
S        17.53614426      4.93513966      5.61201286
S        20.11590576      2.58154655      5.74256277
S        20.08202171      5.01371717      3.26380801
P        18.98429871      3.74028802      4.53175831
S        18.09484673      2.33343077      3.37298489
S        17.84128761     18.73872948      5.42056179
S        20.37668800     16.65151787      5.68442869
S        20.33084106     18.94683838      3.26576447
P        19.07877922     17.68989944      4.27891636
S        18.07582474     16.19850731      3.17128396
S         4.26167679      2.83341074     19.18284607
P         5.43284941      3.99131918     17.95499039
S         6.60944986      5.19996738     19.10830116
S         6.47024298      2.84032559     16.53705406
S         4.24172020      5.08349800     16.69331551
S         4.16971111     16.45644569     19.07078934
P         5.26816416     17.59976006     17.79461861
S         6.55552959     18.81154823     18.86740303
S         6.62919283     16.39451408     16.49433517
S         4.11951637     18.86191368     16.69404411
P        18.59459114      4.00660324     17.85280609
S        17.41956902      2.84137940     19.14607620
S        19.85032654      5.21626568     18.95167160
S        19.74172211      2.95121384     16.61839485
S        17.34460449      5.27467632     16.62999153
S        17.43609238     16.03203392     19.31261826
P        18.57958412     17.40899658     18.17544556
S        19.82191467     18.82334518     19.21775055
S        19.48340988     16.25729370     16.81122971
S        17.49357033     18.64987755     16.81771660
S        24.73934364      9.36987019      5.57283688
P        25.91752243     10.63152790      4.27814102
S        27.25975990     11.75144768      5.38981152
S        26.92326546      9.19517231      3.12578988
S        24.91212082     11.97096920      3.16041827
S        24.76612663     23.41498756      5.20710039
S        27.41683388     25.65991974      5.05338860
P        26.06272888     24.48177910      4.09785414
S        27.09169197     23.19572830      2.89246416
S        24.91323471     25.88082314      2.94857597
S        11.00769138      9.45225811      5.14103699
P        12.14535332     10.72400379      3.73148537
S        13.40809536     11.58817482      5.04548550
S        13.01698112      9.28573608      2.63716769
S        11.07365131     11.80255604      2.59939003
S        13.61844540     25.35753250      5.10275745
S        11.14083290     23.18285561      5.20730495
P        12.35381985     24.12703896      3.99323010
S        13.30332565     22.91555977      2.65661478
S        11.26933670     25.51903152      2.76757646
P         5.05357409     10.90811825     10.84995651
S         6.41093445     12.07744026      9.72239017
S         3.68381858      9.78241539      9.88574505
S         4.17507839     12.33091831     12.07611465
S         6.37649250      9.63912296     11.95339298
P         5.48066759     24.67481422     10.83851814
S         6.64136839     25.83702850      9.55905533
S         4.04945230     23.48847961      9.79580021
S         4.59530401     25.93087006     12.05879688
S         6.47903347     23.42441177     11.96329689
S        20.46670914     12.02982521      9.90759468
S        17.89176369     10.04723835     10.05878162
S        18.16446304     12.50126648     12.37314320
P        19.25190163     11.16857338     11.18127728
S        20.55469513      9.79890633     12.13079071
S        20.27504730     25.74368095     10.04659462
P        19.04945564     24.70608711     11.32376194
S        17.90856361     23.62724686     10.21041393
S        18.28113937     26.05572128     12.47959328
S        20.30235863     23.43813515     12.33382034
S        13.40663528      4.83065701     23.56090546
S        10.88922405      2.69914031     23.75882530
S        11.11952114      5.05859947     25.93954086
P        12.21704578      3.79728961     24.92865753
S        13.28625202      2.49284244     26.07993317
S        13.42887688     18.49155235     23.35169029
S        10.86489391     16.14191818     23.65236282
S        11.06739902     18.67785072     25.77359772
P        12.24101162     17.30966949     24.67007065
S        13.26311111     15.86743927     25.94955635
S        -0.06810075      5.02916718     23.59941292
S        -2.70910311      2.64666390     23.61679077
S        -2.32915330      5.30732775     25.67229462
S        -0.11629146      2.52021742     25.84789085
P        -1.19716346      3.84375095     24.80719757
S        -0.33182779     18.69996262     23.53082085
S        -2.94940114     16.55709076     23.63177109
S        -2.64931607     18.95746613     25.78578568
S        -0.39870009     16.38187027     25.94755554
P        -1.52143717     17.69752693     24.80615807
