832

Na       10.51110649     -3.66279244     -4.02075338
Na        3.81813240     -0.47333097      3.23995566
Na       30.04647446     13.88004684     -3.61051965
Na        6.93503761      9.74261570     13.63812256
Na        0.11395070      6.05557489      2.96602750
Na       20.62944221     12.72698784     -3.73824143
Na       27.44724464     13.40809059      7.00496864
Na       23.27337646     23.91762352    -10.25830269
Na       13.41027355      3.18124032     27.11281013
Na       -0.04138583     12.79286194     37.73196411
Na       23.83842850      3.21318889     27.71316338
Na       20.83917046     23.94084930     33.02440643
Na       -3.12128639      9.44659615      9.74444580
Na       -3.05611706     37.15550995      6.19103336
Na       10.32024384     19.96834373     10.34461594
Na       16.97262573     33.66544342      3.01526260
Na       10.79849243      3.44838262      3.39096999
Na       20.66090393     13.39117718      6.75186396
Na       34.21014786     13.19197083     12.70000267
Na       34.56033707     17.05624771      6.78975010
Na        0.27896702     13.55724812     30.23880196
Na        6.74888802     23.96561623     33.54757309
Na       -3.30962372     23.50818253     33.69532776
Na      -10.19886780     30.73794365     29.71753311
Na       -6.11752319     -7.38384533     -6.95335960
Na       -3.17436647     16.62067413     13.82310772
Na       14.01610184    -10.92553902     19.84657478
Na       20.86954880     20.14032555     16.59000397
Na       20.74334335      6.77638340     26.80021477
Na       41.19055176     26.98759460     26.96147537
Na       34.54467773     14.57432079     27.22724152
Na       30.74017715      6.56219959     17.14325523
Na       10.37574005      9.95921230     13.17414570
Na       13.88981438     34.81645203     13.43628025
Na       27.46511459     12.98148632     13.70517159
Na       27.33475494     16.45749474     13.44280815
Na       -0.09768084     -3.42515445     20.21478271
Na        0.17268710     23.76838112     27.30506897
Na        2.76329803     12.98517036     16.53096390
Na       10.25796986     27.34052277     23.53020859
Na        7.07460165      6.74838781     16.27946854
Na        6.84528446     12.97991276      3.35739112
Na       16.85245323      3.20884728      6.97594738
Na       17.57320404     23.51679230      6.96751356
Na       -0.22469540     19.96885300      6.83520317
Na       -3.33901691     37.26056671     20.09429359
Na        3.27969742     10.44141769     13.55361462
Na       10.53605270     20.18724060     23.93794823
Na        0.04572972     -0.14238903     12.86980438
Na        0.12485746     23.74267387      6.94040060
Na        6.97827196     -0.85221863     -0.31161156
Na       16.83713150     20.01138306     10.26753330
Na       20.63215828     16.97764969     26.90556335
Na        7.34602833     31.07579803      6.57260561
Na       24.57173729     21.06505966     17.38150215
Na       23.98484993     23.18838692      9.98013401
Na       -6.86559439     13.67412567      9.87520218
Na        6.38416958     20.35142326      9.94221497
Na       24.02923203     20.59256172      3.29982591
Na       13.71162510     13.32553577      6.01326180
Na        3.14971185     -0.84377229     23.60130119
Na        7.15809631     33.39160919     27.39407349
Na       20.40167999      6.46720743     33.52938080
Na       26.99356079     12.65982819     22.99021912
Na       23.56643486      3.12696314     13.94095230
Na        0.23354591     13.61022091     26.68522835
Na       10.92314243     10.56386852     27.30055046
Na       20.47975540      3.55059981     33.86759949
Na      -14.52910900     -3.57342839     20.43889236
Na        7.32096386     26.52634239      3.02095771
Na       13.85819530     -0.27361479     23.56369972
Na       23.40316963     30.19404602     23.92097282
Na        3.28692842     10.28640842     10.08108425
Na      -14.31509209     13.04577255     -4.41780901
Na       14.12219048      0.06140029      2.85598660
Na       17.16188431     10.16576576      9.84307861
Na        0.34905684     10.06378651      6.62007475
Na       10.06040001      3.12235260     13.61528873
Na       16.37277222     -3.60489297     20.22026443
Na        7.53621721     20.24462318     16.94222832
Na       16.88669014     -3.92087269      3.21029329
Na       16.98569489     24.02499962     13.42752361
Na       20.49190712      3.68366122     -6.90319633
Na        6.47805119     27.86886215      9.73742294
Na       -0.25328758      2.95435953     20.25145149
Na        7.16119242     17.52333641     20.34147263
Na       37.36982727      3.20757484     19.43090439
Na       16.91781235     17.17855835     13.19762230
Na       13.66133881      7.22664976     -0.24869278
Na       27.47256279     19.80742073     12.53409958
Na       20.22256470     17.06012344     13.45204353
Na       31.26847839     16.60366821     -3.61318040
Na        3.97428155     10.03298283      6.70271206
Na       10.95056820     17.16741180     16.99937820
Na       20.24245453     19.97424889      9.48426437
Na       30.62997055     19.75537872      3.37562728
Na        3.28243136      3.05258608     20.28952026
Na       13.16436863     19.91329384     16.96922493
Na       20.54590225     13.88828850     26.96393776
Na       27.62169456     23.57139778     13.74995232
Na       22.68194580     -0.64418173      9.87112617
Na        7.06033945      0.31004915      6.35567522
Na       20.09263039     -0.62093550     -0.60784078
Na       38.18667221     27.03528404      2.98666811
Na       13.54940033      6.51093721     30.25680923
Na        4.07045841     16.41489983     27.33140373
Na       33.99570847     23.26229858     27.23285294
Na       27.80550575     20.55735588     23.68248749
Na       17.06488228    -10.20800591     17.04779816
Na        0.40775275      8.49298859     13.67467976
Na        7.00737047     13.47562504      6.44620085
Na       10.08780384     10.52241230      6.86216879
Na        3.60703206      2.90776491     -3.07825732
Na       13.67410851     12.75042915     -0.67986542
Na       23.82936287     10.78601742     -0.80188388
Na       27.86931610     26.97608948      6.55266809
Na        9.42783070      6.74246883      2.98419356
Na       13.41436195     33.98851395      6.46774149
Na       13.90030479     16.56099319     13.87511635
Na       20.56996727     26.78046417      6.66619158
Na       10.29168415      9.90852642     16.38195992
Na       10.70898247     23.47755432      9.94507217
Na       24.00574493     14.36563492     23.66518593
Na       23.54303169     23.30242348     20.61693382
Na        6.79715633     13.24178505     23.92486191
Na       20.53568268     30.45837593     26.69799042
Na       14.08172226     20.37468529     23.72147751
Na       30.59808731     23.09340477     30.23602486
Na       10.29325104      9.99020672      9.88716412
Na       27.43948364     30.34118843      6.84340858
Na       20.70706367     10.29138279     14.11412525
Na       24.06559944     17.31514740     -0.18819349
Na        0.25887656     10.30578899     26.64517403
Na       -3.27378106     24.10567665     27.16253471
Na       16.87293625     13.31618595     16.60919571
Na        6.40257931     24.34818840     13.48231030
Na       13.38237953     13.27687073     10.04104424
Na        7.37992287     20.92229652      3.15833068
Na       17.08710480     16.53348732     -0.51346999
Na       17.47523880     16.88360977     -3.93040466
Na       17.11511993      0.12686504     16.83666611
Na       24.31997871      6.27126598     23.31754494
Na       13.80613327     -6.83432102     27.39256287
Na       13.64481258     23.06468964      6.68972540
Na        3.01590252     23.90828896     11.03678989
Na        2.52206373     20.44659424     10.14665222
Na        3.41205406     17.09398651     12.18801975
Na       13.57404709     20.51850128     13.53313160
Na        3.96600008      3.31542468      6.23817778
Na       13.71259785     17.25859833     -0.15665863
Na       26.38227654     26.75038338     10.17749691
Na       24.03232956     23.56598663     -3.33724523
Na       -4.54039431     16.32730865     20.32751274
Na      -22.71291351     23.53483772     20.40398216
Na       17.00221062     23.27207756     23.77496910
Na        6.25903654     27.52071762     23.22573471
Na       16.91878891     13.73183060      9.92669296
Na       13.66257954      7.31007290      9.72033215
Na       19.60139656     -3.57514977      0.12932640
Na       13.38894749     13.79100132     17.03701973
Na        6.66255617      2.93552446     20.38636017
Na        3.29113936     23.76391029     16.46690941
Na       20.47111893      6.72045612     13.19572449
Na       43.96456528     30.55283546     12.06848717
Na        3.08187056     29.89521027      2.92945552
Na        6.46215487     20.21261215      6.17286253
Na       37.52789688     13.55311966      2.87911868
Na       26.73682404     27.18910599      3.28737879
Na      -13.96952820     -7.19670868      6.89322424
Na       -6.42471600     20.38034630     13.14447117
Na        6.85406971      0.13446639     13.38633156
Na       10.19575214     16.88490868     27.52704811
Na        3.43631268     -3.95101881     27.16380119
Na       13.53612614     24.08844376     13.19460392
Na       20.70011902     -7.23214149     23.80434227
Na       13.93543816     23.47491646     27.30821609
Na        3.55163646     16.75662613     19.87757301
Na        3.17207670     27.32962799      9.79551888
Na       10.10437298     16.72277641     13.49068260
Na       14.47785378     19.95085526     20.28498268
Na       -2.56264663      3.20403862     30.69363976
Na        6.75794840      8.10169411     34.10025024
Na       23.06081581      0.52505898     44.01993179
Na       27.09619713     19.80731964     30.44906998
Na        3.51605415     10.11718559     20.56397820
Na       10.11288834     30.41111183      9.46120834
Na       30.93467903      6.01631498     24.00948524
Na       27.22372246     33.93752670      6.00325775
Na       13.08457279      3.47614431      6.14423132
Na       13.42270279     20.51817322     10.12782764
Na       24.02848434    -17.26962852     -3.69430065
Na       40.60589600     30.83862495     13.30826378
Na        9.99082947      3.56778669     -0.09402489
Na        6.64011574     14.01212025     -7.11547565
Na       23.70346260     16.34785652     10.43069363
Na       27.70543098     16.94919777      6.52568913
Na       16.19171143     16.30845642     34.29184341
Na        4.42140150     20.58223152     16.67379379
Na       -3.63226652     12.63747215      9.90762901
Na       24.16210938     33.16691971     16.52837753
Na       23.85315514      9.76859188     16.82479286
Na       17.13820267     30.12535095     26.71798897
Na       23.57618713      9.75438881     30.45531654
Na       19.77376175     27.43454552     23.45807266
Na        3.56545830      3.75215197     13.15526485
Na       -2.76252365     19.25535011     -3.54384756
Na       23.74165535      6.88172626      3.19541121
Na       17.32312012     36.93796158      3.07792902
Na        6.99926043      6.38392305     20.27678680
Na       10.91624260     17.15140724      7.06719685
Na       23.05519295      3.19365835     19.52181625
Na       10.20509624      9.89826107     23.50960732
Na        3.47588253     14.46739197     37.08417130
Na       13.35137939     34.24433517     23.38629913
Na       16.71874809      9.74575043     23.51333046
Na       21.18417931     40.52989197     30.31550217
Na        0.00290671      5.57387352     26.93909264
Na        9.99294281     17.07173920     24.06130409
Na       -5.87591839      0.09920142     30.32694244
Na       16.90717506      2.78271294     19.32618523
Na      -10.23648834      6.15328264     37.38427353
Na       16.13337708     37.09830093     26.87161064
Na       16.48645020     13.62792492     23.22011185
Na       24.04203415     16.73028946     30.53436279
Na        2.95899248     -0.61832094     16.59963417
Na      -10.60597515      6.91975117     16.68359566
Na       20.22897339      0.08469994     20.20293999
Na       13.02072430     26.62952614     20.03161621
Na        0.72527772    -10.21327591     27.06702042
Na        7.24012613     30.38730240     26.91080856
Na       10.22072506     -9.70853806     30.78796959
Na       24.52291489     19.54884148      9.86900902
Na        7.80003262     13.58631039      9.68406296
Na       13.51892853     27.85734558     12.81867504
Na       24.54937363     17.63907814     16.97428322
Na       17.18362999     23.97051620     17.12557030
Na       13.37504959     20.17424583      3.63080955
Na        6.69974136     19.56320953      0.29355779
Na       16.89394188      9.91114521      6.33128214
Na       33.43099594     34.24981308      3.63200593
Na        6.56835318     -0.68899626     16.51829910
Na       10.20207405     23.95265770     33.74203491
Na       23.83731270     16.72793961     33.99062347
Na       34.33844376     20.53928375     20.66819000
Na       13.92445564     33.73611832     20.26595688
Na        9.74916363     23.39031601     40.14027786
Na       30.65918350     17.26678848     16.18304253
Na       27.19206047     27.18774223     27.10808563
Na        9.91189289     -1.02845538      9.65894127
Na       14.13665390     27.31110191      6.45490456
Na       20.10935783     -3.59828806     20.15992546
Na       20.52598381     27.13904190     13.23876381
Na       17.01139450      2.51836634     23.53114319
Na       -0.12381805     19.92934036     27.07851410
Na       40.38223648      2.38155651     19.72532463
Na        7.28460979     20.15548134     23.60633850
Na       -2.55896115     13.12907982      2.92832971
Na       -3.73233247     24.46049690      3.15847921
Na       16.91098785      0.30980211      9.92785835
Na       17.04707718     19.64623070      3.21008563
Na       -0.27491608    -13.94808197     18.72596741
Na       17.34563065     20.61361313     16.74287605
Na       10.16345024      6.23436928     16.71251106
Na       10.28308392     10.08244038     30.79088402
Na        3.62628174     -3.38768911      6.86414194
Na       -6.93850708     20.46613503      3.33710170
Na       16.93980408      9.95969486     -7.73808432
Na       -7.06124306      9.73298168     -0.28700292
Na       16.98117256     10.02825737     16.11761856
Na      -14.05766392     12.54052734     13.82883835
Na       31.08480644      9.95255280     17.06625175
Na       23.72921944     13.23371124     16.96436691
Na        0.53217083     20.22237206     16.34669113
Na        7.23836279     33.71664047     10.22346497
Na       17.08909988     10.30338573     13.29082775
Na       30.72093582     34.35422516      9.61091137
Na       23.89206886     -4.25202847     13.33078957
Na       30.62877464      9.64425659     23.85150146
Na       20.45679283     13.37440395     17.15867615
Na       28.04809570     20.63678932     -7.17403269
Na       10.09336567      4.16996622     -3.73587418
Na       -9.47636604     16.96158028     -7.13325310
Na       20.33039284      6.84667826      2.91743970
Na       17.27328110     19.92453957     -3.39135170
Na       30.68358231      4.24442959      9.86354733
Na      -17.22760963      9.85550213     20.28256416
Na       20.62712860      6.18782949      9.82590961
Na       26.66355515     26.97514725     19.98203278
Na        6.72465944     10.09641743     19.78865433
Na       10.42761803     24.01909637     26.62117195
Na       20.35901070     13.38953209     19.96455574
Na       26.75430870     27.75095940     16.72780418
Na       10.04622936     -3.44048572      3.31534624
Na        3.40265727     16.50358963      3.04519844
Na       16.75087738      3.82322979     15.75544453
Na       16.95393562     23.71094894     10.11986732
Na        0.34462056      6.41944933     23.70746040
Na        0.27879208     33.68007278     20.00235748
Na       20.78878403      7.11018419     16.61293030
Na       20.17511559      3.37366009     13.14292049
Na       20.33721161     -6.83282185      6.38605213
Na        5.62659597     14.22577572     16.25079727
Na       27.23467064      3.47245216     13.44214535
Na       30.65655518     12.49149609      3.53867149
Na        6.57976341      3.75732398     13.18641853
Na       17.49875641     40.45125580     30.17119217
Na       26.55203819     16.59385681     20.17628288
Na        7.98177052     23.59264183     20.18005943
Na       20.50106812      6.79765892     20.00077438
Na        3.72040415     21.03693771     24.00549507
Na       19.98278809     -0.51615006     17.07204628
Na       -3.67789006     26.95282555     23.99003792
Na        7.07044411     16.70847130     13.30402279
Na       -7.21738529      9.74092197     20.05838203
Na       13.66909409     10.20448685      6.79992342
Na       20.50723457     24.11597443     13.42509365
Na       13.94087219     13.22173405      2.67337132
Na        0.22035842     32.90407181     16.44430923
Na       20.74191666      5.47067022     23.44426155
Na       44.24765015     33.49221802     -3.77615857
Na        3.65766597      9.60932732     26.88709450
Na       10.38465881     16.76093864     20.75112915
Na       13.74546528     11.05994415     19.99472618
Na       20.31572342     20.33389091     27.33448792
Na        6.80625153     -6.34933662     12.92470741
Na       10.52577114     15.74206257     10.45506096
Na       27.35856819      6.81135082     10.39125252
Na       31.35947037     16.85363388      6.37773752
Na       10.71328259      6.34308863      9.85660172
Na        3.23524785     29.91168976     16.46544838
Na        9.99890804     -4.25469303     16.90203857
Na       13.74521446     33.16482925     16.61721992
Na        3.10720921      8.50142479      3.19678783
Na       -0.19826460     26.90435219     -3.42412448
Na       16.51071358     16.66112709      3.77765274
Na       24.01106262     30.42669106     10.15399361
Na       -9.68281651      0.19940563      3.46390343
Na        6.27462339     27.06723404     -7.27486658
Na       20.38888359      9.65319252      6.84409952
Na       13.86159229     27.02146721      9.68059540
Na       10.04559803     -0.07323078     16.55035210
Na        9.81328392     13.64935017     16.73924065
Na       23.99461555      9.63003540     13.30639839
Na       10.04949188     13.55200481     23.55212784
Na        3.79151654      2.66314721     -0.13391772
Na       -7.06124401     17.00712204      7.09949064
Na       13.69157028     -0.24124697     16.66688347
Na       20.55743027     13.46278667     13.53621578
Na       -3.36120081      3.37044454     33.50370407
Na        6.60868216     10.13776207     27.24549866
Na        7.08546972      6.28690052     23.54328728
Na       27.65262222      9.75406361     20.53539276
Sn        3.77373123     13.75515461      6.65513897
Sn        3.82608199     27.25065994      6.28639889
Sn       17.44643402     13.25194836      6.51777172
Sn       17.31247902     26.93460083      6.84564781
Sn        2.92584562     -0.45768610     20.14532661
Sn        3.20821738     13.51427746     20.14281845
Sn       16.71716118     -0.26415369     20.30048943
Sn       16.81796646     13.37000275     20.07519722
Sn        3.05790877      0.28950927     13.04340744
Sn        3.48968792     13.63935566     13.31312180
Sn       16.94438744      0.21378416     13.23157692
Sn       17.06745529     13.75802422     13.35402107
Sn        3.46809149     12.88337994     -0.00145622
Sn        3.77535725     26.68645477      0.04782427
Sn       17.29560661     12.79211712     -0.74100113
Sn       16.98794937     26.48893738     -0.34708408
Sn       10.46054554      6.36912966     20.32331085
Sn       10.79409122     20.11204529     20.20860672
Sn       24.24927521      6.52362394     20.18148422
Sn       24.51861191     20.10890388     20.36058998
Sn        9.88191414      7.17257500      6.43082142
Sn        9.89248943     20.67869759      6.54811716
Sn       23.58572960      6.78588772      6.66338396
Sn       23.65706444     20.20304489      6.54426146
Sn       10.27549171      7.22215033     26.65105247
Sn       10.27257156     20.51182938     27.21306229
Sn       24.05798912      6.96512079     27.12408829
Sn       23.83216858     20.45960045     26.98410988
Sn       10.43010998      6.31448078     13.32544327
Sn       10.37138176     20.22258568     13.83977890
Sn       24.17216873      6.35434055     12.89368725
Sn       24.18015480     19.88901711     13.47504234
Sn        9.66098690     -0.33164266     19.97727394
Sn       10.24599743     13.50453091     20.00522614
Sn       23.47253609     -0.58390409     20.39409828
Sn       23.55115128     13.20180798     20.42354012
Sn       10.38129330     13.55568314      6.54990911
Sn       10.45055866     27.21567726      6.27987909
Sn       24.31186867     13.40166378      6.71791887
Sn       24.47249985     27.09449577      6.63412380
Sn       10.16830730     13.25130844     13.05623055
Sn       10.06203270     26.96866035     13.17359924
Sn       24.08037758     13.27906036     13.56040001
Sn       23.86488342     26.56563759     13.47258759
Sn       10.40594673      0.38777161     -0.17576511
Sn       10.65168095     13.60737991     -0.38230598
Sn       23.78294373      0.18336558     -0.02514419
Sn       24.34237099     13.79350662     -0.05647773
Sn        3.30895758      6.42465734      6.51290417
Sn        3.01827788     20.36684418      6.56396294
Sn       16.95528603      6.58302546      6.58670807
Sn       16.77942276     20.14150620      6.78747416
Sn        3.57626271      6.51330853     20.32773972
Sn        4.05323887     20.26119804     20.02864265
Sn       17.12604713      6.73322868     19.88323021
Sn       17.57582664     20.33837700     20.31399345
Sn        3.52908731      6.08480024      0.10789359
Sn        3.41844440     19.94980240     -0.14290638
Sn       17.03903008      6.21955538     -0.57090986
Sn       17.10377312     20.09974289     -0.10019713
Sn        3.57763863      6.82486963     13.27020645
Sn        3.57835221     20.99909210     13.46033955
Sn       17.22824478      6.80147457     13.27756023
Sn       17.22943878     20.46688843     13.57379055
S         1.89874697      4.44593716      1.14256907
S         2.09906745     18.45313263      1.33148909
S        15.47907352      5.02714825      0.86675173
S        15.60949135     18.60034943      1.30632758
S         4.86195326      8.29980755     14.80973721
S         5.04020882     22.33198547     14.85848999
S        18.45097923      8.35439777     14.59196186
S        18.86888123     21.75249481     14.85558891
S        12.04454041     12.51341057      7.79803514
S        11.82533932     25.72111702      7.69602013
S        25.58423042     11.67640877      8.09118748
S        25.26506615     25.48927307      8.09444427
S         8.42555809      1.08403754     21.57816696
S         8.67645073     14.83932686     21.53562927
S        22.31159973      0.92581135     21.92951012
S        22.09219170     14.35448647     21.91946030
S         4.93100739      4.57141495     25.93223381
S         4.89229059     18.72908783     25.34209633
S        18.15832710      4.69825697     25.23001862
S        18.67228317     18.56088257     25.99222374
S         2.51021171      8.28906536     11.91525173
S         1.70399117     21.96712112     12.24805832
S        16.09515190      8.21471786     11.61371708
S        15.73654747     22.01138687     12.27204323
S         8.59052944     12.29320049     18.61606789
S         8.51803017     25.59471893     18.29497147
S        22.05033875     11.68380260     18.96981812
S        21.97160912     25.35783768     18.99689293
S        12.11998940      1.21974361      5.08121014
S        11.93727589     14.73653221      4.93069220
S        25.80873680      1.61802280      5.47460079
S        25.83954048     14.65685844      5.44797039
S         8.89287758     11.74370861     14.39509487
S         8.55438232     25.71594238     14.74726772
S        22.80284882     11.77170086     14.88951588
S        22.10288429     25.53565598     14.97389603
S        11.76993465      1.73791766      1.38277602
S        12.08648872     14.98951912      0.99877596
S        25.26635551      1.16274750      1.59715414
S        25.60516739     15.11826801      1.35404849
S         4.89223242      5.07375193     21.79871368
S         5.25353765     19.06432152     21.74435616
S        18.78568840      5.45905495     21.46017075
S        18.98413658     18.92999268     21.86911774
S         1.67584896      7.95422888      7.84631348
S         1.42754519     21.75943375      7.72528648
S        15.52534294      7.94863605      7.86373854
S        15.09368610     21.54371071      7.76862144
S        11.47070312     11.85944939     11.49315357
S        11.55822182     25.55383301     12.00193691
S        25.33008003     11.77331734     12.17443275
S        25.01720619     25.07398796     12.06697655
S         8.72861385      1.45388842     25.70060730
S         9.33613491     14.99332237     25.47839928
S        22.33222198      1.58538628     25.90628433
S        22.83249283     15.31447506     26.11991119
S         1.81821656      4.87801504      5.17574215
S         1.58518124     18.93699265      5.17192745
S        15.62538433      5.04410028      5.17929316
S        15.23576641     18.84216118      5.36983871
S         5.15257788      7.96766186     19.16042709
S         5.56354237     21.67196655     18.71940231
S        18.68030167      8.00102234     18.53332329
S        18.85350800     21.67239380     18.72297859
S        11.84379196      8.60731697     25.42890549
S        11.79151249     21.75212288     25.79081345
S        25.38930702      8.36305714     25.42382431
S        25.37738800     21.88141060     25.74857521
S         9.30721855      4.93319321     11.60515022
S         8.75620651     18.90979767     12.47560310
S        22.51766014      4.94594908     11.95587444
S        22.73151970     18.24550247     12.31592369
S         1.54158330      0.92595905     18.57372093
S         1.95998633     14.99894142     18.76568794
S        15.19419289      0.93384123     18.76482773
S        15.80525017     15.11410332     18.58678818
S         5.18236065     12.08061695      5.41839981
S         5.41236830     25.81977081      4.91887808
S        19.11601257     11.97424698      5.20276117
S        18.60979652     25.51212883      5.33540297
S         8.97926235      8.63942528      0.86704773
S         8.95036602     22.15515518      1.25578380
S        22.31169510      8.29723167      1.16341293
S        22.41041756     21.68047714      1.36119187
S        11.81287479      4.85785103     14.86247253
S        11.54034424     18.71335983     14.96756077
S        25.44342422      4.90892220     14.41546059
S        25.79044914     18.67864418     14.92804527
S         5.06598043      1.45016849      7.72395754
S         5.42003584     15.11809349      7.81687307
S        18.80558968      0.76866287      8.28830719
S        18.59441948     14.64455032      8.00557995
S         1.73746181     12.08483696     21.65503120
S         1.35251999     25.72011757     21.55710983
S        15.40391445     12.07677937     21.56961632
S        15.38391972     25.43984413     21.51893616
S         4.37028456      1.55291879     11.59531784
S         4.95161009     14.91453362     11.95522022
S        18.59757042      1.26937521     11.96769524
S        18.47311020     15.19861889     11.88567066
S         2.42911386     11.53444767     25.41155434
S         1.92036271     25.41793251     25.99457741
S        15.45867729     11.67554283     25.19435883
S        15.70660210     24.80516815     25.81854057
S         8.61199379      8.55843544      4.99413061
S         8.39884281     21.92083359      5.24878216
S        22.05142784      8.06405067      5.09382820
S        22.38055229     21.71170616      5.08783054
S        11.88638306      5.22143555     18.72903633
S        12.05941010     18.36701775     19.08485603
S        25.48301125      4.92621660     18.68088722
S        26.12781715     19.06852531     18.85025215
S         1.80581021      1.43628812     14.62833595
S         2.34759402     15.25573158     14.41133976
S        15.46286011      2.00004101     14.17565441
S        15.84807110     15.17546844     14.94067097
S         5.10764265     11.59715652      1.25476408
S         5.04688549     25.03247070      1.31831527
S        18.76244926     11.51675701      0.74895346
S        18.54493713     25.84512711      1.51749527
S        11.63740063      7.93554163     21.65992355
S        12.00377178     21.51482582     21.81052971
S        25.67547607      7.74747992     21.93006516
S        26.03049088     21.29593468     21.92542076
S         8.64466095      5.81283951      7.91310072
S         8.47091103     19.44499207      8.08796120
S        22.20690155      5.04946184      7.88720179
S        22.18328476     18.78182983      7.93635273
S         2.44467783      0.79898709      1.42665398
S         2.39860749     14.37223530      1.43485475
S        15.92590237      1.13500631      1.13108122
S        16.03742599     14.05166531      0.84170341
S         4.73932457     12.25021267     14.74450207
S         4.43908596     26.06221199     14.41238689
S        18.36468697     12.13844490     14.80244732
S        18.19037437     26.08990669     14.85590267
S         2.47784615     12.39015961      8.30924416
S         2.54117060     25.78390121      7.76181126
S        16.05937386     12.00729084      8.04883766
S        15.81728077     25.62729263      7.99728680
S         4.30833626      1.03949118     21.78891182
S         4.51224756     14.68528843     21.70381165
S        18.17387581      1.43719184     21.49861336
S        18.03091049     14.79004860     21.65456009
S         5.06088448      0.50179011     25.57173347
S         4.84524441     14.29723454     25.74916458
S        18.18513680      0.96596175     25.52801514
S        18.57620621     14.27368069     24.87580681
S         2.08196688     12.25406170     11.96644974
S         1.82950675     26.13739586     11.55506039
S        15.61568260     12.25731468     12.11237621
S        15.74366951     25.86929703     11.91686726
S         4.72560215     12.06750298     18.72327614
S         4.41014290     25.42912483     18.74475479
S        18.29727173     12.09303474     18.55405235
S        18.27683258     25.58909798     18.97489738
S         2.09889483      1.19538820      5.02822018
S         2.12324429     14.82245350      5.29219484
S        16.24207497      1.13823485      5.34551096
S        16.11738014     14.66996574      4.96227407
S         8.74724483      7.54860544     14.22547722
S         8.63301754     21.72477150     14.76413822
S        22.74600029      7.64825296     14.71840572
S        22.69109344     21.07894707     14.95834827
S        11.30141354      5.73556471      1.14394748
S        11.86833763     19.24740982      1.26218593
S        25.12119484      5.41066694      1.23197782
S        25.04173088     19.21827698      1.38020003
S         8.82567787      4.68153429     21.31248093
S         9.31651688     19.19662285     21.78786659
S        22.39509964      5.24586010     21.34841537
S        23.15490150     18.69953918     21.61673737
S        11.54804134      8.47370338      7.85161781
S        11.41267776     21.50873566      8.27139378
S        24.93689728      8.19408607      7.97497463
S        25.00003624     21.47428894      7.84116936
S        11.94814587      7.83344841     12.05872440
S        11.58667850     21.69257927     12.17325211
S        25.53169250      7.91993666     12.10494804
S        25.29527283     20.97919846     11.71394539
S         8.87141705      5.68428135     25.55125999
S         8.87310410     19.03028679     25.80432892
S        22.68679047      5.82236433     25.46781349
S        22.50286484     19.09025192     25.68136597
S        11.21857071      5.76583099      5.05935764
S        11.15674496     19.26504135      5.22861671
S        24.78629494      5.45293808      5.12624121
S        25.04655647     18.69836807      5.01402140
S         9.15866375      7.91614246     18.65381050
S         9.42054176     21.53966522     18.84256554
S        22.85721588      7.71511555     18.71662712
S        22.64683533     21.36282158     19.07448387
S        11.67663097     12.08205128     25.28363800
S        11.71583271     26.34785652     25.49000168
S        25.44493103     12.49750423     25.25823593
S        25.23322868     26.08669090     25.79310989
S         8.84480000      1.00692201     11.72983170
S         8.80603600     14.83327579     12.05191708
S        22.61313629      0.78341687     12.16849518
S        22.52242470     14.33339691     12.16054249
S        11.33203506      0.88199091     18.77173615
S        11.75501347     14.73399734     18.71203613
S        24.64438438      0.92826092     18.91998672
S        24.57178116     14.93851948     19.09267616
S         8.95165348     12.31117344      5.13493824
S         9.23163986     25.89157677      4.73481131
S        22.99029350     11.94522190      5.03763294
S        22.74909973     26.02859879      5.27862120
S         8.95550919     12.54911137      0.71237749
S         9.40445518     25.83711052      1.02270806
S        22.86834717     12.31346321      1.24200821
S        22.21580505     25.87058640      1.04686379
S        11.42982960      1.03968823     14.53801060
S        11.39779949     14.60572433     14.56479454
S        24.99124718      0.97332728     14.78822136
S        25.64347076     14.52128220     14.98727798
S         9.26711559      1.62833381      7.58250380
S         9.31021595     15.14066887      7.83751345
S        22.96169853      1.32070613      7.76471949
S        22.73308945     14.61847305      7.95979881
S        11.33463573     11.66309738     21.35179329
S        10.87581730     25.60297966     21.69486809
S        25.45573997     11.75059414     21.41983223
S        24.82439613     25.38568497     21.92014885
S         5.02504683      5.53174353     11.75444031
S         4.62539148     19.72725868     11.68883419
S        18.54068947      5.13119841     12.01492786
S        18.61588669     18.97704506     12.25573730
S         2.18222380      7.35663557     25.68889618
S         1.92866540     21.39968872     25.81264687
S        15.58718109      7.72600365     25.19769669
S        15.65449333     21.20478630     25.53497314
S         4.51521540      8.05642796      5.31442499
S         4.33796930     21.73701096      5.10390139
S        18.18705750      7.85198307      4.89895439
S        18.07975960     21.46281624      5.36257458
S         2.36064339      4.94788599     19.00612450
S         2.64685893     19.05097389     18.53813362
S        15.65993786      5.19577074     18.49152374
S        16.40813065     18.82694817     18.90523911
S         2.44510031      5.41759443     14.72888088
S         2.23839617     19.05676651     14.56980038
S        15.58562374      5.79782438     14.59307575
S        15.72395515     19.17154884     15.01546383
S         4.98565292      7.77530575      1.05054283
S         4.83691454     21.31097031      1.39303398
S        18.30691910      7.69410563      1.14145350
S        18.42106628     21.38348579      1.42017245
S         2.21829653      7.68090153     21.89585304
S         2.64719248     21.64277077     21.55819130
S        16.20052719      8.20404625     21.41413498
S        15.96779919     21.41619873     21.79332733
S         4.94255686      5.28630733      7.91682816
S         4.50553226     19.11254501      8.04136467
S        18.59899521      5.46661329      7.96338940
S        18.13352203     18.61859512      8.14027977
S         1.71947157      2.10361671      8.99746132
P         0.32503137      3.18551254     10.20580769
S        -0.97326070      4.23621321      9.27491474
S        -0.90396476      2.07780337     11.26754665
S         1.43423498      4.54165459     11.32598591
S         0.97642016     15.44459343      8.66516876
P        -0.30622789     16.53584290      9.74878883
S        -1.54606557     17.67286873      8.51914215
S        -1.22017205     15.27471352     10.96229744
S         0.91629779     17.78134537     11.07116508
P        13.60792255      3.53943062      9.69504166
S        14.77733803      2.28424072      8.58090115
S        12.32102203      4.73784542      8.52174473
S        12.57141876      2.10682225     10.93133450
S        14.59245110      4.80785608     10.92055225
S        14.90377712     15.48072433      9.07156467
P        13.82940388     16.84427834     10.24618721
S        12.41620731     18.10607147      9.11638832
S        12.83310890     15.59668922     11.35050488
S        14.67252064     18.24858665     11.59712887
S         7.69509459      8.65207863     22.06846237
P         6.68189669      9.79380512     23.54139519
S         5.48877811     10.90228176     22.30924225
S         5.68953943      8.42933178     24.65996170
S         7.70716619     10.96693611     24.78090668
S         8.03301811     22.51261330     22.63439178
S         5.60921812     24.95340729     22.60878372
P         6.84322023     23.58021355     23.77403831
S         5.98459291     22.17385483     25.06816101
S         8.06822205     24.77954102     25.09778023
S        21.65768433      8.45942593     22.15524101
P        20.52377129      9.45704842     23.38777733
S        19.26601982     10.76102543     22.29329872
S        19.56972504      8.23173618     24.59980011
S        21.63917542     10.69870281     24.67895889
S        21.70236588     22.38454628     22.40513992
P        20.65920258     23.49197960     23.60034752
S        19.29419708     24.58505821     22.59704971
S        19.49423409     22.11640167     24.74110794
S        21.74891663     24.66408539     24.84711838
S        26.21593475     10.58891201     18.29097366
S        28.41957283      8.20840549     18.25226402
S        28.50469780     10.75547600     15.96569157
P        27.33255768      9.41242790     17.06990433
S        26.07607841      8.44715214     15.79278183
S        25.65626717     24.99811172     18.04240990
S        28.21399689     22.32757378     17.95659637
S        28.13309860     24.95226479     15.85751629
P        26.92105103     23.71640205     17.02574539
S        25.69195175     22.71446800     15.67524242
S        12.59989834     11.30195618     17.64458847
S        14.90972614      8.89369774     17.51217079
P        13.78648758     10.18012333     16.39155579
S        15.10442924     11.47338104     15.48258877
S        12.41116905      8.98957348     15.27483082
S        12.93784046     24.63958931     17.89562798
S        15.18190956     22.36652565     17.82240486
S        15.32643509     24.82748222     15.51520443
P        14.13280106     23.70393753     16.61024857
S        12.87281227     22.62831306     15.44336128
S         5.62588739      4.28584814      4.30609560
S         8.22373772      2.11649513      4.52157068
S         8.07557583      4.31746721      2.06723237
P         6.97226238      3.09917569      3.18928885
S         6.01272535      1.76178920      1.95450282
S         5.49695206     17.91771698      4.29926872
S         8.08906746     15.79107952      4.47881651
S         8.11543846     18.11031723      1.96735168
S         5.97582293     15.53630161      2.11271143
P         6.94892168     16.84642982      3.29068041
S        19.40203094      4.56419849      4.13556004
S        21.85167694      2.39174247      4.35052586
S        21.77756500      4.66399050      1.76729214
P        20.72735405      3.52289438      2.99293542
S        19.82162094      2.10208654      1.78036344
S        19.07135582     18.12884521      4.38303852
S        21.86167145     15.87558937      4.62646246
S        21.74552727     18.23785591      2.11526704
P        20.59356308     16.91556549      3.27698708
S        19.53291893     15.60520840      2.13322067
S         5.52819443      1.83035672     18.02198792
P         6.67720270      3.19954562     16.72487640
S         8.03072071      4.22691488     17.89230537
S         7.91397810      1.87942898     15.59282494
S         5.43400097      4.23870373     15.64340210
S         6.27534151     15.82753277     18.10349083
P         7.50315428     17.10926437     16.87539291
S         8.60354996     18.30243492     18.04263878
S         8.44664955     15.84190464     15.60066319
S         6.23026800     18.20280075     15.71804428
P        20.43474197      3.34039140     16.69249153
S        19.30964661      2.02008271     17.95979500
S        21.56093788      4.65951967     17.85324478
S        21.38891602      2.09515619     15.36296844
S        19.32964706      4.54289579     15.47999763
S        19.45618439     15.48577118     18.41594696
P        20.66353607     16.55585289     17.16367149
S        21.90992928     17.88436317     18.24741173
S        21.81499290     15.54734898     15.76421642
S        19.52284050     17.77539253     15.95310497
S        26.18994141      8.66059399      4.10726690
P        27.33807945      9.72390938      2.79882479
S        28.68606949     10.90371609      4.08320522
S        28.23732948      8.45583820      1.62461030
S        26.24647331     11.06622124      1.60662329
S        26.01274490     22.34787941      4.56626272
S        28.60567284     24.48798370      4.53523493
P        27.29293442     23.54439354      3.26735044
S        28.19276428     22.10703850      2.11551619
S        26.03338242     24.70052338      2.09709668
S        12.62794685      8.87746048      4.39506245
P        13.90451431      9.89121056      3.05894899
S        15.21004581     10.93362141      4.25267839
S        14.97046280      8.55701637      1.79805875
S        12.70986652     11.18595791      1.91232562
S        14.95414925     25.10975266      4.47630215
S        12.41682053     22.85349083      4.48917818
P        13.74875069     23.96518898      3.41810083
S        14.56588173     22.56334877      2.13019156
S        12.57536030     25.15962982      2.28931236
P         6.87757635     10.12574577      9.78824711
S         7.83939886     11.30575275      8.34751606
S         5.48939419      9.19893074      8.69668579
S         5.83966875     11.43665504     11.00755692
S         7.89024878      8.81111622     11.05126762
P         6.85186386     23.85261345      9.74813938
S         7.85782862     24.96416092      8.34024620
S         5.52638769     22.69005013      8.53235054
S         5.84424114     25.34273338     11.04012966
S         7.90262842     22.45672226     10.85618305
S        21.74159622     11.02635288      8.67539978
S        19.37570381      8.67735195      8.93272495
S        19.75075531     11.28146362     11.45253372
P        20.66247368      9.90754986      9.98057079
S        21.63449669      8.54624271     11.24918938
S        21.69786644     24.23563766      8.52799225
P        20.39588165     23.27729034      9.80953598
S        19.08976936     22.19296455      8.93668270
S        19.31111717     24.48186111     11.12572575
S        21.57172775     21.91127396     10.91455173
S        14.91417885      4.35634232     22.54420853
S        12.22005844      2.27987790     22.62646675
S        12.44501400      4.72590685     24.88945007
P        13.48197365      3.35845089     23.69584465
S        14.78969669      2.18356776     24.88120842
S        14.86541462     17.96861458     22.42533302
S        12.38617897     15.74004745     22.59970665
S        12.55649376     18.30116844     24.81739044
P        13.47631264     16.96461487     23.77746964
S        14.71221066     15.58874989     24.83422089
S         1.32080770      4.14312029     22.60351372
S        -1.41195941      1.92513382     22.79416656
S        -1.19947624      4.42878151     24.85063553
S         1.17575824      1.72567117     24.93294144
P        -0.00051066      2.99676085     23.82537079
S         1.47699904     17.77557945     22.54484558
S        -1.23052430     15.43684864     22.65151405
S        -0.87634414     18.00778580     24.96891022
S         1.19703734     15.49030972     24.94727516
P         0.13948926     16.70107079     23.65150070
