832

Na      -10.30946064     45.25610733    -78.18528748
Na      -14.00527382     96.73166656     74.90132904
Na      122.55561829    -46.83482742     13.74338722
Na      -91.73606873    -26.13812256     30.79780197
Na      -91.66299438     17.91936111    -37.09131241
Na       78.63239288    -39.85287094     10.56363964
Na      122.75360107     14.85598183     40.36263657
Na       23.55140305     -9.52698517     13.81750870
Na       50.52127457    -19.11971283     37.77149200
Na        6.81197309    -12.41986370     31.47519302
Na        9.88390541    -50.22457123     61.04757690
Na      -23.27318001     58.60131836     20.02033806
Na       10.59091091     -2.66029859    -74.70710754
Na      -10.48804379     72.80475616     40.45270920
Na      -26.94284058     21.76663017     67.92469788
Na       29.83663368     58.62269592     58.00053406
Na      -30.38221359    -33.29711914    -44.29339600
Na       70.64416504    -29.82717133     -3.27695084
Na        3.22750497    -49.77808380     98.30818176
Na       -2.49759841    109.70900726     37.39507294
Na       20.49896622     41.57084656     16.93529892
Na      -10.59601307     58.65964890     21.19885826
Na      -37.15336990    -86.85570526     37.15805817
Na       40.92908859     35.52035904     37.59840012
Na       81.60324097     62.21209335     61.32606888
Na       34.43084335     21.10501480     -2.27005005
Na       40.94981766     21.59647560     89.17794800
Na      -13.30099869    -43.05962753     47.94657898
Na      -64.55478668    -22.40051270    -10.04932404
Na       33.71099091      4.41285419    -20.03526497
Na       20.57197571     -4.62309170     -0.53308707
Na       71.96511841     14.25770092     -3.07669425
Na       41.30644226    -39.74623108     88.86624146
Na      -13.06142998     48.35955811    -57.37187195
Na       71.08530426     -8.86758804     -6.45541382
Na      -74.90293121    -33.03507614    -48.22990036
Na       24.13370132     20.82555771    -10.26691818
Na      -27.16785240     68.81928253     27.06816864
Na       57.51400375      1.48624408     10.19123936
Na      -23.71128654    -50.34334946     50.59913635
Na       17.47304916    -70.29461670    -77.89263153
Na       37.39749527    -60.58897400    -16.85884666
Na      -16.57663727     51.94218826     78.01219940
Na      -78.14056396     -9.38984776      2.34882593
Na      -51.15541077     82.18590546     23.93178177
Na      -17.17940521     10.42270470     71.64801788
Na       99.53101349     48.45503616     50.81604767
Na      -26.95643425   -117.93482208      6.53593969
Na     -105.73350525     -9.34284496     23.90930748
Na      -16.59939575     79.07075500     -7.35317707
Na       38.43367386     10.88361645     10.40275955
Na       14.59190559     -5.51783419    -64.92404938
Na      -74.82647705    -43.32934570    -34.22769165
Na      -96.03572845     25.22688484    -27.36368942
Na       95.67360687     28.76100159      7.47265911
Na       50.99561310     31.59231186     37.55620956
Na      -47.70840073    -20.11273003     68.38491058
Na       13.41474628     18.08311272     54.91447449
Na       58.33491516    -38.49167252     44.50978088
Na      -62.12419510     86.01814270    -27.74269676
Na       57.99516678    -19.65005875     30.62754250
Na      -19.95389748     14.53084564     68.18416595
Na      -13.54387760     31.54677010      7.03129959
Na      -36.88666534     -2.18280816     44.54904175
Na       10.39418507     85.75141907     40.89184952
Na       -3.76435089    151.60112000    -23.77981949
Na       23.60564995    -16.17485237     85.64544678
Na      -30.20934486     11.48820972     92.22966003
Na      -53.94493103     21.63246346     37.73692322
Na      -17.05418015     11.21179867    -30.43961143
Na       31.06922722      1.45887220     57.74699020
Na       85.56138611      1.31016529    -37.06988907
Na      -10.27814579    -43.43822861    -84.70934296
Na      -40.52972031    123.20186615     -3.58661985
Na      -58.31046295      4.76811886     51.18767929
Na       31.16240311     75.62781525      3.34817147
Na       13.96457767     25.33868027     61.32515717
Na      -97.96147156     55.36580276     10.21918011
Na      -41.18899918    -50.00963974     20.53632545
Na       44.55046082    -16.16677284   -108.76204681
Na      -40.60207748     62.42026138    -37.28314209
Na       50.76157379     55.88079071    -78.44105530
Na      136.16253662      0.25529683     24.03635979
Na      -20.36075974    -12.43689346      9.67946625
Na       44.56813049     92.85256958      7.16789198
Na        6.73898077     28.07064056    -53.65569305
Na      126.56776428     27.65536690     64.72188568
Na       78.76811981     61.88732529     50.98778534
Na       88.73465729    -70.47507477     33.92238998
Na       76.41803741     76.25037384   -112.87416077
Na      118.99402618    -23.17818451     10.35281181
Na       77.85972595     34.57432938     16.56626511
Na        6.68858957     -6.30785847    136.99270630
Na        6.28383684     18.19114304     54.13755417
Na       41.11453629   -111.38278961     20.88761520
Na       58.19417953    -43.37965775     57.91415787
Na       -2.94933176     31.34969711     47.89802170
Na       88.02246094    -19.02006531     44.51345444
Na       88.11141205    -26.15185356     19.91688728
Na      -36.74717331     34.97571945     16.94239426
Na       17.50662804     14.73766232    -44.52293777
Na       26.92207718    -39.54521561    -33.68889618
Na      -16.59037971     14.80370712    -77.75801086
Na       13.78135300    -19.24424744     24.15583420
Na      -13.96651554    -63.65890503    -95.42325592
Na       -6.79010153    110.24325562     74.75737762
Na      -98.66496277     11.22709560     47.84764862
Na       74.62146759     61.37977219    -13.47609138
Na      -37.32402420    -19.44750404     -3.85417676
Na       44.11324692    -12.56820202    -10.37871170
Na       74.57713318    -73.50028229     85.48757172
Na      109.19684601    -53.27536774      7.16051340
Na       44.31367874   -104.45284271     84.07700348
Na      -30.74163818     32.15350342    -81.71534729
Na       -6.72835064     28.60148811     24.44677353
Na       20.97162247     24.71214676     41.00180817
Na       10.28425217     69.33258057     -3.64893126
Na       78.94969177    -57.02156067     51.06657791
Na      -27.47330093     27.15643120     -6.96822834
Na      -24.80080986    140.48635864     27.00051308
Na      -81.71185303     25.06899452     40.74138641
Na      -78.20165253     11.61818027     41.00073624
Na       -6.14370966     10.62219048     74.55160522
Na      140.20355225    -56.28631592     16.83314514
Na       99.13878632     38.78608704     20.65784836
Na       61.24806595     14.93102837    109.17761993
Na       27.36160278     -5.49065542     78.38883972
Na      -23.28968811     45.93218231     95.41909790
Na     -108.33096313     82.02960205    -10.58520222
Na      -20.43960381     55.13833237     24.10240936
Na        0.28510535     47.97284698    -64.62861633
Na      -26.72421074     -5.52906942     47.37154388
Na      -61.47998428    -22.86159515     21.65671539
Na       29.82087517    -29.84427452     27.85630798
Na       37.49619293    123.50545502     17.15669441
Na      -57.86335754    -83.94720459     30.38125801
Na      -61.14314651    -12.60283375     -0.17167588
Na       27.57764435     -9.39647484     -6.60715342
Na      -98.69885254      5.13441706      3.76640296
Na      -61.06728745     82.42589569    -37.31471252
Na      -20.66662598     24.61938667     75.01597595
Na      -40.94868088    -25.75404549    -54.36069489
Na      130.03053284    -67.31906891      6.89935923
Na      -50.60287094     79.27577209     61.62751770
Na       61.02549744    -19.64513779     10.51791000
Na       27.61098289    143.90576172     -3.41377926
Na       54.73853302      3.88548279    -34.27981949
Na       25.32819939      3.62846637     13.91460323
Na       21.15242195    -80.00988007    -44.49473953
Na      108.81414795    -42.70242310     13.88193130
Na       82.13960266    -36.32052994     13.83611107
Na      -70.83648682     45.22507095    -37.49548721
Na      -40.69322968     22.92284584    -16.77740860
Na       -7.06855583     39.21234512     68.52935028
Na      -52.08568573    -77.05535126     13.37967777
Na       30.60469437     38.18880463    102.23899841
Na      -95.24549866      1.42095685    -36.97490692
Na       27.10528374    -43.40156937    -60.55554962
Na       33.68174362    -59.95258331    -13.27733421
Na        4.02378607     45.14298630     47.26327515
Na       37.92383957     45.57365799    116.12896729
Na      -44.43306732     11.15498638      4.10723591
Na       34.32862854    -70.14852905      0.38790396
Na       37.34315491     59.43652344     53.92040634
Na      -43.90520096    -23.25012779    -37.21423721
Na      -37.86531830    -57.06972122    -26.99592590
Na      -64.27487183     52.49523926      3.62368226
Na       34.78712845     18.37782097     -6.35403061
Na      -20.51172066     14.12071228    -37.10743332
Na       55.00065613    116.56806183    -34.23269272
Na       33.97590637    -29.98040199    -26.98958206
Na      -60.88014221     48.70161438     10.22898483
Na       44.80595779    -56.62690353    -40.98117065
Na      -47.71868515     34.75892258    -57.49131393
Na        3.00251698    -46.74843216     10.18644619
Na       47.66263962     -9.60356426     -6.87249708
Na      -10.72924995     35.39846802     58.01804352
Na       -2.92652035     -2.54419446    -37.76253891
Na       30.04203796     78.77511597    -61.34714890
Na       74.36407471    109.66484070     30.15635109
Na       37.71202469    -19.83884811     17.68422890
Na      -47.67527390    -19.01227760     21.38209152
Na      -50.44275665     65.62068939      7.37469244
Na       53.98860550     68.59596252    -64.67910004
Na       78.33975220     45.20908356     92.20770264
Na      -23.84867859     10.91334343    -26.78157616
Na       48.16297150      7.81687498    -31.41551971
Na       44.54243469     83.04975891     17.29076004
Na       51.14146042    -15.74492836     88.79390717
Na      -33.33802414     -6.03868914     47.07398224
Na       78.08520508    -36.25167084    109.82897949
Na       79.16075897    -57.34791946     -7.05741358
Na       44.11505890     44.94272995     27.01596832
Na       -3.05092359     65.23062134     75.17218781
Na       40.85292816    -59.56380463      0.33417636
Na       13.08992863     55.34821701     -6.74961615
Na      -13.67535496    -32.45834351     30.91908836
Na      -23.84816551     14.97219086      3.65246606
Na       30.95755005     38.03771973    -30.29051208
Na      -71.75295258     72.44640350     51.18780899
Na       14.14572239     38.43515778      7.03005981
Na      -91.72411346     44.95925140     23.79967499
Na       23.94814682     10.38148117     13.90003681
Na       54.88382721     65.75745392    -20.42608643
Na       -0.40842000     21.18660927      3.12340665
Na      111.96685791    107.16088104     37.92462158
Na      -89.04747772     17.36669350     13.83084869
Na      -34.62038422     53.02471924     26.50240135
Na      -27.17066383      4.34193182     33.83700943
Na       -3.32980728     44.89963150     20.33083344
Na     -115.57539368     -6.10690022     41.02771759
Na       24.11021423     38.65977859     24.07231903
Na       27.23589325    116.09352112     84.83280945
Na       71.38768005    -43.00206375     37.90815353
Na       37.30038452     45.08516693     65.29391479
Na      -21.09110260     85.76580811     -0.54841733
Na       17.48445511      4.62034988     60.78655624
Na       13.39844608     48.29249191    -14.09664249
Na      -30.33411026     31.57932281     71.28292084
Na       41.04997253      0.86693090     68.35994720
Na       75.33114624    -12.64887905     64.92553711
Na       10.27473068     79.09647369     38.10483551
Na      -24.24776840     15.16841125    -16.43393517
Na       -6.80479336    -40.30220795    -23.68542099
Na      -47.93590546      7.88850355    -47.88328934
Na       78.33381653    -63.90037537    -48.22170639
Na       78.22945404    -49.79304886      7.16676998
Na       37.61211777    123.01686859    -16.92698860
Na      -67.62042236    -42.81993103     27.44029427
Na     -101.20703125    102.91013336     17.31833649
Na       74.57054138    -36.45890808     -0.37437439
Na      -74.58905792    -80.56761169      7.07991743
Na       71.21398163     75.99335480     57.87342072
Na       68.05304718     32.00695801     27.62173843
Na       20.35194016     10.45396900    -74.93563843
Na       38.54505157    -59.71057129     -9.89085770
Na       13.00937557    -46.54373550     61.60128784
Na       -9.61211777    -22.87387848    -17.01496506
Na       13.69044399     28.87013626    -23.79947662
Na       81.19132996     62.21064758    -37.35803986
Na       58.47096634    -60.46010971     23.89084625
Na       20.97712708    -25.97808075     41.10166931
Na      132.41500854    -60.21839523      3.24964523
Na       68.69273376     24.90276718     41.01036453
Na       92.02785492     -5.72194719     51.39988327
Na        3.50535154     89.55365753    -10.02463341
Na       95.64461517    -60.65917587     47.96403885
Na       -3.53985834    -12.40198040     51.08946228
Na      -11.99747562    -53.40585327     10.76802444
Na      -81.08930206     56.22510147     39.86171722
Na       23.79847145      1.11260819     23.94413185
Na       41.07448196     14.78704071    -10.10668278
Na       44.57384872     45.41619110     36.90782166
Na       58.56301880     18.40821648     37.38170242
Na       13.53122807     62.18479156      0.26701042
Na        0.58544672     52.04183578     34.33477783
Na       54.50363159    -19.67147636    -54.53038406
Na       17.84161568    -84.15878296     20.75629807
Na       17.47467613    -49.76024246     14.20762825
Na       13.63204384     31.76895142    122.81475067
Na       24.04956818     86.38167572      3.55335140
Na      -57.21081924     71.94355774     17.03295135
Na       47.97503281     45.12722015     35.07132721
Na      -54.39404678     37.78866196     27.14298820
Na      -20.44523621     -2.92984223      6.90917301
Na      -17.70495987    -56.95300674      3.61103702
Na        6.64306164     14.82250690     -6.73304224
Na      -26.96492195    -39.90445328     -3.59950256
Na       -6.38009262    -15.51807022     27.73175430
Na      -71.77912140     45.31969070     54.61603928
Na       19.98049355     41.50376129    102.86516571
Na       14.00828838     38.88273621     68.24909973
Na      115.88584137    -53.28981018     37.92087936
Na       14.17403984     42.01302338    -23.50820351
Na      -85.51477051     89.22305298      3.55921865
Na       41.24215317    123.53199005     54.63691711
Na      -20.77262306     -5.57204580     10.03953552
Na      -26.99708748    -36.61872482     55.02097702
Na      -16.13574982    -84.46437836     41.29502487
Na       50.96600342     25.23350334     27.16881180
Na       30.99738312     14.49076939     51.31117630
Na        0.13372850     14.41453075    -23.08320999
Na       54.87466431    -12.51820469     35.29602432
Na       53.97241974     52.84847260    -54.47223282
Na       19.95284081    -46.97415161      6.75802040
Na      -16.78104973    -43.80076218     40.54747391
Na       57.33120346     24.78541756     23.56703949
Na       37.74509048    -74.31050873    -30.41980934
Na      -20.65563583     61.77895737    -26.92102814
Na      -17.44207191     75.55976868      3.47315073
Na      125.99758911     37.83209991    -37.24933624
Na      -74.61546326     55.22429657    -10.50385952
Na      -23.50235558     66.33135986    -71.11048126
Na       -9.80044842    106.65986633    -20.02029800
Na       -2.54906201    -84.42913055     37.31054688
Na       30.86519051    134.04936218     40.95620728
Na        0.06075499     55.03937912      3.69598913
Na      -47.38848877     82.68875885     85.67465210
Na       91.41077423    -23.29092026     74.86120605
Na       17.70797539     -9.18496323     61.08143616
Na      -71.20821381     -0.37483364     98.99794769
Na      112.34441376     22.12938499     10.30253887
Na       54.21300507     34.82324982     13.80447865
Na       37.62733841     11.55056095     27.28059769
Na      -54.10427475     21.32705688     54.36094666
Na       88.51319885    -12.15107822    -30.29409218
Na       78.29544830    -26.85355949     44.33063507
Na      -30.21368790   -138.58343506      6.59180784
Na       12.86016178      7.76539230     31.44632339
Na       34.31428146     65.41212463    -13.30782223
Na       13.65044117   -101.57514954     48.07377243
Na       58.03645325    -22.88347054    -17.29479027
Na       44.42440796    -50.29813004    -29.96697426
Na      -33.29388046      3.98900771    -41.05638504
Na      -34.35923004     -5.40106201     61.38337326
Na        3.68021655     18.08713531    -48.53904343
Na       92.49742889     17.86732483     20.61693192
Na       21.26200676     51.80320740    -61.68123245
Na        3.60784221    -70.39469147     17.21355438
Na       34.39019012     -5.89201927     -6.43865728
Na       17.13302803     27.49846458    -57.67530823
Na      -30.26853943     11.49724102     27.60910606
Na       -3.31403685    -63.04173660    -57.88553238
Na       54.35335541     76.18190002      6.74899912
Na        7.30764818    -29.42234421     13.81509399
Na       37.87652206    -26.21812820     84.86760712
Na        0.23540990    -12.38079453    -41.03239059
Na      -27.74629021    -52.66897583     -0.01161014
Na       34.22350311    113.55416870    -60.41268539
Na       33.84472656     35.80744171     30.58460045
Na       50.98340988    -70.58734131     -9.87478828
Na       44.13634491     65.97331238    -13.53378677
Na       58.00125504    -56.73986816     85.77159119
Na       92.17059326     38.43773651    -74.56302643
Na       13.96761036     14.53692055     10.11109638
Na       74.45852661    -46.55281830     27.25872803
Na       -6.41068602     79.71145630      6.53964615
Na       -9.27733421     48.62166977     44.18106079
Na       88.92797089     -9.40627480    -74.58837891
Na      101.32025909     89.78388214     37.38834763
Na       10.15786552     56.54932022    -30.32227898
Na       13.21278667     55.43098831    -85.14228058
Na       47.56639099     21.69730759     29.94717598
Na      167.36639404    -60.73094940     17.18673325
Na        6.61536694    -23.19099045     13.82437134
Na       -0.57838660     62.93088913     10.23472786
Na       95.70195007     -9.01765060     33.47498322
Na       37.99424362     -8.96400261    -23.73096466
Na       20.84243774      1.59286380      6.71388388
Na       47.94118881     34.36316681     19.39539719
Na        7.83025312    -36.74961853     68.08513641
Na       37.39689255     34.50925064     37.63821793
Sn        3.94868565     14.60227299      6.83343983
Sn        3.82206488     28.41852188      6.91357517
Sn       17.27009392     14.54585648      6.65155458
Sn       17.45712471     28.44083786      6.94294548
Sn        3.14176726      0.78492904     20.62054062
Sn        3.39775157     14.33913326     20.63015747
Sn       16.92129898      1.06040919     20.64653778
Sn       16.61653328     14.59966755     20.32942963
Sn        3.57407808      1.40185463     14.06307316
Sn        3.68611670     15.28202152     13.83680534
Sn       17.27300644      1.42807400     14.05342293
Sn       17.07478714     14.86971760     13.46224308
Sn        3.28951693     14.55226707      0.16489907
Sn        3.07847857     28.02096558      0.09898512
Sn       17.38379860     14.46421719      0.45121202
Sn       16.90491104     28.04318619      0.20482419
Sn       10.33956337      7.74073076     20.98435974
Sn       10.60300922     21.56462669     20.51057243
Sn       24.33578682      7.10982704     20.15318108
Sn       24.44798660     21.12096405     20.47672081
Sn        9.73070717      7.81933546      7.23576450
Sn       10.07765865     21.52954674      7.07959414
Sn       23.57288170      7.85666180      6.88584423
Sn       23.58479118     21.55394745      7.06806803
Sn       10.00764084      8.29113960     27.54709625
Sn       10.19866467     21.75433350     27.51784325
Sn       23.63263702      8.18230820     27.22537231
Sn       23.84305573     21.73542786     26.89546204
Sn       10.06877327      7.26209784     13.76802349
Sn        9.93104076     20.90178680     13.52713490
Sn       23.87225914      7.15107727     13.47150898
Sn       24.10917473     21.20994759     13.46107101
Sn        9.82396126      0.72748131     20.55573463
Sn       10.13186741     14.73876667     20.40827179
Sn       23.68891907      0.91156709     20.59517670
Sn       23.40832329     14.23974037     20.50175285
Sn       10.52596474     14.99717617      7.02512455
Sn       10.56610298     28.21690369      6.75535870
Sn       24.45828629     14.52558231      7.06828976
Sn       24.38650322     28.36771202      6.64542866
Sn       10.71935558     14.22508335     13.69100666
Sn        9.97810745     27.74259567     14.16294289
Sn       23.86785507     14.08878899     13.84557629
Sn       23.94242668     27.71549034     13.47876740
Sn        9.85916233      1.43002641      0.12179966
Sn       10.37961102     14.87344837     -0.08290526
Sn       23.39165878      1.51709580      0.17619871
Sn       23.90902710     14.75373173      0.17560384
Sn        3.03693080      7.63954496      6.63359118
Sn        3.22991776     21.46583748      7.07272196
Sn       16.51840019      7.74698162      7.11744308
Sn       16.82627296     21.69213295      6.83782244
Sn        3.60977888      7.40174294     20.64883804
Sn        3.63775277     21.18773460     20.46074677
Sn       17.03727341      8.01814461     20.20812416
Sn       17.46235085     21.53196716     20.33250237
Sn        3.36657119      7.87343836     -0.05051806
Sn        3.39960694     21.21188354      0.04581792
Sn       16.82397079      7.75397873     -0.10595974
Sn       16.98283195     21.20119667      0.19820975
Sn        3.37071371      8.03038120     13.56817722
Sn        3.38417912     21.87973213     13.80865955
Sn       16.86687851      8.23117924     13.43087864
Sn       17.13074493     21.58815002     13.44539070
S         2.22872138      6.29499578      1.47203672
S         2.01240969     19.84078217      1.47916412
S        15.59558964      6.50546217      1.57103229
S        15.30409908     19.77852058      1.26759446
S         4.77205992      9.60947323     15.33333492
S         4.87983274     23.21392822     15.14909744
S        18.37484932      9.52790642     14.88102341
S        18.64067268     22.90683937     14.94639587
S        12.04666615     13.21734333      8.21648502
S        11.93817902     26.82711411      8.13094521
S        25.76335907     13.08562851      8.30628204
S        25.70665169     26.71225166      7.79338264
S         8.39507961      2.14936972     21.75707245
S         8.53736591     16.05209160     21.85900497
S        22.28655052      2.43031836     21.99931717
S        22.23792076     15.96428776     21.64193916
S         4.48533154      6.12135649     25.89090157
S         4.80143738     19.86035347     25.98618507
S        18.18269539      6.06208229     25.80868912
S        18.48038483     19.96982193     25.91654396
S         2.00282264      9.52479553     12.10335636
S         2.05724740     23.31141281     12.34612179
S        15.34843159      9.64232445     12.43733597
S        15.91323471     23.14072609     12.29638004
S         8.81965160     13.24868965     19.03115082
S         8.52835846     26.46261024     19.21118164
S        21.91643906     12.97112274     19.15100670
S        22.31933212     26.76046753     18.83002663
S        12.04375362      2.71417975      5.54375887
S        12.04633617     16.18860245      5.53427315
S        25.74126816      2.53856206      5.14962006
S        25.77140999     15.90459633      5.66770840
S         9.21521187     12.73572159     14.86713886
S         9.02896976     25.88474274     15.45118809
S        22.68533325     12.29522610     15.03102779
S        22.50642204     26.46517181     15.03169346
S        11.32501698      3.12729597      1.21822953
S        11.73308372     16.37393761      1.39396143
S        24.65478134      2.81407499      1.61769104
S        25.34063148     16.10176086      1.45116568
S         5.00759792      5.95873117     21.89381409
S         5.02747297     19.79428864     21.99489784
S        18.54690361      6.41682005     21.28640366
S        18.96682358     19.98499680     21.46829605
S         1.89335871      9.21419334      8.20165730
S         1.82851315     22.85663033      8.48270226
S        15.35728455      9.39527893      8.20602417
S        15.52619267     23.38405800      8.28234482
S        11.93922234     12.81544304     12.17236805
S        11.63047314     26.67008972     12.65386581
S        25.56788635     12.86423779     12.41534710
S        25.22444916     26.12461281     12.09911156
S         8.22236061      2.40017319     26.10347748
S         8.80768871     16.15331459     25.80814171
S        22.36956406      3.02922392     25.68233490
S        22.57627296     16.09858704     25.85712814
S         1.66825604      6.23616457      5.26291037
S         1.74303079     20.11565018      5.52073431
S        15.44317913      6.30282307      5.46613169
S        15.54384804     20.33092690      5.41616821
S         5.18286467      8.92358208     19.46331978
S         5.02869272     22.57451820     19.20542336
S        18.65213776      9.31258297     18.96844101
S        18.82426071     23.02053833     18.92742157
S        11.66056538      9.49083614     26.17406082
S        11.73228550     22.74972725     25.89040184
S        25.35663414      9.19703960     25.81661415
S        25.60258484     23.22971725     25.94168854
S         8.41709328      5.81802368     12.50335693
S         8.23563290     19.73207664     12.12554836
S        22.43086624      5.68372107     12.09178734
S        22.68752861     19.99116898     11.97349644
S         1.87441504      2.07872295     18.91080093
S         1.90529764     15.72696590     19.21705627
S        15.52661800      2.44614029     19.33901978
S        15.24379349     16.36825180     19.24495888
S         5.32608032     13.06915379      5.52180147
S         5.23672628     26.96881485      5.63416624
S        18.76796722     12.99081421      5.51619864
S        18.81059647     26.91988564      5.37365818
S         8.64455605      9.88384247      1.40273762
S         8.60552788     23.02840996      1.54181278
S        22.38682175      9.72032547      1.34526873
S        22.53402901     23.16478348      1.12582445
S        11.61338139      6.19381952     15.41275883
S        11.50527954     19.54069138     14.77579689
S        25.35382080      6.06905556     14.94714546
S        25.27101898     19.48472023     14.76690769
S         5.28906775      2.34354901      8.55070782
S         5.29312181     16.42157745      7.99894238
S        18.75647163      2.61486578      8.48172855
S        19.02578926     15.91237259      7.79248571
S         1.87672257     13.21046448     22.04645157
S         1.73453915     26.52348137     21.98586845
S        15.73166466     12.97327805     21.93202782
S        15.66205788     26.67373848     21.81362534
S         4.44625568      2.86851716     12.28277016
S         4.88942575     16.41434479     12.12579727
S        18.51091003      2.59019876     12.12547970
S        18.31351089     16.39483070     11.84459877
S         1.92560661     13.12925911     25.70676613
S         1.53599977     26.51566505     25.99248886
S        16.06453514     13.00561905     26.11305046
S        15.46103191     26.63373566     25.99842072
S         8.54557228      9.30332851      5.68958282
S         8.81083870     22.96140480      5.43241739
S        22.14385414      9.28819180      5.56389713
S        22.14691925     23.13748741      5.88168907
S        11.63254356      6.30741119     19.62921715
S        12.03260136     19.98369598     19.31193542
S        25.77401352      5.92981958     18.69848824
S        25.91279793     19.65498161     19.01229286
S         1.93125367      2.54187155     15.37752342
S         2.25718975     16.60444832     15.17652321
S        15.69948959      2.62749696     15.28668404
S        15.97164345     16.49135017     14.87063503
S         4.84222507     13.14166546      1.41977251
S         4.17235756     26.48588943      1.70714855
S        18.56559944     12.85824013      1.88001156
S        18.36746597     26.64060783      1.57603097
S        11.85357285      9.18687248     22.12811279
S        12.00403118     22.81519318     22.04288483
S        25.63147545      8.68691540     21.43892860
S        25.48517036     22.50789070     21.94297600
S         8.04820347      6.54608631      8.49427319
S         8.54079914     20.29228592      8.27931118
S        22.15118408      6.48075247      8.23912811
S        22.04091454     20.15792847      8.53872395
S         1.74953878      2.18330693      1.58178270
S         1.81677568     15.55245399      1.70359290
S        15.61539841      2.40378761      1.61083305
S        15.84025764     15.91589260      1.48819911
S         4.90359402     13.77050877     15.41895962
S         5.06667614     27.26070786     15.19331455
S        18.62184143     13.59135151     14.94888878
S        18.93424225     27.45854759     15.36154461
S         2.76364040     13.27864170      8.44447899
S         2.50256276     26.90577698      8.37638855
S        15.98570538     13.35590363      8.22891235
S        16.00988388     27.13593483      8.32596779
S         4.47741175      1.94097376     22.00332832
S         4.81759262     15.75968266     21.83759689
S        18.24653244      2.30346417     22.14479446
S        17.79339981     16.16614723     21.85479927
S         4.53946972      1.77688086     25.84174347
S         4.76980734     15.98493290     26.13076591
S        18.24731445      2.03367233     25.93599129
S        18.40759087     15.91584873     25.95204544
S         2.45539784     13.67292786     12.73206997
S         2.24507713     27.16953087     12.76019192
S        15.66070271     13.48438644     11.94323826
S        16.09886551     26.97605705     12.69034195
S         4.73721218     13.07801056     18.97122765
S         4.40546083     26.59763718     19.14886284
S        17.95114136     13.34425735     18.80810928
S        18.46734428     27.05788422     19.22593880
S         2.45337272      2.64201188      5.70619345
S         2.13919353     15.76351357      5.74514437
S        16.04679489      2.67529178      5.63032055
S        15.75681210     16.08452988      5.34941483
S         8.35687637      8.53392315     15.09935856
S         8.98525620     22.50717926     14.94748306
S        22.26298714      8.63936996     14.66322994
S        22.59556770     22.09664917     14.94769192
S        11.35678864      6.98183012      1.73403132
S        11.78923035     20.75487518      1.86724043
S        24.97771454      6.68996716      1.61169767
S        25.18025398     20.28351212      1.17998469
S         8.68148899      6.51293898     22.26932716
S         9.23423004     20.14904976     22.08330154
S        22.59282684      6.05296183     21.61495209
S        22.53942871     19.79939079     21.59035301
S        11.36292171      9.16976738      8.53718758
S        11.33032227     22.68127060      8.73131084
S        24.89592361      9.27447701      8.40082550
S        25.30983734     22.71983528      8.10951138
S        11.58202362      8.46302605     12.30306911
S        11.52137375     22.60689163     12.15471172
S        24.97587967      8.71500206     12.21644783
S        25.53023720     22.47257233     12.03273392
S         8.69987679      7.22301817     25.66838074
S         8.79698563     19.94927788     26.19605064
S        22.26607132      6.82601929     25.78956795
S        22.38233757     20.57699203     25.60042572
S        10.97813606      6.58317709      5.73113394
S        11.38633633     20.36225128      5.46558714
S        24.87481117      6.67563391      5.37992096
S        24.75584602     20.11134911      5.56729317
S         9.38416862      9.10090828     19.31717491
S         8.90111446     22.73387718     19.33394432
S        23.13308144      8.79876137     18.80592918
S        23.11260796     22.57089806     18.98977089
S        11.76662159     13.46449661     25.64430428
S        11.42513561     27.36314392     25.99197769
S        25.09093094     13.36166286     25.87238121
S        25.16531944     27.26867104     26.05333519
S         8.85503101      1.90121675     12.61188316
S         9.13186836     15.57005215     12.20375729
S        22.74211311      1.80070162     11.96806049
S        22.23447227     15.54268932     12.43136787
S        11.22194576      2.22895169     19.24110413
S        11.47851467     16.23845291     18.91245651
S        25.15032005      2.10740256     19.04453659
S        25.12866402     15.56380653     19.15654564
S         9.25377655     13.19987774      5.80435324
S         9.14915752     26.65799713      5.39861965
S        23.06671906     13.47613144      5.47296667
S        22.89819145     26.93552017      5.40413237
S         9.00459766     13.61845589      1.54816270
S         8.82578087     27.06980705      1.68839097
S        22.34109497     13.80221748      1.69965398
S        22.19181061     27.10982704      1.45912933
S        11.64658165      2.03229094     15.20844364
S        12.02203941     15.82688999     15.22675228
S        25.66881371      1.36734962     14.98899841
S        25.31428528     15.68842697     15.07386589
S         9.20103264      2.40017176      8.43430996
S         9.15530491     16.31090736      8.52822590
S        23.53802109      2.32786512      8.44716549
S        23.22076797     15.87280941      8.57311726
S        11.56208134     13.22399235     21.96306801
S        11.40864468     26.76766396     21.89830017
S        24.89564896     13.25389099     22.13276100
S        24.80857849     26.61263847     22.03817749
S         4.84483767      6.65634060     12.45829105
S         4.80082989     20.78625107     12.17569160
S        18.09418106      6.61719894     12.29087734
S        18.31457710     20.27899361     11.93862438
S         2.08019996      9.25414276     25.74934006
S         2.17408609     22.58272362     25.75592232
S        15.68593979      9.30893135     25.58560753
S        15.65809250     22.75008965     26.07062721
S         4.39478445      9.30830288      5.22825623
S         4.45023537     22.88899994      5.67368460
S        18.01099586      9.06972599      5.63594341
S        17.89679146     23.04687691      5.25826120
S         2.30104947      6.16889286     19.10139084
S         2.50090432     19.66762733     19.19833183
S        15.67305851      6.56392527     18.86957550
S        15.98575306     20.25999451     18.85924911
S         2.04523015      6.86703491     15.10001373
S         2.10809708     20.26441574     15.13269615
S        15.74201775      6.76298809     15.12128353
S        15.59282494     20.14462662     14.97706032
S         4.82634974      9.10419941      1.48397756
S         4.65442562     22.68362427      1.49006176
S        18.13536263      9.18139362      1.64943862
S        18.34024048     22.84366035      1.39348722
S         2.47367978      9.02303219     22.21743774
S         2.46802926     22.46781349     22.11504173
S        15.38170147      8.83119583     21.87122154
S        16.14659882     22.85596466     22.03768158
S         4.57270575      6.55774450      7.99777365
S         4.77491474     19.97618484      8.24769974
S        18.00298119      6.42995262      8.33192444
S        18.38833237     20.14686203      7.94609022
S         1.19937873      3.48720455      9.02597332
P        -0.21484010      4.66637230     10.21893311
S        -1.35105157      5.87716484      9.00145340
S        -1.18800437      3.23975062     11.31345081
S         1.04060125      6.01715755     11.27018070
S         1.70104182     17.05503273      8.99682808
P         0.46421671     18.15359497     10.09062576
S        -0.73952430     19.23125267      8.87902451
S        -0.61552429     16.68806648     11.32719898
S         1.62975442     19.34878349     11.23132706
P        13.52634239      4.60170221     10.61803055
S        14.77649403      3.49116230      9.38046169
S        12.36934185      5.75549555      9.32391453
S        12.56377029      3.26885867     11.75428867
S        14.65036488      5.87869167     11.74983025
S        15.19637489     17.20820618      8.84677601
P        14.10517502     18.18546486     10.05293941
S        12.78548908     19.34082603      8.83911133
S        12.79937363     16.84013748     11.09329319
S        15.16805553     19.62284279     11.05255127
S         7.99312687     10.31090546     22.67992592
P         6.78227663     11.51677608     24.07657051
S         5.71822691     12.58741283     22.77675247
S         5.89623117      9.89570045     25.30706406
S         8.04877949     12.55721188     25.28765678
S         7.94220638     23.42533112     22.89570618
S         5.36800241     25.71087074     23.03871346
P         6.77204084     24.52235794     24.05067635
S         5.64063406     23.18384552     24.98857498
S         7.93743324     25.70656204     25.06785583
S        21.85237122     10.03792095     22.52033997
P        20.61306190     11.06111717     23.86251640
S        19.20841408     12.28015232     22.70189857
S        19.53654671      9.86530304     24.96249390
S        21.74833870     12.17709923     25.00458527
S        21.97038078     23.95960236     22.28872490
P        20.69508553     25.07619858     23.48530197
S        19.32917786     26.14955521     22.47787094
S        19.63064575     23.78174591     24.62421227
S        21.91817856     26.12098885     24.71094894
S        26.08489609     12.09033108     18.98167610
S        28.28132248      9.72517490     18.67385483
S        28.34325981     11.99393940     16.30655670
P        27.11359215     10.88212204     17.50652313
S        26.03884697      9.80207157     15.95097733
S        26.37471199     25.55769920     18.32644844
S        28.76723099     23.01968193     17.98791885
S        28.84682655     25.43128967     15.97344494
P        27.42766190     24.18808365     17.13119888
S        26.42416382     23.15757561     15.71246719
S        12.59266949     12.40677643     18.66174698
S        14.68535709     10.16404533     18.37364197
P        13.49162579     11.29376221     17.24468994
S        14.94613457     12.50462341     16.23543358
S        12.42512703     10.11582565     15.95799255
S        12.88692856     26.21777534     18.70211792
S        15.01090336     23.54437447     18.42631721
S        15.11926842     26.19749069     16.30028343
P        13.99102116     24.81017685     17.31209373
S        12.79478073     23.62555313     15.97676754
S         5.37680674      5.77559853      4.65017796
S         8.04831314      3.69893336      4.88553524
S         7.99615192      5.94134808      2.39779997
P         6.71989393      4.73655415      3.55652356
S         5.75804377      3.37151933      2.40418124
S         5.78209400     19.16046906      4.58468580
S         8.48975754     17.23843956      4.80361938
S         8.42877769     19.29761887      2.39199567
S         6.07367849     16.79383659      2.26481891
P         7.18678570     18.14409828      3.47668338
S        19.05729103      5.63717985      4.45052576
S        21.72001457      3.35110712      4.58733082
S        21.55556488      5.56724739      2.11925483
P        20.40380287      4.41625929      3.39464641
S        19.58393097      3.04722238      2.03722787
S        19.09747505     19.13447189      4.39118481
S        21.60499573     17.10137367      4.68129110
S        21.56562424     19.34389877      1.97073150
P        20.41025352     18.05610657      3.27270913
S        19.38879204     16.73665428      1.94856203
S         6.01023769      3.12513351     18.36151886
P         7.13942623      4.27138042     17.09208298
S         8.24148941      5.44504213     18.29316521
S         8.24750900      2.98949242     15.83200359
S         5.87883663      5.44438553     16.01553154
S         6.12303209     16.75419426     18.63344574
P         7.24318838     17.83863068     17.36202049
S         8.54146671     18.89114380     18.41171074
S         8.54798698     16.78079224     16.02526665
S         6.01836920     19.00703239     16.09841347
P        20.76515961      4.18803835     17.13501549
S        19.63266182      2.96721864     18.25815964
S        22.14677238      5.43349028     18.23335648
S        21.97742653      2.95509028     15.92304802
S        19.51889610      5.35826159     16.00630188
S        19.45562935     16.60565758     18.02104568
P        20.54621887     17.90233994     17.00638580
S        21.82503319     19.08375549     17.99312401
S        21.60844612     16.65528870     15.85419178
S        19.29606056     19.06785011     15.82394600
S        26.09238625      9.94624519      4.49865007
P        27.20595741     11.09838486      3.20069766
S        28.55615044     12.14767933      4.36695194
S        28.28809166      9.66586685      2.17527914
S        26.11834717     12.47173023      2.17943072
S        25.91168976     23.80215645      4.66739655
S        28.49130440     25.86053467      4.60575247
P        27.15626717     24.87800980      3.50920653
S        28.07062912     23.61812210      2.24533200
S        26.00471306     26.01409340      2.25328898
S        12.14151001     10.03021812      5.07367945
P        13.36393452     11.20795059      3.72810769
S        14.79865646     12.35448360      4.80119896
S        14.41397476      9.99692059      2.55999947
S        12.36445141     12.60555744      2.50513506
S        15.23020840     26.59332466      4.53966379
S        12.56921291     24.18677521      4.61849451
P        13.81211185     25.53987885      3.51934147
S        14.69093990     24.11655045      2.22456694
S        12.74912262     26.69751740      2.17665434
P         7.01545095     11.11788845     10.26269150
S         8.16276646     12.31598854      8.98956394
S         5.82906151     10.06737518      9.16455173
S         6.29018164     12.53733063     11.59812832
S         8.21640587      9.85445881     11.55943394
P         6.72952700     24.87340927     10.42438316
S         7.80238342     26.03414726      9.19369793
S         5.24934578     23.80406189      9.44328976
S         5.67364454     26.22946739     11.64935017
S         7.76038933     23.59070587     11.56817341
S        21.78021622     12.33549118      8.98420811
S        18.88593292     10.28631878      9.19721985
S        19.34992599     12.56494236     11.33038235
P        20.37806320     11.24606895     10.12891388
S        21.75310135     10.09485817     11.22100830
S        21.78767014     26.10481071      9.08058453
P        20.70956039     24.90691376     10.35096359
S        19.30847740     23.80195045      9.24594116
S        19.82959175     26.28745651     11.57397747
S        21.85302162     23.57098579     11.59363747
S        14.77982616      5.59993076     22.85393906
S        12.19463444      3.47288084     22.94005775
S        12.45505810      5.91711092     25.19257927
P        13.48342133      4.52578020     24.05792046
S        14.72536373      3.30191135     25.30868530
S        14.63682079     18.72688484     22.77081490
S        12.10353661     16.68454552     22.78520775
S        12.36328697     19.10553169     25.12454224
P        13.26557541     17.71993446     24.07754517
S        14.64699268     16.52289009     25.23182487
S         1.22571886      5.19084501     22.58008575
S        -1.35558796      2.97482252     22.71415901
S        -1.14323521      5.52212048     24.89064598
S         1.11531675      2.80832815     24.94990540
P        -0.06930457      3.98329687     23.79406548
S         1.27975798     19.16993332     22.88198471
S        -1.24792218     17.08386612     23.01656723
S        -1.00940835     19.45771980     25.37855721
S         1.21384525     16.88935471     25.51004028
P         0.05079825     18.12540627     24.29510689
