832

Na       -9.93747520    -97.34782410    -62.08955002
Na      211.04512024     15.62728119     32.66407394
Na      -13.67598152     -2.29567075    -15.38331127
Na      153.06602478    110.37425232     69.78869629
Na      102.28990173    -19.80853081     22.07049370
Na       61.16282272    130.92012024     15.45689106
Na       44.19663620    -40.17922592    -65.88066101
Na       58.60951233    148.10142517     96.94737244
Na      -44.57006836     34.98800659    -11.92779636
Na     -136.48056030     68.99972534     -4.85686779
Na      128.99868774    -66.44396210     22.77599907
Na       50.28931808    -86.79153442     36.41530609
Na      -38.99362564    -29.15889931    100.16586304
Na      125.80433655    -56.25597763     36.54408646
Na       37.76289749     44.84463882     93.23067474
Na      -13.96727371     79.66954041    141.50274658
Na     -142.94998169     -5.29843903    -32.15166473
Na       20.32110214     27.95646477     42.63014603
Na       -7.08498096    140.38600159     38.93962860
Na     -143.19885254     95.89062500     15.54137135
Na     -122.58959198    110.03376007     25.65967369
Na      -41.18548965    147.51210022     25.24639130
Na     -113.37127686    -50.05136871      5.20964622
Na      -27.20380020    -59.57149124     93.85826111
Na      -21.26013565    106.36544800   -103.93792725
Na      -40.93664169     41.73157120   -124.33433533
Na       64.13098907   -158.30816650     83.46427155
Na     -104.74708557    -43.20010757    106.94596100
Na     -177.48855591     18.47425461     86.60699463
Na       47.37887955     48.55094528     80.37322998
Na        7.13637447     14.45111561    -79.87786102
Na       60.57930374    -25.73254967     26.41888046
Na        0.72491282     -9.22407150     -1.13963723
Na     -120.21651459      4.34856272    -11.68984795
Na      121.94713593     58.96030807     39.49731827
Na      -54.73786926     20.66123390     29.02593040
Na       97.67026520    -70.03536987     94.32702637
Na       50.49402237     24.47484589     15.64746284
Na       33.35395813     86.55863953     52.51276016
Na      -24.38061523    -15.71139908    -53.37668991
Na       65.31320953    -46.20783997     22.04083633
Na     -126.32559967   -120.42684937      1.71171594
Na       44.28758621    -90.39459991     67.00056458
Na       94.75336456     89.45712280   -148.25032043
Na       94.91887665    -59.52758789     35.27547836
Na       -0.79904014     31.99784470     25.57953072
Na        6.64975786     42.27508163     42.86494064
Na      -20.78630447     -4.43674278     38.86742401
Na      -84.94515228     96.19433594    -18.87065506
Na       12.87840748    117.61817932    -22.23733902
Na      101.68936157    113.50933838    -90.19503021
Na       98.81365967     18.05314827     59.64939499
Na     -106.25769043    113.78911591    114.49197388
Na       67.50997162    114.19627380     25.59659195
Na      -24.20856094     93.74027252     36.63527298
Na      -27.64881134    -56.72063065     32.57855988
Na        0.05810029    -73.62376404     49.91156769
Na       20.44194031    -25.81642151      5.49703455
Na      -38.17229462   -111.44715881    -28.85084534
Na       77.89717102     -8.89917469    -32.21115875
Na       70.83242798   -128.03463745      1.61755538
Na       54.04246521    109.74179077     90.46051025
Na       85.14128876     96.49662781     83.80514526
Na      -98.75463104   -118.25466156     59.75852585
Na       34.30649185    -18.93366814     -5.04906607
Na      210.51983643      1.01374781     -1.80736387
Na      -44.24015045    -29.22619629    -35.78057861
Na       41.02838135    -67.36667633     32.47804260
Na      -24.94874001     35.50273895     84.00378418
Na      -31.23500061    140.17047119     15.48431587
Na      -34.21252441   -134.94430542     56.07685471
Na      -72.06167603     11.69668961     52.99854279
Na     -105.69752502     66.43083191     39.73839569
Na       68.27935791     76.23183441    -63.23861694
Na      105.57715607     55.04467392     15.76143169
Na      -50.69054031      8.39904690    -58.98550034
Na       53.66908264    -60.41242981      5.24371338
Na      -45.18052673     28.77656364   -113.46241760
Na      -79.00058746     45.77033997     12.01520443
Na      218.07099915    107.47737122    -42.07994843
Na       10.69134617     73.07588196    -25.74344063
Na       12.62151432     34.82498550      8.83608246
Na      -17.34758568    -21.89682961   -138.25390625
Na     -136.93716431    -18.88578796    -22.06421471
Na      173.50453186    -84.32642365    -15.24623680
Na      -74.34239960    100.12241364     46.63617325
Na       43.58134079    -63.18739319    -35.51829529
Na       50.77347946     17.93025589     67.09619904
Na      -64.57609558     32.16409683     18.59235382
Na       -8.05872631    110.59208679     49.19126129
Na       75.23811340     42.25739288    -18.67119980
Na       23.40734863      1.58711934     56.32763672
Na      -67.96974182     76.06062317     57.25355530
Na     -102.66899872    -19.25956726     -1.28350174
Na      -44.92567444    -29.73625565    -21.99629593
Na       71.32731628     48.63724899     21.69420624
Na      108.14577484    -26.63452530    131.28315735
Na      -13.83742237     62.62108231    100.31864929
Na      -10.90725899     -2.16961837     -5.04293585
Na       87.88622284     21.27215767    -46.03159332
Na       77.68467712    -22.10276031    -79.80958557
Na      -20.86923599    201.50399780     39.06821442
Na       33.82862473    -11.48885822     49.60729599
Na       47.68728638     41.45309830    -79.58775330
Na       43.90304565     58.95167923    -59.20275497
Na        6.52552176    -13.94276714    -29.19177818
Na      -51.24847412     32.52991486     21.93701363
Na      -40.38994980    -33.08387375     42.52791977
Na      -54.80610657     83.39696503    -15.27000713
Na        9.58782673     -5.51054621     56.35301208
Na       81.63418579      1.34007525     25.54291534
Na      173.45944214    154.85575867     -2.04259372
Na       78.33193207    -32.78703308     22.76294899
Na      105.31245422     72.95041656     83.59468842
Na      142.85169983   -129.09497070    -36.03415298
Na      112.48182678     79.60726929     69.88703156
Na       19.92811966   -101.01730347     29.17792511
Na       14.36398697     12.60623646    -46.08279419
Na       71.55623627      4.78744030     26.04261971
Na        3.99000597    -36.16349792    -35.70076752
Na      115.53284454    -79.89717102      4.43164062
Na       10.18776512     72.75588989    -11.48231983
Na       -3.53062844     42.42102432     83.55943298
Na       50.96766663     -2.44057703    -69.60430908
Na       67.82559967    -42.81590652     -8.05270672
Na      -10.42387295    -36.66786194    -29.10335922
Na       60.86836243     21.83187675     56.28488922
Na      -77.62955475     86.73188019     -8.70599747
Na       91.88826752     55.76415253   -134.34211731
Na        3.60373402    180.67100525     49.98245239
Na     -124.70037079     45.60789871    -35.53582764
Na       44.26063156     24.91679001     42.47171783
Na       77.74131012     11.92221451    -48.56949997
Na      145.19645691     17.97820473      8.76297951
Na      -60.98714066   -100.60972595    -65.70986938
Na      -69.21555328     55.93742752    -35.29537582
Na      -17.51184464    -80.34635162     69.84334564
Na      119.09117889    -77.37659454     39.05152130
Na       60.61747360     45.76159668     66.77655029
Na      118.94960022     45.72505188     48.95524216
Na      -17.39822769    -29.26688766     69.53819275
Na       -1.04629803   -101.29048920     29.72282028
Na       31.81196594    -66.99411774    144.79756165
Na       78.13327026   -151.63195801     15.64086819
Na       63.14748383    -77.21891022     90.18102264
Na      -88.79891968    -65.92366028     26.14410210
Na     -116.50771332     51.92767715    141.29353333
Na       26.77191925     22.14799881     63.35750198
Na       13.36412144   -148.55574036     46.26606369
Na      -10.25072193      4.42898273     11.89337444
Na       12.91957569      0.97914052     49.79302216
Na      -11.17960453    137.49607849    -86.74706268
Na      -48.34173965     -6.36863041     80.42407227
Na      109.10768890    123.66950226   -181.33132935
Na      -74.86718750     76.15913391    -35.69103622
Na      -78.97017670     79.32803345     86.25749207
Na     -103.12543488    -49.20050049   -103.72190094
Na      -27.04635811     61.82865143     97.31341553
Na      121.96458435   -115.13593292    147.44534302
Na      176.74935913    -26.64890099      8.33354092
Na       22.96112442    -22.87444305    -59.25192642
Na        6.90070200    -40.18194199    -96.78899384
Na     -115.90692139     72.54292297    -34.41494751
Na     -101.81854248     69.37800598    -22.26758957
Na       84.75404358     42.37628937    -65.64897919
Na       30.02552795     -8.98339081     83.58329773
Na       83.91126251      1.46945691     49.80841064
Na      -71.54478455    161.65829468     25.85930443
Na       16.36050415    -64.08810425    -39.07717514
Na        9.98508739     31.78553772   -103.72666931
Na       74.80469513      1.23874247     11.99379349
Na       50.99291229    -73.56844330     77.05715942
Na       40.99403000    -59.87755966     76.49018860
Na      153.17178345     48.28544998     56.01720428
Na       67.50051117     22.00651169     80.44416046
Na        3.54062176     62.57328415    -93.23921967
Na       23.28737259     49.27630234     56.54868317
Na     -119.62696838    120.05197906    -38.64437866
Na       -3.84384847    -22.48456955     35.95980453
Na      -54.34759903     39.07630539    141.67533875
Na      125.77808380     42.64534760    117.78267670
Na       19.86107063    -56.97496796     26.10017395
Na       74.79201508    126.81645203     66.62483215
Na       23.71256638     17.78935242    -45.29930496
Na       98.42086029    -19.29337311     97.31028748
Na      -99.23887634    -15.82820702    110.67913818
Na       71.36294556    103.55367279    199.21510315
Na      108.67074585     22.29195213     25.76850510
Na        6.16324949    -53.73488235     66.36484528
Na        6.54716396     31.24362755    -15.17074299
Na      -68.70185089    -56.94867325    -28.85262489
Na       98.65918732     65.71768188     58.87128448
Na      -58.62283325   -172.38072205     59.62337112
Na       17.11823845    -73.73834991    103.83927155
Na      -85.60651398     79.97104645      8.62678337
Na       23.11932755      5.01701212     53.09587479
Na       46.84609222      1.11657143    100.47634125
Na       27.11363602    -22.46957207     18.63931084
Na        6.11048603   -100.65677643   -103.44719696
Na       33.30704498    -25.78285789     18.83539391
Na       81.74650574    -80.14080811    141.78572083
Na       -6.87930298     92.68896484    -35.76466370
Na      -95.23112488     55.24769592     15.68972015
Na      -75.27840424    137.20497131     69.77507782
Na      -89.44249725   -184.18536377    -76.77740479
Na      -20.45463562     79.37268829    -56.29731750
Na      -14.06994247      4.45158386     45.95849609
Na       23.30269432    133.83944702    155.63006592
Na      166.64811707    -76.93054199     63.55487442
Na       17.37964821    -36.01187897     36.22541428
Na       71.86174774    -33.24539185    -12.03569984
Na       81.39976501   -127.89651489     53.71526337
Na       69.93269348    123.31602478     22.50114250
Na        3.19410682    -80.86515045     56.52019119
Na     -109.42847443   -131.56486511    -41.90973663
Na       74.65830231     -5.33212614    -52.83074570
Na      173.34039307     38.36998749     32.17378998
Na       60.51088333    106.50416565     45.93234634
Na       74.58910370    -94.28145599     74.16379547
Na       37.33023071     52.80097198     76.47006989
Na        2.75916767     55.84016037     97.15316772
Na       43.12240219     61.71860886     63.64210892
Na      -92.23909760    -63.39685822    158.25262451
Na       40.70419312     42.23741150     15.57118702
Na       60.94609451     11.47879410    114.24465179
Na     -109.17795563    -97.35441589     25.78050232
Na       57.11602020    -50.28872681    138.28958130
Na       -3.76490903     73.29325867     53.05632782
Na      -61.44786835     39.32264709    134.77177429
Na       -3.23774409      4.55288982     -8.33816051
Na       64.38046265    -97.17150116     48.79343414
Na      -65.29072571    -53.56037140    137.54121399
Na        2.74218297   -140.23800659    -52.83821487
Na      -78.44640350    113.11430359    -82.91091919
Na      -27.53690529    -18.97196770    -18.01869011
Na       67.79296112     83.31249237     66.08485413
Na       29.55722809    113.42726135    -11.93896389
Na       13.63873196     55.47270966     58.74581909
Na      -37.77978516     14.94219780    -24.86740685
Na      115.69966125      7.54430342    -18.63357735
Na       91.51470947      4.43630886   -120.67256927
Na     -112.30577850    -70.73300934     66.54059601
Na       91.06529999    -73.78768158     29.12951469
Na        6.48934364     39.01263809    -36.13378143
Na      -68.56465912     89.79850006     53.10371780
Na      -41.54745102     96.88640594    -25.52920914
Na      -57.74621964      8.47938442    -39.05099487
Na       84.76669312     65.96902466      5.49658203
Na      -51.53155518     -5.53258705     15.73912525
Na       57.51271820    113.74303436     12.41957283
Na       17.13409042     11.43271351      8.79286575
Na      -13.84082890    -64.19140625    -42.09886169
Na      -58.27013779     79.58087158    -21.66929245
Na       63.87706757    222.47592163    100.05197144
Na       -7.02138042     14.94511127     39.01871490
Na      -34.28031158   -115.13262177    -73.17807770
Na       13.14809799     58.77448273    -49.27175522
Na       30.56458473     63.05451965    -72.86140442
Na      -64.89516449   -111.36975098     32.56101608
Na        6.29704380     89.35924530    -95.38022614
Na       78.45435333     29.30119896      8.95114613
Na       12.81963634     62.36841583    138.27600098
Na       40.61448669    123.89380646     25.26502419
Na       54.06003952     15.47920322    -11.51761818
Na      -93.17493439    -49.84070969    -25.01628494
Na      -61.41683578     11.08597088    -42.41284561
Na     -164.03433228    113.81446075      5.25476027
Na      -27.38916016     -5.08650112    -62.63549805
Na       16.63655853     38.67893219      0.57565242
Na      -45.10491180     61.99982071      8.67310715
Na      -52.34234619     38.82220078    -62.80746841
Na      190.65933228    -18.68377495     19.02018166
Na     -125.53375244     42.30142975    158.33160400
Na        9.67353821    158.52502441     22.46458626
Na      231.99656677     35.10030746    -86.69190979
Na      -31.28895569     25.60422516    110.84108734
Na       -7.43972588     89.02877808      7.99826765
Na      114.69770813      8.71271229     56.58681870
Na       27.03140068      8.53617668    -41.67058563
Na       54.18490601      1.04153931     42.80093384
Na      -34.39778519   -216.05186462      8.56589413
Na      -53.86166763    107.03865814     -8.41209030
Na       27.06514168     42.16809845    -56.17473221
Na       54.41701889     15.07559395    -52.68873215
Na      -47.61157608     54.64357376    165.22567749
Na     -140.37002563   -101.27542877     35.96918106
Na      -74.90489197     -9.92584324     25.95139694
Na        9.99236393   -111.61013031     63.22879791
Na      -51.18355942    -97.10762787    103.83538818
Na       87.55222321     83.73024750    -45.70838165
Na     -137.05381775    -80.45046997     -8.18814850
Na       26.46240234     79.68247986    -28.89522362
Na       77.38119507     82.72288513     -5.28317261
Na       98.35369873    -90.72047424    -79.58942413
Na       54.21344376     67.70171356    -14.03024578
Na       64.85257721     -5.79385424     15.12051392
Na      210.69378662      7.84002590     52.80295563
Na      -21.01854324    102.64367676     22.64264679
Na      -82.49172974     48.34801102     15.38413429
Na      -17.55520248    -33.40429306      8.61064243
Na      -26.74712372    -32.30705643     49.04736328
Na       44.22958374     -2.30996346    -25.31138420
Na      186.93666077   -124.98877716      1.44544709
Na       37.06824112    -16.46483040    -42.59402847
Na      126.07275391    -70.67190552    104.61051941
Na      -44.87036514    167.94070435    -32.57652283
Na       -4.26661444    -94.03865051    -93.79676819
Na      -34.26661682     -5.97372532     32.43943024
Na      -30.12725639     93.08361816     -4.87474728
Na      -17.43682671    -15.78964520     73.04254913
Na      -88.18326569     -5.36835861     70.98406219
Na       65.47854614    -12.17657757     63.10611343
Na        9.86733150     55.55738449    117.46188354
Na      105.31237030    -66.66901398     -4.97376966
Na      -57.56183243   -152.18971252   -127.32936859
Na       30.22204018     18.18389511     32.45537949
Na       87.81403351     56.27125549   -113.65354156
Na       -0.50213939    -94.31433868     46.20471191
Na       63.86892700    -70.68942261    -11.81661320
Na       98.04811096     29.11586571     36.03495026
Na      -92.28398132    -50.50962830     33.11484146
Na      159.69165039   -124.52452087     79.71951294
Na       84.78380585     52.03129959     80.11790466
Na       60.76806641    123.64864349     46.41654968
Na      138.63218689     -2.21678996    -73.16485596
Na      115.40048218     17.95725250     32.65396500
Na      -27.10984230   -145.11425781     45.96474838
Na       40.67291260     17.97898865    -28.66195869
Na       74.21790314    161.33705139     66.35661316
Na       26.91288567    -53.16959381    -25.53163910
Na      -78.38075256     45.77560806     15.95015144
Na      -78.71788788    102.68311310     49.54169083
Na      -44.45594788     11.94914818     35.73202896
Na        9.89961147   -111.10727692    -25.24849510
Na       -0.22899066     99.83959198     12.81253338
Na       -0.36079326    124.92382050    -48.59119034
Na      -34.00064850     76.14527130    121.18642426
Na       10.11354637    -12.78018379    -11.84943676
Na       23.76698875     -8.16814613     43.70765686
Na      -29.85702133     38.50977325    -35.55758286
Na       51.20786285     45.51674652    -62.54238510
Na      193.94480896   -145.30435181    -18.24498749
Na      -30.99938774   -110.55904388    159.27226257
Na       13.06131458    144.40266418    -15.18055153
Na       60.64497375     -5.63968039    114.07344055
Na       57.39667511     -5.46665525    -45.99709320
Na       18.86182022    188.56939697    128.01104736
Na       20.05257607   -125.11702728    -22.34839249
Na      -23.18233109     52.06813812     66.05682373
Na       -7.44770432      7.51806307     39.58713531
Na       57.94034576    -57.06129074     22.44024277
Na      -61.07765579    113.44327545     -1.99401367
Sn        3.16660786     14.75501156      5.51592541
Sn        3.33475518     28.56254959      5.42464447
Sn       17.26298332     15.01533890      5.57625294
Sn       16.94062996     27.94714165      5.14454412
Sn        2.26189113      1.46591794     19.20459175
Sn        2.79295635     14.84097290     19.50275040
Sn       16.02052498      1.27566981     19.05994034
Sn       16.64347649     14.96424484     19.14097404
Sn        2.97310233      1.35198736     12.01945972
Sn        3.15565395     15.16306686     12.24571419
Sn       16.95869255      1.18479478     11.98845959
Sn       17.16265106     14.71331978     12.25938511
Sn        3.31002784     14.65012455     -1.55752838
Sn        3.12188768     28.01377106     -1.16045690
Sn       16.95937538     14.48723125     -1.06894159
Sn       16.64695740     28.04604149     -1.66109633
Sn        9.95228195      7.93536425     18.81260872
Sn       10.00883198     21.96920204     18.88457680
Sn       23.59820366      7.84940434     18.78181076
Sn       23.48578835     21.84267235     19.10923767
Sn        9.29850292      7.94358206      5.34483385
Sn        9.93173027     21.23979950      5.08037281
Sn       23.09243011      8.07683086      4.91724586
Sn       23.31015015     21.49505806      5.58888292
Sn        9.61523151      8.52288914     25.50424004
Sn        9.74522877     22.35769463     25.73859215
Sn       23.42323303      8.26127052     25.73149681
Sn       23.34102631     21.96689796     25.86192513
Sn        9.62493134      7.63447952     11.95849037
Sn        9.65378380     20.96964645     12.07409477
Sn       23.26949501      7.20397329     12.30495548
Sn       23.52077866     21.27363777     12.33246326
Sn        9.17846203      1.54319894     18.77719879
Sn        9.81135654     14.98411465     18.90030861
Sn       23.06894302      1.28297317     18.90105247
Sn       23.36294556     14.85341835     18.84475517
Sn       10.39806175     14.50663948      5.17773676
Sn       10.06862068     28.26502609      5.36408377
Sn       24.02196121     14.81807899      4.98535967
Sn       23.81153679     28.60375977      5.45711613
Sn        9.91435719     14.38421059     12.15384674
Sn        9.89917469     28.09474564     11.95885754
Sn       23.71731186     14.11196327     11.97231960
Sn       23.42890549     28.33776283     12.04220200
Sn        9.84294701      1.74772966     -1.41122723
Sn       10.08685398     15.35815239     -1.84782410
Sn       23.70280457      1.44197512     -1.25480807
Sn       23.83087158     15.06935501     -1.51569402
Sn        2.69950795      8.02648163      5.56947803
Sn        2.75295711     21.60742378      4.96370792
Sn       16.35318947      7.75151491      5.49678946
Sn       16.63512421     21.66851616      5.17293262
Sn        3.29039764      8.28203869     19.22013283
Sn        3.76341820     21.60268402     18.99099731
Sn       17.13657761      8.09855366     19.34215546
Sn       17.35031319     21.84436226     18.50342560
Sn        2.83826876      7.79496145     -1.19075918
Sn        2.98558760     21.11012268     -1.66107130
Sn       16.65961456      7.98976374     -1.59191668
Sn       16.57863045     21.55064011     -1.73260558
Sn        3.19203734      8.13663292     12.16321087
Sn        2.85950971     21.89082527     11.97142410
Sn       16.34812355      8.37162590     12.11431026
Sn       17.01139069     21.92636871     11.88423443
S         1.33529949      6.48120022      0.14680825
S         1.48896039     20.17705154     -0.03527635
S        15.03244400      6.88864851     -0.26560423
S        15.20253849     20.25198936      0.06263010
S         4.56797743      9.80434227     13.40307140
S         4.22257137     23.16408539     13.54968166
S        17.87119484      9.59265518     13.50338268
S        18.27965927     23.24794579     13.40436363
S        12.00256920     13.19385147      6.80091476
S        11.48411560     26.88185501      6.54267311
S        25.46882057     13.52041531      6.60017443
S        24.83360100     27.01791191      7.02665520
S         8.08071423      3.09088469     20.17456627
S         8.47195816     16.13068008     20.61741638
S        21.43697357      2.60780668     20.26627541
S        22.15645599     16.25236893     20.47408676
S         4.19591713      6.34162903     24.76418686
S         4.42664766     19.82799149     24.34425926
S        17.86834145      6.37832880     24.22299957
S        17.90030289     20.30443001     23.90093994
S         1.89348054      9.44583321     10.75767136
S         1.54085994     23.51004410     10.66764927
S        15.01052856      9.82334423     10.73345089
S        15.51557255     23.32857895     10.89735317
S         8.23285484     13.91133118     17.43868828
S         8.14463043     27.15893936     17.54142570
S        21.88626099     13.49089432     17.71658325
S        21.46021461     27.08582115     17.55480957
S        11.53419018      2.61797047      4.27963352
S        11.62313366     16.28408432      3.79015064
S        25.36209869      2.76283240      3.94220901
S        25.29525185     16.50374413      3.92395592
S         8.65752983     12.89370441     13.58634186
S         8.55568790     27.11076546     13.59840775
S        22.11916161     12.88976765     13.36610031
S        22.25370026     26.67572784     13.41046429
S        11.30927944      3.26287413     -0.14549039
S        11.65504742     16.50694466     -0.43598980
S        25.27884102      2.82899976     -0.01777663
S        25.30219650     16.40465355     -0.12832041
S         5.07184649      7.09851694     20.62104607
S         5.17586565     19.97301292     20.14500618
S        18.74798775      6.64607859     20.30516815
S        18.61292648     20.05917358     19.87901306
S         1.47623587      9.52840042      6.80810261
S         1.56501567     23.00640106      6.68021250
S        14.97432613      9.00709343      7.15523195
S        15.28491783     22.98987389      6.54656553
S        11.32942677     12.89836025     10.76537895
S        11.30747604     26.90353012     10.45893955
S        25.11611938     12.84428596     10.62107563
S        24.93098640     26.85104370     10.55933475
S         8.43070889      3.14547920     24.28281975
S         8.86483479     16.82615089     23.95085526
S        22.64103508      2.79527760     24.30205154
S        22.44499779     16.69166183     24.52208900
S         1.13005447      6.34538031      4.13222313
S         1.36159873     19.98560333      3.83836126
S        14.87129593      6.47946167      3.88143301
S        15.29361629     19.83057785      3.98609877
S         4.47087860      9.70195007     17.51942444
S         4.68875790     22.88871574     17.16820717
S        18.31468964      9.54647541     17.58489418
S        18.49586678     23.42745972     17.13663864
S        11.13913631      9.62962055     24.19432640
S        11.22109890     23.42614937     24.19091225
S        25.14248657      9.54423141     24.43260193
S        24.85574341     23.29562569     24.54760742
S         8.23086739      6.17165518     10.63821507
S         8.01083279     19.93884087     10.80840969
S        22.09290504      5.85604572     10.83656883
S        21.91707802     19.73543739     10.87110710
S         0.93811595      2.69169474     17.27894783
S         1.31452346     16.01156807     17.99488831
S        14.82306480      2.65923977     17.52337837
S        15.32719135     16.03570938     17.44857216
S         4.73023272     13.48112965      4.23406982
S         5.03716564     27.01134491      4.04028797
S        18.66118431     13.61305523      4.03674936
S        18.37695503     26.43219757      3.87889075
S         8.36172676      9.73114967      0.09584685
S         8.47907925     23.71533775      0.11452650
S        21.91640091      9.92710018     -0.85398525
S        22.05990601     23.27812004      0.10894117
S        11.19262981      6.20732546     13.25368500
S        11.08626270     19.45089340     12.91526222
S        24.35557747      5.86942291     14.02952099
S        25.03966713     19.53583145     13.55093479
S         4.73344183      3.07110548      6.34752226
S         4.73805141     16.33942795      6.53434467
S        18.37355232      2.19820404      6.60224342
S        18.61021614     16.35066605      7.10888195
S         1.19880116     13.04812431     20.58693123
S         1.00422406     27.14792252     20.48646355
S        15.01910019     13.45952797     20.26158333
S        14.69952011     27.07351494     20.37253380
S         4.56428289      2.90446329     10.84887218
S         4.68864965     16.39875984     10.60068893
S        18.24770355      2.63325715     10.78020477
S        18.44120407     16.28154564     10.88592529
S         2.03342271     13.08442783     24.12593079
S         1.70437360     26.65812874     24.67737579
S        15.58069229     12.99490261     24.99273300
S        14.82022858     26.68495369     24.14354706
S         7.68455839      9.55131149      4.12290764
S         8.25397301     22.79187584      3.88286948
S        22.23120689      9.09418869      2.91547394
S        21.73974991     23.11332321      4.36793613
S        11.40876961      6.53561354     17.65391159
S        11.37320137     20.69166946     17.24500084
S        25.14890289      6.62174797     17.47925758
S        25.16770935     20.78856659     17.57363510
S         1.54008996      2.60241008     13.48951435
S         1.88731456     16.47396660     13.71829128
S        15.42847252      2.61422920     13.49377251
S        15.40332603     16.09721375     13.53386784
S         4.45937157     13.42192173      0.18977813
S         4.60330534     26.54117584      0.04003299
S        18.35888100     13.25556660      0.25244629
S        17.93200874     26.53864479     -0.28582999
S        11.58478451      9.55374622     19.90620422
S        11.52907467     23.35606575     20.57020950
S        25.11000061      9.11846066     20.46933746
S        25.05824280     23.06876755     20.68071175
S         8.02130890      6.22046137      6.33213282
S         8.56539249     19.82823181      6.47962666
S        21.76927948      6.74229765      6.47516346
S        21.93778229     19.92539978      6.76839781
S         1.95979023      2.34628439      0.39405262
S         1.95617723     15.92806530     -0.03101952
S        15.35104942      2.38961697     -0.37710291
S        15.55365086     16.04850006      0.18298849
S         4.73364639     13.93007660     13.70903397
S         4.18725157     27.13452339     13.52896023
S        18.43969345     13.17262268     13.68828011
S        18.12740517     27.46296501     13.81715679
S         2.20673132     13.35931778      7.24781942
S         1.93579924     26.92741394      6.76030254
S        16.25947571     13.16822910      6.69936848
S        15.49136162     26.83662033      6.71410751
S         3.35047483      3.00087142     20.54489899
S         4.10219574     16.46042824     20.53189659
S        17.36157608      2.89449596     20.13838387
S        17.91155243     16.36370468     20.54988289
S         4.13504124      2.12601852     24.34254074
S         4.96325779     15.71114826     24.49117470
S        17.81097221      2.41609693     23.88516998
S        18.11053085     15.71821117     24.35352516
S         1.97002089     13.54362965     11.07969284
S         1.56596148     27.25796890     10.65217113
S        15.78163528     13.62844372     10.76328278
S        15.33900356     27.28760910     10.96577930
S         4.23542595     13.61080360     17.87804794
S         3.84666872     27.40048981     17.65494156
S        18.27153969     13.54708862     18.06061363
S        17.33444023     27.10029602     17.37888527
S         1.82184601      2.23975754      3.99271393
S         1.77508724     15.95366192      3.83274221
S        15.80111980      2.19679618      3.82479835
S        15.53232670     16.05818558      4.27558613
S         8.36774445      9.13489342     13.32955647
S         8.45050049     22.77569199     13.34697819
S        22.05730820      8.97473431     13.40665340
S        22.28703499     22.61814308     13.89764404
S        11.13127804      6.94098663     -0.25590008
S        11.21097374     20.88850594     -0.13921748
S        24.41231537      7.11847687      0.11067564
S        24.85710335     20.76995087     -0.17856123
S         8.65484238      6.85309315     20.40506363
S         8.82471848     20.65340614     20.37671661
S        22.21401405      6.08596087     19.92088509
S        22.32951164     20.16298676     20.46841621
S        10.40462875      9.38234234      6.98253679
S        11.07041168     22.79171753      6.49330187
S        24.27213287      9.41458225      6.49153566
S        24.80765533     22.83523560      6.80762672
S        10.96131420      8.76341820     10.43399143
S        11.00412560     22.40008736     10.65467167
S        24.84616089      8.60998249     10.94808483
S        24.99085617     22.66012573     11.09068871
S         8.21392822      6.98219681     24.14572144
S         8.51973057     20.76841164     24.38525772
S        22.12450790      6.62024832     24.14553070
S        21.89680672     20.58297729     24.55819702
S        10.93362045      6.92869091      3.97329235
S        11.22624207     20.28679085      3.49857163
S        24.61712456      6.29825354      4.04768848
S        24.42926788     20.10619736      3.79771280
S         8.88752460      9.22713757     17.14630318
S         8.72132015     23.24385262     17.23125267
S        22.43658257      9.58151340     17.28791046
S        22.06723976     23.23949242     18.06321526
S        11.21926594     13.55654144     24.14314270
S        11.00890350     27.63109589     24.34543800
S        25.43546867     13.46469879     24.50626183
S        24.97760963     27.18106842     24.46121597
S         8.42704773      2.15493917     10.51326466
S         8.62236881     16.01417160     10.94910717
S        22.16773987      2.60305977     10.46277332
S        22.36528206     15.89358139     10.87692165
S        10.89795876      2.67920709     17.37526321
S        11.21185303     15.97179317     17.13314247
S        24.61734200      2.43956971     17.25557327
S        24.57900620     16.36781883     17.56517410
S         9.06599140     13.21112347      3.74135160
S         8.79752064     26.97201729      3.70148063
S        22.79377747     13.36455631      3.49904227
S        22.28059387     27.68125153      3.91056466
S         8.43642712     14.25518322     -0.48496777
S         8.36796570     27.47059822     -0.27783191
S        22.27503395     13.70169640     -0.08445001
S        21.84297180     27.49695015      0.01813709
S        11.16729259      2.35822034     13.12779713
S        11.46360397     15.81416035     13.43203831
S        24.85742760      2.51581335     13.52173328
S        24.87269020     15.50845242     13.54353714
S         8.47039700      2.47309542      6.28464222
S         9.02194786     15.92153358      6.71859312
S        22.26047707      2.66916680      6.91527462
S        22.60911751     16.10236549      6.73033381
S        11.09528255     13.37869644     19.99439812
S        10.53317738     27.66808891     20.29558945
S        24.68176270     13.25717545     20.26788712
S        24.33949852     27.13719177     20.25831604
S         4.58536625      6.89300346     10.63759899
S         4.35984612     20.71063995     10.53571987
S        17.67260361      6.82289696     10.91151714
S        18.51979637     20.42890358     10.61841965
S         1.70175815      9.23822975     24.55801201
S         1.99298871     22.72196579     24.07705307
S        14.92004681      9.29929543     24.07722282
S        15.04322624     22.92344666     24.26464653
S         3.92028141      9.13860798      3.99047589
S         4.33754206     22.79711151      3.62461305
S        17.94778442      9.02389240      4.20683050
S        17.85496521     22.80006981      3.56168199
S         2.43810439      6.53031969     17.47389984
S         2.04488993     20.38665771     17.65287209
S        15.68009758      6.90001392     17.79960823
S        16.02772903     20.46436119     17.15782166
S         1.77780724      6.71319532     13.53958797
S         1.76129925     20.66531563     13.72334099
S        15.18031406      6.88419247     13.53147411
S        15.65092373     20.55958939     13.34978962
S         4.20910358      9.16418076      0.14539844
S         4.60099411     22.53302193     -0.39576343
S        18.14257622      8.91316414     -0.08556336
S        17.98268890     23.10734940     -0.38029248
S         1.63924074      9.34462070     20.72070312
S         2.65390825     23.04057693     20.58344460
S        15.79941368      9.39707279     20.79310226
S        16.11059189     23.13964272     20.26908684
S         4.09850359      6.55601025      6.95975399
S         3.94432902     20.33661079      6.54734182
S        17.32680321      6.36693048      6.96912336
S        17.87889862     20.29319191      6.60671711
S         1.11956620      3.72065353      7.63611031
P        -0.19280504      4.70849609      8.83624172
S        -1.55000544      5.81761837      7.58164454
S        -1.31815958      3.53677058     10.03143883
S         0.97591180      5.92651939     10.04834652
S         1.20126140     17.02017784      7.93896055
P        -0.17653894     18.28063774      8.88131618
S        -1.63683152     19.27948761      7.86206627
S        -1.30726373     16.90074539      9.87255096
S         1.16397572     19.51559639     10.08413792
P        13.03255272      4.11049366      8.37429428
S        14.25216389      3.05323148      7.14923000
S        11.74190235      5.16550684      7.13867664
S        11.93188858      2.87732720      9.68649960
S        14.10721874      5.30953074      9.70839214
S        14.76665211     17.08155632      7.70624781
P        13.30699539     18.12923431      8.71496582
S        12.04661751     19.37417793      7.57885170
S        12.34494591     16.87904930      9.82526684
S        14.56290531     19.35497093      9.76084805
S         8.00389385     10.42920685     20.69222069
P         6.85035753     11.60131454     21.94770241
S         5.46578217     12.53229427     20.78458023
S         5.78833294     10.18468475     23.09790421
S         8.14309216     12.59551239     23.30530930
S         7.84262514     24.19579697     21.05535316
S         5.32436180     26.66500664     21.05392075
P         6.58851624     25.39604568     22.27542114
S         5.75704861     23.94921112     23.35197830
S         7.86175728     26.50841331     23.45381927
S        21.83506584     10.18848610     21.26883698
P        20.64179993     11.29461193     22.43305016
S        19.17947578     12.36377811     21.34135246
S        19.53162003      9.94935703     23.52994537
S        21.93161392     12.37490082     23.70244789
S        20.89100456     24.30669022     20.95277977
P        19.71721840     25.43282700     22.07939148
S        18.38628387     26.54685974     21.14435196
S        18.65017891     24.09278679     23.33605003
S        20.83152962     26.50857925     23.38497734
S        26.05171585     12.18855762     17.02327156
S        28.54458809      9.72135162     16.99634361
S        28.58683586     12.30127525     15.07178402
P        27.37312698     10.94966316     16.09865952
S        25.95432281     10.00801849     14.92354679
S        25.67720795     26.00379562     16.92959213
S        28.22885323     23.72214508     16.82777405
S        28.22331047     26.00671005     14.66011333
P        26.92175484     24.84313965     15.69134903
S        25.58178520     23.93895149     14.39125443
S        11.78909779     12.56379700     16.56172752
S        14.15493679      9.97263718     16.36969185
P        12.84171772     11.27048969     15.30882359
S        14.20141411     12.54131222     14.37855721
S        11.71329212     10.13924503     14.09599876
S        11.88394356     26.06884003     16.77577591
S        14.25531769     23.73851013     16.35440826
S        14.53255081     26.05329895     14.26366806
P        13.12353516     25.11199951     15.48919678
S        12.03440952     23.86251068     14.21274948
S         4.93850899      6.02443886      2.77963376
S         7.42290258      3.97356153      3.13513160
S         7.33958673      6.29040909      0.74353379
P         6.38015175      4.91287899      1.90125382
S         5.14248228      3.61432624      0.70240790
S         5.32148361     19.49751854      3.30798292
S         8.04310036     17.23816681      3.57234621
S         7.85087299     19.53722572      1.07067156
S         5.74663591     16.95084953      0.99483454
P         6.80344200     18.35335541      2.26742291
S        18.57824707      5.56053162      2.52581620
S        21.33773994      3.46538019      2.82682872
S        21.16397095      5.64067841      0.17890929
P        20.11382484      4.39111233      1.42314613
S        18.96742821      3.17879486      0.10544191
S        18.86698532     19.47192574      3.03404975
S        21.71206856     17.27553368      3.26436448
S        21.57434654     19.58927727      1.19790709
P        20.28939438     18.32667542      2.08580470
S        19.14645767     16.79588127      1.01358771
S         5.20118141      3.36402798     16.61116600
P         6.27132893      4.44870424     15.35896301
S         7.64028978      5.58088970     16.56209564
S         7.52224016      3.33054543     14.20630932
S         5.09216881      5.52748680     14.31822681
S         5.52980328     17.10019112     16.95639610
P         6.77310801     18.18313026     15.65892220
S         7.95856953     19.40103531     16.76241875
S         7.94499350     17.12201500     14.57842922
S         5.43635130     19.48584747     14.65193748
P        19.99200249      4.40571022     15.40136433
S        18.70883560      3.27050686     16.60533714
S        21.23961639      5.60245895     16.42493248
S        21.24994278      3.24753952     14.14812469
S        18.68811607      5.59732580     14.33729935
S        19.14913750     16.76383209     17.10098267
P        20.24241447     17.95453453     15.73444653
S        21.41393471     19.22631645     17.05087471
S        21.27770615     16.74365425     14.51700687
S        19.01209259     19.20325661     14.58549976
S        25.94348526     10.23513985      3.15658975
P        27.20381165     11.44366360      2.01534629
S        28.60318565     12.65984154      3.15574670
S        28.03675842     10.10911655      0.81265295
S        26.16023636     12.64238262      0.86113083
S        25.32246780     23.89981461      3.37847733
S        27.86759186     26.10135841      3.06069350
P        26.51580811     25.10481453      2.00888085
S        27.53265762     23.88087273      0.71910203
S        25.59415436     26.32158852      0.71720737
S        12.00957870     10.36811066      3.00254512
P        13.26219654     11.52912712      1.58247828
S        14.43197441     12.63633156      2.82645249
S        14.13255978     10.16208363      0.44853762
S        12.13283539     12.88593388      0.48005104
S        14.71050644     26.23913383      2.93273950
S        12.08291340     24.10782051      3.02373290
P        13.38813782     25.23882294      1.78372025
S        14.31864929     23.91419411      0.72110999
S        12.12023544     26.50524521      0.66181839
P         6.62376881     11.19377995      8.68908691
S         7.86585140     12.40798092      7.45793343
S         5.28776264     10.18676090      7.70873785
S         5.77108526     12.54311466      9.95577335
S         7.73697042     10.07874012      9.84417057
P         6.81054640     24.80335236      8.51608276
S         8.01068974     25.71540642      7.24819040
S         5.21391821     23.41416168      7.52136278
S         5.50669241     26.07884598      9.60885048
S         7.92083073     23.18745232      9.35449409
S        21.44529915     12.43087196      7.51677418
S        19.02798653     10.12785816      7.72672892
S        19.48169899     12.64482117     10.17052746
P        20.21592331     11.33498192      8.92029762
S        21.36584854     10.01722240     10.02383137
S        21.36425209     26.47165298      7.45737982
P        20.15606880     25.33766937      8.61832523
S        18.72991371     24.14768791      7.59824228
S        19.25181770     26.70289993      9.83502483
S        21.36969376     23.98885918      9.76571941
S        14.39682388      5.63743591     20.99534798
S        11.65411091      3.49657536     20.93704414
S        12.03422832      5.98516798     23.24677086
P        12.98418236      4.65191555     22.00540543
S        14.24237251      3.57805324     23.20745468
S        14.67359352     19.31794357     20.85172844
S        12.21160030     17.08920288     20.97666359
S        12.44019222     19.63434410     23.24384308
P        13.47708893     18.30987740     22.17816544
S        14.58648872     16.92163467     23.33662415
S         0.68516016      5.59280157     20.94482613
S        -1.71097934      3.34268761     20.99693489
S        -1.38112795      5.86033630     23.31132889
S         0.58564013      3.27113533     23.41899300
P        -0.57260007      4.55016565     22.04925728
S         0.88977814     19.36455917     21.09368515
S        -1.51688445     17.17605782     21.18538666
S        -1.27594781     19.68993378     23.50027275
S         0.89127892     16.94937325     23.66947174
P        -0.32301277     18.30064011     22.34257889
