832

Na     -105.82948303    -60.04163361    -25.88533592
Na     -160.34735107    -32.80871582    -66.67748260
Na      -14.53133202     39.45856094    -16.28570175
Na       -4.37406635    -53.70047379     13.12484837
Na       -5.25834179     39.05606079     55.77799988
Na      -86.41424561    130.87101746     -2.45744324
Na      -14.84362698    -16.51145363     -8.93424225
Na       19.56421661     35.15729523     -1.85735929
Na       40.08393097   -111.08071899      8.00669479
Na      -42.18547821     38.39233780     68.71624756
Na       46.64934921    -39.80899048    -28.89059639
Na       -7.14882660    -50.09767151    -45.38338089
Na        8.93758297   -111.70886993    123.76786804
Na     -123.66754913   -124.97870636   -110.95246124
Na      155.65394592     17.99617386    157.70549011
Na       19.11275673      0.96948183    -35.58435822
Na       54.07483673    126.47385406    -36.84438324
Na      152.09579468     75.76769257    -29.02038765
Na      -34.95239639    126.95426941    -74.02701569
Na      162.65887451     -5.64850521     32.28360748
Na       -0.67996371     21.33208847     18.31861305
Na       12.33029270     35.07116318    -29.72154045
Na       93.55319214     95.96537781    -36.44848633
Na       63.72233582    130.77212524    -86.90389252
Na      -69.48812866     -8.93793678     28.42828178
Na      104.23735046     21.98826599      0.81686258
Na      -75.91074371    -50.41164780    -60.50518417
Na      -37.99734497     28.75203133    -70.02890778
Na       -1.16897750    130.39607239     -2.43262458
Na      138.80345154    134.21635437     35.21581650
Na       77.51443481   -100.69444275    106.74904633
Na       42.94786453     89.94611359     35.23831558
Na      -59.11436844     -1.88369107    -79.87333679
Na       87.18432617    143.29095459    -50.33201218
Na       16.38681412    -11.76579952   -141.89796448
Na       77.35679626      1.13180244     32.19120026
Na      -59.39528275     43.70126724     14.67930508
Na      -56.09790421    -43.06831741    -39.53698730
Na       94.18467712    -43.58596039    -32.81888580
Na      105.09532166    -30.28097534    -12.17558861
Na      -79.62693787      3.66282463     21.44158363
Na      -48.33726883    161.18125916     38.88993454
Na       67.12577057    -17.07988739      4.35814762
Na      -73.65840149    191.35987854    -59.92781067
Na      -62.73275375     59.28978729     32.38176727
Na      -11.03649426     14.52599716    -28.55005264
Na       32.69982147     68.98107147     25.00732803
Na       -4.30232525    -35.68872070    -32.77163315
Na       39.93437195     65.69884491    -19.37375259
Na       -8.02497292    -56.46441269    -32.28499603
Na       86.80831146     -9.16074657    137.57878113
Na       32.82780838    113.45935059     89.84471130
Na       33.02300644    147.14978027     -2.55597734
Na      -21.49164391     72.63739014    -60.35166931
Na      -38.86614227    -16.57213974     56.22146606
Na       36.41143799     10.79005909    -39.46540070
Na       21.54083443    103.13153076     66.12386322
Na      -14.55768204     79.71285248    201.81394958
Na       63.27392960     28.40207863     52.38825989
Na      124.83100891    130.23188782      1.26675272
Na      -82.36693573      1.44062865     38.94287109
Na      114.49505615    -70.54478455     28.32648659
Na       57.48015594    212.15946960     72.99604797
Na     -167.78625488     90.18743134     83.04789734
Na       60.74017715    -53.42627335    147.25195312
Na       -4.07764482    109.95894623     83.09648132
Na       69.62834930    -16.08654404     69.31986237
Na      -28.30685234      1.37688339    154.18698120
Na      -14.14988995    110.39149475     11.51237106
Na        9.43389511   -138.61918640      1.50357640
Na       30.20837402     14.65606880      4.60162640
Na       36.58611679    109.53571320    -15.86081409
Na       81.84388733    -56.80109406    -94.40354919
Na      -42.09921646     59.34609985    -22.89711571
Na      -62.48147964    127.32212067    -83.93681335
Na      118.60034180    -39.77155304     31.50226402
Na       -4.19085407    -66.76438141     55.23543549
Na       36.65219116     32.18958282    -26.20904922
Na       12.86370945    -77.05445099    154.28698730
Na      -17.18685722    -13.00276661     68.84952545
Na       39.51845932    -63.26746368     24.77029800
Na      -31.34293938     69.74668121      8.09488678
Na      -35.29082870   -111.71464539    -12.12491798
Na      -11.14168549     66.14811707      8.33166981
Na      -55.91841888      4.77449274     89.86666107
Na      -51.89813232    -60.60234833     52.18231964
Na       53.52551270    -37.09487534    -26.11664009
Na       50.24307251     28.84346199     -5.69291401
Na      -65.58886719     96.47920227     99.94068146
Na      -45.42336655     55.44263840    -19.44610023
Na      124.72787476      7.59431553     52.51074219
Na      -79.63298798    130.79899597    -18.95344353
Na      121.86668396    -56.62947845     28.50424385
Na      -56.11731339    -46.46650314     46.20592880
Na      141.29554749    -43.41929626     18.84929466
Na      114.77251434     31.71235275    -53.42253876
Na        2.26664710     86.46612549    116.77391815
Na       90.50572968      8.14357090     51.61521912
Na       -0.70682538    -98.43941498     90.32382965
Na       43.02448273   -142.22190857     76.34245300
Na       53.83774948    -70.75914764    -97.18433380
Na      -11.22348690    130.81271362      7.62391901
Na       63.86722946    -39.98912048   -101.06530762
Na       60.05903625     45.91491699      5.24683380
Na       -1.04456401    -63.19913864    103.59496307
Na       63.76196671     69.23793793     24.69552231
Na       32.99342728     59.02405167    127.03626251
Na       57.25625610    -39.43931580     89.88746643
Na       19.48838997    113.02860260    -42.21619415
Na     -127.38748169     66.15346527     75.78497314
Na     -107.14310455    -26.29285240    100.32930756
Na       70.65955353     45.18437958     55.74450302
Na       49.55494690     35.15246582    -22.35180283
Na     -113.48419189     41.69956207     58.58738327
Na        9.31906891      1.37611926    -39.64798355
Na       43.22189331    -53.21340561    -46.90659332
Na       70.26463318   -144.99813843     15.18114853
Na      -89.91149139     11.03536606     83.31394958
Na       25.81764221    -28.86844635    -35.95679474
Na      -59.22900391    -87.09694672     45.80336380
Na     -109.80595398     17.88610649     38.61526489
Na      -80.38965607    -80.56946564    164.73504639
Na        8.57612610     67.06906891    -25.91896820
Na       19.19671440    188.31068420    182.14366150
Na        6.36624336    -87.96124268    127.03388214
Na      -45.07244492    -29.90981293    144.24481201
Na        2.08962417    -35.97573471    143.76423645
Na      104.09114075     32.40889359    -32.75030899
Na      -41.51757050    -73.14583588    119.91237640
Na      127.78915405    -59.97158051    -36.37947083
Na       87.57105255      4.64189911     66.54186249
Na      -55.72690201     18.04760742    -12.39544582
Na       -8.54423904     86.37889099     48.70870590
Na       49.44486618      1.09370553     99.33685303
Na       36.22875595    -33.70116043    -18.96724510
Na      -62.31866837    113.59973145     24.92909050
Na        1.81254566    -39.60137558     41.74872971
Na        5.93950939     93.77318573     39.06271362
Na      -55.47349167     79.18484497     52.94197845
Na        2.85516477     28.86634064    -69.82588959
Na       77.12972260      1.24832392    -29.37304497
Na      -38.72478867     42.40409470    -42.89576721
Na        2.23329425    -11.91370201    120.30621338
Na      -25.09371376     92.74604034     82.92195892
Na      -11.46459675      4.60224676      8.18851471
Na      -38.52664566      7.31632757    -80.39027405
Na      -86.79411316     66.55565643     69.41093445
Na      -93.58429718    161.25550842     21.54599380
Na      -21.05822182     79.35829926    -18.58879662
Na      -13.52027321    -60.15490341   -131.47111511
Na       26.26954269     14.27931404    167.17718506
Na        2.49697351     31.35139084    -53.10144806
Na       16.83174896    -49.80245209    -39.22074890
Na       49.83383179     23.51046944     76.19947052
Na       56.31024551    -47.44104767     48.63047028
Na      -21.16440201    -32.36705399     25.60094833
Na       60.22438812     82.66172791     73.21448517
Na     -102.93430328    150.82983398     32.12010574
Na      108.07834625    -77.07955933    -80.66088104
Na      -58.20993042    -19.57042313    -73.62572479
Na       -7.70649242     46.10457230     93.11281586
Na      -35.27014923    181.75900269    -53.08493423
Na       -7.47443438     11.63238716    -42.92361069
Na      -45.35096359    -53.40126419     -8.85056305
Na     -110.02187347    -26.14838028    -28.88284683
Na       59.78004074     58.93003464      5.05297661
Na     -127.16770172     14.79344749   -114.31531525
Na      -89.64223480    144.17910767     18.20095444
Na      169.41137695    -63.09746170    123.47787476
Na       93.98922729     31.98620415      8.07672310
Na      -85.73012543    -52.25232315      8.85476971
Na       87.59651184     24.96875000     83.29482269
Na       26.36266899    -12.55336475    -15.99854279
Na      -59.18959427    -46.07934570     49.39810562
Na       53.47460938    160.67774963     29.51317406
Na      159.00254822      5.58742285    -25.91667175
Na       12.26499081    113.43386841     24.90434647
Na       32.60018158      1.68972743     25.56490517
Na       90.29764557     44.32533264     55.79376221
Na       66.18804169     45.64131927     31.73129654
Na      -58.80775833     41.52499771   -124.41045380
Na       63.80930328    -73.91820526     35.38159561
Na      -34.88913727      5.21318531    -25.65404892
Na      -41.62932205    -11.31420135    -15.52434540
Na        9.21232700     71.83397675    144.01858521
Na      100.95114899     38.48605347     -2.31181908
Na       40.22087097     99.47460175     48.64634705
Na       46.67807007     62.34503174     39.23799133
Na       35.83394241    -33.26099396     83.36352539
Na      121.34873962     18.28525162    -46.03334427
Na       73.59629059    -26.12438393     24.59885406
Na       89.10797119     14.48169422     44.87236023
Na      -24.42896843    -33.02060318   -104.51980591
Na     -120.29798889     68.85641479      1.70467162
Na       -3.65166640     69.32612610    -35.82481766
Na      -62.94916916    -15.51388454     15.14225197
Na       83.64453125     31.63994789    -12.26477909
Na      -31.44618607     45.64633179    -25.67917633
Na        2.32060766    -87.36391449     11.55446529
Na       56.61656570     55.31322479     42.31101990
Na       84.24597931      1.17231286      8.15417862
Na       27.03716278    106.09603119    -46.18496323
Na      141.58172607     65.39139557    -93.71766663
Na      111.41950226    117.29909515    -15.10989952
Na        5.85832548     62.21397400     17.89976883
Na      161.85868835    -15.71148872     46.23626709
Na       70.55207062    -45.89294052    -15.98425961
Na     -136.78669739     38.44655228     22.29099083
Na      -45.17242050    -22.86591911    157.52267456
Na      -58.24860382    133.61199951    -19.10466003
Na      -82.96301270     45.25872803      4.33729267
Na       60.28086090    -64.01078796     35.46395111
Na        5.51208448     -9.00904560     79.93062592
Na      145.24324036    144.05380249   -104.06290436
Na        5.66569185    137.16722107     59.50676727
Na       -1.10350692     18.20583534    -46.70623398
Na     -123.22503662     58.91032028     11.38722420
Na      -72.87428284    -62.74559784     49.29714584
Na      -14.54080105    -29.81104851     31.55692291
Na      -83.04016876     31.33856010     14.52844524
Na       13.06120110     -9.72683048     73.37612152
Na       -7.61660099    -57.43510818     93.21657562
Na       93.94017029    -36.17301941    123.87105560
Na      -41.55110550    -12.57010078    -29.40313721
Na       52.73899841     69.32838440     79.96289825
Na       -0.45188740    161.66567993    -16.37374687
Na      -85.69676208     48.55386734   -131.21841431
Na       60.31215286     15.35942268    147.10049438
Na       67.38130951     82.87480164     79.22915649
Na       25.94468498     54.92434692   -158.74319458
Na       46.69878006   -117.70304871     15.13792801
Na      -29.33579636   -114.89045715     65.58901215
Na      -99.79651642    -19.89732742     21.27023697
Na      117.72894287     61.89141846     14.77107620
Na      -11.12423229   -141.71582031    -66.90405273
Na      179.34161377     79.61250305    117.19474030
Na      -42.02040863     58.20892334      0.60154951
Na       53.27592850     -2.63648152     -5.57319260
Na      -79.75867462     89.42712402    -46.00524902
Na      -38.83038330     56.06997299     15.06248951
Na      148.54096985     79.56961060     42.29793167
Na        9.45539761     27.91327095    -26.13286400
Na      -99.54797363    -73.40012360     82.83610535
Na      110.82416534    -87.41735077    130.47618103
Na       80.31221771     72.80683899     25.42876625
Na        9.21121883     -9.47429657     69.44007111
Na       94.45784760    -76.70925140     -5.84825134
Na       26.34068680     86.38375092     71.97731018
Na      -68.52436066    157.77566528    256.50607300
Na       74.05606079     25.36228180      4.71450758
Na       23.02400398     -7.10644150    -12.18766403
Na      -51.47372055     51.85904312    -32.39785385
Na      -45.17395020      7.74236345     18.09826469
Na       60.43696976    -64.20882416     -9.45627689
Na      154.67718506    102.99589539      4.14110994
Na       70.30565643    -25.69212341     49.20872116
Na       56.81403351    -19.32835388    -11.83005238
Na        5.83285141      4.56896591    -12.19635391
Na       87.41815948    106.48646545     -9.26978779
Na       29.16700745     28.41065788    -22.20693779
Na      178.76290894    225.93597412    113.47544861
Na      -55.35997391     59.78934860     93.79401398
Na       -1.01526105   -100.99364471     58.64933395
Na        9.02298069    113.34239960      8.42894459
Na       19.31514359   -124.95605469      5.08866453
Na       29.44291306     17.61798286    -87.18556213
Na      -62.65682220     21.63523865    -56.15164566
Na       26.02727318    -50.05699921     48.52730560
Na      -38.36381912    110.10503387     45.42117691
Na      -62.49460220    -25.75263023      5.20192289
Na        2.67988539    -19.77451515     79.12853241
Na       97.00261688    -46.52836227     21.68093300
Na        6.13228941     51.56148529      5.20843935
Na      -10.86410999     25.48135185    -39.28215408
Na       16.07750893     30.95162964   -134.91007996
Na     -112.82917786    -15.54559612    -46.74953079
Na      155.88671875     96.07481384    100.83999634
Na       46.72003555      0.58170134     38.69445038
Na      -69.18412781    130.74243164     24.57785988
Na      224.97535706     92.97393799     34.97785187
Na       67.27536774    -50.32603455     15.02851200
Na       77.66355133    -46.95408249     38.90277481
Na       65.64221954    -33.43434906   -145.41149902
Na       15.61027718    -39.65826797     42.13117218
Na       76.83126831     15.25028038    -59.68690872
Na      -82.56714630   -100.05033112    -56.81705475
Na       97.82112122     93.28044128    -86.81758881
Na      138.46376038     11.36264420     14.59452724
Na       39.51924515     -2.62077546    -36.37123871
Na      -65.41134644     72.65261078      7.76262093
Na     -157.39886475     21.34480286     11.86455441
Na        1.47627926     62.48077774      4.40304756
Na      107.59307098     31.35775566    113.70430756
Na      -62.76971054     11.34754562     -8.86450195
Na      -21.20344925    -42.90033340     85.86292267
Na      155.63761902     73.09094238     45.56897736
Na       22.93185806     21.01473618    144.21629333
Na       -4.55624676    147.79484558     -5.39449215
Na      -45.28358078   -196.95672607    -15.75513268
Na        9.81083107    -40.14955902     11.08048630
Na       -0.91560030      4.36439323     -2.22729230
Na     -116.83221436     69.10108185    -76.44987488
Na      -71.78273010    -46.79122162    -70.00189209
Na       43.38940811    -80.55186462    135.27629089
Na       90.40579987     -5.65575933    -49.28748322
Na        2.67854905    -57.19036865      1.22417927
Na      104.03020477    -49.91442490    123.90954590
Na       57.25574112    -19.30811119     28.31034660
Na       32.07901764     51.96694183     96.68508148
Na        2.13353634    -40.38950729     52.13024139
Na       87.04966736     52.40072250    -55.98861694
Na      112.44686127     41.60437393     45.25248337
Na      172.43647766   -108.10517120      4.45526695
Na      -25.55205345     14.44271278   -108.10313416
Na       73.57392120    -35.87427902     31.92402267
Na      107.90802765     93.18634796    109.83538818
Na      -25.11646271    -12.73664093     -5.62200451
Na      -35.80303574    -19.58393288      4.52789164
Na      158.58430481    198.30072021     -8.58116817
Na      109.26092529    150.20263672    -62.91618347
Na      -10.40511799     14.84399223     89.80715942
Na       12.86007690    -12.72910500     58.78444672
Na       33.26849365     89.88970947     65.50308990
Na        3.01570725    -36.64965057     96.55690002
Na      -61.83504105     93.19541931     35.41495895
Na       70.46166229     34.79150009    178.48831177
Na      165.04400635     18.21650124     55.52074814
Na       83.36711884     34.92741013     17.79190254
Na      -24.24631310    -16.59041023     -5.23393488
Na      -65.22467804     76.31323242     65.46376038
Na       96.99802399     76.21077728     72.64114380
Na       -8.14517021    -66.40849304     65.97945404
Na       12.62950420    175.15879822     28.40956306
Na       49.22030258     89.84688568     42.51393127
Na       -7.33562660     24.66248894     55.37274551
Na       97.78443909    106.90361023    110.23776245
Na       35.94483566    130.17108154     42.33792496
Na       38.69740295    133.90072632    -60.37957764
Na       88.24126434     25.16670036    -59.66360092
Na        3.17578673     27.69946861    130.84126282
Na      -99.65103912     48.89999390    -29.34412575
Na       19.66243935     -2.03823209     62.77215576
Na       53.82006073    -15.54401207     31.99732399
Na      -21.34358025     33.25714874     79.30178833
Na     -116.62945557    -97.40746307    -32.33715057
Na       57.38533783    -70.32288361    117.05377960
Na      151.15661621    -74.04550934     72.37022400
Na       12.57942581     52.24375153     -2.39354014
Na       43.63775635    -26.16514206     85.79151917
Na       39.28202820    -53.29243851    -36.35408783
Na      -96.06454468    110.17008209    -22.89129257
Na      128.26586914     86.02519226     99.54874420
Sn        2.25846982     11.41904545      4.63248062
Sn        2.81869173     24.95973206      4.70299911
Sn       16.09004974     11.71556282      4.99366236
Sn       16.23347282     24.75116730      4.71705770
Sn        1.82154000     -2.15497160     18.00614548
Sn        2.06221676     10.93992424     18.35681534
Sn       15.42831230     -2.23932457     18.23040199
Sn       15.45755100     11.41316414     18.35269356
Sn        2.83217573     -1.81070411     11.21726418
Sn        2.63320470     11.79435539     11.48825836
Sn       15.87258720     -2.32900286     11.39257622
Sn       16.12969208     11.57108688     11.67532635
Sn        2.25354218     10.74396133     -2.13083029
Sn        2.31852388     24.75088692     -2.19208646
Sn       15.96711922     11.18118382     -1.64328694
Sn       15.86067677     24.88631630     -2.20826578
Sn        9.20847607      4.67563486     18.14299774
Sn        9.62861538     17.92226410     18.40979195
Sn       22.93200493      4.36510563     18.44224358
Sn       23.31921577     18.26613808     18.35047913
Sn        9.04979610      4.33159542      4.76694632
Sn        8.61818123     17.85567474      4.59817266
Sn       22.55886078      4.48514748      4.81580925
Sn       22.67943192     17.84631157      4.70312262
Sn        9.01515388      4.81689978     24.97801590
Sn        9.15221786     18.45211983     25.08555031
Sn       22.71288490      4.81127405     25.04145622
Sn       22.53353882     18.31355286     25.11195374
Sn        9.39130974      4.24699831     11.58201694
Sn        9.56072044     17.72986794     11.36298561
Sn       22.62452316      4.11167717     11.46012402
Sn       23.24857330     17.61202240     11.61808205
Sn        8.79707050     -2.59391618     18.41018677
Sn        8.65001392     11.11492729     18.35594368
Sn       22.56764030     -2.06937194     18.46919441
Sn       22.36445999     11.22999382     18.42105103
Sn        9.37336254     11.25575161      4.26013088
Sn        9.34805775     24.83526993      4.67021942
Sn       23.07669830     10.92881870      4.46816921
Sn       22.88909721     24.61312294      4.99354649
Sn        9.25538826     10.93034840     10.89154148
Sn        9.27098846     24.47727776     11.61745739
Sn       22.93013000     10.84257412     11.09929943
Sn       22.82831764     24.64987373     11.85904884
Sn        8.93662262     -2.06950641     -2.04805875
Sn        9.07824039     11.53468132     -2.26723456
Sn       22.51790810     -1.95310652     -2.14481926
Sn       22.72744942     11.76860142     -2.01036263
Sn        1.60897171      4.72589731      4.43559265
Sn        2.21602321     18.09469032      4.64949465
Sn       15.62618256      4.71056080      4.75403833
Sn       15.43599892     17.65895844      4.63827610
Sn        2.53799772      4.13512850     17.92539978
Sn        2.76260090     17.97538185     18.36935043
Sn       16.22327042      4.73185015     18.59554863
Sn       16.19270897     18.23169136     18.40904045
Sn        2.35243535      4.25667048     -2.33053136
Sn        2.14896512     17.55134201     -2.00623202
Sn       16.18019485      4.60605097     -2.40069509
Sn       15.85050106     17.82124329     -2.34003401
Sn        2.20821047      4.86033154     11.45327568
Sn        2.81118393     18.45420456     11.36248493
Sn       15.97046471      5.14927149     11.47162628
Sn       16.06962585     18.60756302     11.42354202
S         1.10535038      3.00832129     -0.72309494
S         0.55927992     16.13068962     -0.72221440
S        14.45780468      3.24259853     -1.15787423
S        14.47265625     16.44183731     -1.01992035
S         3.49759316      6.19221926     12.92188644
S         4.25298214     19.77647400     12.96329403
S        17.51211357      6.37266588     12.74326324
S        17.65552711     19.69948387     13.02563667
S        10.56080437      9.98001099      5.99466515
S        10.64187145     23.03694725      5.75796175
S        24.59494400      9.59865475      5.76233435
S        24.41251755     23.07667732      6.24899769
S         7.39892101     -0.90048850     19.66599464
S         7.16900826     12.64845276     19.59593964
S        21.25880623     -0.77567583     19.87690163
S        21.19911575     12.59008503     20.07697487
S         3.50967979      2.81927586     23.37223816
S         3.46994376     16.26403809     23.59985161
S        17.56181908      2.77750444     23.88598251
S        17.44566917     16.73558235     23.59281731
S         0.59624583      6.12909794     10.16361713
S         1.17352474     19.83635330      9.97165775
S        14.48294449      6.24652243     10.14926434
S        14.95005894     20.09421539      9.86399937
S         7.50631189      9.54651070     16.62380981
S         7.44149065     23.23997879     16.79774094
S        20.86090851     10.02034760     16.79495430
S        21.01547241     23.68616295     17.30331993
S        10.91030121     -0.93437356      3.42263818
S        10.87684441     12.77291965      2.99929094
S        24.28517723     -1.21875679      3.64915180
S        24.17828941     12.29493046      2.75156331
S         7.98415565      9.75805664     12.60674763
S         7.76579046     23.08129311     12.71381950
S        21.52541161      9.85938644     12.84876537
S        21.21647835     23.45785332     13.51207733
S        10.52987671     -0.55905879     -0.90311688
S        10.70302677     13.22084999     -1.09504521
S        23.71330833     -0.48655090     -0.51840872
S        23.89829826     12.97949982     -0.42694226
S         3.77053761      2.93083334     19.57885170
S         4.49527407     16.33267403     19.65557098
S        17.47969437      3.02312779     19.78898621
S        17.59098625     16.80424881     19.68806076
S         0.50250095      6.11640406      6.22822857
S         0.43319917     19.48585701      5.81843281
S        14.25119019      5.94459391      6.23287058
S        13.99255276     19.10496521      6.05692291
S        10.80569839      9.63874817      9.54355907
S        10.83538818     23.11597061     10.04457760
S        24.64370155      9.42682743     10.31057644
S        23.40917969     22.91840363     10.20328712
S         7.20171022     -0.61581194     24.28736496
S         7.74453497     13.19937229     23.53301620
S        21.33879471     -0.45202646     23.66323090
S        21.15122414     13.03285599     23.92810059
S         0.37484083      3.32578301      3.02533674
S         1.02734971     16.59971619      3.30327868
S        14.49191952      3.20659900      3.08474517
S        14.27556419     16.58595085      2.84969544
S         3.78123116      5.58807087     16.63457108
S         4.05086279     19.55739784     16.74417305
S        17.52693939      6.35664797     17.31351662
S        17.45200157     19.62994385     17.05522537
S        10.39934731      6.19859886     23.54501152
S        10.54640484     20.00759697     23.79895782
S        24.28446579      6.48119831     23.89273071
S        24.05801964     19.72633934     24.02390862
S         7.89681482      2.70814896     10.34366035
S         8.13127804     16.24231529      9.77606392
S        21.09882927      2.49955702     10.26509953
S        21.36899757     16.67826271     10.24260044
S         0.44015056     -0.73250359     16.78734207
S         0.74907553     12.41211033     16.73795128
S        14.22743416     -0.63325256     16.84298134
S        13.79443359     12.60544395     17.02205658
S         3.48855734      9.88805389      3.10107946
S         4.15312338     23.57959557      3.11140823
S        17.45729256     10.01291943      3.74138546
S        17.94592667     23.54042053      3.44474840
S         7.80606270      6.30970430     -0.79251909
S         7.53765059     19.54490662     -0.76178372
S        21.23780251      6.19746685     -0.93672276
S        20.89500618     20.16439056     -0.71110708
S        10.82218266      2.60963750     12.78502178
S        10.67015839     16.42547226     12.92808437
S        24.07225418      2.94428396     12.87995148
S        24.73458290     16.16646194     12.73273468
S         4.27164412     -0.95929158      6.19454575
S         4.23242712     12.50101662      5.87577915
S        17.42721176     -0.92956454      6.24738121
S        17.81931686     12.88879108      6.60529184
S         0.69683623      9.75618076     20.01566887
S         0.70287806     23.32904816     19.29077148
S        14.24303055      9.90252399     19.76369286
S        13.96835709     23.54031563     19.72404289
S         4.44211197     -0.42122972     10.06554699
S         4.24285126     13.17845821     10.16729736
S        17.38659668     -0.78575271     10.29619408
S        17.53847504     13.20228672     10.22818279
S         1.19886661      9.41909218     23.22214890
S         1.16766834     23.34792709     23.53182602
S        14.71481609      9.73811150     24.01902771
S        14.66799068     23.37957573     23.64879227
S         7.40685415      5.53918457      3.17786312
S         7.25452709     19.01344872      2.91770053
S        20.86537552      5.94898987      3.51408720
S        21.41521835     19.48110580      3.58958149
S        10.77529526      3.37269044     16.86877060
S        11.09322834     16.78111076     16.85281754
S        24.19498825      2.82994270     17.14858055
S        24.42328644     16.91605377     16.70461845
S         1.19478214     -0.48355675     12.48841953
S         0.95545530     13.14446259     12.67269611
S        14.65171719     -0.95458066     13.11091614
S        14.87689686     13.11157036     13.04201221
S         3.57205224      9.43769932     -0.77423590
S         3.66398525     23.21409225     -0.91545558
S        17.47797203      9.61210346     -0.20937370
S        16.76202583     23.52005768     -0.31297928
S        10.73358631      5.74229908     19.60333443
S        10.80412865     19.11563301     20.08463287
S        24.28445435      5.97872734     19.89681816
S        24.72665787     19.66971016     19.68124199
S         7.74008656      2.64078736      5.91048574
S         7.21612358     16.63998032      6.01085329
S        21.21332359      3.45918918      6.54662657
S        21.35992432     16.42156219      6.00092268
S         0.94383144     -1.22031045     -0.46099845
S         0.49110714     11.96891117     -1.16127670
S        14.41742516     -0.79685271     -0.76300311
S        14.43128872     12.49833965     -0.53591681
S         3.97195077     10.20079994     12.64408970
S         3.69001412     23.88601875     12.65813541
S        17.39311981     10.17807198     13.19524288
S        17.41749954     23.53202629     12.55136299
S         1.24519348      9.84568119      6.11961889
S         1.79310620     23.38645935      6.07101583
S        14.82148075     10.07857990      6.12014055
S        14.76338196     23.73110390      6.11627769
S         3.25646019     -1.06531596     19.65921211
S         3.13098049     12.54720592     19.95108986
S        16.95596695     -0.97490340     19.83457947
S        17.05907440     12.72415543     19.75980949
S         3.78159571     -1.09112227     23.87440872
S         3.69472909     12.21189117     23.86528397
S        16.98417854     -0.81148535     23.54751778
S        17.35185051     12.74046040     24.31079483
S         1.45702231     10.01097775     10.22232151
S         1.53284299     24.00552368      9.86380959
S        14.59871387     10.46764183     10.27287006
S        14.52622700     23.69546318      9.97043419
S         3.64618945      9.92245388     16.97594070
S         3.46781731     23.48172188     16.78133392
S        16.97114754     10.28892136     16.92837143
S        16.75780487     23.25949097     16.88690948
S         1.09415829     -0.94157743      3.49078679
S         1.17253637     12.86757565      2.94273257
S        14.77997875     -0.94510049      3.34028292
S        14.90464878     12.66326141      3.25719738
S         7.90307474      5.80700684     12.91049385
S         7.78939486     18.81669426     12.73965931
S        21.16037178      5.65433121     12.95653629
S        21.71436119     18.69276237     13.22934151
S        10.20975494      3.21488070     -0.87478971
S        10.23895836     16.80688095     -0.57163709
S        24.13003731      3.54613829     -0.53491414
S        23.97258759     17.09381485     -0.55071330
S         7.82058001      3.05510378     19.57089424
S         8.15331078     16.37764359     19.56497383
S        21.49341583      3.06482267     19.92193413
S        21.98822021     17.00660133     19.84356689
S        10.16524696      6.09879971      6.27812004
S         9.79603672     19.24026299      6.08636093
S        24.11382294      6.09465694      5.64413357
S        24.30992889     19.34261131      6.16672230
S        10.76118279      5.70565224     10.08595562
S        10.89081097     19.25687408     10.04375362
S        23.96940041      5.32468939      9.94372368
S        24.21498108     18.98786736     10.01244736
S         7.50451994      3.20862675     23.74530029
S         8.05936241     16.90064430     23.43374443
S        21.58681297      3.31170392     23.45356560
S        21.25221443     17.19558525     23.65803528
S        10.41525650      3.24030685      3.22079825
S        10.48066998     16.90271378      2.95586085
S        23.82319832      3.04656005      3.09795284
S        23.91357994     16.53698730      2.88726211
S         7.66016197      5.93257189     16.71230507
S         8.36930180     19.51299667     17.17093849
S        21.52597809      5.82038879     17.03052902
S        21.70339394     19.67894363     17.18208504
S        10.43661499      9.94041252     23.67684364
S        10.14258957     23.76625824     23.72027397
S        24.19126320     10.54503918     23.68886948
S        24.28166389     24.01976013     23.75432014
S         8.04296970     -1.14062870     10.13945866
S         8.23086452     12.81061077      9.71912670
S        21.70836258     -1.29566038     10.20879555
S        21.82057953     12.62747002     10.07914352
S        10.06861687     -1.13061976     16.75300026
S         9.97937965     12.61243439     16.81517410
S        23.72520638     -0.90308779     16.53640175
S        23.67765808     12.75207520     17.02555656
S         8.24145603      9.91392803      2.62322664
S         7.86960459     23.44244766      3.25016618
S        21.40695190      9.68591213      3.11568570
S        21.54611778     23.31117058      3.25726700
S         7.51717472     10.36330700     -0.79450893
S         7.96383667     23.88898468     -0.38765022
S        21.34422684     10.12562943     -0.78441274
S        21.34583473     23.68750572     -0.86869907
S        10.21346283     -1.37473524     13.14934921
S        10.59355736     12.35181713     12.40284729
S        24.56491089     -1.26766634     12.78729057
S        24.40919876     12.13856983     12.60078526
S         8.13859177     -1.26608503      6.42556858
S         7.92765379     12.95511913      5.48940420
S        21.82369423     -1.02396476      6.38066864
S        21.73267365     12.45344543      5.84111452
S        10.23131275     10.03625202     19.73255539
S        10.13453102     23.18764687     19.74705887
S        23.75929832      9.75454140     19.90624046
S        24.16054535     23.80114555     19.67878914
S         3.79002309      3.62828660     10.25370598
S         4.06884670     16.83764267      9.95628834
S        17.25917625      3.71911263     10.15200996
S        17.49473763     16.96917725     10.18402767
S         0.69812137      5.43395567     23.41957092
S         0.70839906     18.82024384     23.74802780
S        14.63329601      5.97234249     23.44185638
S        14.38618946     19.08809662     23.38698196
S         3.10972285      6.16862535      3.24046206
S         3.43659616     19.47712517      3.04378605
S        17.26668739      5.93598461      3.42677402
S        17.11484909     19.26438522      3.27312827
S         1.01558650      2.87027550     16.75007439
S         1.60576427     16.12086296     17.00148582
S        14.96713352      3.55915976     16.94993591
S        14.78644657     16.48641396     17.09746933
S         0.85259038      3.15257835     12.86091709
S         1.33383644     17.24441910     13.07262802
S        14.68520451      3.53936791     13.00632381
S        14.47649956     17.39364243     12.75894356
S         3.96636701      5.49088240     -1.00309289
S         3.55370569     18.92051125     -0.53787369
S        17.26936913      5.74643326     -0.65467721
S        17.07772255     19.27162552     -0.81238097
S         1.12471211      5.61149597     19.34618568
S         1.39764643     19.33872414     20.03999138
S        14.46492004      6.06250954     19.68846893
S        14.67274570     19.58171844     19.59029579
S         3.29933667      3.00361419      5.76798010
S         3.75399971     16.71803665      6.06881618
S        16.99367905      3.22063828      6.17276287
S        17.46063042     16.64694595      5.85556316
S         0.40091684     -0.17951000      6.89791155
P        -0.93056190      1.07707822      8.05167198
S        -2.14256978      2.29276705      6.93985748
S        -1.98096132     -0.36226127      9.11733150
S         0.26671425      2.53926015      9.17660046
S         0.67689890     13.87255383      6.60625648
P        -0.53377688     14.98085976      7.87551785
S        -1.83412194     15.94905186      6.69189358
S        -1.69830835     13.73906517      8.98355293
S         0.50935090     16.16883659      9.03139782
P        12.53940582      1.36264873      8.12112999
S        13.76340580      0.06513623      6.98546839
S        11.13980198      2.43299055      6.90547276
S        11.29100609     -0.25690809      9.02818775
S        13.73792458      2.67514896      9.05676270
S        14.02924824     13.71576405      6.75920725
P        12.67404461     14.83447647      7.77607918
S        11.40764618     16.03495979      6.66305923
S        11.62170792     13.45203686      9.07377148
S        13.84869099     16.07095718      8.97861004
S         6.68207502      6.38718319     20.29456902
P         5.54602194      7.56193829     21.52024651
S         4.13189554      8.78088093     20.47721100
S         4.40655518      6.16140652     22.60357094
S         6.69028378      8.80974293     22.72729111
S         7.14793873     20.65506554     20.97892952
S         4.65879154     22.73992538     21.05978203
P         5.86416674     21.67550468     22.13159561
S         4.77729273     20.17735100     23.33910179
S         7.21511650     22.73965454     23.25640106
S        20.43965340      7.07578897     20.50551224
P        19.17813492      8.19490910     21.94038963
S        18.11211014      9.42374229     20.78983688
S        18.22318649      6.77223635     23.13392639
S        20.36873245      9.45535088     23.11279869
S        20.59212303     20.31140709     20.45157623
P        19.45494270     21.40799141     21.75834274
S        18.16838264     22.66076279     20.61338615
S        18.46692467     20.09397316     22.91149330
S        20.53089333     22.57815552     22.96226883
S        24.85561180      9.26682663     16.33617210
S        27.21370697      6.73347425     16.13212585
S        27.18855286      9.15578461     14.27008343
P        25.78311348      8.03496075     15.16900253
S        24.71715736      6.82256413     13.84526730
S        25.08754921     22.21107483     15.91769218
S        27.64502144     19.88471031     16.01336288
S        27.53374100     22.30733490     13.54410553
P        26.40737343     21.19005585     14.85004425
S        25.06208229     20.36949348     13.43470573
S        11.39214325      9.04454136     15.82991314
S        13.72930908      6.59618282     15.69887733
P        12.48340797      7.80044842     14.70988178
S        13.76330376      9.06440067     13.64469051
S        11.34429169      6.83253908     13.43769741
S        11.39671326     22.81815338     15.92578983
S        13.87935352     20.21165466     15.88920403
S        13.99572945     23.00229263     13.86447334
P        12.67720413     21.61036301     14.84589481
S        11.19725037     20.41299248     13.66426277
S         3.94658947      1.96002626      2.53464651
S         6.60240793      0.05900281      2.71294785
S         6.59545279      2.12568641      0.42978624
P         5.44775248      0.98848373      1.46196425
S         4.29546356     -0.32591370      0.40338883
S         4.00929737     15.43975449      2.10678220
S         6.74079800     13.62984276      2.33205485
S         6.78828764     15.71217537     -0.05598057
S         4.25218487     13.15744972     -0.10555161
P         5.52423525     14.48009300      1.00350034
S        18.31666565      2.48908830      2.86469865
S        20.68572617      0.32514635      3.15383577
S        20.64312172      2.69828892      0.47592491
P        19.50749397      1.28060591      1.74017692
S        18.58874893     -0.05660732      0.44880566
S        17.76305008     15.91955662      2.37106752
S        20.18943977     13.84237671      2.61416245
S        20.24762917     16.22457886      0.20395115
P        19.06059456     14.96445751      1.26073480
S        17.98919106     13.38809776      0.20821624
S         4.22583532     -0.16313283     16.41711998
P         5.40505362      1.01055181     15.10146523
S         6.67825937      2.17127562     16.26168251
S         6.71115017     -0.23499286     13.93382740
S         4.10131073      2.24357224     14.07395649
S         4.81632805     13.80770206     15.63129044
P         5.95661736     14.94164467     14.29236603
S         7.21997738     16.16057587     15.58564186
S         7.15838814     13.70962715     13.13863182
S         4.70670366     16.10564804     13.31074333
P        19.29202652      1.34746337     15.15133095
S        18.00859833      0.10443491     16.42412758
S        20.42507172      2.49688435     16.34462357
S        20.28467941      0.11248549     13.68824005
S        18.00107384      2.36792994     13.86084461
S        18.06935883     13.64378643     16.42984772
P        19.20627785     14.79973030     15.17514896
S        20.34293747     15.98741150     16.38914871
S        20.20545197     13.61563778     13.81745148
S        17.94395256     15.94270992     13.90730381
S        24.90277672      6.92544985      1.87938690
P        26.03091812      7.96468830      0.59310156
S        27.43106461      9.09553146      1.72879696
S        27.18578720      6.63305235     -0.43308905
S        24.99734306      9.36303139     -0.35049281
S        24.97527695     20.23599625      2.59048271
S        27.56403732     22.37675858      2.50387836
P        26.15936089     21.25160599      1.34991765
S        27.17626381     20.01825142     -0.03307121
S        25.13155556     22.48263550      0.06535986
S        11.39287758      6.97242498      2.25891638
P        12.71810722      7.86165428      0.95136285
S        14.06790924      8.96871185      2.12086535
S        13.85861683      6.60986614     -0.21213529
S        11.44640350      9.25705910     -0.09097569
S        14.00234985     22.88770676      2.21649623
S        11.28209019     20.63736343      2.32747698
P        12.45481586     21.80877876      1.20240462
S        13.62096786     20.43107605      0.10598604
S        11.34416676     23.16679573      0.06328398
P         5.87610817      7.76546574      7.83032084
S         6.92951393      8.86274052      6.74368048
S         4.18063784      6.67626667      6.97841501
S         4.72141123      8.95413113      9.04513741
S         6.82125187      6.54310322      9.00194359
P         5.62906170     21.34106445      8.38657570
S         6.83835173     22.18687248      7.02482414
S         4.20080996     20.15467453      7.30818939
S         4.54933977     22.44282150      9.65700054
S         6.73378944     19.99332428      9.43924046
S        20.56370354      9.25043678      6.87332678
S        18.14989281      7.03648472      7.14752102
S        18.47292709      9.55406094      9.76543331
P        19.28096581      8.30230808      8.28818798
S        20.42543411      6.93679571      9.47141266
S        20.79101753     22.32550430      6.63495111
P        19.60368538     21.16133690      7.83043623
S        18.23038101     19.97182083      6.82994175
S        18.68151855     22.58453941      9.21346283
S        20.70724869     19.86409569      9.03574562
S        13.37642574      2.07843661     20.34013748
S        10.77557182      0.04096419     20.24317360
S        11.02836895      2.58825731     22.58319283
P        12.07691097      1.10618532     21.60818291
S        13.46358776     -0.10100161     22.63880920
S        13.98203182     15.22534847     20.31877708
S        11.41379452     13.27994919     20.39785385
S        11.53626442     15.70148468     22.89097977
P        12.66311741     14.39820766     21.72437477
S        13.86632538     13.19983864     22.77360916
S         0.30163991      2.01405430     20.27684975
S        -2.18419242      0.10889068     20.44517326
S        -2.06949425      2.39108443     22.93201065
S         0.28519061     -0.16341770     23.01759911
P        -0.72413856      0.88191581     21.68229485
S        -0.02873016     15.83661747     20.69577789
S        -2.57879877     13.68645287     20.85714531
S        -2.28794074     16.03863335     23.08485603
S        -0.10435509     13.46842384     23.29427910
P        -1.15054762     14.66817474     21.98220253
