648

Na     -191.91952515     86.01235199    -83.29323578
Na      194.52503967    -44.15041351     -3.74750066
Na       17.25984192   -129.20179749     88.35446930
Na      -21.66394997     46.63713074     53.70587158
Na       16.95374680     29.15254021    -51.85399628
Na       54.65948868      8.56728745    -42.62996292
Na       63.81787872   -122.42223358   -110.51512909
Na       31.04580879    -29.20955849    151.61628723
Na       25.91791153     73.24800873    -17.30547333
Na       76.70797729     22.13948822     47.76157761
Na      -16.62819290    -59.30248642    -85.07857513
Na       92.87615204    -50.66164398   -221.60766602
Na      118.73727417     17.48778152    -25.20108986
Na        8.12030315    -24.88938904      8.03793907
Na       76.33406830    120.94447327     76.48106384
Na      -51.47301865    182.33767700   -168.95393372
Na       49.58118439   -127.05352020     56.77275467
Na      114.08808899     26.14560127     67.04840851
Na      105.82409668    -27.12933922    115.57093811
Na       25.15714073     -4.56739473     80.08517456
Na      -54.47680664    -17.09867477    -94.57466125
Na       47.09560776    157.02491760     21.25803185
Na       12.83739090    208.05465698    157.03794861
Na      126.99292755   -110.22553253   -114.29497528
Na      105.53940582    -59.76355743     21.23742104
Na       -9.57824326    -29.60710144    -50.05448914
Na       72.00040436    -58.56520844    101.12163544
Na      144.81243896     -1.65379870     24.88287163
Na       40.56536102    -63.18257523     55.73984528
Na      100.82373047     44.48752594    -16.59739685
Na     -121.79122162     55.38964462    160.05836487
Na      101.02960968    -59.02390671   -123.39356995
Na     -130.55674744     68.55580902    -59.41820908
Na     -227.25354004     42.49914551    -57.81819916
Na      170.69442749    134.35429382   -110.41873932
Na       38.51630783     13.33453846     84.76608276
Na       92.92941284    -29.17290115   -131.57785034
Na       18.24109077    -62.23667526    -12.60331059
Na      -29.47868919    169.10156250   -148.69392395
Na      114.12782288    150.36279297    -21.47873878
Na     -152.85243225   -119.51783752      8.26148415
Na      128.42944336   -139.78637695    -15.59974384
Na      300.10079956    -38.40460968     42.94356918
Na       42.43479156    131.03932190     55.30109787
Na       43.25098038    131.09661865    -31.69530869
Na       51.84638596     64.86778259     79.58554077
Na      -85.65432739     86.26525116    -63.71548843
Na       33.12785721    -91.02524567     71.60736847
Na      129.95820618     15.39198112     38.25809860
Na       50.49398422    -21.28932381    -36.75952148
Na      199.03479004      9.00251293     25.16727829
Na       34.73472595     39.49712372     37.08142853
Na      -12.85194302    -64.99246216   -177.31295776
Na      -72.53427887     46.64444351     -8.93998718
Na      -13.07596970    108.85839081    -52.39588928
Na       30.09840393     34.45107651     12.64841366
Na       -3.47816086    -41.95907211     -8.80662727
Na       -1.25839758     38.01523590     58.39550781
Na       58.32621765    165.17259216     92.44278717
Na       39.16397858     52.29000854    -47.31042862
Na       63.47953033    -16.18257904    -68.21514893
Na        6.42354202    -88.13454437    -71.47177887
Na      -72.51029205    -34.17648697     83.81995392
Na       20.40832138   -198.21470642    101.80481720
Na       91.10076141     -4.41417837    -12.12381077
Na     -119.67110443     76.85365295    124.48314667
Na       84.61807251      4.47356510      4.41249990
Na      -64.24838257     17.37940025   -114.42527771
Na      -46.80986023    127.97834015    -84.57295227
Na      -55.17350006     25.32015800   -207.52661133
Na      -80.81228638     85.24811554     12.90061951
Na      186.35063171    132.06144714    -42.12749863
Na       30.79527283     -4.16854191      7.95441914
Na       67.70158386   -169.96589661   -101.89747620
Na      -19.38192749   -215.30096436    115.18949127
Na       72.32633209     38.53893661     -0.33177200
Na      130.92295837     33.91583633   -123.00604248
Na       81.90734100      4.16978168    -54.81678009
Na     -141.86485291   -101.35713196    -56.18315887
Na      -51.25098419      8.92895508    -46.96091080
Na      -29.77158928     98.10190582     24.65290451
Na      182.25238037     25.54976845   -173.18530273
Na      -58.37998962     63.72909164    137.00271606
Na      -69.22371674     43.43827438    148.19987488
Na     -131.30455017    -84.69916534    -93.30786133
Na       59.61068726    108.96279907     72.11264801
Na      182.28895569     38.52341080   -131.61483765
Na      -27.82546234    -65.16773987     97.03559875
Na        2.36815596      0.29503074     34.48031235
Na      -20.91334534     94.28734589     66.37665558
Na       92.81668854   -101.45311737    -30.52457809
Na       63.79433823    143.10362244     47.55073547
Na       37.53268433     14.44966698    -85.28336334
Na     -106.99507904   -105.54805756    -85.93058777
Na      -46.96826172    -12.77386856    155.30332947
Na       96.46529388     40.18157959    -29.42671013
Na        0.93826401      5.46608686    -20.93957520
Na      211.05764771    124.03755188    -55.68447876
Na       46.45467377   -118.88763428    -80.78073120
Na       34.99341202     39.58767319    -17.29595566
Na       35.25853348    -55.58771515    -75.26633453
Na     -126.64091492    -37.98696518     75.88614655
Na     -133.62738037    209.76461792     85.06419373
Na      122.90329742   -101.31827545     94.04124451
Na     -186.82804871     -0.35577086     66.90884399
Na       63.06988144    118.78975677    -72.95103455
Na       60.50046539    -15.97286415    -50.34616470
Na      -50.73625565     26.10894775     88.91820526
Na       12.48701096     21.61179543     20.65598297
Na       20.32488632     71.94783020    -38.42453766
Na       34.26683426    -49.29312897    -89.56601715
Na       32.71659851     -6.97607899   -203.71665955
Na      161.30249023    132.67939758     12.64952374
Na     -119.35028839   -135.02209473    -38.56941986
Na      -25.34063148     30.20715141     -0.02558828
Na       37.72189713     97.69295502    161.11920166
Na      -47.71524429    166.07814026     93.17090607
Na       89.47487640    102.85409546     37.26051331
Na       90.97038269     94.89192200     -8.75994396
Na      111.44210815     89.59242249     96.42377472
Na      -20.98258781    -16.12095070     67.36048889
Na      -25.33798218     89.56881714     97.31893921
Na      -18.54165268   -143.33901978     55.73235321
Na      -78.13458252     42.41733932     -3.58129835
Na       -9.38109970    -63.04605865    117.65525055
Na       59.43286133    -28.70678329     68.19249725
Na      -46.75656891     70.58851624   -116.03022003
Na      114.32699585    -58.56251526     50.90295792
Na        1.24104130     76.14545441    104.52167511
Na      -92.41778564    -28.19485283     12.60544777
Na      215.02534485     -7.47075844    -81.70124054
Na      -16.27935982     97.45581818    -41.36223602
Na      122.85595703     76.62062836    267.26708984
Na       16.52750397    -79.63999939     81.63529968
Na      160.27536011    -30.94695282      3.77396417
Na      127.44854736   -177.38447571    -80.80179596
Na       92.76916504    -19.78012085    -89.02487183
Na       -4.05129528    119.02262115     88.36870575
Na      105.52649689     29.97214890     93.65013123
Na      113.63996124     67.82952118    185.38578796
Na       15.79326344    -30.05589867     59.21664810
Na      -96.73805237     31.06081581    -87.40021515
Na      -99.18936920    -78.31970215    -25.65217972
Na       67.94140625    140.10835266    -74.31391144
Na      -55.00610733     50.86585999    -93.53498077
Na       -4.85620785    110.52469635     28.84413719
Na     -114.81508636     55.02703094   -101.72563171
Na       50.01591110    105.21796417    -33.74296570
Na       85.07880402    -78.53488922    132.26171875
Na      -39.23916626    -27.09242821     -0.97427934
Na      -34.10884476    -59.30442810    -17.87310219
Na      -73.07218933    110.19055939    102.33084869
Na      -37.90295792    -12.31408119    -64.11125183
Na       16.72509384    164.97775269     -2.27974296
Na      -92.68046570    -16.81889343     15.98133183
Na        8.17519951     10.64138126      8.39534473
Na        0.07532170   -145.53698730     67.31366730
Na       37.78726578   -152.71719360     58.92232895
Na       51.25205994    161.48457336    -63.79691315
Na       -3.89507532    -36.70052338     92.33445740
Na      -72.79807281     67.50292969    127.07032013
Na       26.05549622    107.20003510    148.69744873
Na      -67.18945312      8.93726444    -39.20370865
Na       34.54788208     40.85450363     75.15622711
Na       -8.38074589     42.65859222    233.27940369
Na      -55.87858200    -54.89330292   -123.83546448
Na      182.00907898    -47.20367432    -46.49512863
Na       29.31173325   -131.20578003     46.04344940
Na       10.53080654     13.76162052      3.16195345
Na       24.91817856     72.13439178   -140.47341919
Na      144.31259155    169.51612854     97.55432892
Na      131.95672607    153.29849243     25.99918938
Na      -51.54000092     46.65612411     -9.30942249
Na       46.79879761    -71.40621948     30.81565475
Na       -8.75076199     42.89307785    139.12133789
Na      182.32644653    154.96292114    -39.19167709
Na       88.79772186    148.64698792     16.53811836
Na      -71.94503021     88.92845917    109.51883698
Na       88.95606232    -92.19746399     29.40753937
Na       25.07422638    -26.15508270    169.74359131
Na       21.24688339    -29.32876587    -68.82247162
Na       26.58909798     60.01477814    -31.38776398
Na      -76.58052063    -63.60129166     16.62618065
Na      -80.77236938     54.54744720    137.29161072
Na      -45.68694687    -21.02644157    -51.14810562
Na      122.18600464    242.59327698    -20.66313553
Na       20.99533272    103.96192169     27.71740723
Na       -9.04791164     28.19320297    -14.72469234
Na      123.09688568    -20.38588715    -36.85685349
Na     -117.64606476    -75.45099640    -48.68647385
Na      185.05603027     17.20385361    -43.52513123
Na       80.32896423      0.61750603   -131.19654846
Na      -51.29386520     20.24502563    -56.47948837
Na       41.55373764     54.49464035     92.27612305
Na     -199.12071228    -42.12870407    173.88233948
Na      -61.63666534     26.31087303     -2.06688213
Na       11.94877529     30.10808945     45.94229126
Na       16.68898773     35.10714340    -57.12690735
Na       88.87659454    157.99984741    -38.10752869
Na       -0.64712185    -16.89223671     74.00671387
Na      -93.21031952    -96.94301605     94.34525299
Na      -32.46984482    -59.79294205    118.99547577
Na      -29.38536072    -90.60962677    -41.46110153
Na      -94.00926208    102.46505737     91.91384125
Na       64.81437683    -16.15170097    -86.21080017
Na      -27.74373627   -100.88799286    -25.30048561
Na      -42.52016068     55.78077316    127.46418762
Na     -111.11107635    136.58042908   -124.00278473
Na      -21.22951698     43.38987350    105.59593201
Na      -34.62421417    186.90721130     84.18041229
Na      -44.62393951     12.64083672    -51.65651703
Na      115.06065369    -64.10714722    122.50856781
Na       43.89424133     50.99729156    130.10163879
Na      -26.07841110    165.32719421   -114.26100159
Na       46.49701309    199.26771545     45.96132278
Na       12.09954357    -45.75108337    -42.76755905
S         8.84761715     23.76449203     10.24375534
P         6.92500257     23.39273262      9.99141502
S         6.47879601     24.92308426     13.34494686
S         6.46665907     26.67653656     10.47442055
S         6.50482655     21.46659088     10.43956947
P         5.89750910     24.95328522     11.34976196
S         3.92314053     24.26249313     11.22582722
S         6.75178576     23.55333138      7.98005009
S         8.44349003     24.32024002     18.84871101
P         6.36899042     24.71447182     19.30626297
S         5.74908447     21.47012711     18.69102287
S         3.22535944     23.79764175     18.36411285
P         5.23916531     23.31680870     18.02000427
S         5.84746265     26.63501930     18.92712021
S         5.66639948     23.95344353     16.17515564
S         5.89323711     24.25255966     21.23985481
S         3.93403435     23.75917816     27.62067223
P         5.88901997     23.89099121     28.41838264
S         6.80690002     24.23393059     24.96664619
S         7.15804195     21.03574562     26.72871590
S         9.18015957     23.51341820     27.31400108
S         6.28897381     26.09993935     28.66327667
P         7.40308523     23.11198044     26.60266685
S         6.29223680     22.91722107     30.07712173
S         6.19819975      6.92559719      7.61604452
S         3.89322329      6.81101418     11.29133224
S         8.78135967      7.48896408      9.54435635
S         6.92952490      7.41757107     12.75830078
S         6.36362123      4.60191107     10.68445206
P         6.81994534      7.77879333      9.47901535
P         5.84081936      6.52996492     11.16109753
S         6.18547344      9.77931690      9.85512447
S         3.58144855      6.66854382     19.26860046
S         8.64018440      7.58813047     18.41590500
S         6.13907766      6.89670515     21.46584702
S         6.00949240      9.62549305     18.96960831
S         6.19465923      7.21062660     16.27192879
P         5.50862503      6.38467836     19.64892960
P         6.67088699      7.71325684     18.26922226
S         5.88376808      4.57466841     18.92628288
S         6.12323475      7.32608652     24.95975304
S         3.39969230      6.10607338     27.82100487
S         8.41603756      7.42263126     27.40820503
P         5.40781069      5.93486595     28.13608551
S         5.42039204      9.22456360     27.61410522
P         6.39780760      7.50017214     26.95877647
S         5.81091595      6.49500990     30.00530434
S         6.13302088      4.08476686     27.77094078
P         5.07981300     16.02730370     10.55046272
S         8.35422230     15.96912575      9.73894596
S         6.22667980     14.45246696      7.54939795
S         5.30373049     17.86968613      9.66383839
S         7.13485956     12.93227482     10.66207314
S         5.38382101     15.99505997     12.64846897
S         3.41672254     15.04420376      9.99968433
P         6.84149981     14.61765575      9.53033733
P         5.58579159     15.93271923     17.93481064
S         6.27127886     12.55342197     19.11208916
S         6.27017736     15.10762787     21.31528091
S         3.82141519     15.30824947     18.75505638
S         8.87165642     15.06377125     18.79276276
S         5.61370420     15.32468891     15.93208504
S         6.34161901     17.81661797     18.14737892
P         6.88270903     14.70678616     19.25174904
P         6.00598812     14.76092052     26.91828346
S         6.72305393     12.89529991     27.63717651
S         6.21217442     15.21778774     24.94919205
S         6.19128656     18.31797600     27.30565262
S         4.08550978     15.02256107     27.51322937
S         9.05483437     16.24731636     27.82122612
S         6.40412092     16.14424706     30.02537155
P         7.05171585     16.45973206     28.09516335
P        14.00786400     -2.25755143     11.25257206
S        14.78816795     -1.33645332     12.84631824
S        17.24610901     -2.16628528      9.40997982
S        14.37910557     -1.90368795      7.87763166
S        15.12984657      0.49894333      9.59600544
P        15.44756317     -1.46627069      9.54974937
S        12.15791798     -1.66953242     10.79134464
S        14.06085491     -4.39438534     10.75292301
P        15.04619217     -2.58115578     18.08651543
S        14.48131752     -2.23686481     16.08450127
S        14.29033375      0.96536678     18.68989563
S        11.86817265     -1.62139189     18.44746399
S        13.65118408     -1.39231777     21.11156654
P        13.67651844     -1.01089120     19.14477539
S        16.88835907     -1.97250342     18.62262917
S        14.72932625     -4.49879694     18.60586739
S        13.57760525     -3.63260794     27.30375481
P        14.07988262     -1.64265156     26.73966408
S        16.23835945      0.83080322     27.35124397
S        17.36522484     -2.20937371     27.67249489
S        14.97901249     -0.88270879     30.02779198
P        15.83043861     -0.91140574     27.99879837
S        15.02217388     -1.61873996     24.84302711
S        12.53180122     -0.42604637     26.81871605
S        14.40554142      6.77177525      7.98387051
P        13.74569702      8.19871521     10.94471550
P        15.04704857      6.69356346      9.91074944
S        11.94836140      7.49182034     10.66928291
S        14.38117123     10.03388309     10.17971039
S        14.57312870      4.75252438     10.76456165
S        14.35062408      8.03929520     12.92957115
S        16.96525574      7.31991053     10.34726048
S        13.79466820      7.23276520     21.15164375
P        15.23022556      6.14841700     18.31856346
P        13.62341595      7.54336214     19.14633369
S        14.62922668      4.26958990     18.75145912
S        17.13408661      6.59153700     18.98866463
S        11.88979435      6.78755951     18.43886566
S        15.29447174      6.27961063     16.40449333
S        14.10171509      9.32509708     18.46159935
S        14.52871418      5.36415434     -1.05204856
P        14.96752453      5.51012564      0.93646914
S        12.12872028      6.94168854      1.45881522
P        13.98205948      7.33985662      1.88176060
S        14.57931519      9.03368950      1.16046238
S        14.17160702      4.06956005      2.19967484
S        14.15770149      7.16701460      4.02653217
S        16.89669418      5.75769615      1.01254523
S        15.23269463     12.72910309     10.62706757
S        15.01148796     14.89939976     13.09045410
P        13.94788742     15.85162449     10.08836651
P        15.45548248     14.67796898     11.07843590
S        11.98207569     15.12385082     10.31076241
S        14.48630619     15.50638771      8.12486458
S        17.28887177     15.23290539     10.37398911
S        13.87210560     17.74658585     10.70768547
S        14.96088219     17.77983284     19.25872231
S        12.52884960     15.53135777     19.13694954
P        15.70958042     14.41529083     19.44859314
P        14.36489010     16.08417130     18.46531868
S        17.73833847     14.53172302     18.99497414
S        14.97720146     12.81342697     18.56494331
S        14.64684868     15.73538017     16.42964363
S        15.39079571     14.68490791     21.52770615
S        14.44923496     13.02452564      2.13518310
S        14.54482174     14.97403431     -0.68890119
P        13.95389748     14.70673752      1.14232910
P        15.20015430     16.23164940      2.43580699
S        14.70637226     18.28087425      1.92864490
S        17.19385719     15.57955647      1.89792645
S        12.11731434     15.39154816      1.31305587
S        14.68046856     15.90341663      4.29893875
P        23.62500572     -1.12763011      9.93840408
S        22.99424744      0.82176721     10.25043297
S        22.90591812     -2.14692044     12.88131714
S        20.33571243     -2.14316821     10.56057358
S        25.44903374     -1.36819363     10.61439705
S        22.74001884     -4.33226156     10.38030243
S        23.35633850     -1.72122586      7.98933649
P        22.17342567     -2.43696976     11.06123734
P        22.31513786     -2.74112415     18.31095123
S        22.74014282     -2.00238156     16.55157471
S        23.40088844      0.40363726     19.55579567
S        23.01479530     -2.21076822     21.62538147
S        22.65842247     -4.74157715     18.19159698
S        25.51875687     -2.22342038     19.56883812
S        20.32693100     -2.24595714     18.71606827
P        23.65880394     -1.62018061     19.72494888
S        -2.48517585     22.68656921     29.75547409
P        -1.28758192     22.65902710     26.59156990
S        -1.99141598     20.64854240     26.57916641
S        -4.61511755     23.85742569     27.42064285
S        -1.91527438     25.69714546     28.43637466
S         0.62522066     22.66329575     27.37595749
S        -1.45115387     23.48567963     24.78868103
P        -2.62065673     23.77022362     28.11744499
S        -2.35518813      8.73306274      9.62292576
P        -1.66742003      6.13858891     11.43248463
S         0.18464862      6.28517723     10.85477066
S        -4.91728067      7.03753090     10.79897213
S        -2.01180243      4.19138098     11.73656654
P        -3.08301115      6.90337038      9.97606277
S        -3.01539993      5.58180761      8.48039818
S        -2.00014544      6.86585665     13.21421528
S        -2.60753846      3.86660218     18.92751312
P        -1.65202594      7.12518787     19.62202263
S        -1.75859618      9.05851078     18.95349312
S        -2.77084494      6.03136873     16.30262947
S         0.14358346      6.62526178     19.16023254
P        -3.06530094      5.77481937     18.48302650
S        -4.92646265      6.46066332     18.99501038
S        -1.99146295      6.78111458     21.47871017
S         0.36885297      7.28073883      1.94958377
S        -2.00548887      3.92684603      1.96710205
P        -2.57906628      5.73956680      2.83632493
S        -4.75496864      5.86573505      2.91560340
S        -2.62098718      9.00046158      1.85739815
P        -1.69447982      7.18629837      1.49581444
S        -2.32107806      6.58639574     -0.38411105
S        -1.71592450      6.25739861      4.61778784
S        -2.60502172     14.67473888     12.86784267
P        -1.52078462     15.63475704      9.79860115
S        -1.64179885     15.15436554      7.81575108
S        -1.78159344     12.48095226     10.22053146
S         0.22373208     15.28195667     10.72181606
P        -2.89825177     14.22663116     10.89472389
S        -4.68613672     14.43531513     10.00047779
S        -2.30180359     17.50687408     10.19742393
S        -1.35291266     17.36662292     18.98221207
P        -2.70745397     14.27840042     19.18891716
S        -4.61715460     14.90821838     18.68628502
S        -1.32873559     15.52084732     16.26898766
S        -2.57710552     14.31725407     21.26672745
P        -1.11279225     15.45610332     18.26772690
S         0.55239850     14.64000893     18.85260582
S        -2.33053756     12.40799809     18.38443184
S        -1.67144966     14.91165161      4.33593130
P        -1.61490452     16.12586784      0.93863416
S         0.44565928     16.42798042      1.42885804
S        -2.63481140     17.57315636      1.80153215
S        -1.34572196     12.80144405      1.53111446
P        -2.28575945     14.37314606      2.27235413
S        -4.33371258     14.12057114      2.21965384
S        -2.13886094     15.62747192     -0.98430085
S         1.55879211      2.46763802      4.02674913
S        -0.64269614      2.59974384      6.68387604
P         2.82104278      2.95486021      7.22444725
S         2.93146420      4.95593405      6.51561260
P         1.11765945      1.95517266      6.09843159
S         4.60024071      2.10011148      6.85789156
S         2.21857619      2.91118097      9.24314117
S         1.72529745      0.01933248      6.42842388
S         1.66314328      4.89248276     15.38759708
S         1.90073216      2.95830202     12.53306007
P         0.92597878      1.54512310     15.57281494
S         1.59889591     -0.26332584     14.85655022
P         2.24681711      2.96504927     14.50223637
S        -1.14244843      1.80758548     15.00185299
S         1.33153439      1.81781971     17.65615273
S         4.28036499      2.71256065     14.92578793
S         2.54212523      3.18059373     20.76132393
S         4.78994131      2.48894072     23.25048447
P         1.67658925      1.28874075     23.84641647
S         1.85770786     -0.52254182     22.54531479
P         2.86025453      3.10043740     22.80184555
S         0.01028871      2.23908901     23.44364357
S         2.25366664      0.81882679     25.65567207
S         2.57955027      4.86008406     23.67141914
S         2.30720949     13.23786163      5.71611118
S         1.90648139     10.91801548      3.29882455
P         1.18778634     10.05143166      6.76464319
S        -0.74736911     10.32960987      6.08752584
P         2.39021516     11.34109497      5.33569527
S         1.52370048     10.45264912      8.77614689
S         1.89508510      8.21006298      6.43302345
S         4.45628929     10.80790615      5.87292862
S         2.51513433      8.47725010     14.77662468
S        -0.37650183     10.34817600     14.57002068
S         1.61912990     10.69396591     17.07691574
P         2.72172928     11.81558895     13.87385654
S         2.36862826     11.51038837     11.94897938
P         1.52945292     10.18930244     15.10732079
S         4.76050663     11.33694363     14.48925686
S         1.75307655     13.46330833     14.49352741
S        -0.07822790     11.20702267     22.60613632
S         1.83589351      8.43869305     22.47443962
S         2.56535435     11.15859795     20.46182632
P         3.35151267     11.57284737     23.53228378
S         2.59849000     13.50713062     23.14064407
P         1.81409359     10.55548191     22.26228905
S         5.21181345     10.81994438     23.02480888
S         2.69708085     11.06468296     25.36042404
S         1.91360056     20.27985382      8.75011158
S         1.91710889     22.09755516      5.82922077
S         4.23027754     19.44092369      6.27722025
P         1.17053270     18.74914169      5.39075565
S         1.80627203     16.83604050      5.64219952
P         2.34456468     20.23154068      6.74213076
S         1.83764017     19.36188507      3.42393446
S        -0.72445905     19.32758522      5.81879902
S         4.25598478     20.29720688     13.97846603
S         1.46345401     22.04725838     14.41001511
S         1.57524836     19.25536537     11.96052170
P         1.19189644     18.77497292     15.08494949
S         1.42787170     19.37076759     17.04327583
P         2.29256773     20.36617088     13.49307442
S         2.00397420     16.84118080     15.16259766
S        -0.91655064     18.62980270     14.65116215
S        -0.09811467     19.63724709     22.56836319
S         1.54678726     16.63814354     22.75630379
S         2.30896378     18.92508888     20.32011986
P         3.17734051     19.56149864     23.62821960
S         3.05138397     21.45939445     23.05530357
P         1.60098445     18.63395309     22.22877502
S         4.85471678     18.34811211     23.11866951
S         2.86374021     19.20205498     25.62851906
S        10.65356731      0.02563922      5.73583031
S         8.06629944      2.38508439      6.18574333
S        10.49724483      4.87935305      6.26123285
S        10.19825459      2.63091755      8.76797104
P        11.16903305      2.02221680      5.18906212
S        12.99393082      2.42247510      6.22887850
P         9.95676613      2.93827057      6.72255039
S        10.82842731      2.78352118      3.38990402
S        10.80004978      3.25515604     17.01804733
S        10.54805183      0.96345842     14.23253727
S        13.32446957      2.87375808     14.20869350
S        10.92667770      3.27674961     11.84805202
P        10.07309818      4.04242277     15.19214058
S         8.25615978      3.70163727     14.48508835
P        11.31921959      2.66661739     13.79356289
S        10.63084221      6.02404165     14.72801304
S         7.44228649      3.45026112     23.50075531
S        12.60348129      2.42972946     23.06930542
S         9.96712399      0.12796631     23.26378059
S        10.33057880      2.34042478     25.55307198
P         9.37074661      3.82435727     22.61958122
S         9.55338001      3.51450801     20.63457298
P        10.64602661      1.99386120     23.53809738
S        10.18925476      5.62462568     23.29989815
S        11.06091595     13.97790527      6.15546942
S        10.11178398      8.87094498      5.88443899
S        10.36620998     10.97124100      3.26504445
S         8.30022144     11.94491959      5.86333418
P        11.28639030     12.01646900      6.57540417
S        13.18678856     11.22840691      6.29030132
P         9.93135452     10.80811119      5.37539911
S        10.83315086     11.72484589      8.61204243
S        10.53892899     11.95141602     16.97807884
S         8.91150665     13.85089684     14.10229778
S         8.12420082     10.45232296     14.12211037
S        10.37655544     11.65863514     11.95173550
P        11.39974689     11.18004704     15.13274384
S        13.35073471     12.18342781     14.77907562
P         9.72204494     11.81718636     13.78907585
S        11.56651688      9.17317772     14.82808304
S        12.95057774     10.10759735     23.04143906
S        10.87372112     10.92014790     20.61497116
S         8.30120659     12.39188766     22.97839546
S        11.26338863     13.85454369     22.47730255
S        10.32077122     12.49964142     25.53140640
P        11.01883698     10.35425854     22.59651947
S         9.57951164      9.00221252     23.22183418
P        10.27059174     12.38886833     23.54430580
S        10.04431248     18.81726074      8.58962250
S         9.84735298     17.10648918      5.75588226
S        13.02491188     19.79398155      6.06645870
S        10.80862045     22.35009003      6.13992167
S        10.86248398     19.89590836      3.53135538
P         9.68348885     18.96204948      6.51973677
S         7.93934393     20.01637650      6.39749241
P        11.12492561     20.33581352      5.51199722
S        13.15158749     18.86443329     14.70656967
S        10.39653111     16.51473427     14.81180763
S        10.66195869     20.03497124     12.27935314
S        10.22717381     22.01382828     15.07804489
S         8.04211712     19.63965034     14.57904816
P        11.12370110     18.54493904     15.42033291
S        10.94827271     19.10354233     17.38758469
P         9.98101139     20.15003586     14.16840744
S         7.55654716     20.05794144     22.98680878
S         9.72083569     20.55966377     20.40818596
S        12.42800140     18.50547791     22.77769661
S         9.55435181     17.12376213     22.04317665
S        10.00542831     18.36122894     25.24303818
P         9.51536465     20.41015625     22.53599739
S        10.24024010     21.97252083     23.54490280
P        10.45897770     18.50044441     23.17776489
P        19.68546867      1.81968057      5.71124935
S        18.91728783      2.76390290      8.93578720
S        16.47939491      2.53506398      6.75028515
S        19.46958733     -0.23058990      5.84053946
S        21.58814621      2.34848452      5.95971107
S        19.03792000      2.38923597      3.82372761
P        18.38352585      3.14665008      7.03594685
S        18.47647476      5.01821899      6.38369513
S        19.10646057     -0.45151377     14.68470192
P        18.21870232      2.69818687     13.88342190
S        18.24342155      1.84553230     17.04917336
S        21.29992676      1.91853046     15.09377956
S        16.33731461      2.36090183     13.78044701
S        19.04016304      2.22863030     12.13045406
S        18.42808533      4.67462969     14.73682117
P        19.35334778      1.43987846     15.30209064
S        19.49179459      4.59969711     23.06016731
P        18.53438377      1.50499904     22.16091347
S        21.98294640      2.37010455     23.13377571
S        19.19096375      2.37316823     25.44120598
S        16.64103127      2.44396830     22.11633873
S        18.63193703     -0.54289687     22.49922371
S        19.17285919      1.59533358     20.17814827
P        19.93370056      2.76719141     23.59849358
S        17.98153877     13.40072823      5.52349901
P        19.34819031     10.26497459      6.60299397
S        16.07775116     10.77253437      5.71792841
S        18.54841995     10.69752789      3.33256364
S        21.15413475     11.30002880      6.29386234
S        19.36417198      8.28663063      6.08023787
S        18.50159073     10.68092155      8.38157368
P        17.98759079     11.46096230      5.24533558
S        16.33664513     10.66585159     15.41234779
P        19.50160980     11.78174210     14.48563480
S        18.86652756      9.89686108     17.28259087
S        18.50987625      8.36715984     14.25064182
S        21.49207306     11.30307770     14.94883633
S        18.87112236     13.39677048     15.49213123
S        19.29442406     11.38974571     12.46787739
P        18.30227852     10.07056046     15.42159462
P        20.07409859     10.98131084     22.58553886
S        19.43688583     12.83714962     23.17061424
P        18.54182243      9.49974346     23.55980492
S        20.02942085     10.79533577     20.59270859
S        22.07627487     10.84382343     23.40235901
S        18.92986107      7.57874966     23.49786186
S        16.78619385      9.60450649     22.61232376
S        18.60057068     10.33587170     25.55209160
P        19.73380089     18.44014931      5.67177534
S        19.15565300     16.44050217      6.02146196
P        18.26491547     19.73247719      6.63662767
S        21.51816750     18.63443184      6.62334633
S        19.70199013     18.72195625      3.57503152
S        16.45677376     19.35356712      5.77435923
S        18.97206879     21.63944054      6.30775213
S        18.05115509     19.24244308      8.60429096
P        19.39066505     18.36660385     14.02985954
S        19.71822166     16.55056763     14.71520996
P        17.88057899     19.66530991     15.25011158
S        21.31946945     19.28496933     14.42123127
S        19.10084915     18.62157631     12.09315968
S        16.24601936     18.54731941     14.76077652
S        17.85662460     21.43171120     14.15546799
S        18.68655205     19.56265831     17.12149048
S        19.13300514     21.92497826     22.88585091
P        19.47298813     18.74559021     22.12420464
S        18.86957550     19.35717392     20.37228775
P        18.37797546     20.19565964     23.50397682
S        18.85892868     16.90079880     23.00551796
S        21.46970177     18.99172401     22.61271477
S        18.72247505     19.74093437     25.56428719
S        16.46658897     20.07804298     23.08460617
