648

Na       43.08841705     81.94310760      4.70035458
Na       37.55324173    -96.93995667     67.25909424
Na      219.87059021     48.22437286     71.84710693
Na       67.53042603   -116.72816467    -46.35147476
Na     -130.60133362     16.84894180      5.15629911
Na      -22.04228020    -73.00268555    -92.70359802
Na       75.95875549     -7.16823053    -80.97306824
Na       58.94335938    133.32902527    -17.00934410
Na      -54.96443558     56.55323410     93.95133972
Na      -92.94800568     62.25208282    -24.96917725
Na      191.27586365     31.71243095    -39.08713913
Na       89.72019196     17.36935234     17.13724136
Na       55.02420425    112.40641785    -46.08429718
Na       28.93282509    -45.48051834     47.30815887
Na       42.48786163     19.91995049    153.31053162
Na       -8.76747322     82.55812836      8.62403107
Na      123.65296173   -100.58530426    101.86853027
Na      -11.57481480    -74.86790466      0.04740256
Na       55.64035034     -2.29083276     55.50122833
Na      188.73852539   -107.11600494    -29.79439735
Na      -19.96203613    -35.57944107     42.62435913
Na       77.36617279     52.89078140     23.08538246
Na      148.10061646    -78.64510345   -130.90769958
Na      -46.31130219    -10.71230125     57.78699875
Na       77.09671783    -85.65848541     -1.83144784
Na      135.44139099     74.18721771    -31.76130676
Na       47.46265793     20.14040375    -48.34420395
Na       63.00983429    -11.36626339    165.75839233
Na     -130.71266174    108.09371185    -92.11721802
Na        9.22456551    -27.85672188     25.79884148
Na      129.36198425    -10.84552193    -37.28353882
Na       76.52155304    187.91629028   -118.09086609
Na       -1.56472361    -49.27237320     86.74774170
Na      -30.11698151    -41.17443466    100.70055389
Na       20.98952484    133.74620056    -11.36961460
Na       -3.53481388    -75.30342102     14.21268177
Na     -113.06947327   -125.69823456     -8.07247162
Na       60.70236588     54.68606567     12.88289547
Na       13.15646172     -2.41554022    -49.97980118
Na       43.32799149     69.78626251      4.86474228
Na      -58.77199554    -99.10874939    -29.68060875
Na     -169.34025574     87.78033447     89.12383270
Na      -24.77126312    -35.35893631     55.98439026
Na       23.16416359     58.23038864     97.36226654
Na      -15.87449741     60.87660217    -29.41725349
Na      120.18858337   -139.28739929    245.68159485
Na       16.46368790    -53.52562332    138.79724121
Na      -39.14999008   -172.48966980    161.17660522
Na      -31.88270760    -81.55133057    161.58996582
Na       -8.17393970    -44.42749023    123.25542450
Na      -82.73931122   -107.10445404   -104.59300995
Na      124.95449829     61.51000977    -24.14081383
Na       20.12818527   -164.58732605    -45.94687271
Na       75.75147247    112.62612915    115.23497772
Na       21.53052330    -60.96138763      8.83349609
Na        0.08028829   -113.17388153    198.26084900
Na       70.78220367    -39.15522766     46.38737869
Na      -42.30725479     14.84884262    -24.45588493
Na       28.88909149     57.71541977     76.04203033
Na      -92.62376404    141.91127014      7.77152538
Na       21.45911407     78.32961273    -33.18255234
Na       67.78822327    -51.34376144    -50.82318878
Na      139.97415161    -75.04740906    -16.39404297
Na       -3.04550886      2.74797153      4.14190006
Na      114.15176392     -2.40093923     46.71821976
Na      -12.30622482    -46.01944733     52.61746597
Na      -42.29821396   -108.39445496     18.06372833
Na      -62.57672119    -17.03015900     46.69815063
Na      -66.07534790    198.69946289    -46.53140640
Na      110.36512756    -35.66447067    -86.88232422
Na       -8.14776611    137.67883301    -12.11909103
Na      -29.20333672    218.64883423    119.09586334
Na      -51.03266525     32.09774017      1.28312743
Na       43.11371994   -146.89041138    -38.00158691
Na       -4.05775213    214.49557495    140.06332397
Na       39.00430679     27.16301918     46.56413269
Na      -37.78058624     34.61698532    -51.07022095
Na      -45.22645187    153.50827026     89.48188019
Na       22.28485298     18.20403862    -25.71121597
Na       67.53326416     78.62464905    -14.83178711
Na      -93.54217529    115.70072937     71.48278809
Na      -21.08902740    -82.25392151    -59.11304855
Na        4.68157053    -80.82395935     26.83620834
Na      -25.44058800    -72.93704224     70.97354889
Na       -4.06160831     48.90398407    -41.79929352
Na      -24.32573318     48.46703720     21.53608704
Na      -12.82082272    -42.87672424    -20.20890617
Na       82.13298798    -86.82058716    -73.02367401
Na     -114.12933350    -11.65639496    -92.89887238
Na       38.87684631   -134.96815491     12.69985867
Na      118.99302673     78.09249878    -71.17708588
Na      -56.40146637     -2.41093993     -8.73625278
Na      -17.60781097   -108.73787689    157.41059875
Na        3.97978640    175.95401001     59.29206085
Na     -134.70283508    104.52545166     43.28199005
Na     -114.43460846    -88.45495605    -24.72749901
Na      135.82217407     76.53799438     99.58256531
Na     -176.47257996     20.66893578    -37.67722321
Na       -8.19189930    -60.03880692     14.02421951
Na       20.71181107   -173.26153564     -3.24069738
Na      168.09432983     83.49783325     16.99110031
Na       24.53936195     50.17405701     17.97533989
Na      158.05532837    -50.02305222    -29.95184135
Na       51.22109985    175.89947510     55.65343857
Na       80.46485901     83.29008484     68.15395355
Na      -12.33135033     27.91788292     30.00202751
Na      102.31458282    -78.43987274    -41.13510132
Na      -24.94754028     86.87693787    -28.49882889
Na       51.30647659    -44.94828033    -11.79847622
Na      -80.22341156    -32.13132095    194.82482910
Na       85.28117371    112.08491516    -67.55399323
Na      144.68457031    -65.49491882    -25.47467422
Na      -41.95715714   -102.94401550     59.19371796
Na     -180.89578247     18.69600105     85.67264557
Na      -16.75762367     79.10339355    104.19284821
Na      118.52764893   -102.66889191    -33.88038635
Na     -147.60772705     87.16205597    -50.40036011
Na      -58.05772400     89.13252258    -16.85021019
Na      -50.24501801    103.97702789    -49.57824707
Na      -41.44641113     95.19549561    101.12910461
Na      101.38327789     95.60195923    105.32458496
Na      -63.15118790    -35.70019150    106.66876984
Na      125.21008301     69.20978546     38.19728088
Na       46.21301651     86.27795410     67.67842865
Na       -7.52873325     45.11110687     63.86225891
Na     -111.05549622   -113.25038147      2.93199968
Na      158.45118713    -33.37728500     25.86741638
Na     -101.67385864   -138.12646484    -66.96827698
Na       -3.74161816    -35.79035950    -24.33564949
Na      -23.18562889    -31.61805916     24.12882423
Na       43.76800156    231.68742371      0.52889639
Na       21.16165543     14.61113548     63.99165726
Na       26.08257103     57.03406525   -172.99530029
Na      162.79751587     77.88383484    143.36981201
Na      -71.71915436    175.63983154    -30.39589882
Na      101.63191986     61.63909149     55.61394119
Na      179.36605835   -138.84252930     77.15369415
Na      185.16577148    -44.30781174    -80.77816772
Na       13.45838451    102.50772095     64.17404938
Na      -34.33723831     64.49409485    -89.77561188
Na       98.28015137    -93.53426361      5.14990044
Na       -7.70377302     14.78301811    -76.49031830
Na      -46.47403336     -5.39540195    -14.76414013
Na       -0.13195665     77.16014099     82.19255066
Na      -86.17430115    138.05885315    -84.10153961
Na     -137.25958252    -40.70026016    -40.91280746
Na      -54.24440384    -54.16173935    -63.17795181
Na       64.37786102     18.56222153    105.00798035
Na     -139.97166443     46.08040619     68.59052277
Na      122.80744934    -61.27213669     21.60777283
Na       10.88190746    -78.90084839    -86.27899170
Na      136.61630249     -6.46207666    115.13146973
Na       51.34261322     -9.02928257    142.74958801
Na     -186.74314880     86.26539612     -4.29988575
Na       41.72467422    -78.50773621     55.07101822
Na       58.89597321     27.92885780      9.98469257
Na      105.85867310     69.15522766    -95.51097870
Na      -93.15397644   -146.14363098    -46.46677780
Na      175.46638489      1.85549414    -54.16407776
Na      141.50634766     17.75676155     46.61234665
Na       62.48266220    113.61540222     55.08079910
Na      -76.00276947   -191.53016663     -8.13255119
Na     -174.16618347    -58.82159805    141.18356323
Na      102.11376190   -124.83489990    242.73924255
Na       21.89856529    -55.98116684    -30.57410049
Na      -20.48946953   -202.05915833     56.07825089
Na      -30.75034714   -129.85725403     76.45248413
Na       80.50862122     37.09964371    -66.13372040
Na       33.85207367    -42.97521973   -110.33869171
Na       85.51136780    -64.99349976   -185.22483826
Na      -88.50618744     42.79209518     -0.34418795
Na        7.32781124     99.62617493   -139.70552063
Na      -80.93945312    -73.80754089    -17.82778358
Na        4.09323025   -117.10276794    -28.85637474
Na       63.59338760    -11.58428192   -109.55760193
Na       76.86431885    122.70292664    -57.87171555
Na       77.44609070     95.14594269     59.03207397
Na       30.43559837     48.38937378    -85.67865753
Na      162.31329346     -5.20597267      8.83504391
Na      -80.53620911    -45.75872803    -49.51850891
Na      170.06417847    -35.84804153    123.19060516
Na       11.81725502    -46.10037231    -30.37203979
Na      -15.00040150     55.99128723     75.38230896
Na        6.31511736    -60.88129044    -65.01943207
Na       84.04721832     28.30924606     95.05787659
Na       58.40971375     17.81363678    -54.46030426
Na      132.18290710    125.69480133    253.08596802
Na       58.35094833     35.09849548   -122.57311249
Na        4.41036558    -42.73095322    185.85891724
Na       50.97144699     32.08873367     93.75610352
Na       80.43081665    -35.93462372     72.99008179
Na       88.83689117    -42.32037735     13.76335144
Na      -13.07679367     90.29877472     -3.47559261
Na       -5.26764107     35.56597900    134.11503601
Na     -101.98640442     -1.93237269    -24.91692734
Na      -25.61812592   -197.19712830    289.08938599
Na       42.79718018     -8.71773243    -43.78998566
Na     -121.76261139    -71.11808777    105.03164673
Na       63.19665527    125.30635834    -71.12732697
Na      -10.71310806   -185.29518127    -41.91518021
Na      -62.94412613     21.78975105     85.03360748
Na      -59.76114655    -19.34216690     25.87121582
Na       26.11077881     99.54762268     14.26227951
Na      -54.58030319    -52.49668884     30.14815521
Na       94.55198669      2.00365782    -37.01974869
Na      105.82226562    133.03584290    -12.44910431
Na       54.38640976     86.51237488     64.69583130
Na      109.56363678    -43.80866623     50.82202148
Na      -33.43835449    146.40097046     93.64138794
Na     -118.87125397    -51.53140640     29.42723083
Na       55.85136414     52.64576340      0.68729627
Na      106.34185028     36.24122620     -7.23694563
Na      114.30281067    -79.30316925    -38.01151657
Na       28.41568375    -23.43592834     42.12829590
Na     -160.50479126   -129.18623352     59.46471786
Na      160.34738159   -222.01475525    -63.24271393
S         6.82662058     28.32448959      4.34254217
P         7.24876785     28.54372978      6.38252401
S         6.15091324     30.02037048      8.98170567
S         5.79324389     31.68626022      5.99874496
S         8.95068264     29.59779167      6.67444658
P         5.57751942     30.03577423      7.08429813
S         3.83077979     29.07427025      6.44747686
S         7.05660677     26.85533333      7.49730730
S         3.99325514     28.94268608     14.71898460
P         5.55608749     29.63732719     15.73067760
S         7.07947636     29.40810013     12.69512844
S         8.88301182     29.59010887     15.88082790
P         7.41710997     28.75450706     14.66636562
S         5.55461740     29.00653648     17.72620964
S         7.48009396     26.80050278     14.97074604
S         5.73211288     31.80514908     15.31983185
S         8.69895744     28.58379173     23.41386414
P         6.79796410     28.72255707     22.95437431
S         4.01843691     29.29674530     24.56708527
S         5.89654160     32.19195557     23.53561211
S         6.80536222     30.18148041     26.15929031
S         6.30522490     29.27396774     20.99615288
P         5.80429792     30.13665771     24.34165955
S         6.20782948     26.74693298     23.49772453
S         7.05182600     14.95864677      5.99718809
S         6.77653694     12.57332325      9.18466282
S         6.67391253     12.38503075      3.83010983
S         6.48891115      9.94697762      6.88769341
S         3.85106087     12.11274624      7.20901728
P         7.25077820     12.89572334      5.64658165
P         6.00534821     11.91785717      7.38817406
S         9.13086510     12.53365231      6.25338602
S         3.61927271     12.74332047     15.38983154
S         8.81725407     12.32164192     15.31077576
S         5.72726822     11.95664978     12.60074806
S         6.59919453      9.89622879     15.66682720
S         6.44734478     12.63645840     17.61391640
P         5.35633898     12.91121101     14.44438744
P         6.95218134     11.87229824     15.84647751
S         5.77087355     14.96727180     14.27162743
S         6.71695137     15.19777775     23.64043808
S         6.25788355     12.00744247     21.09440613
S         6.55981636     12.96023464     26.26782799
P         7.12678337     11.62974453     22.91819572
S         4.22815418     12.66495323     24.06473732
P         6.11419106     13.26792049     24.18239594
S         6.49679089     10.04601002     24.07243919
S         9.11484051     12.28779030     23.11351013
P         6.46693277     20.49305916      7.51652336
S         9.49143124     22.06597900      6.78924465
S         6.67208290     23.92933083      6.27293587
S         6.99942064     18.50566673      7.24493933
S         7.52323341     21.27011681      4.15138912
S         4.50322533     21.12208366      6.93127632
S         6.65366602     21.07821465      9.33492279
P         7.59982967     21.94137192      6.12426662
P         7.89767599     21.04047394     15.83038139
S         7.30372477     20.59368515     12.68319035
S         4.44772959     20.46038055     14.85477543
S         9.78894997     19.97811127     15.92818451
S         6.77101612     18.10948372     14.73547173
S         6.78732538     20.92180252     17.62499046
S         7.91957903     23.00455856     15.38889980
P         6.45235872     20.06242943     14.42663288
P         6.34140301     20.97430229     23.84145355
S         6.65377188     19.06148720     24.12392616
S         4.63032389     21.45696068     22.98995209
S         8.00409794     20.51628876     20.74941826
S         6.70129013     21.92363167     25.60758400
S         9.64404011     21.41081619     23.41352463
S         7.95622063     23.64837456     21.60780144
P         7.98599339     21.65387535     22.33791733
P        14.26979828      5.03543568      5.85832834
S        14.94854927      4.12978888      4.18579245
S        14.21939278      3.53469157      9.28760242
S        14.59470463      1.61828864      6.62949657
S        17.04369545      3.73055005      7.35598612
P        14.99443531      3.45312548      7.51242590
S        12.16845417      5.09855413      5.81327057
S        15.09778976      6.74288750      6.24911737
P        14.43095970      4.42174244     13.89597130
S        12.61517334      3.39100957     13.85807228
S        15.29213142      3.89062119     17.20018196
S        15.98374653      1.38139164     14.90436172
S        17.97569847      4.21036816     15.13908768
P        15.97574711      3.43650222     15.41423607
S        14.33256245      6.36985397     14.50795364
S        15.50528622      4.52647114     12.17115021
S        14.71464157      4.15965366     20.72704887
P        14.43816471      4.46141005     22.81712532
S        15.37999630      3.57639694     25.90117645
S        17.81520653      4.27272224     23.55499840
S        15.84550381      1.45207441     23.22726822
P        16.07659340      3.40524387     23.92968559
S        14.84372234      6.44957256     23.46646690
S        12.45443344      4.08501530     23.12562370
S        14.97537518     10.13479996      6.94087887
P        15.95240021     13.41768169      6.67866182
P        14.26965046     11.86515808      6.08201075
S        17.78092575     12.34984779      6.11845827
S        15.91182804     13.90341854      8.65722466
S        14.27561378     11.48892498      3.96530890
S        15.82570648     14.99370098      5.40279770
S        12.46725273     12.77125549      6.50606728
S        14.80657196     15.06115913     13.93192101
P        14.23410416     11.71506023     14.41636467
P        15.69042206     13.44649696     14.99020672
S        15.27788925      9.97082615     15.15293026
S        14.32889557     11.90848923     12.29339504
S        17.57959747     13.12316513     14.40025425
S        12.30464172     11.84753132     14.97501850
S        15.57563877     13.62314510     16.98256493
S        14.13788319     11.77944279     -4.66572237
P        14.34370708     11.54268360     -2.75442457
S        17.59194183     12.54106045     -2.32229638
P        15.76297855     12.99721527     -1.73745716
S        15.59974861     12.71801853      0.26175669
S        12.56159306     11.75451088     -1.74014223
S        15.47775078     15.09899902     -2.20477724
S        15.11674118      9.68497658     -2.21347284
S        15.81943703     20.65308571      9.14800930
S        15.40813065     23.20784569      7.03549099
P        14.72089863     20.14862251      5.70070505
P        16.12267876     21.24734306      7.19154835
S        12.79438782     21.00718307      5.95978737
S        14.89152336     18.11207390      6.28594875
S        18.04339027     20.93726540      6.69809484
S        15.48572922     20.48596764      3.78704405
S        15.11811447     23.39278412     14.82731724
S        17.85874176     21.43961334     15.44692039
P        14.71085262     19.94627380     14.29389381
P        15.85575485     21.69120979     15.60835838
S        12.85492802     20.38512039     14.92087364
S        15.41875744     18.29189682     15.28690052
S        15.33517647     21.22942734     17.67872047
S        14.96071625     20.09688568     12.27700615
S        15.80869007     22.10326576      0.63934416
S        14.66017342     23.73577499     -2.25450373
P        15.65508461     22.02067184     -1.47471285
P        14.31974506     20.38586617     -1.96048832
S        13.74089909     20.76016045     -3.92859912
S        12.71802235     20.48625374     -0.69936943
S        17.60004044     22.00501060     -2.14790559
S        15.31704807     18.60799217     -1.58431637
P        24.04057693      3.90025258      7.48346615
S        23.34607697      2.08619905      7.01631260
S        23.76719093      7.26157093      7.27925968
S        23.07279778      5.22207069      4.49614525
S        25.89261818      4.33112669      6.96518183
S        20.93441582      5.63705111      6.91573524
S        23.71999931      4.18323135      9.55011559
P        22.91842461      5.66145182      6.46713495
P        23.20209122      4.58536720     14.99307728
S        23.63423729      3.97988391     13.07886791
S        23.89627838      1.45186031     16.21706009
S        26.30734062      3.79638004     16.29738998
S        21.17261314      4.08918476     15.35560989
S        23.52811241      4.25794077     18.49483490
S        23.55487823      6.50267553     15.58952522
P        24.34127998      3.43569589     16.73707199
S        -1.40541220     32.46334457     24.15042686
P        -1.77365434     29.13197899     24.89236641
S        -1.53825033     29.44490814     26.87368393
S        -1.96251965     30.05090141     21.79402542
S         1.11142886     30.18580627     23.59146309
S        -1.10877323     27.22621918     24.40804100
S        -3.98783278     29.05723000     24.53033829
P        -0.91413391     30.63232613     23.45426750
S        -2.63050580     10.15993881      7.18725681
P        -1.43247867     13.46777153      6.18343163
S        -1.67900109     15.37965202      6.88791132
S        -4.64397478     12.90136242      7.39140654
S        -2.34594321     13.34441566      4.34138060
P        -2.71189594     12.19535351      7.80229521
S        -1.81584942     12.32893848      9.51587963
S         0.53251791     13.04804897      6.18046474
S        -4.98595524     12.80631447     15.43226624
P        -1.75922143     13.82268906     14.63865757
S        -2.31092072     15.52895832     15.38619804
S        -2.62785912     12.33786774     17.85878944
S        -1.99267232     13.32515049     12.64793491
P        -3.00365114     12.18707848     15.83588696
S        -2.50734520     10.33328152     15.25778580
S         0.18184130     13.21075916     15.09854031
S        -2.44693470     12.25452805     -4.40850592
S        -1.96311533     15.34958267     -2.13631439
P        -1.23584008     13.66966915     -1.36460376
S         0.70561689     13.20655632     -1.78005588
S        -4.55764866     12.91247559     -1.66447842
P        -2.74153447     12.19672394     -2.39122319
S        -2.46000361     10.17063046     -1.80027950
S        -1.71459484     13.26483727      0.47755337
S        -1.58990765     21.62087631      3.98946691
P        -1.03524053     22.17948151      7.60482121
S        -1.90818632     21.66427612      9.38678455
S        -4.06254196     21.24617577      6.19896317
S        -1.43108308     24.24949455      7.30534649
P        -2.02458477     21.01564407      6.01229334
S        -1.63094628     19.14678764      6.41510582
S         0.84091228     21.62789154      7.43391323
S        -0.98845887     20.88908958     13.12799549
P        -2.30983305     21.70741081     16.20259094
S        -2.28306150     21.22054100     18.15745544
S        -1.48494434     18.23406982     15.44003868
S        -4.24167299     21.12748528     15.44039059
P        -0.94432974     20.24669838     15.06816864
S         1.01327777     20.70145798     15.74602222
S        -1.86605692     23.74212456     15.66473770
S        -2.50871587     23.74312210     -1.39388454
P        -0.76266718     20.79665947     -2.33907771
S         0.87267685     21.63347054     -1.72485554
S        -1.19580543     21.11279106     -4.25106001
S        -1.78673685     21.37648964      0.79148698
P        -2.37911463     21.78769684     -1.12050045
S        -4.19224930     20.84555054     -1.82433152
S        -0.69297910     18.78727341     -1.77292013
S         2.29151964      6.00113487      2.39201999
S         2.94988084      8.20121479      5.05546331
P         2.03270268      9.53462219      1.86278892
S         2.42514110     11.41191673      2.68108392
P         3.13238883      7.79546165      2.95706081
S        -0.01436590      9.14217567      2.25424910
S         2.13679790      9.27288628     -0.27415675
S         5.05617952      7.86274767      2.22545052
S         2.07397485      7.43352318      8.61294270
S         2.21039867      5.38933277     11.03960419
P         1.15840149      8.73836136     11.89436722
S         1.52428102      8.37261105     13.80475712
P         2.65781569      7.34814644     10.66214085
S        -0.77625430      8.43427849     11.14644337
S         1.61571085     10.68483353     11.45800877
S         4.66568327      7.78160381     10.87262440
S         2.22356057      9.42172623     16.99393463
S         2.23667359     11.10580444     19.89142227
P         2.90604830      7.91311312     20.04821968
S         4.80077648      8.42216587     19.76951218
P         1.67066061      9.40389347     18.97975349
S         2.64332795      6.06017399     19.16311455
S         2.23241282      8.07468224     21.95714760
S        -0.26250982      8.96139145     19.13240242
S         1.75434196     19.70185280      1.74818289
S         0.08164999     16.72971344      1.52902305
P         3.00053048     17.20092773      3.44053626
S         1.88473499     17.90113640      5.05671453
P         1.82175052     17.63509750      1.45924866
S         4.87154722     17.99058342      3.40848589
S         3.11097503     15.10395050      3.42893982
S         3.14493108     17.02630043      0.01295071
S         2.40167189     14.17997742     10.69955540
S         4.49794912     17.08553886     11.35044003
S         2.73015261     16.49272919      8.28032112
P         1.24652410     17.38789940     11.20838642
S         1.11838055     17.17333603     13.13392067
P         2.92743945     16.08185387     10.31717396
S        -0.52716416     17.11952782     10.34158230
S         1.92965531     19.29918289     10.75924492
S         0.24956203     16.47314072     18.57350349
S         2.82349801     14.39236259     18.60335350
S         2.76793456     16.99289894     16.69439507
P         3.11927843     17.59160805     19.96143150
S         2.55080390     19.65875053     19.75555611
P         2.26642346     16.30654526     18.48978043
S         5.04385185     17.15344620     19.31878090
S         2.64213252     17.16016960     21.91704369
S         5.10783386     24.85427094      2.48027134
S         2.54319429     25.13900375      0.08870421
S         2.68092227     22.66415405      2.47203112
P         2.16924357     25.87178040      3.47564673
S         0.17772582     25.70576286      3.18090749
P         3.15847278     24.54583549      1.91792536
S         2.74824548     27.80357742      3.05977511
S         2.68154669     25.36095238      5.39478111
S         2.32532406     22.50645828     11.61462307
S         3.62024617     24.46537971     13.98540878
S         5.20793295     24.38842392     11.05131054
P         2.31293726     25.93684769     11.06637383
S         0.25425747     25.56735802     11.70056152
P         3.36777878     24.15050697     11.98144341
S         2.24411058     25.81194878      9.05158329
S         3.00831652     27.50413704     11.89117527
S         0.02515857     25.62727356     20.50107193
S         2.55351448     27.93280411     20.09255409
S         2.89310217     25.13165283     21.87753868
P         2.71560574     24.81280708     18.41991043
S         1.63455677     25.16469383     16.86595726
P         2.02489233     25.93474007     20.21809769
S         2.44008923     22.68454361     18.91243553
S         4.74068737     25.52022171     18.49650764
S        12.89637852      7.47882462      1.66402221
S         7.96235943      9.21986961      1.93176866
S        10.66184330     11.03647041      1.93608975
S        10.03114510      8.83137321      4.65693283
P        10.90280724      7.46306038      1.41758382
S        10.40804291      7.99855280     -0.47839892
P         9.75119686      9.23468685      2.70179248
S        10.01920795      5.67925310      2.09678411
S        10.75792503      7.43272018     12.75883007
S        10.54762459      8.43300724      7.85690928
S        13.26100540      8.13036728      9.85981846
S        11.32248116     10.71458054     10.08944988
P         9.97106171      7.41650486     10.93505764
S        10.06208897      5.37117863     10.44190598
P        11.39341068      8.81711674      9.64802551
S         8.06643867      8.17961597     10.58607674
S        11.91762161     10.22995853     19.71274185
S        10.28951359      7.22143745     21.76717377
S         9.52580643      5.95932388     18.58207512
S         8.14980507      8.67036247     19.51854515
P        11.54958248      8.61657238     18.54720497
S        10.95127296      8.82445240     16.61490822
P         9.82091713      7.61702538     19.74496078
S        13.09205532      7.31418610     18.90587234
S         8.28998375     17.58692360      2.00549579
S        10.92171764     15.64024258      0.01802948
S        11.03959656     14.46489239      3.24076271
S        13.64983082     16.14719009      2.11333370
P        10.26445293     17.89886856      2.52584004
S        11.29861927     19.52319145      1.76134300
P        11.51636696     15.91615105      1.94708121
S        10.43730736     17.81165123      4.56790590
S        13.36798668     16.11340714     10.14071369
S        10.81821918     16.70177078     13.33099270
S         9.87678051     14.21583462     11.24009132
S         8.27001762     17.13178253     10.95735073
P        11.57382584     16.91885567      9.67636681
S        11.54006290     18.83474159     10.11525822
P        10.07584572     16.17129898     11.26260376
S        11.02981663     16.55324173      7.74765730
S        10.87836266     16.90854454     21.83193398
S        11.14214420     18.77601051     18.93142891
S        10.57309628     13.66646099     19.31337547
S        11.01142693     15.62132931     16.62081718
S         8.16852379     16.14447021     18.32828331
P        11.42903423     16.91695023     19.86297798
S        13.29028130     16.00239182     19.77971077
P        10.17242527     15.50886726     18.45194244
S         8.57736301     25.94789314      1.43527806
S        11.11529160     24.94244003     -0.55592614
S        10.51045895     25.63494682      4.46838617
S        13.43974304     25.47334290      2.72267127
S        11.08654785     22.93624878      2.39480996
P        10.45664883     26.00744820      1.09357858
S        11.09164715     27.95516586      0.79739940
P        11.49663162     24.91513634      2.77970624
S         8.27844334     25.38215828     10.94301414
S        11.10718918     27.45878410     11.13737011
S        10.77017975     22.35353661     10.68734932
S        13.59313107     24.17300034     11.08373451
S        11.75873756     24.37945366      8.19943619
P        10.35250378     25.63626480     11.41167259
S        10.74011612     24.92989731     13.38732624
P        11.76279354     24.08110809     10.26142120
S        11.64373112     27.96455765     18.70660019
S        11.15511322     25.86630821     21.27081871
S        11.99606514     25.19359779     16.30482483
S        11.16356564     22.71341515     18.81738472
S        13.94652843     24.35251045     18.97028923
P        10.79558182     26.24807358     19.24593544
S         9.01461601     26.06209373     18.48279190
P        11.83918762     24.54572678     18.25929070
P        20.11927032      9.22442055      2.46799064
S        16.89065742      8.48668385      2.44243813
S        18.53415680      5.73067522      2.10961580
S        19.47214508      9.36288643      4.41919947
S        20.44167519     11.03433418      1.60545933
S        21.82315445      8.08087730      2.37006521
P        18.51488686      7.86538124      1.57682872
S        18.52523232      8.15104103     -0.47484854
S        21.58016205      9.10211372     10.39373493
P        18.07019043      9.04377842     10.30585861
S        20.04945946      6.31136084     11.39874172
S        19.85195160      8.96055508     13.57871723
S        18.07748222      8.63760281      8.28146744
S        18.00848389     11.05412102     10.73750019
S        16.63674545      7.87712765     11.11179924
P        20.07154274      8.42099762     11.51601028
S        21.51006126      8.68286228     19.07716560
P        18.28739166      8.91155434     18.24823380
S        19.63902855      5.99526215     19.77709961
S        19.08373260      8.88994694     21.46156120
S        18.54073334     10.97599030     18.13984299
S        16.40801430      8.53643894     18.94671440
S        18.78428459      8.10437298     16.43823242
P        19.66140747      8.03975105     19.67513657
S        19.56413460     19.76293755      2.40794158
P        18.74070549     16.31707764      2.93786740
S        19.83843613     17.25040436      0.04191615
S        22.02568626     17.34584236      2.35926867
S        19.17343903     14.41599369      2.23109627
S        16.87294579     16.96211624      2.44315648
S        19.19535446     16.50164032      5.02594995
P        20.06814957     17.81123924      1.91564107
S        20.49244881     19.47231865     11.26777935
P        18.97614098     16.66113472     10.21471596
S        22.23967361     16.65199852     11.27169609
S        19.81070518     16.98126602     13.69377232
S        17.21676254     17.34449959     10.82667446
S        19.23943520     14.71097469     10.53999615
S        19.68146515     17.40686798      8.40779400
P        20.50333786     17.47480965     11.73956394
P        20.04756355     17.83834839     20.08156967
S        19.58106422     17.23898125     21.95535278
P        18.73318481     16.65769768     18.75276756
S        19.61814499     19.86961174     19.90264893
S        21.88736343     17.41379166     19.46927452
S        19.40715790     14.65384579     19.15690422
S        19.04933548     17.31398964     16.88313866
S        16.86058426     16.91613007     19.43494987
P        20.18724251     26.41691971      3.52103472
S        22.10463524     25.90165520      2.88902831
P        18.89271736     24.90053749      2.46109414
S        20.17780304     25.89465714      5.45655537
S        19.53074265     28.33204842      3.02389359
S        19.35049248     23.14492989      3.07520580
S        19.34971046     25.59970284      0.31000534
S        16.91762733     25.42367554      2.69234991
P        18.96842384     25.77359962     10.42388725
S        19.59241867     25.57729721      8.43566608
P        20.14385414     24.41538620     11.96924782
S        19.24128723     27.62508011     11.09591866
S        17.04357338     25.22549629     10.83226871
S        22.02342796     24.69595718     11.49732494
S        19.50888443     22.62619972     11.42300797
S        19.66382027     24.95199966     13.86410427
S        20.12051392     28.24011803     19.81810379
P        18.69241333     25.33136368     19.03352737
S        16.81981850     25.99766159     19.59614754
P        20.30183792     26.33210373     20.29777718
S        18.91738319     23.28893089     19.36383438
S        19.25844574     26.02763176     17.03939629
S        21.95859528     25.31124115     19.68585777
S        19.80732155     26.17455101     22.29433060
