648

Na      -69.87177277    -28.57858849    205.90890503
Na       42.61775970     -2.31331706    -64.19466400
Na     -114.11589813   -205.10011292   -172.43254089
Na      -62.74293137    -14.60429859   -127.77998352
Na      -11.55363178   -124.71810150    -19.89267159
Na     -122.36737061    -84.05488586     19.76752090
Na     -118.16763306    -28.09384918    -37.21055603
Na       -1.48980916     39.19714355   -148.40985107
Na       33.46861649    -99.38276672     -5.38995600
Na       37.33071136    153.68118286   -103.94265747
Na      -59.95603561    164.99755859    230.11036682
Na      -33.16505432     74.46800232    103.55776215
Na      -54.78431702     27.63607979   -210.11987305
Na      -57.92111588   -125.53858185    -15.03587532
Na      -15.97716141    -84.95056915    -63.96025467
Na     -121.53308105     14.16328335    145.82011414
Na     -167.74502563     57.41420364    -44.93100739
Na      -28.10056496    235.08677673    273.08361816
Na      -74.51728821   -162.72892761     98.66941833
Na      -12.15340519     94.13196564   -162.78904724
Na       52.85535431     -3.45742846    -76.01483154
Na       35.40910721    -65.88253021     70.31963348
Na       94.60572815    133.86196899   -159.00978088
Na      127.93955231   -120.80963898    -11.48110390
Na      -39.83380890    109.66632080     14.02896500
Na       -8.21057320   -274.07009888     53.11483383
Na     -163.54734802     31.27109528    -19.83696365
Na       43.10886002    -80.36857605     48.15410233
Na      102.29869843    121.51786041    -95.35265350
Na       43.00701141    124.80417633    -45.15692139
Na      119.70176697   -303.22155762   -151.58583069
Na      193.50521851    217.35565186    120.19213104
Na     -230.04476929   -121.39642334    103.10851288
Na      361.53579712     -0.28308332   -147.56335449
Na      145.03291321     69.03005219     61.07081985
Na     -143.17077637     74.85745239    -71.69022369
Na      -46.94513702     82.62141418     25.81035995
Na       60.56512833    -31.73355103    -57.28005600
Na     -281.69027710     65.35865021    113.67215729
Na     -181.34375000     11.77475166    177.70614624
Na     -126.97808838    -15.43224716   -242.74429321
Na     -109.08641052     42.38434601    -29.54913330
Na       81.59295654    -91.48220062     33.94977188
Na      -32.90269470   -107.81224823    336.04861450
Na     -270.59158325    -19.09503174    -28.46658897
Na       -5.68926382   -167.47726440    185.02928162
Na       69.46102142     36.50539398    117.50313568
Na       74.30716705    173.51358032     43.50207520
Na      420.28601074    -15.30049229     17.50346184
Na     -166.53997803     44.05783081   -120.13685608
Na       59.55089951     55.82028198    -87.27715302
Na     -233.72143555   -108.15993500    177.09188843
Na      -10.89460182   -158.47361755    -48.87761688
Na      231.15620422    247.49440002    125.68862152
Na       28.91211128     25.91872025     85.79811096
Na      -28.86518860    -68.05117798    -53.87401581
Na        5.50787306    -14.63847923    252.02717590
Na     -223.24432373     23.92024231     22.93802643
Na      -55.99910736    -18.09876251    -75.48699188
Na      110.31729126     61.84220505     81.73511505
Na     -123.04375458    297.93499756    -18.64895630
Na      109.78345490     20.18935204     56.57219696
Na      -84.26444244   -147.19293213    132.68475342
Na       51.50862885    191.05258179    238.62719727
Na      138.20117188    154.55528259     43.35565186
Na      -91.56066895   -167.30877686   -243.92881775
Na      111.45504761   -116.98334503     23.08008003
Na       30.84457970    -41.06232452    179.76510620
Na       13.28912354    218.00352478    117.02702332
Na     -234.85758972    -28.95636940    212.12200928
Na      -29.74541664   -154.27296448     76.91978455
Na      137.16056824    -37.35593414    134.67652893
Na     -206.97019958     -0.35621795   -243.59468079
Na     -155.14752197      9.81906891   -120.72747040
Na      177.87432861     -2.79857087    -12.86707401
Na     -124.95705414    -15.59057903    -69.95819855
Na      -87.89001465     56.15843582     -9.00558949
Na     -155.89164734    -83.09371948    166.69464111
Na       62.15552139     27.87453270     77.14742279
Na      174.60606384    129.19125366    205.43019104
Na      154.34353638    -79.17642975    -42.37357330
Na       12.29149151   -220.49461365   -125.67204285
Na      -66.68795013    177.97126770    -40.50125504
Na      192.96810913    -14.20653915     72.10340118
Na       22.77969742     40.33034515     43.61629105
Na     -100.44244385    -17.05951691    -30.98494911
Na      -43.15947723     91.05200958   -122.71108246
Na     -151.72880554    155.33979797    149.92546082
Na      -88.51923370    -83.93356323     10.70833778
Na       73.74639130     28.58329201     23.06818008
Na      166.67260742    -84.34829712   -183.04682922
Na      -96.09761047     33.51067352     89.43022156
Na     -133.03732300   -392.40167236    -60.66701126
Na      305.47793579   -150.70655823    -31.92365646
Na      141.14878845    -53.42576981    -35.86059570
Na     -121.02708435    349.75314331   -103.33898163
Na      120.04039764     -0.34932694   -108.51452637
Na      133.33950806    -70.57616425    199.00408936
Na      167.56147766    -16.01482010     38.38275909
Na      -23.20972824   -109.76590729    -91.58031464
Na     -168.18081665    -32.41849899    358.30447388
Na      178.95402527   -138.74749756     68.28363800
Na       25.29216194     43.42452621     79.36388397
Na      179.15356445     30.60165787    161.88957214
Na       47.49879074    -58.92803574    -92.12764740
Na      107.35383606   -108.46521759   -167.11421204
Na      102.59958649    100.16542816     72.82241058
Na      263.51296997    -81.32746887    124.39156342
Na     -176.05209351   -197.31498718     42.47849655
Na     -314.33679199     31.47532082    -89.20966339
Na       39.57519150     22.96337128     72.95408630
Na       85.44422150    326.14425659    136.45175171
Na       30.75238609    201.10319519     88.83267975
Na       83.08873749   -225.35646057    125.75715637
Na        9.06392097    233.57240295    -24.38160706
Na     -194.69842529    102.89253998    -61.98036575
Na      107.87264252   -111.50688934     47.88570404
Na       78.75804901    -68.88901520    226.04257202
Na      -92.89323425   -127.89928436    123.86237335
Na       60.59475708     91.20133209     74.03540802
Na       81.76100159    217.03309631   -168.15194702
Na      -88.56571198     22.24503517    162.52618408
Na     -114.14807892     -5.96891832    176.61854553
Na       25.50317001    102.75402832    -64.90189362
Na      -83.68981934   -125.75853729    159.37370300
Na       43.46819305     90.62854767    -66.12848663
Na      119.45236969   -193.95791626    -21.78393745
Na       18.38552666    -19.20753670     48.11215973
Na      -79.73876953    -96.74803162      9.03471851
Na     -100.70256042    103.57619476   -176.80285645
Na      -49.20494843     33.77721786     53.13123703
Na      132.40576172    167.34681702     65.06508636
Na      127.84582520   -114.16545105   -151.23286438
Na     -179.72531128     -4.59840727    136.62419128
Na     -214.92251587    192.41313171    111.38019562
Na       -7.03736162     88.99595642    328.65527344
Na      257.99978638   -202.28454590    -32.41992188
Na      -15.58087540   -193.71217346   -124.14592743
Na     -105.31692505    119.51246643    234.54504395
Na       24.57836533    -56.38468170    -28.32346535
Na       38.58723450      6.63626719   -116.96108246
Na      -71.28002930     77.44358063   -379.29568481
Na      111.69929504     12.70010281    178.69075012
Na       41.56380844    224.64709473    -82.95525360
Na        1.84327376    -90.77498627    176.42732239
Na       81.83274078    -54.70246124     58.78229523
Na       44.04241943    -96.35980225    -67.37421417
Na      -44.63957596      6.48331594    -45.50555801
Na      142.80158997     14.20779228     30.25226974
Na      -52.38060379   -156.56019592    230.13363647
Na       47.34701538    154.23213196    141.75386047
Na      -24.43479347    100.11108398    258.83850098
Na      -24.50602341     69.72681427    -37.14157486
Na       17.79187584    -99.58048248   -240.29510498
Na      141.47785950    170.17169189     81.56782532
Na     -164.05899048   -176.19638062     14.05347824
Na      178.23402405     78.91034698     56.32382965
Na      106.69005585    365.85296631    119.48437500
Na      -10.20525169    -47.27627945     95.59104919
Na      103.12677002    146.13891602     69.82198334
Na      -79.44120026     85.82902527    140.85014343
Na     -371.36636353    269.24209595    -57.60796356
Na       87.55768585    128.63912964     83.53746796
Na      178.92524719   -137.49909973    141.58619690
Na     -100.61125183   -175.99322510     40.28613663
Na     -104.39110565     63.97144318      8.74216747
Na       13.63443375    -78.33856201     26.54179573
Na        5.25082111     94.20848846    282.41015625
Na      -58.72663116     26.97846413     73.50598145
Na      -36.53086472    -65.90795135    162.22534180
Na       43.55649948    -56.82102966   -151.51071167
Na       85.30947876    -70.24228668    137.15660095
Na      -97.47786713   -112.74017334     76.29732513
Na      192.37582397     35.08700562     81.29601288
Na     -107.85208130   -261.67800903   -134.45072937
Na     -130.68421936   -103.49091339   -207.43165588
Na      -32.35520554    136.81173706   -142.32960510
Na      -62.43643951   -112.68936920   -103.43528748
Na        5.34902716   -157.35255432     -9.49838352
Na     -226.92761230   -116.53606415    -10.50202656
Na      111.55980682     70.18298340    142.26788330
Na      -11.67718601    175.63667297    -83.27865601
Na      137.23791504    252.02114868    119.95054626
Na      133.11007690     48.53399658     94.89961243
Na     -141.80677795    294.96585083   -149.32662964
Na       18.41369820   -188.04002380     26.97201920
Na       99.00885010   -307.90527344    -45.68532944
Na       81.31420135    -23.52199173     90.80879974
Na       27.70316696   -155.20733643   -187.33447266
Na     -107.47748566   -138.25665283    210.00004578
Na      -59.10152435     -6.10946846    -11.31937218
Na      175.16815186    -35.07174301     -3.25563931
Na       66.81549072     14.00772381    165.39051819
Na       83.37458801    104.21772003   -120.48829651
Na       39.32867432   -144.78427124     21.59240150
Na     -130.65763855    -59.89545059     78.34805298
Na     -123.94728088    -42.53902054   -218.63757324
Na      -79.75923157   -120.24118805    -71.60218811
Na       39.25756454   -125.31017303    112.03363037
Na      111.52808380    139.51707458    193.57838440
Na     -206.68484497    180.06410217    209.19825745
Na      234.03318787   -173.66142273    296.67895508
Na      -17.35622215     27.47084999     54.18027496
Na      150.52714539    214.93382263    120.01995850
Na      100.42956543    189.25318909    199.84403992
Na      -79.19324493     82.15231323    140.07548523
Na      145.94252014     82.66183472     66.66860962
Na      158.46789551   -275.27398682   -294.62097168
Na       95.66511536     -2.55216742    -34.36546326
Na        2.25504875   -189.02000427     81.83420563
Na      229.95828247   -247.82806396    -71.27558136
Na      -32.35646820    239.48817444   -107.06418610
Na       90.38029480     55.42745590     75.61634827
Na      162.47213745    175.42289734    153.55389404
Na     -206.76385498     -2.21399212     64.44140625
Na     -117.16037750    362.34011841    -32.03054810
S        14.26020241     30.13743782      3.07675672
P        12.41348076     30.62029076      2.91299796
S         9.33311844     29.96653175      3.55502391
S        11.65061092     27.25916290      3.78833532
S        11.94586182     30.38067627      0.85546350
P        11.09945774     29.20589447      4.28092051
S        11.49403191     29.50692368      6.18429375
S        11.88983250     32.46369934      3.64973903
S        11.71446705     30.14980125     14.82824039
P        12.16015053     30.23497963     12.85768127
S        11.40332317     28.79303932      9.78522778
S        11.54042053     26.45697784     12.20263767
P        10.94846535     28.37812424     11.70559025
S        14.16348171     29.60389709     12.69096088
S         9.09877300     28.85306931     12.31990147
S        11.47559547     31.90394020     11.88291454
S        10.59760284     29.02455521     23.44706154
P        10.74591732     29.05743408     21.34995842
S        11.61575890     32.21667099     20.99208260
S        12.52689648     29.88359261     18.74536514
S        14.26031780     30.05552864     21.57451439
S        11.26294613     27.38035583     20.60590935
P        12.45031357     30.33498573     20.74678993
S         8.99424362     30.02808571     20.59536362
S         9.69919014     13.12875080      4.10844421
S        14.61335278     11.45343304      3.30867910
S        12.51180458     13.84385014      5.75810528
S        13.21522331     14.35315895      2.14110160
S        11.82494164     10.95983315      1.56222773
P        11.63826275     12.48398781      4.62384939
P        12.91904926     12.40559959      2.82161784
S        11.53599167     10.59513760      5.22232580
S        14.70030022     12.25998592     11.79891968
S        12.01326942     15.12040424     12.15015125
S        12.15142822      9.99372578     12.27993393
S         9.43455029     12.80515289     12.20810413
S        11.89524746     12.55608654      9.74808598
P        12.81736851     11.86980629     12.88652515
P        11.34854889     13.22971821     11.75368690
S        12.49511051     12.19808388     14.82832146
S        11.58570862     15.68073082     20.93261147
S        11.40751648     12.65618324     23.89080238
S        11.91713428     13.14100266     18.66331291
P        11.28457355     12.14984798     21.96615601
S        14.41073418     13.66050053     20.87965202
P        12.35456085     13.59883118     20.58623123
S        12.27792263     10.42940331     21.64317513
S         9.36882591     11.99862671     21.46690750
P        12.63726044     20.48560333      4.63898277
S         9.39217377     20.94645691      2.92654586
S        12.27424717     21.00787163      1.21267951
S        11.80101585     21.39911842      6.32757950
S        11.57499790     23.65396309      3.11465001
S        14.44941425     20.89519310      4.15361214
S        12.12457752     18.52931976      4.36146021
P        11.40429974     21.47283936      3.00892043
P        10.85033512     19.82275200     12.26295185
S        10.71346855     23.25407219     11.71577072
S        13.63004017     21.53033638     12.43532753
S         8.80377960     20.02556801     12.47596741
S        11.12284660     21.89114380     14.65278530
S        11.48189926     18.18466759     13.23133945
S        11.38439846     19.63512421     10.09845638
P        11.77256775     21.78676224     12.79872036
P        12.29671478     20.58177757     20.14665222
S        11.61555290     18.93227005     20.99128151
S        14.37589931     20.89045715     20.52928162
S        11.96310520     24.04137802     20.83484650
S        11.87736797     21.02079391     18.26930809
S        11.31817722     21.56790352     23.30020714
S         9.19005966     21.98168182     20.73527527
P        11.09539604     22.09043884     21.45052910
P        20.48379326      4.48491669      3.02265429
S        20.02959442      4.16432095      1.02966416
S        19.96827126      1.21541739      3.42492485
S        19.46756554      3.59974051      6.26621914
S        17.21405983      3.26407766      3.80073166
P        19.22013283      2.95425701      4.16722345
S        19.55996513      6.31366205      3.57041788
S        22.37009048      4.12061071      3.57884073
P        19.73072052      4.61578083     12.25896358
S        20.17153549      6.40523958     11.54942894
S        22.80361557      3.64996791     11.47458744
S        20.60934258      1.30528593     12.37446594
S        20.38285065      2.79882026      9.36914158
P        20.99500084      3.05418825     11.33132458
S        17.83645439      3.95107388     11.69326782
S        20.13137054      4.36982059     14.30694103
S        22.64831734      3.91648197     20.61164093
P        20.87921524      4.62976456     21.19780350
S        17.31541443      4.95578766     20.47990608
S        18.84243202      1.86683285     20.58385849
S        19.61854362      4.16037846     18.08562660
P        19.06069756      3.81617379     20.00139618
S        20.38351059      4.15364933     23.01059532
S        20.73480225      6.64194345     20.69865227
S        20.23081779     15.11004353      3.95312428
P        21.36166191     11.57373524      3.93653107
P        19.52024651     13.07724285      3.38771081
S        22.01747131     12.27456188      5.84922647
S        22.56114388     11.99528408      2.34796977
S        17.83218956     12.48495865      4.62199211
S        20.60134315      9.78548431      4.54656172
S        19.22336960     12.57432079      1.41702974
S        20.99128914     12.00265121     14.77805805
P        21.08596230     11.61318970     11.03605366
P        19.89420128     12.38708973     12.96918869
S        21.20701981      9.67457485     10.86112213
S        23.08729744     12.08400631     11.16498375
S        17.99838638     11.37225914     12.79381371
S        20.08409500     12.44998264      9.42471790
S        19.69359589     14.45060253     12.61327267
S        21.28312683     10.62954617     -4.30323935
P        21.32642937     12.74817944     -4.18091297
S        17.89225578     13.85092068     -4.70212412
P        19.72477531     13.90727234     -5.56551075
S        19.67104530     12.67551136     -7.16167831
S        21.22603989     13.42541122     -2.27100992
S        20.38088417     15.80529785     -5.58686256
S        23.17913628     13.23681068     -5.03018332
S        19.95342445     21.17733955      5.93724442
S        17.64967155     21.08838463      3.61080384
P        20.94450760     19.92192841      2.91389298
P        19.59586716     21.46723747      4.00604963
S        20.68586922     20.86840439      1.00643206
S        19.93931007     18.16170692      2.93311477
S        20.07003784     23.48495102      3.65102720
S        22.77559471     19.95190430      3.77043366
S        22.53978539     20.20983887     12.18307590
S        21.08409500     20.03421783      9.11233807
P        19.39779282     21.11749649     12.11673355
P        20.91061020     19.69000053     11.05136013
S        19.99440765     22.91558838     11.23312378
S        19.48108482     21.00405312     14.20164967
S        20.28826904     17.72003174     11.39134121
S        17.53023720     20.43316460     11.66111183
S        20.06556320     20.44506645     -7.27919769
S        18.69020271     22.65921402     -5.10342264
P        19.49380684     20.89950562     -5.49466848
P        21.22217560     20.50493813     -3.89836287
S        21.31200409     18.60993385     -3.27725363
S        20.56792450     21.86079216     -2.47191548
S        18.07650375     19.48422432     -4.97805738
S        22.89331245     21.23640442     -4.71166515
P        28.18262482      4.36491442      2.62595487
S        28.78084946      6.29973125      3.12220478
S        28.59095573      1.17739606      4.13776112
S        31.28434563      3.45756650      3.73943138
S        28.89542198      3.59282422      0.85768878
S        28.51619720      4.22785902      5.83108711
S        26.17842102      3.88632512      2.82280803
P        29.26043510      3.15908122      4.23514128
P        27.97452164      3.08297658     12.28272057
S        28.62278366      3.59266353     10.26985073
S        31.18777847      4.45525932     13.19326973
S        28.68140984      6.47465467     12.91034317
S        28.61734200      1.13928509     12.65861320
S        28.61046982      3.97193122     15.21635628
S        26.01844025      3.62031865     12.58027458
P        29.18171310      4.61934805     13.39164543
S         0.57000166     29.90007019     20.67149734
P         3.88984132     28.63421822     21.13976669
S         5.66049099     28.53325844     20.03078079
S         2.60871506     28.87632561     18.05543900
S         3.43310761     31.78611374     19.61862946
S         2.71418047     26.92357826     21.23043251
S         4.18461227     29.50138855     22.81120872
P         2.35921764     29.95678902     19.84448242
S         6.39855957     11.52800369      3.71086717
P         3.32404137     12.44230461      2.96700692
S         4.15668440     14.25226402      2.96303368
S         4.15914917      9.17423153      4.33773947
S         1.58279884     12.23537540      4.13067055
P         4.56906271     11.16902161      4.36437321
S         4.15200567     11.62835979      6.25290394
S         3.29932928     11.69245434      1.10266602
S         3.18468070     12.67316723     14.65035152
P         3.71043277     11.15446949     11.43801785
S         3.04600739     11.33119011      9.51010513
S         0.56712991     12.62609005     12.44752407
S         2.97432637      9.47126007     12.40202808
P         2.63089776     13.04105949     12.75966167
S         3.29512620     14.81153297     12.07514095
S         5.80965948     11.23092747     11.38128757
S         3.34218264     12.17785263     -7.42201471
S         6.18640661     12.65998268     -4.36759377
P         4.26077652     13.20095348     -4.29488850
S         3.55333209     12.68470383     -2.32457399
S         0.99990714     11.93438148     -4.92297459
P         2.90085196     11.80217266     -5.44232559
S         3.60234070      9.99173260     -4.83471298
S         3.97028971     15.18137074     -4.97213888
S         0.59583360     20.68933105      3.34813309
P         3.74884725     21.33862495      4.38608694
S         3.06474376     21.26138687      6.30460787
S         2.80580235     17.99900627      4.24144077
S         3.85351562     23.24490166      3.72503495
P         2.53423047     19.98878288      3.25531197
S         3.57666349     20.03604507      1.43506503
S         5.58788919     20.31888962      4.48748541
S         2.91823769     20.64484024     14.97817898
P         2.68605471     21.02580070     11.37243462
S         3.70614839     20.32905197      9.65165043
S         5.75993967     20.29100990     13.10509968
S         2.31829929     23.04120636     11.62541103
P         3.80616426     19.92688751     13.20301628
S         3.39143181     18.07841492     12.85309601
S         0.85344994     20.18577003     11.48893452
S         6.44946098     20.83441353     -4.03643131
P         3.17913198     21.65872383     -4.96600103
S         3.53462291     23.48553085     -4.53813028
S         1.30809140     21.20661163     -4.32678127
S         3.92614818     18.43467712     -3.50571799
P         4.46125269     20.35862732     -3.65969825
S         4.13292933     21.45725632     -1.95015812
S         3.67383838     20.97294426     -6.78418064
S         7.11180735      7.83965731     -3.39451528
S         4.54391861      8.59433651     -1.28472638
P         8.12453270      8.94259548     -0.22541407
S         7.56405258      8.50880909      1.64420652
P         6.49514151      7.70399809     -1.50027728
S         7.90935564     10.96521759     -0.66052836
S         9.74319267      8.08637333     -0.81062967
S         6.48898554      5.82186317     -0.57675219
S         6.71473265      7.18809843     10.40990734
S         7.19415617      5.25531292      8.02393818
P         8.53000164      8.50229454      7.80133724
S        10.43285656      8.00126266      8.30813026
P         6.74337578      7.20580435      8.44168949
S         7.97245884     10.35788345      8.29024887
S         8.37361050      8.06880093      5.79025126
S         5.14218569      7.83529949      7.21516800
S        10.67418385      8.95457268     16.71010780
S         7.81630421      8.89442062     19.01231766
P         7.34382820      7.47152042     15.88513947
S         5.32067251      7.68805599     16.26234245
P         8.52019787      9.04920769     17.11172104
S         7.99114561      5.60233212     16.72620773
S         8.02915096      7.45993900     13.93470955
S         7.96485901     10.87100029     16.61646080
S         8.09955406     19.39346313     -0.00203425
S         8.30418110     17.22034836     -2.47938800
P         7.52370214     16.08370781      0.60894412
S         7.88837051     16.61222076      2.49357700
P         8.91963196     17.48882675     -0.66163898
S         7.88912773     14.08924198      0.39131069
S         5.73250818     16.77458763      0.25046647
S        10.81538296     17.52853775     -0.51194549
S         7.12356615     14.01696014      7.47617292
S         5.15429878     16.17002106      5.95240641
S         5.28119278     16.16160011      9.34449005
P         7.95262432     17.56162071      7.80121994
S         9.19847488     16.85002708      9.27102375
P         6.30223036     15.94440842      7.59988928
S         6.98099184     19.33753204      8.12836742
S         8.95942688     17.54726601      5.94875336
S         7.42988157     14.08259010     15.81118774
S         9.77947712     16.66335678     15.89059925
S         7.20504284     16.81468964     13.66202545
P         6.90602303     17.22505379     17.06722260
S         7.34199381     16.06018448     18.84331131
P         7.92375278     16.11460304     15.50083351
S         4.90500546     17.05388832     16.99904251
S         7.76606083     19.27479744     17.02313995
S         9.81220722     25.14067841     -0.87675607
S         7.84173203     27.65270805      0.61046737
S         6.93344116     26.63381004     -2.51981854
P         6.83269835     24.30443001      0.19152266
S         7.44722509     22.46915054     -0.19115682
P         7.91503143     26.03478622     -0.82501334
S         4.84827423     24.63691902     -0.00016205
S         7.47120953     24.77688408      2.16380334
S         9.76413250     23.86054420      8.03388786
S         8.10590267     25.78896332      5.88294840
S         7.06568480     22.79139900      6.09112167
P         6.44649839     24.88834953      8.78538609
S         6.58367300     23.27276993      9.93814087
P         7.98717165     24.24720001      7.22455978
S         4.94125843     24.95727348      7.59740257
S         7.13543320     26.61192513      9.50039005
S         6.95973921     24.99856758     13.78599453
S         4.77050209     24.44121933     16.24669266
S         7.50315142     22.54381371     16.18188858
P         7.82059383     25.70807076     17.13249016
S         8.05516624     25.02200508     18.93132210
P         6.59455681     24.30834579     15.71762848
S         7.03275156     27.54723930     17.15748024
S         9.69073200     25.72012329     16.45265770
S        18.81727028      9.56830692     -0.61313570
S        16.57874489      6.27631569     -0.45974416
S        13.51985550      8.01560497     -1.08135676
S        15.38443089      8.46373749      1.59446657
P        16.85900879      9.63051224     -1.49557197
S        15.94107056     11.53956985     -1.35616517
P        15.50444317      8.16230869     -0.36470330
S        17.28327942      8.91786385     -3.37980080
S        16.37725258      7.98695326      5.38453341
S        16.04927444      5.50812578      8.37478828
S        13.73699856      7.52164078      7.47936916
S        15.60562134      8.21903229     10.44420433
P        16.67425919      8.65716743      7.29449511
S        18.47677994      8.33602524      7.94142342
P        15.37022972      7.35796547      8.54778099
S        16.22585106     10.73116493      7.29592896
S        16.16157341      6.11800289     16.86255455
S        15.87850761     11.33322430     16.53077126
S        18.29447174      9.20550251     17.69341087
S        15.37894917      9.08989906     19.39074707
P        15.84606647      7.76904535     15.85629654
S        17.20200539      8.20513153     14.41321087
P        16.24812698      9.47943211     17.47170067
S        13.99994183      8.12687588     15.20918751
S        16.14336395     14.67791080     -0.22611181
S        15.86310577     19.75396919     -0.71200132
S        15.41166687     16.88971138     -2.83128119
S        18.18213844     17.29430962     -1.34330249
P        15.49291134     16.50815010      0.54050493
S        13.64266777     17.11773109      0.21498397
P        16.28779411     17.69304085     -1.10162795
S        16.15542412     16.67616081      2.30802894
S        15.76728630     16.76268959     10.65550423
S        16.12930107     14.08599854      7.37801600
S        18.62491035     16.36629295      7.93306351
S        16.69123650     16.68781662      5.40789413
P        15.45415401     17.41323280      8.60959625
S        13.58110428     16.77146339      7.95787096
P        16.67844772     16.07092094      7.25976467
S        15.96839142     19.17881966      8.05294132
S        15.24939442     19.26416397     16.47500610
S        16.53434181     16.84151840     18.77694130
S        15.57829762     16.78826141     13.65305805
S        16.69568443     14.25364399     15.79369831
S        18.42608643     17.36743164     15.45593262
P        15.48150635     17.18030548     17.11115646
S        13.74524212     16.23126221     17.47653198
P        16.65735054     16.28880882     15.35647392
S        15.98831367     27.82266808     -0.89021516
S        15.92185020     25.80413055      2.07210660
S        16.43245697     24.61633682     -3.16672516
S        16.11376953     22.70248413     -0.45068064
S        18.71747971     25.01960373     -0.48540834
P        15.45716381     25.93651199      0.02062010
S        13.47664356     25.54797554     -0.17115919
P        16.89574242     24.50105667     -1.14388633
S        16.17596817     22.55698395      8.50798607
S        16.06794548     25.29226112     10.58894825
S        15.64528370     27.56048203      8.11098385
S        13.31466484     25.18982506      7.52565432
S        15.78319454     25.71781731      5.40124369
P        16.49673653     24.42685318      8.80140400
S        18.53456497     24.74087524      8.26806736
P        15.31490517     25.68628502      7.36165094
S        15.74503899     25.37650871     13.71393967
S        16.32168388     23.18097687     16.08900452
S        15.56926060     25.92743683     18.95215988
S        13.14129639     25.55624962     16.62285614
S        15.17635536     28.08749771     16.56388283
P        16.33970451     25.07493591     15.58583832
S        18.26541901     25.99113846     15.95535755
P        15.06418514     26.22244453     17.12298775
P        24.88195610      7.63755655     -1.29833889
S        24.49770355      8.64303589      1.93470311
S        22.06735039      9.28787804     -0.10483050
S        24.80641365      8.54551697     -3.14689755
S        23.27271080      6.35041475     -1.11867607
S        26.60758209      7.10589218     -0.49138111
P        24.10860634      9.27443886      0.06123107
S        24.95175552     11.14071465     -0.38524282
S        24.51970482      4.89650106      7.42214346
P        25.43576813      7.85831928      8.55494499
S        24.25684166      7.62460709      5.39484692
S        22.02990913      7.22890902      7.80964947
S        25.24183846      7.38863850     10.56911469
S        25.11451149      9.79658413      8.21636009
S        27.32871056      7.24498558      7.82575941
P        23.84040451      6.83538055      7.13381338
S        26.87842560      8.49018097     16.45245171
P        23.55050087      7.26477098     15.76272488
S        24.40813255      8.72344017     18.76771164
S        24.45384979     10.75147724     15.89776421
S        24.42561531      5.59273577     16.61730194
S        23.99987793      7.69328547     13.66374016
S        21.73213768      7.64401770     16.16143227
P        24.89311790      8.97693634     16.87253571
S        25.12922668     19.16936874     -0.53992516
P        26.30925751     15.68790150     -0.24617262
S        22.75276184     16.85566521     -0.78504199
S        25.17008972     17.04981041     -2.99376225
S        25.53698349     14.15612030     -1.37614632
S        25.71941185     15.39650917      1.73903120
S        28.18832779     16.35720062     -0.65815979
P        24.70725441     17.19866562     -0.94529206
S        26.95814133     17.46426964      7.58330011
P        24.09603310     15.52167320      6.97381496
S        24.87961388     16.46347427     10.07228470
S        23.84415817     18.79251480      7.85368299
S        25.16847420     13.84430504      7.36472988
S        24.53362465     16.24036980      5.09069395
S        22.19457817     15.54477787      7.47757053
P        25.00343704     17.15417671      8.15300369
P        23.89146233     16.20977020     15.36186218
S        21.91089439     16.52438927     15.83038044
P        25.14401817     17.41705894     16.75134277
S        24.46402359     14.35820484     15.88567829
S        24.06964874     16.91080284     13.38772583
S        27.04874420     16.62752533     16.55649948
S        24.42767143     17.11063766     18.66863060
S        24.89071465     19.46538162     16.19386101
P        23.46854210     25.97718811     -1.35890269
S        23.90128517     25.92222023     -3.43723798
P        24.52126122     24.23517418     -0.31296420
S        24.36346817     27.74023438     -0.47559592
S        21.46043777     25.90324020     -1.20069444
S        23.86027527     24.39760208      1.64308870
S        26.59545326     24.50945091     -0.13851380
S        23.63881874     22.71435928     -1.16728723
P        25.08273125     25.49701118      7.48381329
S        24.52278519     27.08743095      8.56017780
P        23.86685371     23.82136345      8.23987389
S        24.53037834     25.55867386      5.55031872
S        27.02182770     25.11843872      7.38910198
S        24.32489014     23.91425323     10.25886059
S        24.69423103     22.15220070      7.23932314
S        21.93488121     23.94393349      7.66518497
S        21.46007729     24.61007690     16.11250687
P        24.88643837     24.33910751     15.71700764
S        24.31871605     24.75736809     13.68492222
P        23.10882950     25.27380562     17.02361679
S        24.95294952     22.29474068     15.98746681
S        26.62899780     25.27748871     16.28803825
S        23.35979271     27.22339249     16.78473091
S        23.47111320     24.96044159     18.98802376
