648

Na       15.35935783     -2.87399149    -40.99517822
Na      -19.09878349     22.90170860    -14.55979252
Na       17.96408463     29.88688850     -0.92341846
Na       14.50301266     14.47679520     19.65085220
Na       22.41880798     27.57029152     35.58851624
Na        6.07710838     42.23516083     47.78460312
Na      -19.54027367     56.05708313     -1.39502752
Na       39.78371048     26.36955261      1.97500288
Na       36.34852982     30.02314758     26.61062813
Na       -1.31791878    -15.02161789     12.30058384
Na       32.26072693      5.42041111    -11.00946236
Na        6.33242846     -7.51412153     37.36724854
Na       49.36989594    -36.33398438    -15.41481018
Na       -0.13579738     35.78731918     22.93687630
Na       -2.61385632     45.21132660      0.36539468
Na       28.41058922     25.94311714    -19.61535072
Na        1.43988633     13.17939568    -10.08843899
Na       27.45474625     26.23566055     28.65366745
Na       20.81640244     14.24870777      9.15485001
Na       40.90156174     22.77956009     19.18039894
Na      -20.24138641      1.34799361     18.55076027
Na       19.35213280     24.15013695      3.28672886
Na       24.17967224     23.47635460     10.76767540
Na       30.64854050      0.63992524     14.62113285
Na        1.56407976     30.00870895    -24.57577705
Na        2.09736538     13.67624187      1.80351508
Na       25.59809303     -2.83483839     27.63892555
Na      -19.06990051    -11.02073193     15.15775585
Na      -22.66937065      2.08613324      9.39781952
Na       41.94760132     -4.13611507     14.77439213
Na      -26.09918785    -38.68498230     -6.43021154
Na       -2.63824272      8.80950737     20.70994568
Na        2.05333543     22.28879929     23.80941391
Na        6.00833511     24.33313560    -29.30166435
Na      -54.33048248     -9.19430065     47.81764603
Na       14.83809376     14.33953381     31.52635765
Na       35.05646515    -20.44382286    -13.82511902
Na        2.25409985     10.32487297     18.00398636
Na       48.42898560    -24.64706612     22.19344902
Na       -6.98234797     10.05575657      5.79725885
Na       61.82877350     27.27414513     19.15895081
Na       29.29180527      6.34166241      9.03353977
Na        8.23990250      9.53233624     20.03340721
Na       -2.67050242     16.96448517     43.81773758
Na       30.15922737     -6.89503384      9.12916470
Na       40.37835312     10.13633251     -1.25936747
Na       26.15124512    -11.03721142     -3.91777039
Na       10.84558010    -15.79055691     31.98711014
Na       40.01320267     25.78183937     31.49872971
Na       22.75693321    -19.60844612      1.89597499
Na       29.35453033     17.05235291    -10.61290646
Na       27.21137047     -6.99631262     -2.30878735
Na       41.97569656     11.22168541     27.44699478
Na       22.41359711      5.31805134     23.55111122
Na        8.95431805      5.02771139    -28.18131638
Na       -6.79064751     -7.00098801     -5.92371225
Na      -25.94681168    -19.75149918     20.51702881
Na       -6.40567780    -26.74757767    -11.91491032
Na        6.86925173     12.26423645     34.02418518
Na       14.47978210      5.76300383     40.26979065
Na       32.18678284     52.50495148     10.58620167
Na      -13.62566185     -7.65938330    -19.72247696
Na        2.47624350     10.61196041    -14.56448269
Na      -11.31383228     13.25835133     24.17815399
Na      -25.90430450     31.74159431      5.77651739
Na       33.32549667      4.42538404     -6.19259119
Na       19.94741440     31.65253448    -19.18306160
Na       22.23286247     13.73882008     17.34418869
Na       -1.56451952     -3.35204911     31.37097359
Na      -14.65769100     34.29201889     22.46299744
Na       46.57416153      5.90078259     18.05950165
Na       -1.70494151     52.31251907     30.77793121
Na      -27.88658905     28.09227753     18.22932434
Na       27.17721939      4.86320019     15.50978756
Na       -4.70496464     35.36909103     -0.44646424
Na       -5.41553402     22.94041061     35.32833862
Na      -46.35914612     -6.37908983      1.56140804
Na       -6.84416437     -6.14596891      2.24756050
Na       43.58429718     44.72007370    -27.85823631
Na       60.65492630     57.19202805      5.48974800
Na       22.14783287     26.08357620     52.29050064
Na       10.98978615     43.33219528    -11.46044731
Na       27.42004013     22.90003395     65.80381775
Na       10.64324760      1.46943653     62.59632492
Na       13.71218204     14.05150223    -35.99493027
Na       15.52756023    -17.86401939     12.39676666
Na       -6.80212736     -6.50246525      6.44690084
Na        1.63229012     39.73369598      5.12367821
Na      -18.51196671     30.79122162     32.81453705
Na       18.69565010     11.04718685     43.06023407
Na       35.11318207     14.80625820      3.03678155
Na        5.54148674      8.80810738     -3.43640518
Na       -2.57124233    -30.83651352     15.92878056
Na       29.20528412     15.01321793     -6.15523720
Na      -15.00761032     11.43080711     16.96948242
Na        1.72349250     27.89642906     -6.52501583
Na        3.81178379      9.65726280      0.63669634
Na       18.45389557     15.03175259     18.58744431
Na       65.80732727     17.28647041     28.41907120
Na       27.30592918      0.10023977     -2.50149679
Na       18.88438034     52.62246704     11.87218666
Na       -4.23103714     18.36908150    -15.94570637
Na      -15.24861431      0.65521836     23.07553291
Na       12.65878201     34.71303177      1.60876000
Na       27.39059448     44.10509872     82.10439301
Na       10.38113308     23.01592827     10.58871937
Na       33.29567337     44.50175095      5.99501085
Na       48.25906754     42.36592484     52.81617355
Na       17.53800964     10.99186039     13.25322819
Na       -6.71528292     27.18501854     19.36675835
Na        1.99587595    -17.65126991     38.13030624
Na      -18.24815369    -12.46012688     -6.83571529
Na      -14.71613884    -19.46985435     40.26663971
Na      -10.82248211     27.09810829     35.88137054
Na       10.38063526     47.94881821     19.96500969
Na       32.14833450      6.22759247      2.54915714
Na      -11.16890812     18.37199593     18.20849228
Na       31.07260895     23.50862122      5.07769108
Na      -22.78497314     24.21552277     36.77685928
Na       12.20150566     22.85232162      7.09261179
Na       34.50984573    -15.12824821     13.75202370
Na      -14.19519329     57.44609833     18.59594345
Na        6.22651577     14.94236088      6.87433338
Na      -10.35949516     51.57395172     -4.59292650
Na       32.20093918     27.49008751      7.07979155
Na        1.40305471     18.29998589     27.36897659
Na       41.79016113     13.81477356     10.13306141
Na       36.25126648    -26.69044304     29.13008881
Na       65.04623413    -15.66372108     44.20311356
Na       62.04333496     13.75301552      9.70949364
Na       39.13229752     56.34976578      8.05654335
Na       47.80041122     35.70520401      6.78676367
Na       64.37157440     35.39553833     14.70320511
Na       23.60425186     41.15898132     13.47110367
Na       32.27781296     -3.64044070     -6.92550993
Na       23.49385452    -15.57381344      2.99085450
Na      -28.27099609    -15.88837719     15.34999084
Na       -5.99389839      6.73371029     15.31514072
Na      -19.53436852     12.90048790    -27.20556259
Na       22.75143242     18.08382988      5.76690865
Na      -12.00420380     56.66774750     23.71425247
Na      -28.17099953     14.30710602      5.78484964
Na        0.55001068     52.49604034     13.10792637
Na      -30.71446800     35.73584747     35.93996811
Na       19.22749329     19.37622261     14.01054955
Na       10.02980232     -3.93123031    -26.21481323
Na       -1.80126488    -19.51068497    -10.39127922
Na       35.65019608     14.43963623     19.86107063
Na      -10.92125511      1.79457200     -1.46339953
Na       27.35109520     87.53713989    -18.58520317
Na       13.56421185     27.10662460     16.25176048
Na       13.77051067     21.57978249     49.13128281
Na        2.59273291     32.40301514      3.62864375
Na       29.74324417     -2.87975264     52.14175797
Na       18.66326141     27.43658638    -43.86547089
Na       -9.67815399     18.06404305    -14.76524544
Na        7.76411438     27.70634079      2.72948766
Na       17.83666420     27.64461708     54.14075089
Na       42.83184052     78.59095764     40.24567032
Na        7.21532679     60.10550308     27.77962494
Na       26.46872139     19.81153679     13.74793148
Na       37.23622894     16.92877197     26.32864189
Na       36.36404419      1.75643528      6.53099585
Na       34.58403015    -10.89573288     12.38517570
Na       -0.47526580     -5.78423548     36.09109116
Na      -32.10215378     26.89848900     23.93988419
Na        5.49543571      1.91094339    -26.34457397
Na        5.24181414     10.05071545     40.90225220
Na       29.75601006     18.08749771     -7.15909672
Na       18.22226524      6.26738739     21.05916405
Na       13.82319927      5.60679913     28.01039696
Na       29.53490257    -18.66399765     -6.20688057
Na       10.99804878     10.20281219     10.14038658
Na       27.35264397     21.70322418      7.21703243
Na      -10.83733559     35.48329926    -16.26041603
Na       19.05288887     40.58987045     30.81996346
Na       18.64637375      5.07766342     10.60509682
Na       35.84672165     -5.83701134      9.74808884
Na       14.21269226     -2.70013976     26.96618271
Na       23.26374626     38.94159317     25.00753784
Na       28.20000839     14.93267822     35.23798370
Na        9.38313103     -4.73544788      2.29130292
Na        9.14674950     27.74191666     41.09883499
Na       14.75419521     -7.35356951     -2.28277302
Na       22.92019463     21.85504913     22.80011368
Na        9.79208660     16.92611885     -2.88550138
Na       18.43940544     14.60550213     40.24684143
Na        5.48285484     14.52379322     27.66143990
Na        1.93429124      7.68612194     -2.50305057
Na       -3.28203607     -1.62939525     15.16639519
Na       13.02123737     18.54909325      8.91995335
Na      -10.08663559      4.89422703     18.94201088
Na       -9.30400562     -4.32278156      5.21484041
Na       14.81261826      7.85753345     31.10922050
Na      -12.49373817     73.58630371     42.17528534
Na      -10.97200203     -7.76812124     13.46919155
Na       -6.44712400     31.64053154    -23.00571632
Na        4.83073616      8.93302345     31.63997459
Na       33.64287567     -2.95137644     14.11585808
Na       19.89130402    -27.36037064     -7.03844547
Na       10.53051949     12.13208961     25.77206039
Na       19.85305786     23.46029091    -18.90378189
Na       -6.81077147     14.17152500     -2.68644381
Na       10.36267090    -12.26753330      6.00470781
Na        9.51404285     -6.73036289     -6.62568283
Na       -0.76146626     -2.30411506     20.06253815
Na        0.82473207     44.02009201     44.88095856
Na       19.42225266     39.70980835      1.54022074
Na       32.02169800     -5.89378357     -1.25322771
Na       19.29477501     22.54190826     24.39120674
Na       50.86837006     30.31591034     35.54726028
Na       22.59664536      6.78961945     35.53214264
Na       17.50300980     10.21743488     20.95064354
Na       31.62044716      8.69973278     10.81847000
Na       53.89572525     23.80643654     -6.59145403
Na       23.35590935     52.08865738     40.18091583
S         8.26973724     22.22748947      8.39497948
P         7.92336321     24.15793419      7.95172548
S        11.44972610     24.96866226      9.15392494
S         9.20052528     27.43865395      8.79804134
S         6.07041836     24.88927078      8.73974133
P         9.41654587     25.46468925      9.20796967
S         8.72514725     24.98863983     11.10738087
S         8.09887695     24.55710793      6.06377029
S         9.03498173     22.29549408     16.86274719
P         9.37366295     24.23316002     16.69237709
S         7.76006031     26.90492439     18.27976418
S         5.75534725     24.57398415     17.11696815
P         7.55215311     24.98113632     17.94532204
S         9.20182705     25.10388947     14.86576271
S         7.92974186     23.98298264     19.65789604
S        10.96132851     25.06114578     17.69147301
S         8.25491524     23.48200417     23.11059380
P         7.45150089     23.42877007     24.88736725
S        10.32909966     23.90850449     26.29662132
S         7.59333420     24.77437401     28.08509636
S         7.97061586     26.50572014     25.24223900
S         5.66432619     24.33903313     24.61517143
P         8.36800385     24.81384087     26.21882629
S         7.55668783     21.54874039     25.91501236
S         8.53258038      8.71780872      5.73243284
S         9.09399223      7.62267733     10.93511486
S         8.71981907     10.71037769      8.40392971
S        11.43699455      8.05357361      8.49929047
S         9.32765293      5.48682451      8.26660156
P         8.30093193      8.78911304      7.72728443
P         9.47245121      7.42129660      8.94404888
S         6.59616089      8.02064323      8.44062042
S         7.82574415      8.21061325     14.12079716
S         8.50084591      5.01629019     16.53362656
S        10.62827110      8.31025696     16.07623863
S         5.56719780      6.88309097     16.86559105
S         8.29230881      7.11428785     19.25356293
P         8.63304710      8.36666489     16.07232666
P         7.53574800      6.74442005     17.26814079
S         7.99922132     10.18219376     16.97951126
S        10.95656586      7.80510950     25.06071854
S         7.79010010      7.88467598     22.72920036
S         8.63413715      5.07225704     25.43380928
P         7.59470892      8.46422195     24.81231499
S         9.42881966      7.54961681     28.03120232
P         9.18221378      7.08368683     25.86903000
S         8.07770538     10.38128281     25.20278740
S         5.92985106      7.61098814     25.75308990
P         7.81789780     17.30551338      9.53442383
S         8.12261963     16.57787514      5.93282890
S         8.92261887     14.29483509      8.18046856
S         7.42646599     19.27405548      9.03739834
S        10.81519222     17.34231758      8.10307693
S         9.39153290     17.00276375     10.78709030
S         6.10816622     16.33782196      9.75593472
P         8.88729382     16.33635139      7.74528456
P         9.16679478     15.74646473     16.40396309
S         8.17729950     16.48694229     19.82345963
S         5.64943075     15.73803234     17.58474922
S        11.03953266     16.27974701     17.05311775
S         7.07124329     18.71704102     17.38959885
S         8.35001564     16.33906555     14.51190281
S         9.11021614     13.64574623     16.65858078
P         7.38699532     16.75343323     17.79820633
P         7.97669554     17.11152458     26.25107574
S         9.19340420     18.33865356     25.12702179
S         8.45523262     17.14805603     28.22908974
S        10.39336300     14.91585732     25.30416679
S         5.99695015     17.03918839     25.62411499
S         7.70757771     14.94132423     23.28227997
S         7.52834606     13.68742466     26.47613144
P         8.41208649     15.02525043     25.37806511
P        17.97923851      0.09653100      9.24127960
S        19.86733818      0.23234528      8.82508278
S        14.92153454     -1.08995879      8.10300827
S        17.03701782     -0.42220634      5.73148108
S        17.34457588     -3.00830817      7.84850168
P        16.83294296     -1.23798835      7.54408598
S        17.29814148      2.11108851      9.39706326
S        17.31881523     -1.03849614     10.89987850
P        16.13102341      0.21903625     17.67660713
S        16.32076073      2.21559095     17.29435539
S        16.66942024     -0.77357316     14.29714012
S        19.22322464      0.11085510     16.33971405
S        17.55141640     -2.84799504     16.77325439
P        17.53097534     -0.83376306     16.11072350
S        14.17644596     -0.33495897     18.01801109
S        17.03176308     -0.14854564     19.55568504
S        16.88958740     -0.31319356     22.84872818
P        16.09165573     -1.09588850     24.67646599
S        16.48144913     -0.48064420     27.96412277
S        17.03526306      2.11857057     25.80710602
S        19.04078484     -0.38385954     26.13645744
P        17.14402580      0.04457994     26.17811394
S        14.12857533     -0.62259126     24.99221039
S        16.31410789     -3.05624223     24.75838470
S        17.49109077     10.51364422      8.79053879
P        17.03529549      6.95448112      7.75903034
P        18.25799751      8.52825642      9.11604786
S        15.11001778      7.57551193      8.19367218
S        17.56852531      5.09091425      7.99431705
S        20.20162773      8.01265812      8.57500648
S        17.46776199      7.42772627      5.92006302
S        17.96650124      7.99685001     11.04882431
S        16.35237694     10.53820419     16.37226295
P        17.27845573      7.28093576     17.52160263
P        16.34685135      8.58533859     15.80934429
S        16.25964165      7.64524126     19.15932274
S        19.29669952      8.09662342     17.79508018
S        14.36421394      8.02669525     16.17070770
S        17.34627151      5.43441916     16.69023514
S        17.39922714      8.45731544     14.15267944
S        16.63599968      8.20330715      2.64028192
P        16.10279083      7.40546799      0.94363189
S        17.62914085     10.29418850     -0.10993262
P        17.69059181      8.25006580     -0.60156298
S        16.75397491      7.90264511     -2.44666672
S        16.29002380      5.29947090      0.77908283
S        19.40110779      7.44817638     -0.08536943
S        14.31742382      7.71537399      0.03050603
S        14.32950974     16.24648666      7.39369440
S        16.57227707     17.21955490      5.30194092
P        18.06701851     16.01724243      8.43713093
P        16.29045105     17.08593750      7.28667879
S        19.86526108     16.61266518      7.56178188
S        17.71452141     14.18646812      7.62395763
S        16.13665390     18.96350288      8.25760555
S        18.04882050     16.30140305     10.39155674
S        16.15307808     14.01701641     16.20527267
S        13.83402443     16.46745491     15.93002033
P        17.08487511     17.47760582     15.85460472
P        15.68646526     15.91908932     16.67603874
S        17.24553108     17.56402016     13.81510258
S        18.75075531     16.71382713     16.48923492
S        15.78002262     16.36293411     18.87425613
S        16.60582924     19.18937874     16.75197411
S        14.22441483     15.47766685      0.11676292
S        16.98497581     15.98476982      2.12290812
P        16.20615959     15.19852924      0.45683801
P        17.42905235     16.49571609     -1.11228728
S        19.42070198     16.08401871     -1.18764997
S        16.72695351     18.50107193     -0.36444071
S        16.91709900     13.36229324      0.07513797
S        16.69089699     16.08284378     -3.12742734
P        25.88607025     -0.89051431      7.53337812
S        27.90025520     -0.71240419      7.94838524
S        23.02016449      0.49119365      8.55038071
S        25.48749542      0.18468024     10.74093723
S        25.11674881     -2.59274745      8.19508076
S        25.71694946      2.45379353      8.44316101
S        25.28903198     -0.67882311      5.54802275
P        24.92026711      0.65689552      8.92006588
P        25.03471375     -0.32780689     17.62985420
S        25.55779266     -2.39152932     17.38060188
S        25.70074081      2.52314067     15.84094524
S        28.30181503      0.23515889     16.55007553
S        25.28455734      0.52713341     19.54632950
S        25.34856224     -0.56805211     14.64769173
S        23.06954193     -0.17812346     17.08050156
P        26.37300491      0.50980324     16.08260155
S         2.11394954     24.80298805     25.54257965
P        -1.13905227     24.18930244     24.38146019
S        -3.05701852     25.00685692     24.46782875
S        -0.32023942     25.20754814     27.64599800
S         0.07446783     27.25206375     24.63340187
S        -1.02956128     22.32734871     25.04043198
S        -0.46703655     24.02113724     22.46003532
P         0.27587456     25.49373245     25.64682198
S        -1.92273819      8.07445812      7.76339960
P         1.55783689      8.16360283      7.93446112
S         3.11299944      9.13240337      8.84480381
S        -0.23249622     10.90934372      8.86878681
S         1.37362826      8.94450951      6.06299067
P        -0.35153073      8.95656681      8.87840939
S        -0.38152695      8.15090942     10.78923225
S         1.34377921      6.07958317      8.12354946
S         0.21608245     10.66332150     16.62547493
P        -0.38081020      7.57197380     17.80412292
S        -0.39513147      5.50080919     17.27502060
S        -0.42711678      8.45396996     14.35816669
S        -2.45182514      8.09444237     17.64249420
P         0.66848487      8.81466293     16.03550911
S         2.46941710      8.04217243     16.00647354
S         0.47320253      7.88696384     19.51081085
S         2.42748618      7.58332729      0.54836488
S        -2.80603647      8.00622749      0.47336668
P        -1.09389830      7.29042959     -0.30432805
S        -0.88821274      5.23505831     -0.12306754
S         0.09725444      7.97324657      3.06630135
P         0.55588043      8.37407875      1.13064551
S         0.31016174     10.35530758      0.50767785
S        -1.11083913      7.59575796     -2.29528356
S        -0.56448781     16.45906639      5.36030388
P         1.09031653     17.32752037      8.38178921
S         0.84630471     16.81511688     10.31282234
S        -2.43000031     16.12699127      8.04295444
S         0.13937384     19.17004204      8.00417900
P        -0.45264044     15.90032387      7.26478624
S        -0.10858447     13.91094112      7.59514093
S         3.04065514     16.84788704      7.59617329
S         0.14749227     13.77988148     17.24186134
P        -0.45103279     17.44261742     15.77510548
S        -0.05031939     19.18650436     16.65570831
S        -0.47319502     16.02324104     19.28457069
S        -2.44501567     16.62987518     15.93900108
P         0.39339873     15.82629681     17.53287697
S         2.23212099     16.56296349     17.37405014
S         0.44306719     17.09384727     14.02875519
S         0.44717532     15.87785721      2.27591348
P        -0.50872451     17.25490761     -1.05827606
S        -0.30490673     16.99111938     -3.27456903
S         0.22929259     18.99965477     -0.28775370
S         2.75245738     16.46178055      0.09790999
P         0.78874791     15.69062996      0.10071799
S         0.37479833     13.84505177     -0.77869844
S        -2.49004960     16.75257683     -0.60927176
S         2.37189317      3.56073570      3.32695413
S         4.85167933      1.18070519      3.65227461
P         5.08276081      4.23759985      5.20914125
S         3.97515941      3.22316122      6.65456343
P         4.37374115      3.11586761      3.44152546
S         4.69506311      6.21867228      5.48279190
S         7.16688919      4.18162823      5.07378674
S         5.52632189      3.74882269      1.77431440
S         7.12289810      3.48948264     12.39823532
S         4.95852566      6.40281534     12.10118675
P         3.71818662      3.44215965     13.02114677
S         4.33830023      3.34020972     14.96715832
P         5.31568527      4.36304665     11.78611469
S         3.46952295      1.51549578     12.44565582
S         2.06510115      4.56847286     12.57739830
S         5.10493612      3.88850069      9.74209309
S         3.98026872      6.16745424     22.01311874
S         3.62980938      3.76170659     24.10631371
P         4.62595034      3.21050620     21.02613068
S         4.05936623      1.30250275     21.12109947
P         3.21330166      4.35480261     22.21334648
S         6.56100273      3.46548939     21.81631470
S         4.32776642      3.95863104     19.11349869
S         1.27631545      3.98654675     21.70826340
S         4.64142179      9.61820221      3.46719885
S         4.50825167     12.05497360      1.41991258
P         4.92746305     12.80017948      4.90771008
S         4.27933407     14.73276329      4.52908993
P         3.89740276     11.53717804      3.41247988
S         6.83316278     12.88000965      4.60205173
S         4.52600384     12.22183990      6.76274443
S         1.82293761     11.71523857      3.71512389
S         3.91028857     13.21501732     15.13663197
S         1.93101454     12.85361958     12.48200893
S         4.23973942     15.38105488     12.53430843
P         5.05864096     12.09367752     12.22925282
S         4.93133688     12.46321774     10.30384827
P         3.68426800     13.57237720     13.14944172
S         4.36905813     10.14482021     12.69325161
S         7.05026293     12.32067108     12.82215214
S         4.39025259      9.24757290     19.40399933
S         6.63674593     11.35456562     20.82576370
S         4.44270325     12.21896744     18.28171158
P         3.19635773     11.71776581     21.49827576
S         3.72737670     13.59817982     21.91720200
P         4.73093843     11.12328339     19.97487259
S         3.61050892     10.38780403     23.07452011
S         1.51481998     11.36021328     20.73991776
S         0.93265301     20.94376564      4.62132502
S         2.23217106     20.57222366      1.56316960
S         3.05652308     23.37561226      3.34251761
P         4.41136742     20.47771072      4.45493555
S         5.99648952     21.06288338      3.36111641
P         2.52828383     21.38606453      3.48749638
S         4.08399296     18.59399986      4.05927420
S         4.48986292     21.09582520      6.39923954
S         5.03419638     23.34686279     13.31009483
S         6.89792538     20.61443329     13.00717354
S         3.94697857     20.60814857     15.20113277
P         3.52810979     20.65859604     11.81131172
S         1.83127952     21.86064911     12.12888527
P         4.86572886     21.28164101     13.53941822
S         3.27218223     18.73450279     11.87751865
S         4.40239525     21.07350731      9.98602009
S         3.49723125     21.14582443     18.60327530
S         3.62006569     23.02631760     21.63368988
S         1.13630104     20.63881493     21.15632629
P         4.20864677     19.43052483     21.48372650
S         6.19320536     19.85035324     21.07123184
P         3.02297378     21.19195938     20.68138313
S         3.50433278     17.57654190     21.09937668
S         3.94626546     19.78222084     23.65523148
S        13.51287270      2.57234836      7.04223680
S        12.77798176      3.37893867      1.80205894
S        10.45386028      3.49205852      4.47876978
S        12.48968601      0.90197933      3.95066643
P        13.60315418      3.70613050      5.30606270
S        13.04313469      5.69232130      5.54016972
P        12.26956367      2.92933941      3.76344490
S        15.36048126      3.39057255      4.28974342
S        15.41180038      4.90730667     12.52846432
S        12.68315220      1.17126048     13.82141113
S        10.42461300      3.56376553     13.48592472
S        12.49803543      4.04472780     15.83491802
P        13.32669640      4.68751144     12.22537327
S        12.56770039      6.41599321     12.80126762
P        12.38906479      3.27933407     13.97402191
S        12.85864830      3.67242980     10.50203896
S        14.77001381      4.58875036     21.58311272
S        11.96110916      2.86603928     24.04294777
S        12.39946747      1.00251341     21.46667099
S         9.81717396      3.05952549     21.30021095
P        12.76229000      4.70124674     21.12452316
S        11.48101234      5.91480684     22.11845589
P        11.73579025      2.87336326     21.95401382
S        12.33551216      4.39037037     19.12407494
S        12.31634140     14.72863197      3.83693624
S        15.30493259     12.20552444      4.54335308
S        12.95120239      9.38485241      4.25930548
S        13.06824970     11.78028202      6.77713442
P        12.17033100     12.75446033      3.39585161
S        10.25776005     12.05427551      3.62041855
P        13.48429108     11.36130142      4.71048594
S        13.11772537     12.34270573      1.61482239
S        13.58007622     12.28758717      9.71643639
S        10.40167427     12.12704182     11.97470760
S        12.28693962     14.63976383     12.36750889
S        12.00695992     12.16117191     14.86916447
P        13.69790745     11.81666946     11.66458035
S        13.40750885      9.75633526     11.90116787
P        12.07085705     12.67861843     12.86059284
S        15.44855499     12.51756859     12.46634102
S        12.53606033     11.07554150     23.27417946
S        12.61356544     14.28782654     22.04509544
S         9.82781410     11.85031891     20.65618324
S        11.87084198      9.42173767     20.01549339
S        12.66174889     12.26375580     18.40990067
P        12.99396706     12.33924580     21.53955460
S        14.87101936     11.95034981     21.30234909
P        11.61906052     11.45030022     19.99657822
S        12.83329582     20.40463829      0.89649433
S        12.72545624     18.04736328      3.08341384
S        10.38337803     21.27028847      4.68491840
S        13.10663700     23.14448547      4.42725372
S        13.36469746     20.14683342      6.19925117
P        13.43758202     19.92609024      2.87281990
S        15.35651302     20.15528870      3.05927062
P        12.47618675     21.07404709      4.56585407
S        15.35931969     20.22251511     12.21766949
S        12.82505894     21.18036461     10.12915897
S        12.76262569     23.18584442     13.53561401
S        12.58712387     20.10488129     15.21339035
S        10.43222141     21.11361885     12.58278084
P        13.40253830     19.94052505     11.84935665
S        13.01047611     17.95652199     11.52520275
P        12.27576256     21.34731865     13.50433350
S        12.35108089     22.80037498     21.72869110
S        12.51867771     20.83757401     18.61174965
S         9.64542389     19.89657593     21.05252838
S        11.81751251     19.54265022     23.56472206
S        12.15469170     17.77085495     20.61239815
P        12.88712311     21.01395798     20.74849319
S        14.87177563     20.33212090     21.16056061
P        11.57184219     19.43961906     21.52027893
P        22.48399544      4.64528608      5.05483866
S        20.90212822      1.10863018      4.97969770
S        20.65623283      3.10521674      2.23014593
S        21.74405289      6.34140110      4.29669714
S        24.09918594      4.13647223      3.94992757
S        22.55753136      4.24995899      7.08993101
P        20.92138481      3.07673454      4.22107506
S        19.22357368      3.92838740      5.02786207
S        21.33611870      4.52318859     10.50576305
P        20.78077888      3.49875975     13.76504230
S        24.17431450      4.32030296     12.22954082
S        21.55124474      6.66976309     13.02689075
S        21.14169884      3.88454890     15.63116550
S        21.17577171      1.55574584     13.10206699
S        18.86081123      4.00202084     13.15070820
P        22.08194733      4.74083805     12.42724323
S        20.32906532      1.05914736     21.69278336
P        21.30326080      4.33289576     20.74708939
S        18.16775894      3.82283688     22.22929382
S        20.59916496      3.36693811     24.28993797
S        20.23899651      3.81680322     18.96237183
S        23.17477417      3.46954989     20.81356621
S        21.26118660      6.26333284     21.05097771
P        20.09582710      3.02581549     22.14837837
S        23.71459770     12.18677902      4.11596346
P        20.30614090     11.86028862      4.01560831
S        21.63234138     14.72288132      3.24836159
S        22.14742088     11.88076973      1.08785903
S        18.63584900     12.73039246      3.22344875
S        20.38787079     12.22804356      6.14713192
S        20.63777351      9.86083794      3.98057175
P        22.12456703     12.65821075      2.96364856
S        19.55514526     12.21238136     14.73443222
P        20.88298798     12.94318962     11.68642521
S        22.87253380     12.62901306     14.62350941
S        21.50905800      9.95432758     12.98152637
S        22.25150108     12.13464546     10.30711746
S        21.26007080     14.91885185     11.67658520
S        18.95129585     12.53439713     11.26676655
P        21.20095253     11.85824680     13.66921997
P        21.41432571     11.47051334     21.77864456
S        23.59067917     11.66705894     21.60124397
P        20.72122192     12.72693539     20.01837921
S        20.53561592      9.61748028     21.68169594
S        20.87272453     12.30932713     23.44367027
S        18.59765625     12.76235485     20.05840683
S        21.45713425     11.69152546     18.52122498
S        21.20092583     14.70772266     19.98149109
P        21.56540108     19.80747414      3.05060959
S        23.60920715     19.99094582      3.18302584
P        20.72296143     21.25996017      4.70298290
S        20.72710609     20.82385445      1.44733799
S        20.90472031     17.97674561      3.71043110
S        18.66106796     21.40032768      4.54578590
S        21.71902657     22.97202301      4.29877853
S        21.32861328     20.39251328      6.39912939
P        20.86618996     21.87046432     12.89939690
S        21.49312973     23.67345047     12.29417515
P        22.44385719     20.36511421     12.18739128
S        20.77455521     21.27146912     14.90211964
S        19.03613853     21.44578743     12.06011581
S        22.30820465     18.25103951     12.25660133
S        24.16349983     21.25252151     12.77317810
S        22.19463730     20.84885788     10.19423008
S        21.08983803     20.68974686     18.15874100
P        20.13328743     21.45199203     21.42705536
S        20.89144516     23.24021339     21.02092743
P        21.50138474     20.14485168     20.01098633
S        20.69786263     20.61585426     23.18741989
S        18.18215752     21.06808472     20.85746956
S        21.34240341     18.04163361     20.51305199
S        23.37280273     20.56732750     20.43844986
