648

Na      345.34118652     50.31004715     94.95407867
Na      274.66998291     52.36425781   -211.91369629
Na      -48.35489273   -156.83602905   -164.04730225
Na      -31.38872528    132.64105225   -272.35144043
Na      140.98547363     36.37511063    -19.17875671
Na     -258.86026001    275.68899536     82.45734406
Na     -343.03210449    -31.88629150    -54.28141785
Na       73.05873108     44.18754196    177.24765015
Na     -231.71179199    179.93493652     81.86187744
Na      112.23906708     65.87783051   -153.32032776
Na      -54.30158234   -113.82662201   -219.04983521
Na       18.49466324    -11.09927368   -121.34086609
Na      318.63491821     59.08159637    127.58703613
Na      149.90446472    230.00639343   -257.96014404
Na       18.10290337     60.32591248     47.90092850
Na     -107.55696106   -147.23103333    118.81548309
Na       95.72422791    -10.90420532    116.69082642
Na      -95.56205750    221.51463318     52.26172638
Na      157.97184753    -32.24048996   -121.91227722
Na     -125.29721832    -33.16968536    188.39541626
Na        9.81514263    132.08932495    200.60322571
Na        0.82595646     48.49839020     -9.27863884
Na      -95.77738190   -120.33604431   -128.27264404
Na      -42.51440048     55.67012787   -124.44480896
Na      120.43687439    120.33213806     65.33734131
Na      -68.82209015   -118.24447632    -99.53914642
Na     -100.04026031     77.42299652      6.19610214
Na      285.71566772    217.71861267     60.23914719
Na      103.06391144    164.66410828     56.04605103
Na      -47.58323288    -40.47801208    -74.64353943
Na       -7.24550676     48.04410172    -58.18120956
Na     -481.58538818    170.56230164     81.63912964
Na      -11.37356377     -6.99160337    -49.58405685
Na      263.48229980    -16.31011772    197.04489136
Na      136.91595459    -45.39790726    336.43035889
Na      -16.93223763   -185.61480713   -116.89832306
Na      -75.43257904     56.86321259     86.13732147
Na      264.06735229   -142.49511719    -15.63629246
Na       43.02705765     25.98001671     40.35984421
Na      150.90301514    121.09056854     28.66857719
Na      106.79180145    -23.51654625   -147.43666077
Na      141.63055420    106.90958405    268.38812256
Na      -10.08134651     22.22062683      4.35345030
Na       60.87345123   -158.93699646    -82.13040924
Na      108.27104950    -36.17732239    267.96423340
Na     -125.01750183   -140.21583557   -184.81587219
Na     -116.63727570    -75.43174744   -105.15065765
Na     -171.99765015     -3.52656031   -292.64700317
Na       13.38725567     94.08776855    397.73992920
Na      103.40435791   -162.49343872     58.88859940
Na        5.35314083    -69.87386322     86.70399475
Na      -83.51823425    151.65245056   -349.81115723
Na     -126.46569824      2.00863194     62.46858597
Na      107.68042755   -114.00929260     44.47093201
Na       22.76828575    -41.45683670   -142.15127563
Na      302.64819336      5.44014597     -5.75799608
Na       78.12712860    -92.23438263    -28.56628990
Na     -142.25108337    -70.01139069     61.67098999
Na     -258.91406250     36.71723938    217.46215820
Na       44.12706757    251.72929382   -176.43095398
Na       15.41626835    103.19343567     56.13730621
Na      -20.17499733    131.83042908   -315.82687378
Na        7.69353676     66.88515472   -129.86233521
Na      -40.75435638    144.57579041    157.41741943
Na      -57.68644714    136.41575623   -143.65443420
Na      106.20368958    179.77833557     -0.19445874
Na       22.76236343     39.55402756      5.80190086
Na      157.36318970   -352.69201660    -83.55952454
Na      -92.09403229     21.74900055    399.87182617
Na     -147.78941345    120.70718384   -206.84146118
Na      176.19898987    110.16442871    107.56295776
Na      189.53897095   -152.16195679   -161.14970398
Na       18.19348145     20.11695671    -39.99036789
Na      235.00752258     90.55471802    336.64562988
Na      121.27863312    272.90487671    195.38848877
Na      -15.22503376     -6.73797703    192.04112244
Na      149.77778625   -187.04490662   -135.85505676
Na     -287.22100830    -66.87657928    120.32685089
Na      124.14905548    -40.17225647    -79.42054749
Na     -244.91433716     26.22718811    365.74841309
Na        9.88229847    200.17518616     73.35079956
Na      214.02450562    163.62915039    205.27819824
Na      141.58152771    -91.78575897    -62.53658676
Na      -54.72578812     -2.74922872     94.27997589
Na       78.11582947     94.61492157   -125.87928009
Na       77.85310364   -165.19462585    -64.96965027
Na       10.25144386   -169.21296692    117.54174042
Na       86.88623810    -32.86137772    229.75550842
Na       47.75258636     96.06310272    121.98185730
Na      -62.36309433     23.77385139    -17.48629951
Na     -226.80480957     80.26247406     26.91455841
Na       74.65529633     25.24221992     -7.33020687
Na      268.44754028    -41.28180695   -168.51943970
Na      443.18820190    115.45040131      5.68593454
Na       51.25968552   -282.69158936     46.71553040
Na       44.16011810    247.28561401     52.88302612
Na     -163.55619812   -341.25396729   -221.48344421
Na       11.78966141    348.55657959   -170.11996460
Na     -219.04548645    181.15258789     95.72535706
Na       53.03060150   -155.67555237   -145.06649780
Na       26.59478951    166.37628174     53.16117096
Na       19.64870453    -55.32696915   -154.90182495
Na       40.44086075    -36.85631180    103.78922272
Na       31.47359657    182.95140076     97.50081635
Na      239.88194275    -45.97589874     51.30768204
Na      274.15219116     39.40359116    -53.23646164
Na      -70.52746582     -7.17912865    -36.67714691
Na      -88.14809418   -165.09938049     -6.46650028
Na      -78.99132538   -155.18835449    -62.54039001
Na      -28.58201981    -99.93823242    -24.37038803
Na      128.48843384    183.96755981    107.92012024
Na     -172.61164856   -105.13371277     68.57180023
Na      -15.41284847    224.79521179     86.49233246
Na      -87.71082306    103.17700195    -63.25393677
Na     -198.47253418     92.47389221    -33.03985596
Na       65.23423767   -227.75593567     52.29962158
Na      239.76049805    157.21813965    192.74760437
Na     -240.33706665    233.80386353   -130.52662659
Na      -91.31304932     63.39574051     38.85280991
Na     -247.88925171   -102.59618378   -187.20278931
Na      -87.30397034    -53.03067780      1.27345836
Na       -6.38157797     55.77510452    -36.95724869
Na      177.76469421    -36.62914658     18.82294273
Na      -96.30972290     -1.78349805     59.53403473
Na      212.90673828     -3.16452599    -49.81198502
Na       17.97690582   -148.84333801     29.49110794
Na      195.75968933    255.27972412     77.51281738
Na      111.68231964     40.87016296     42.19068909
Na      275.28012085    -14.66008663      4.85341692
Na      119.76875305    -78.32444763    -41.15810013
Na      -19.74067116    -41.54530334    -10.79268169
Na      185.97158813    166.92985535     52.77908707
Na       82.13459778   -332.35635376    132.61120605
Na      -32.65609360    158.51287842    204.45741272
Na       25.46592522    -68.45745850    154.30895996
Na       56.78145218    -40.99483490   -172.35353088
Na      302.64288330   -247.75068665    125.33690643
Na      177.33430481    -10.87919903   -139.76142883
Na      -83.74365997    -16.49307251    -36.37967682
Na      -24.03412628     29.29896164     69.58463287
Na      197.19744873   -159.60060120      6.72309732
Na     -117.58799744    -49.63303375    -45.50932312
Na      -83.24607849   -138.96386719    -57.12411118
Na      -45.67564392    319.23483276    127.46086884
Na       56.80103683    160.55973816    -58.10537720
Na      116.90424347     47.29258728    251.59580994
Na       43.97187042     12.61968422     36.16591644
Na     -104.08812714     94.90251160    -63.28996658
Na       -7.36348867    200.99688721    141.38717651
Na        4.98614168    -23.53431511     36.01670074
Na      189.74412537    267.60852051     86.70162964
Na       37.79338074   -100.56478119     60.05619431
Na      -49.28313828     17.54303169    320.97326660
Na      -75.91645050    -67.07539368    -36.39751053
Na      129.82499695      0.67397529    -85.81394196
Na       26.20122528     18.63999176   -131.20799255
Na       -7.35082150   -122.15107727    -54.01895905
Na      205.78002930    -96.60503387     23.46181107
Na      112.65824127    174.49165344    157.15780640
Na      120.28475952    -50.58792496    -53.27467728
Na      -28.15497208   -151.18887329     39.52136230
Na       -3.64187241    -15.22751331    170.60690308
Na     -125.92205811    106.96169281    242.18780518
Na       52.91485977   -219.42764282    211.38604736
Na      175.40650940   -215.33004761    231.34191895
Na      -86.69816589    -20.07268143     61.54752350
Na      -19.05809784   -152.04203796    -54.77851868
Na      163.14825439    251.54716492    116.58596802
Na     -101.09197235    -53.52420807    213.91979980
Na       57.02139282    251.18139648    124.16396332
Na      -53.70563507    -78.05777740    127.18851471
Na      -54.29852295     56.05080032    -66.11602020
Na       48.80097961     15.38724422    251.13426208
Na      -10.00450325     -9.48130322     35.99363708
Na      183.72290039     35.83353043    226.02026367
Na       30.43878555   -130.47406006     27.38294983
Na      -71.38726807    -31.26180077      9.13994980
Na      378.79226685   -101.20467377    161.57359314
Na      -28.72569466     17.43425179   -220.12278748
Na       39.97441864    -10.39174652    225.92446899
Na     -121.73912048    -65.97621155     86.77217102
Na       53.81393051    -64.53230286    243.45249939
Na     -379.68551636    -61.94069290     74.21303558
Na      191.45091248    148.10153198   -108.77924347
Na      -93.06636810     51.47661591    178.85740662
Na      314.42382812     89.50047302     20.14787102
Na       86.29818726    186.98707581    201.56939697
Na      -32.26825714   -113.19358826    -24.10323334
Na      200.13128662    -96.54006958    231.84378052
Na       -6.70529222     -8.15634155     75.35303497
Na      127.38604736     58.54680252     69.48647308
Na       56.37788391    132.71925354    133.67298889
Na      115.71952820   -100.78953552    200.73410034
Na      187.52639771     60.50747681    158.10333252
Na     -228.46452332    254.60086060    127.97164917
Na       17.33847237   -175.96865845    -56.34960938
Na     -150.63496399    178.97688293     -3.46357703
Na       90.64743805     23.23713493    -37.80150986
Na     -260.97006226   -143.02282715     25.77534294
Na       27.77312851    123.93228912     -0.43918997
Na      369.61682129    187.08975220    -57.64782715
Na      217.09242249    146.58253479   -216.24909973
Na      193.71609497   -119.99059296     82.26747131
Na       48.33879089    187.58998108    152.85990906
Na      -33.31365585    162.86065674    -46.59474182
Na      -32.76777649     52.47286987    238.82575989
Na      -93.45372009   -201.58915710    -37.44623947
Na     -104.55438232    148.47908020    -40.79896164
Na      142.42337036    140.89988708    115.98085785
Na      149.67881775   -120.85462189     40.00682831
Na     -164.78161621      5.36763477     30.59797096
Na     -161.09988403   -135.23771667     -6.36245728
Na       41.48229218   -184.53327942     81.13664246
Na       13.01363754    -13.52853966   -256.43527222
Na      203.24160767    200.59866333   -123.40555573
Na     -113.99658966    259.22924805     18.10886383
S         1.18922865     25.14557076      3.76507664
P         2.90513802     24.25033379      4.27805471
S         3.47006917     24.78176117      0.83461207
S         3.78592324     27.29130554      2.71466255
S         2.88940406     22.17743492      4.07163143
P         4.14682674     25.22956657      2.62389898
S         6.10975981     24.68194389      2.88191676
S         3.50928974     24.82377434      6.15175152
S         3.52952027     23.84125328     14.71064949
P         2.74408245     24.78138924     12.87882900
S         5.67257500     24.18422508     11.38469601
S         3.24347925     21.80283928     11.02128315
P         3.70036983     23.84509850     11.08911514
S         3.31549954     26.71734047     12.77713490
S         2.98016071     24.86478233      9.46022320
S         0.66846335     24.50598717     12.63457298
S         0.68152887     24.63773346     20.02015877
P         2.65629220     24.86287498     19.43945122
S         5.66384268     23.64033127     20.04168129
S         3.01654768     21.72687340     20.75495720
S         3.71288514     24.40397453     22.70596504
S         2.97884059     24.24115753     17.42169380
P         3.92090917     23.54195404     20.82060242
S         3.29465008     26.71519852     19.49983978
S         4.26627302      9.80531025      3.72494769
S         4.59631395      5.48949432      3.38975906
S         3.98448944      7.83764935      6.28993940
S         2.57979798      7.47155190      0.99874949
S         1.37502205      5.67207432      3.67094302
P         2.89969802      8.32732487      4.54992342
P         3.08698559      6.66027069      2.90754986
S         1.03179300      8.95430756      5.03053236
S         2.93489742      8.03888416      9.84097481
S         3.91501641      5.01419449     12.35141563
S         3.26282668     10.19130516     12.32753181
S         3.33475304      7.36497879     14.81963539
S         6.00282335      7.85013437     12.73972797
P         2.70346236      8.41621017     11.87978458
P         4.04095173      7.05957365     12.94532776
S         0.80779183      7.97033167     12.26331139
S         6.20850754      7.47735310     21.02455139
S         1.02126360      6.80654287     20.99489403
S         3.76342654      7.86001301     23.24255562
P         2.93195581      6.37742805     20.19631577
S         3.82296896      9.72962666     20.54672623
P         4.21736622      7.82923412     21.19388771
S         3.28368378      4.45415211     20.91336060
S         3.24766827      6.32868910     18.26229668
P         3.24838352     14.89038944      4.65489006
S         6.03876543     16.33086205      3.43649507
S         3.34808874     18.26251793      3.41715026
S         1.26682603     15.07134438      4.67316818
S         3.55858207     16.01075554      0.85451281
S         3.89487147     15.83412933      6.31400967
S         4.01957464     13.03534698      4.29531670
P         4.06466770     16.36297798      2.95165300
P         4.71265650     16.74713326     11.49178314
S         1.63492215     16.15511131     12.91892719
S         4.12908316     16.22397232     15.10143089
S         6.74375963     16.53407860     11.65603161
S         4.23208475     13.63159752     12.92937469
S         4.00960207     18.70516396     11.88090515
S         3.97505569     15.92511845      9.67253971
P         3.51215386     15.51238537     13.14116001
P         4.25705481     15.20976448     20.91554642
S         6.16093969     15.42570114     20.15106773
S         3.74855828     13.27857971     20.97653580
S         2.19145823     15.34700584     17.91508293
S         4.23191023     16.07503319     22.85064316
S         2.88959956     18.17853928     19.78587151
S         0.66419351     15.84058285     20.94225693
P         2.34808278     16.12782669     19.82010269
P        12.55490589     -0.47182086      4.25948238
S        12.36827660      1.57147002      4.23311424
S        12.42336369     -0.42210874      0.63172162
S        12.07304764     -3.37459612      2.15548134
S         9.68558502     -1.00435221      2.71479845
P        11.61467361     -1.34301889      2.27760482
S        11.60858917     -1.31379151      5.93388176
S        14.55405521     -0.77668297      3.89091396
P        11.94876289     -1.70183039     11.03505802
S        13.78115082     -0.85001260     10.63488197
S        11.23649406      1.65100837     11.90346527
S         9.18937588     -0.78711963     13.15591812
S        12.42930603     -0.48898268     14.20524693
P        11.07036495     -0.22438669     12.65522766
S        12.13843918     -3.49606323     11.88880253
S        10.97352505     -1.20557404      9.32486248
S        11.96313286     -1.15176570     23.12492561
P        12.59850788     -1.88127637     21.20714188
S        11.98136330      1.00580084     19.52723122
S         9.37904358     -1.02656651     20.02398682
S        11.83437252     -1.90245986     17.86011887
P        11.26695442     -0.96386892     19.59316254
S        14.54547405     -1.40706706     21.15714645
S        12.21976852     -3.86550474     21.10724831
S        11.92535973     10.18264008      3.92824960
P        10.68421459      7.24052382      2.95444918
P        12.33580112      8.26840019      4.21225119
S        10.97489262      5.29028702      3.16437936
S        10.89089298      7.80637932      0.91955614
S        14.09318733      7.68865538      3.45769691
S         8.79193592      7.30956030      3.80743933
S        12.17282963      7.82474947      6.25843763
S        12.29358959     10.89398670     11.94562817
P        13.07112408      7.32730103     13.09464359
P        11.57628727      8.94623470     12.14448452
S        15.12280083      7.53939724     12.66918945
S        12.45658207      5.56336498     12.32833672
S         9.68393803      9.03019524     12.77729797
S        12.60769558      7.42152548     15.13998699
S        11.76943588      8.24098206     10.18540096
S        11.85953999      4.64814568     -4.67037582
P        11.21989918      6.82814980     -5.24403572
S        12.26460266      7.40629768     -2.25212860
P        12.79140568      8.08224964     -4.08064699
S        11.96126080      9.98137856     -4.24062252
S        11.26429462      7.39743471     -7.18543577
S        14.58214378      7.96958542     -4.77855444
S         9.44688988      7.11417723     -4.47667122
S         9.79002285     16.28255081      2.63692284
S        12.10600471     13.38798046      3.33213758
P        13.17177105     16.76552010      4.13901567
P        11.80246639     15.32697964      2.58393025
S        12.51205730     18.55904770      3.72276473
S        15.00760937     16.38101578      3.75710130
S        12.64833927     15.84209728      0.72540569
S        12.13461018     16.09216881      6.01817131
S        12.72967434     15.94896698      9.72157383
S        11.42786026     18.52760315     11.58560753
P        13.01965618     15.69464970     13.17195892
P        11.61748314     16.48043442     11.40979385
S        11.68314648     16.35367203     14.46726418
S        14.80332470     16.60542870     13.40106773
S         9.90648460     15.47371197     11.32693386
S        13.14092541     13.78931332     13.04224968
S        12.29363155     16.42601395     -2.87530327
S        11.99463463     13.40990543     -4.36738729
P        11.60019779     15.38614464     -4.55581903
P        13.05147839     16.13434029     -6.13057947
S        12.72086525     15.13598156     -7.71434689
S        14.90170097     15.38786793     -5.60308647
S         9.85362720     15.94834232     -4.68652964
S        12.72794724     18.17551422     -6.05187654
P        20.05594635      0.13831571      2.94448972
S        20.67064476      2.11471057      3.31710625
S        23.45627594     -1.09044564      2.94332528
S        21.27944756     -1.05165505      5.95347452
S        20.26445961     -0.08989979      0.95432591
S        20.88258553     -3.20840788      3.47410083
S        18.07239914     -0.51447004      3.60491490
P        21.78043175     -1.42474377      4.04991722
P        20.86463547     -1.38899171     11.15930367
S        20.26622391     -0.37382057      9.39335823
S        18.03197670     -0.25185564     12.34682369
S        20.63057899     -0.59255981     14.65464401
S        22.85387802     -1.36321807     11.23441601
S        21.00075531      1.68890417     12.09842014
S        20.22302628     -3.23025560     11.83885670
P        19.95384216      0.09491112     12.72707748
S        -4.99117947     21.74343491     20.54866600
P        -6.00620174     25.27630424     19.68061256
S        -5.81209803     24.55060577     17.77705193
S        -4.64292336     24.00022125     23.09729576
S        -2.75661731     24.38599586     20.32313919
S        -5.09346581     26.95254326     20.39579582
S        -7.86435366     25.02131844     20.26890373
P        -4.54838514     23.76100731     21.11025047
S        -4.56836700     10.19483948      2.08287883
P        -6.10513687      7.39226246      3.98124313
S        -5.63736057      8.74895477      5.53869677
S        -4.85126448      7.23658323      0.71858543
S        -5.54303789      5.41900969      4.48944283
P        -4.39269972      8.28943539      2.46822643
S        -2.50604558      7.78121901      3.02460504
S        -7.81859398      7.64142656      2.97929811
S        -4.77085209      7.19329262      9.08066273
P        -4.72149038      8.06241608     12.37726116
S        -5.18114090      7.81159830     14.24129200
S        -7.96042299      7.20880079     10.91374111
S        -5.36480522      9.89485550     11.77785778
P        -6.01972246      6.71853733     10.83566856
S        -6.01613379      4.81681776     11.31727600
S        -2.86596632      7.37259817     11.99851894
S        -7.74769068      7.10372305     -4.93416739
S        -5.10943174     10.23082066     -5.01432991
P        -4.53696060      8.27088070     -4.37430859
S        -2.49057293      8.04026890     -4.73329592
S        -5.16702223      4.82059956     -5.10797977
P        -5.82626820      6.69358826     -5.47801352
S        -5.29327822      7.53714848     -7.24117327
S        -4.90638733      7.88222647     -2.38325930
S        -4.46528053     15.89877510      1.00967252
P        -4.07530832     16.82343102      4.32215071
S        -4.88256693     18.63245392      4.22348070
S        -7.25044966     16.22955132      2.90587616
S        -2.22641492     16.34289551      3.90270400
P        -5.41771507     15.59289837      2.89575458
S        -5.26503658     13.78791904      3.38331318
S        -4.70316744     15.83199310      5.95214987
S        -4.36426687     19.00826454     10.88358784
P        -3.99875355     15.65705872     12.10416698
S        -4.85387659     13.82520962     12.19596100
S        -7.35412645     17.36505127     11.88909340
S        -4.04485369     16.38098907     14.05159187
P        -5.44618797     17.25813293     11.10019207
S        -5.67487001     16.33911896      9.30082989
S        -2.22954702     15.78460693     11.01427269
S        -6.31765747     18.92197609     -5.22621822
P        -4.47799778     15.87568951     -5.94339228
S        -4.65266657     13.96918488     -5.24074078
S        -2.58653331     16.51716232     -6.00708628
S        -4.28250027     17.59619141     -2.98239899
P        -5.62261057     17.15451050     -4.47018147
S        -7.15853977     16.12566948     -3.48215508
S        -5.54588175     16.08916092     -7.70845604
S        -1.10047388      3.44325662      1.69186902
S        -3.24855971      3.81755185     -0.92582619
P        -0.27428183      2.55296898     -1.75398803
S        -0.25145015      3.17378807     -3.60440803
P        -1.24070334      4.09206581     -0.18472464
S        -1.13190138      0.54351991     -1.43426824
S         1.55762076      2.54416108     -0.90054405
S        -0.27995205      5.80262899     -0.32270208
S        -0.14072911      1.49716699      7.91647053
S        -0.65423524      3.95840812     10.25611687
P        -1.47427201      4.32896233      7.15626335
S        -0.91543597      3.82347608      5.32674313
P         0.02381572      3.41497755      8.42572880
S        -1.41469717      6.36828184      7.63448191
S        -3.27781200      3.46346021      7.75768852
S         1.94992769      4.05875587      8.20211506
S         1.50008667      3.37366223     16.22922897
S        -0.80273616      3.37403607     13.56471825
P        -2.03362870      3.83227420     16.68168640
S        -2.05921292      2.75006843     18.46839333
P        -0.38643482      2.69442368     15.50231552
S        -3.71659636      3.53297305     15.60916424
S        -1.34299016      5.75878096     17.00526428
S        -0.45763168      0.70259726     15.68889713
S        -0.79783082     12.64160061     -3.07672119
S        -0.84069198     14.51306057     -0.17275515
P        -0.10230458     10.92631245     -0.18647312
S        -0.34653375      9.01433182     -0.80020285
P        -1.33897758     12.73790073     -1.13460386
S        -0.55499005     11.20982838      1.80562067
S         1.71038544     11.62509346     -0.39833128
S        -3.20467830     12.21336174     -0.66087502
S        -0.93746895     12.54129505     10.73415089
S        -1.06134117     14.55563164      8.06913471
S         1.56640220     12.48211575      8.30201149
P        -1.62489843     11.07009125      7.54665709
S        -1.63650572     11.58650875      5.50765848
P        -0.50580376     12.71837807      8.73473358
S        -3.46404290     10.80683422      8.13951015
S        -0.62749034      9.28762913      7.83295918
S        -1.63153732     12.09106827     13.71987915
S        -0.31842998     14.44943333     15.61477375
S        -3.44848061     12.71392345     16.41975212
P        -0.60118157     11.00562000     16.94204712
S         1.40141702     10.47108650     16.63089180
P        -1.51887345     12.80824566     15.69073200
S        -1.76207721      9.48348618     16.32774734
S        -0.80576634     11.60575485     18.96117401
S        -1.43652475     20.16934204     -3.06704521
S        -0.35107380     17.60189438     -0.82581228
S         1.76868987     20.09538651     -2.17815542
P        -0.69679755     21.17319679      0.12428599
S         0.45292896     20.55370903      1.69335139
P        -0.19465140     19.59923172     -1.51886261
S        -2.61308742     21.04770279      0.62723511
S        -0.36606559     22.98512077     -0.65848726
S         0.12209678     20.14897537     10.44826794
S         2.40907264     19.82746887      7.66281366
S        -0.00942658     17.59420395      8.34126186
P        -0.81032509     20.71047401      7.14779091
S        -2.60030818     20.19647789      7.80269384
P         0.48344702     19.56796455      8.47447205
S        -0.19583017     19.92550659      5.28554821
S        -0.49528620     22.82285118      7.04135895
S        -1.95625281     23.22175026     16.26951599
S        -1.39087868     21.16738319     18.64539337
S        -3.79996419     20.42064857     16.42256355
P        -0.25537005     20.19252968     15.48546886
S        -0.24974382     21.25594711     13.83011150
P        -1.81204593     21.13269424     16.75686455
S        -0.65060240     18.24882317     15.01285744
S         1.58067048     20.40431023     16.40831947
S         6.50983095      2.73619032      1.09351397
S         7.63358784      0.25533593     -1.50571406
S        10.08456135      2.54025960     -1.05948544
S         7.88391876      2.77126861     -3.79560137
P         7.08779716      3.70134807     -0.41335961
S         5.34364510      4.31142187     -1.32888317
P         8.16828156      2.20041776     -1.71912575
S         8.28815365      5.22665167     -0.06838439
S         7.44306660      3.77963185      5.55991459
S         7.40245104      5.89978647      8.42920876
S        10.28116989      4.41299343      8.81935883
S         7.64484692      3.32951689     10.76967335
P         7.09353542      2.93377614      7.38744116
S         5.08514500      2.88826704      7.99677372
P         8.24075413      4.17608023      9.06849861
S         7.61040163      1.09517205      7.35206032
S         9.51489830      5.11466217     17.27068329
S         8.74754906      0.86856425     16.23238182
S         5.81464720      2.11227608     15.55335522
S         7.26986599      2.29745078     18.65597916
P         8.08220005      4.28557968     16.27006531
S         6.33940077      5.28146601     16.92395782
P         7.41133785      2.21208405     16.68924332
S         8.35448265      4.47812557     14.24306202
S        10.20761681     12.01672077     -0.93705618
S         6.99352884      9.10394669     -0.71116757
S         4.88102150     11.40011501     -0.20512486
S         7.46557283     11.46222878      2.10843492
P         8.15232563     12.46012592     -1.23333061
S         7.66691637     14.44008827     -0.80682021
P         6.87814856     10.93983364      0.10385748
S         7.66908550     12.10581493     -3.11481214
S         7.45150280      9.39420033      7.97107983
S         8.42170715     14.47000980      7.96791840
S         8.49800587     12.34683895      5.57619858
S        10.67285156     11.99435043      7.94229555
P         7.28098440     11.32382202      8.57565880
S         5.28982210     11.87490368      8.36925888
P         8.89062119     12.59897709      7.49864197
S         7.85174990     11.65786743     10.59699631
S         5.21946573     11.60923958     16.97138023
S         7.53208876     11.13682747     19.20266533
S        10.31358242     11.71763420     16.28056526
S         7.89379930     14.06894207     16.83020401
S         7.76336908     12.07135582     14.02521610
P         7.16243076     11.00457764     17.19778442
S         7.70121670      9.22966290     16.51960182
P         8.40240097     12.30810642     15.90845013
S         8.28419399     17.68983459     -0.79063314
S        10.30959129     20.23505783     -0.85070837
S         7.33266258     20.39933014      2.01702404
S         4.80908442     19.95911407     -0.35544050
S         7.02495718     22.69448280     -0.48053125
P         8.51104164     19.65830231     -1.41508603
S         8.11054707     20.16881371     -3.48304391
P         6.77373695     20.72909355      0.01642840
S         8.11484146     19.58449364      4.88628483
S         8.35450649     17.73275375      7.54539680
S         8.13099766     23.19742966      7.48418999
S         7.24395990     20.67521477      9.86781311
S         5.32731962     21.18470383      7.25540543
P         8.49976254     19.67644310      6.94365358
S        10.40997696     20.48450470      7.28704166
P         7.32149649     21.34182549      8.05432129
S        10.49650860     19.76179886     16.89357185
S         8.19642544     17.43738937     16.29598618
S         5.57863522     20.68994522     15.40551376
S         8.27700710     20.85261154     13.30104351
S         8.23041630     22.77176476     16.06009865
P         8.50694561     19.23234940     16.75026894
S         7.70603275     19.85659599     18.52848244
P         7.67984295     21.00380898     15.27898216
P        15.37688637      3.92582631      0.05884794
S        16.05234718      3.32076716     -3.20695066
S        16.11673546      0.70046788     -1.04078364
S        15.91955471      5.89391041     -0.22382891
S        16.16013145      3.49262071      2.03352761
S        13.46525192      3.25336909     -0.56667298
P        16.61875534      2.64467072     -1.39053142
S        18.59289551      2.98559785     -1.15098345
S        15.61487198      2.91895700     10.43179798
P        16.74687767      3.77082229      6.86134005
S        14.60558796      1.06636357      7.71611452
S        13.36248207      4.04240036      8.14716816
S        15.74602699      4.17460060      4.98203039
S        18.28289413      2.39281845      6.69118357
S        17.10659790      5.46978617      7.76651430
P        15.02467918      2.86573887      8.47389221
S        15.24818230      3.27529573     18.48359871
P        16.65804672      3.56395578     15.54453468
S        15.05950260      0.47770029     16.22478294
S        13.23965740      2.94978309     15.65630627
S        16.51339912      5.56246185     15.87897110
S        16.72730064      2.99331594     13.60319042
S        18.32492447      2.87556887     16.49694061
P        14.99620819      2.39720869     16.54200363
S        16.56810760     14.50801182     -0.70249367
P        16.03562546     11.16055679      0.02976436
S        16.42850304     12.25511551     -3.29285169
S        19.08742142     12.08022308     -1.01321995
S        16.97887421     11.44248772      1.74641454
S        16.05828094      9.42297745     -0.90530294
S        14.16658688     11.76429462      0.41766796
P        16.95424271     12.52635479     -1.33310091
S        16.17370987     12.26329899      5.64505053
P        15.75665951     12.35454559      9.04581165
S        15.97758579      9.50375175      7.35329771
S        18.88897133     11.70343494      7.40432739
S        13.75411034     12.27738190      8.57243538
S        16.75891304     14.15131378      9.10694218
S        16.05126190     11.42403412     10.74484444
P        16.88415909     11.42159653      7.28084183
P        17.42848015     11.88546276     15.81606007
S        17.14973450     11.61622906     13.80601597
P        15.68521500     10.86237717     17.00404167
S        19.10835457     11.10677528     16.52907944
S        17.42537117     13.90945053     16.30088997
S        13.78602886     11.54288769     16.36738968
S        16.02961922     11.40472412     18.87786484
S        15.74499035      8.94640160     16.57456398
P        17.03260040     20.79935265      0.63841146
S        16.84671974     22.63787842     -0.19330697
P        15.99508190     19.52619362     -0.68556035
S        19.07602692     20.39525414      0.28063256
S        16.12573051     20.56503296      2.39137840
S        16.30369186     17.78558350      0.09312422
S        16.63597298     19.56293297     -2.68901873
S        13.98670006     20.20102882     -0.72771573
P        17.49588013     21.19882011      7.49153614
S        17.90018845     20.77689362      5.54787540
P        15.87466908     19.42311668      8.01536560
S        19.31066895     20.87100792      8.37658978
S        16.73158264     23.18951988      7.57486582
S        16.70221710     17.57234764      7.34586382
S        14.37419605     19.98444557      6.85388136
S        15.65114689     19.69664764      9.98131371
S        15.71718788     23.29836464     15.79758835
P        16.66743469     20.08027840     16.99572754
S        16.07579803     20.74787140     18.75080490
P        15.49131680     21.22515488     15.22480774
S        18.62858200     20.68565750     16.28065109
S        16.47057724     18.20906258     16.55783653
S        13.56825829     20.76359558     15.63273239
S        16.23789406     20.57966423     13.50107002
