648

Na      110.81643677   -172.24113464   -114.67086029
Na      202.11660767    -85.81103516    105.70485687
Na       49.01908112   -203.15982056     55.18098450
Na     -176.65011597   -298.20648193     71.35762787
Na      167.21199036   -291.01440430    116.71630096
Na      137.12776184   -263.07406616     71.31111908
Na     -157.42687988    287.80734253     30.72854996
Na      -39.27800751   -144.86097717   -127.43566895
Na      237.79792786     63.07270432   -380.82751465
Na      217.73764038    285.61795044   -317.29888916
Na       20.30959320    164.46598816   -136.24786377
Na      201.98658752     25.52278328    162.94166565
Na      -57.76898956   -181.81739807     97.46246338
Na       39.86933136   -135.01795959    -34.76568222
Na       39.57892990    113.46144867    104.96960449
Na      265.77874756   -394.01559448    292.72802734
Na      234.92359924   -211.41474915    -55.75316238
Na      -18.92031288     59.41928864     14.23773575
Na      137.54435730    334.17977905    -23.93233871
Na      171.15840149    190.75611877    106.36832428
Na     -178.52391052    -43.23184586    -93.08011627
Na      -43.93542862   -159.90376282   -193.65489197
Na      -10.11090565    -26.79436493    -11.18915272
Na     -252.43260193     93.83628082     42.45015335
Na     -205.56747437    177.40322876    147.43363953
Na      -51.10374451    203.01623535     -8.38125610
Na      -40.39651108     68.20750427    -73.34346771
Na      214.06156921     84.53467560     16.87923050
Na       -1.32018554    -72.40050507    -42.09921265
Na     -210.72943115   -272.78399658   -190.91694641
Na      -36.10022736   -277.02987671    -67.25549316
Na       31.53734398    229.71011353    -68.53348541
Na      176.18728638    115.97743988    100.61634827
Na       27.35563660    185.74934387   -200.55479431
Na     -146.55786133     89.98821259    165.42515564
Na      -61.07740021    212.43502808    341.94750977
Na      111.99692535    241.15020752    118.74691010
Na     -612.34338379     67.96979523     93.47445679
Na     -142.53707886     51.98978424    468.42788696
Na        0.96681893   -199.02458191    112.72052765
Na     -163.08911133   -219.94161987    199.64366150
Na       86.43953705    168.66343689    -17.56522369
Na       73.68181610    143.95886230     72.20023346
Na     -170.93968201    -61.91296768    150.38946533
Na      -70.19018555    -88.94956970    131.28282166
Na     -167.68646240    238.07354736    139.02278137
Na        7.37991428    140.56649780     34.36964035
Na       23.96072769    206.93287659   -161.67686462
Na       65.75414276     23.14593315     32.25366211
Na     -446.88195801      8.72545624   -183.16575623
Na       15.78530884   -151.65469360    105.50565338
Na       68.85537720    157.01338196     34.46890640
Na     -125.11878967   -177.58981323    122.51084900
Na       18.41965866   -217.09391785     19.72951126
Na     -141.98387146    -37.98266220    232.96405029
Na     -284.72262573    152.82420349   -136.73094177
Na       -6.63319969   -246.26008606    245.64103699
Na       23.52571487    300.66690063     -4.03404951
Na     -320.35949707    -25.58805847     96.57627869
Na      -41.04627609   -179.95304871    105.98622894
Na       -3.72489166     46.67736053     83.27212524
Na      117.80993652    317.57656860   -482.58496094
Na       77.87953949    118.12867737     12.65393162
Na        6.17835188     50.38645554     24.79006767
Na     -235.25625610    -59.23469162     47.39538574
Na     -346.52188110   -364.67968750    -12.78674793
Na     -155.62991333    -93.50350952     63.88918686
Na       15.52223015   -304.79769897   -235.91029358
Na     -167.68925476   -186.53599548    575.16613770
Na      137.72967529    -63.51747513    110.45954132
Na      403.93109131     38.33160782    132.33428955
Na     -344.80371094    122.55009460    101.28291321
Na      -19.18229485    148.35102844    -41.14153290
Na      -63.81410217   -177.45817566   -121.33633423
Na      -69.81150818   -164.93270874     41.91094589
Na      479.12246704     53.53618622    -89.72933197
Na     -241.63279724    156.40440369   -282.25256348
Na     -274.37573242    -84.76174164   -162.01853943
Na      106.39412689    -56.84548187     12.72527790
Na      117.54003143     58.65116119    288.33737183
Na      -51.59033966   -139.05688477     93.27762604
Na      -94.43094635     33.99901581    104.34394836
Na       19.45494270    214.00486755   -193.64654541
Na       66.21243286    266.89160156   -108.75100708
Na       13.16433239    300.65527344     66.64680481
Na       75.25861359    402.50784302   -100.72069550
Na       51.99769592    -43.53891754     -9.23701382
Na     -185.00889587    -35.57747650   -160.65617371
Na      -79.19174194     -5.90198469    105.92344666
Na       40.13185501   -211.13232422    -56.25097275
Na      121.19185638     31.93990517   -128.94905090
Na      103.28713989    -59.61565399     97.02149200
Na       49.84098816    143.40672302    -41.46375656
Na      231.03367615   -148.67407227    130.77305603
Na     -264.46551514    130.13645935     50.07239532
Na      -73.96118927    -75.70285034     11.50285053
Na       90.39528656   -242.84597778     33.38360596
Na       61.88103485    132.00576782   -147.90930176
Na     -159.35636902   -207.66094971     34.70423889
Na       57.59419632    -28.31597328    140.34326172
Na       73.46696472    172.13504028    -38.31656265
Na      117.13851929   -122.35739136     97.18956757
Na     -112.67523956     -8.85735321    127.60784912
Na      -28.03200722   -448.30636597   -257.58438110
Na      158.96913147    -42.58618927    -43.23884583
Na      155.79949951    215.24923706   -102.89318848
Na       41.22756577   -157.13136292    342.24182129
Na      272.32012939    406.89260864   -318.13067627
Na      308.99493408     20.06728363     50.35983276
Na       71.29803467   -116.88835907   -176.92816162
Na      313.95324707     74.81687927    -68.00269318
Na      -23.63613129   -195.46185303    -63.65097046
Na       -6.30914593    132.02586365    194.38223267
Na       78.55395508    -13.70589161     -8.43890381
Na      -11.70195580    -84.87267303    109.37445068
Na      201.45787048    469.22161865   -144.54965210
Na      202.25329590    350.75177002    187.39624023
Na     -125.17232513     22.25275230     46.32446671
Na      -49.19376373     22.08434868    436.53781128
Na       66.25868988    -46.08999252    -21.15824509
Na       -5.55450201    -74.37873077     84.82044220
Na      367.12231445     85.34543610     33.31040955
Na       27.25074005     97.97707367     67.83596039
Na      -48.29111481    -38.01084518     21.10708046
Na      -65.51765442    -78.21050262   -180.05224609
Na       95.00144196     67.91816711    -50.49163818
Na       27.33254242    170.76828003   -226.07701111
Na      192.49491882    -92.18209839    -60.13262558
Na       16.30149651    193.90232849    -97.34506989
Na      -27.38631248    105.50323486    -81.68697357
Na      257.30206299    -29.91263008    288.15890503
Na      248.42677307    226.06832886   -179.02929688
Na      122.07077789     89.02449799    -52.74888992
Na      134.00016785    -55.54148865     17.28651619
Na      184.23808289    106.47230530     81.56886292
Na       22.87853050    -26.28459358    268.25915527
Na     -114.37213898   -115.18270111    201.39642334
Na       87.56847382    238.42002869   -352.60357666
Na       69.44390869   -153.32185364     71.07544708
Na     -110.74491119   -119.71907043   -153.50817871
Na      -59.65193939    143.16293335    366.04339600
Na      219.24971008    -67.94511414     79.48606110
Na      -72.71618652   -278.70092773     65.78504181
Na      -74.17524719      1.96386039      0.65203816
Na      227.22958374   -172.32154846    -71.09035492
Na      101.58813477     49.07682800   -229.18147278
Na     -181.14932251     43.41057968    228.85240173
Na     -116.08722687    -75.85462952    128.04760742
Na      -69.42079926     46.66670990   -304.66171265
Na        1.63771045    -13.14771080    129.51829529
Na      -71.18543243    233.82530212     14.48325825
Na      -79.14657593   -253.19421387    203.20802307
Na     -158.69796753   -113.57350159   -221.46772766
Na       19.57135773    359.48321533     46.33567047
Na      150.99789429     13.04097176     46.45170975
Na     -226.72065735    -76.91397858    -93.77767181
Na       32.72755814   -171.35656738   -160.93206787
Na      -59.35267258    -52.01930237     59.65145874
Na     -258.44400024    156.60398865    108.34945679
Na      -69.61304474    -79.92655945     46.51353836
Na       79.61721039   -123.09879303    378.26953125
Na     -133.66183472   -110.89526367     64.02242279
Na      -82.80124664   -183.54740906   -327.90548706
Na      232.69331360     62.49174500    134.69267273
Na      -47.51905060     58.57745743    252.56445312
Na      358.40234375    -64.36576843    417.50891113
Na      134.74688721   -147.67309570   -131.40890503
Na      218.21267700    147.81610107   -148.48439026
Na      150.39927673      8.58010006   -134.90284729
Na     -152.41384888   -104.62599945    139.28184509
Na      184.73464966    261.64056396    202.88179016
Na      188.81321716   -128.51339722    295.78485107
Na       45.82555771    -56.22013092   -237.78166199
Na     -314.70678711   -103.30825806    152.43411255
Na      -90.85159302    172.84321594    222.57341003
Na     -139.01004028     51.79539871    165.71005249
Na      178.32276917    109.96094513    407.64965820
Na       56.54431534     42.67948914     81.41015625
Na      185.15315247   -304.90805054    118.85727692
Na     -222.27517700     51.20456314     63.45396423
Na       92.98341370     46.01536560     68.34028625
Na     -175.41941833    -71.83991241    -94.05747223
Na     -112.36325836   -275.66806030    -34.19539642
Na      295.92620850    -63.57362366     62.79895782
Na      183.48417664    177.12306213     80.08449554
Na       36.99811935    147.69775391    -93.73377991
Na     -105.00710297     93.06718445   -214.63461304
Na      112.13838196     -4.32381105    -39.22208023
Na       82.78921509    187.61772156    214.46276855
Na      163.48750305   -199.24127197    -92.46065521
Na      138.19212341     54.44480896    271.00775146
Na     -163.45320129    -55.49194717    -76.13408661
Na     -210.17543030    100.25854492   -199.43998718
Na      -74.30931091     39.78416443    207.97732544
Na     -147.29496765     60.71638489    -80.73333740
Na      210.00424194   -378.68264771    229.77420044
Na      350.49786377    180.35404968    -75.20887756
Na      108.55953979    173.36868286    182.29930115
Na      -11.56365395    171.52584839    -65.34508514
Na       -6.95915270    -45.18632507    -73.34223938
Na      -69.11300659    463.35815430    -42.12297440
Na       58.82946777     13.18740559    -55.52326965
Na      230.62980652     92.41747284   -306.05813599
Na      116.99187469    -62.55078125    250.57252502
Na        5.93126965     51.58544159   -132.32371521
Na       74.42279053   -268.74841309     26.87992096
Na     -357.28079224    216.24763489    190.99095154
Na      155.64160156     84.56378174    -69.69142914
Na      268.98757935     -0.93107527     21.50065422
Na     -182.71690369     62.75426102   -114.21244049
Na       53.21679306    -60.24446106    109.20072937
Na     -145.85102844     17.17442131      1.76087356
Na     -128.87667847     31.01680183   -230.06922913
Na       36.89305496   -135.70866394   -179.71726990
Na      358.60827637    207.37738037     42.79143906
Na     -285.47100830    -59.85829544   -118.93788910
S         9.45100975     27.18367386      3.84838319
P         8.22322750     27.03450203      5.33685637
S        11.01270103     27.94444084      7.17917156
S         8.72390938     30.23600388      6.59293604
S         8.44813442     25.18637276      5.77723885
P         8.92255306     28.20521355      7.21099854
S         8.00926304     27.81154251      8.86638641
S         6.26545000     27.47217178      4.87675905
S         6.10251141     27.66186333     14.72336006
P         7.95510292     28.55470085     14.22144127
S         9.29360676     25.44546890     13.57002831
S        11.29522800     28.13494492     14.19248772
P         9.61317348     27.08489990     14.61552811
S         8.14915562     30.34913635     15.10522747
S         9.79282570     26.48793030     16.55019569
S         7.95911312     28.64315033     12.11852360
S         8.21837902     24.75202370     22.12743378
P         7.92959452     26.73465729     22.14656830
S         9.18647289     29.30240822     24.23526764
S        11.19395542     26.43086433     23.62700272
S         8.51009274     26.66953468     25.69478416
S         8.78984451     27.50194550     20.43082237
P         9.33452702     27.37603188     23.89705467
S         6.08918238     27.19313622     22.90565681
S        11.08106422     11.10756969      6.40446138
S         8.42303371     10.94886589      3.53178573
S         8.68314362     10.50527382      8.69116592
S         5.80246305      9.97557831      5.54603052
S         8.55743122      8.27030468      5.61874771
P         9.05742168     11.38324165      6.74365330
P         7.85861206     10.09673595      5.22883463
S         8.49557495     13.26205540      6.45522308
S         6.41396189     11.19986820     13.53005314
S         8.55912685     10.30616188     16.87548256
S         9.48900318     11.59131145     11.97146034
S        11.52434540     10.48053265     14.84481049
S         8.89584541      8.03457928     14.34822273
P         8.47981167     11.69456577     13.77372265
P         9.52783203      9.98416328     15.06335545
S         8.54433823     13.65543652     14.68732166
S         6.20622110     10.24689198     23.57009125
S         8.87077236      7.59273720     23.15003204
S         8.17489433     10.51929665     20.81769180
P         9.54901218      9.33326530     23.72454453
S         9.16370487     12.39938354     23.21050262
P         8.09588814     10.75110722     22.77702141
S         9.17832565      9.29366112     25.77860069
S        11.61740303      9.42266750     23.28464699
P         8.73313332     18.00679779      5.92046309
S         9.03995800     21.59891319      6.38463211
S         8.80950356     19.92321396      9.12984657
S         7.64393568     16.72078323      7.09406471
S         6.08976078     19.75318527      6.90465069
S        10.83534813     17.99160004      5.70827484
S         8.09841442     18.11560822      3.96932030
P         8.17847538     19.87364388      7.04110003
P         7.44896317     18.97863007     14.30189037
S         8.84364033     19.03483200     16.95722771
S         8.75676155     21.92534447     15.19283676
S         8.20147610     19.29596710     12.32977676
S        10.93473148     19.34796715     14.48316669
S         5.83344316     20.27622223     14.69182014
S         7.56961584     17.01781273     14.78062057
P         9.32189751     20.02416229     15.30944824
P         8.16858387     18.29634476     23.56697464
S         6.07836437     18.26394844     23.28542900
S         8.71482563     18.56129074     25.37840080
S         8.32553005     20.07329559     20.33045387
S         9.04675198     16.43540192     22.87913322
S        11.03382969     19.90321922     22.31655884
S         8.76952457     21.62140846     23.42086411
P         9.13471985     20.09914398     22.35199547
P        18.38568115      2.64221525      5.45994759
S        20.06744194      1.54658902      5.65071249
S        16.90156174     -0.43244252      5.82267141
S        17.13307762      1.77243841      8.62634563
S        14.85951614      1.97257352      6.33718061
P        16.72353554      1.52974868      6.69883347
S        17.79977989      2.69417381      3.58978534
S        17.78604698      4.77128935      6.22812796
P        16.84796143      1.57356286     15.50343895
S        17.19729424      2.43435287     17.30916405
S        17.16452408      4.91931343     14.44729710
S        19.80808258      2.59450722     14.00234318
S        17.06882477      2.70597100     11.94343281
P        17.85564232      3.14133620     13.76373386
S        14.86514950      1.86535442     15.37796974
S        17.46844482     -0.37686929     15.00852966
S        17.00915337      1.19084740     25.64517784
P        17.94645500      1.05663276     23.86675835
S        14.83252335      2.01311707     22.41071320
S        17.56340408      2.12638116     20.34802818
S        17.31305122      4.47937298     22.80336571
P        16.86178398      2.31926656     22.17296600
S        19.87168121      1.65439630     23.67601776
S        17.75576591     -0.77203983     23.19422531
S        18.15943718      8.37580776      6.44258118
P        16.09408760     11.08901882      5.26868486
P        17.92845726     10.40186691      6.71759319
S        17.13207245     10.53864002      3.35347724
S        15.82756996     13.04912853      5.93958330
S        17.09069061     11.03269577      8.38848019
S        14.53779888      9.92578506      5.44890547
S        19.80433464     11.17316437      6.41278601
S        17.71196556     10.13697338     11.90602970
P        16.90678978     11.35522270     15.07397270
P        18.18558311      9.94362259     13.96256065
S        17.83176804     13.06422520     14.51480484
S        17.21335793     10.87192059     17.13399696
S        16.77638054      8.43951893     14.46973705
S        14.94828892     11.44429970     14.32837296
S        20.03423691      9.65133858     14.66474915
S        19.92876625     10.63879681     -3.43293381
P        18.21297646      9.81980801     -2.66047478
S        14.96470833     10.80097771     -1.39943957
P        16.61563492     11.27127361     -2.70582986
S        16.13121414     11.31563187     -4.73716831
S        17.58755493      8.28951550     -3.68950319
S        17.47561646     12.98915005     -2.09729695
S        18.36395264      9.56034660     -0.67916811
S        16.05497932     19.15508842      9.47802544
S        14.18569756     19.57803917      6.33582544
P        17.51163673     18.18847466      6.30018759
P        16.09018898     19.68940926      7.26361942
S        17.09689140     18.84886932      4.30092621
S        16.91790771     16.16321945      6.87383413
S        16.83364105     21.69571114      7.34248972
S        19.21895790     18.71451378      6.99559307
S        14.33390045     18.47558784     13.52582645
S        16.46525383     15.81365967     13.96018124
P        17.61823845     18.71482086     14.95839787
P        16.27369690     17.62441063     13.47588634
S        17.32684708     20.63888931     14.70164204
S        19.58569717     18.01356125     15.11235142
S        17.39284134     17.99323845     11.63243771
S        16.76210213     18.05348396     16.75064087
S        17.09897804     19.33650780      0.65068042
S        16.71204376     21.84111595     -1.96431613
P        17.49375725     19.80075455     -1.35381818
P        16.36168861     18.20232391     -2.51005936
S        17.25683212     16.37004471     -1.84809577
S        16.89132118     18.72586823     -4.41618156
S        19.41068649     19.53175545     -1.67573082
S        14.42040920     18.78833199     -2.25868249
P        25.48646355      2.35675859      6.64546871
S        26.34123039      2.32736754      8.43292809
S        28.56527138      0.72150624      5.14437342
S        25.73213768     -1.08554518      5.54425478
S        25.73477364      4.30654860      6.04528284
S        25.85350037      1.42603040      3.52381635
S        23.34898949      2.12195969      6.96965694
P        26.57960320      0.77690727      5.18162632
P        26.35446358      3.33892202     14.17430878
S        26.62662506      2.10890937     16.15468788
S        24.39528847      2.36526632     11.38260651
S        25.43634224     -0.02381010     12.87440777
S        27.93787575      3.08114934     12.94178867
S        23.01369286      1.85899138     14.56203365
S        25.64644814      5.23300695     14.45592403
P        24.70627975      1.91932774     13.30456352
S         0.11983592     24.61883545     22.69244385
P        -0.78137165     27.64841080     22.10840034
S        -3.01540565     27.70993805     22.34513855
S        -0.35225812     26.85167694     25.40947151
S         2.18974614     27.12545586     23.09556007
S        -0.44751623     26.74669075     20.14892006
S        -0.26263392     29.52253532     21.94794083
P         0.42838797     26.46800613     23.53630447
S        -0.33477840     12.87017632      5.72007751
P        -0.15711422      9.52423763      4.98488617
S         0.33856124      9.78504181      2.88732004
S         2.72850561     11.64749908      5.21389818
S        -2.13062763      9.76831436      4.75344515
P         0.89937401     11.26453495      6.07923937
S         0.66718298     10.48567867      8.01878738
S         0.44973844      7.63138056      5.76656914
S        -1.15334761      8.19981289     15.03302956
P         0.94234908     11.16758347     14.09613323
S         0.63795310     10.70837879     12.11646843
S        -2.35852981     11.56833267     14.86192894
S         2.81170321     10.31838894     14.54812527
P        -0.81941324     10.26565456     15.43140411
S        -0.26078531     10.53590488     17.41775131
S         0.93350744     13.14326096     14.80852795
S         0.36300170     13.41085339     -2.14133716
S        -0.04717060      8.11881161     -2.37586904
P         0.58763331      9.94353580     -3.19619489
S         2.55524874     10.27470779     -3.08197856
S         0.64733481     11.05084896      0.11616213
P        -0.23478012     11.59247684     -1.55150235
S        -2.22661424     11.44192123     -1.57649469
S        -0.12592559     10.59827328     -4.96162939
S        -0.19714013     19.72302437      4.05872250
P        -0.45474523     17.88170052      7.11314344
S         0.48810247     18.22013283      9.04197025
S         2.69140172     18.93754005      5.64652348
S         0.04953113     16.01084900      6.31750250
P         0.64241093     19.62886810      5.94544601
S         0.43601853     21.32536125      7.01384878
S        -2.65194869     18.26548386      7.01895428
S        -0.50199395     16.55694771     14.79857349
P         1.04594767     19.48037148     13.92471218
S         1.20288289     21.30320549     14.47603035
S        -2.51710653     19.21279716     14.95044327
S         0.11712135     19.15935898     12.00384808
P        -0.66820514     18.65394402     15.25301075
S        -0.13170613     19.00510979     17.19787025
S         2.77174544     18.43985939     14.55379581
S         2.82797050     18.60672379     -2.87193608
P        -0.63073486     18.48978996     -1.67737091
S        -0.19679898     16.56499863     -2.36791849
S        -2.49404025     19.29550743     -1.92749465
S         1.61003900     21.45847321     -2.12185621
P         1.14334583     19.57995224     -2.77586937
S         0.11516299     19.62819290     -4.82407379
S        -0.10906296     18.25988770      0.25192019
S         4.57296991      8.18138790      1.24534166
S         6.89562464      5.64001560      2.20669770
P         3.60541725      5.05446100      1.04933822
S         3.85849810      3.11640143      1.75391304
P         5.02541494      6.44820452      2.23573112
S         4.27564526      5.38800955     -0.81213623
S         1.59198797      5.60049629      1.64673686
S         4.35733175      6.76891565      4.31332111
S         1.95075083      6.82336712      9.70202255
S         4.73010588      6.23551989      7.74240732
P         5.35513067      6.39555550     11.36073971
S         4.59494162      7.23873329     12.83983421
P         3.99172211      7.36378002      9.46008301
S         7.22381306      7.28401136     10.73321629
S         5.12591887      4.39261103     11.11169338
S         4.12069559      9.22637463      9.31667423
S         3.76886988      6.71189165     16.26189423
S         5.73623800      8.51055622     18.34202194
P         4.37813044      5.74538469     19.58487320
S         2.57130313      4.73562956     19.98350143
P         4.07370138      7.54309607     18.06243324
S         5.02586222      6.60795736     21.45242310
S         5.98975515      4.54224491     18.76066971
S         2.54931474      8.57379055     18.84271049
S         6.47076845     14.52513218      0.88392091
S         3.91650367     14.45878410     -1.11769986
P         3.52604723     15.62232018      1.83879149
S         1.45107245     15.53291702      2.12973905
P         4.54854012     13.95601273      0.79250097
S         3.93868518     17.28782845      0.75773728
S         4.57080317     15.28207779      3.54115582
S         4.34381390     12.21536255      1.70204926
S         6.72995377     15.45809746     10.52594566
S         4.11521578     15.81838036     12.30839348
S         4.34321642     17.75432777      9.67227650
P         3.97316837     13.97826481      9.31529236
S         4.96089697     12.60697079     10.23562622
P         4.80077791     15.97767830     10.41435623
S         4.71341991     14.39892864      7.42696333
S         1.97104955     13.83406544      8.80888557
S         6.96096754     15.20467472     18.74191284
S         5.11937761     12.18452454     18.58972931
S         4.79802465     14.53441715     21.22514915
P         3.37916183     15.39932823     18.33420372
S         3.58962941     17.40985107     19.08461571
P         5.27935028     14.17942333     19.31776619
S         1.88851511     14.52643013     19.38039207
S         3.29204917     15.08497810     16.19577599
S         5.15988541     19.92676926      2.18821836
S         4.32483292     22.26637650      4.57878304
S         6.86205387     22.75280762      2.34317589
P         3.85142589     23.12340927      1.17013884
S         1.72651398     23.05128670      1.52695525
P         5.09609127     21.94268227      2.68615294
S         4.90333843     22.28296089     -0.65640891
S         4.33075476     25.09117317      1.37848806
S         4.77594757     26.09623528     10.07697582
S         4.70601749     23.51813889      7.82622910
S         7.22632265     23.65145683     10.52755642
P         3.65306854     23.03589439     10.93215847
S         3.81391096     20.89453125     10.75516415
P         5.04580879     24.11025810      9.72327042
S         1.71766973     23.38597679     10.25305939
S         4.04952478     23.62566757     12.75640488
S         1.82822454     24.22049522     18.26248741
S         4.10307693     23.67775154     15.87032127
S         4.52477169     26.50009727     17.71136093
P         5.15882015     23.19008255     18.87938690
S         7.15051937     23.34786415     18.44629478
P         3.78062439     24.57542801     17.72690964
S         4.58598661     21.25575829     18.74364853
S         4.46456623     23.86049461     20.60489273
S        15.68871975      5.91526222      1.66690493
S        13.27085018      6.51185083      4.45250463
S        10.69208241      6.71460629      2.29394484
S        13.54565144      8.80993843      1.52002072
P        13.76972485      5.27352571      1.30391502
S        13.33809948      5.53113508     -0.52205628
P        12.74104309      6.89212990      2.49837184
S        13.32529831      3.55931640      2.37240148
S        10.72259140      6.63853693      9.87829494
S        13.18582916      4.10858965     11.03877449
S        15.49522209      6.41159058     11.05158615
S        14.26008987      5.32574177      7.90716076
P        12.65818214      7.31219244     10.00549221
S        13.39366627      8.84055424      8.80699921
P        13.98551464      5.48172903      9.89708424
S        12.86974621      7.82253599     11.92831707
S        13.11197853      8.48652077     18.51684189
S         9.88107872      6.13251162     19.35935974
S        12.71421146      6.40401030     21.37389755
S        12.33189678      3.72886181     19.45916176
P        13.15290260      6.40640211     18.16442299
S        12.53430939      5.94394636     16.38982582
P        11.78575706      5.53054619     19.87203026
S        15.06217670      5.67941141     18.43453979
S         9.96908951     15.15677261      2.04938817
S        15.07337952     14.22411823      2.09658837
S        12.88412952     14.08587360      4.86546373
S        13.33312130     16.82162666      2.87593913
P        11.76432800     14.27454853      1.47618556
S        11.78669834     12.26464176      1.74171805
P        13.49111938     14.81581879      3.09155917
S        12.21163750     14.77579308     -0.38245258
S        12.81490517     14.35141182      8.22564697
S         9.79743195     14.86035156     10.55211926
S        11.86813259     17.32926178      9.98641014
S        11.81339836     15.64404678     13.27310085
P        13.20374298     14.22086048     10.19414616
S        12.85686779     12.33138371     10.77744293
P        11.74229240     15.67950535     11.10999203
S        14.64785957     14.85631847     11.42785740
S        15.04932022     15.68499470     18.61005402
S        12.02640247     17.37254524     18.86924553
S        12.63798523     14.23630619     21.38177872
S        12.69006348     11.82445049     19.01757812
S        10.08396435     14.18719578     19.30867767
P        12.97282219     15.54038811     18.29548836
S        12.52655411     15.33376503     16.31217384
P        12.03021622     13.68348312     19.54817009
S        15.59127998     23.04265213      2.62571979
S        12.82544518     22.86350441      4.99119377
S        12.87379169     22.83759499     -0.42847699
S        10.43378735     23.29043770      1.71432400
S        12.35626221     20.47806168      2.29807568
P        13.70296288     23.53180122      3.15565515
S        13.34412003     25.51454544      2.87080407
P        12.31467247     22.43985939      1.60803771
S        15.33846474     24.06126976     11.03263760
S        13.16662979     21.53215027     10.18107891
S        10.24966431     23.77083015     10.25840187
S        12.45476818     23.43395233      7.69653702
S        12.61281967     26.24756050     10.00782013
P        13.48312187     23.27742958     11.11280155
S        12.82629871     22.94620323     13.05903912
P        12.18276501     24.38216209      9.68012428
S        11.15086937     22.84488678     18.33858299
S        12.82227421     25.46596718     19.27347374
S        14.70890999     23.08919525     16.67628670
S        14.00608635     20.51119804     18.62973785
S        16.13598442     23.23890495     19.66811943
P        12.63923168     23.55716515     19.61985970
S        12.78124714     22.76808739     21.51083565
P        14.54130173     22.43898773     18.67830276
P        22.65724945      5.32410049      1.92421961
S        19.58785820      5.44946766      0.47813377
S        22.11866951      7.92719984     -0.25437579
S        24.33191872      6.30218363      2.23411584
S        22.49342346      3.60545635      0.88817459
S        21.58182335      4.90060139      3.86022115
P        21.14264488      6.76298523      1.07298458
S        20.19922256      7.93912029      2.61285233
S        22.50450897      6.37865829      7.61053562
P        20.57659912      5.83001900     10.41464996
S        24.07894707      5.86793327     10.60312176
S        22.38377571      8.68056393      9.97773647
S        20.69164658      4.06852770      9.57083702
S        18.93196678      6.99987221      9.73159409
S        20.81209564      5.98327780     12.45027924
P        22.57306480      6.77135897      9.61284161
S        21.48262978      5.86947966     21.34462929
P        21.87977600      5.75994921     17.83965874
S        18.89714432      6.14716673     18.97515106
S        20.88471031      8.73373985     19.15300369
S        23.96218872      5.89039850     17.96353531
S        21.26095772      6.72829008     16.15697289
S        21.54918098      3.71446776     17.77905655
P        20.93162537      6.73943710     19.65692139
S        23.66604424     14.50977802      1.43788469
P        20.32960701     15.65303516      3.19921708
S        21.00685883     14.84740925     -0.24109828
S        21.28222275     12.61141300      2.61394477
S        20.78897667     15.39584160      5.26550102
S        18.23778534     15.10159397      2.76709175
S        20.58324051     17.51711273      2.70346761
P        21.72772598     14.41077709      1.65369809
S        20.56033707     14.34106159     13.20690727
P        20.88870811     13.65530109      9.78347778
S        20.99183846     16.86606598     11.03267097
S        23.47222519     14.59379768     11.09262943
S        18.82045555     13.62872505     10.16310501
S        21.81461143     11.92067146     10.15600777
S        21.61533165     14.53556061      8.07858562
P        21.48716164     15.04211521     11.45689869
P        20.40189171     15.16260052     19.98593903
S        18.53442574     14.43936920     19.64660072
P        21.82556343     14.13390732     18.63774681
S        20.38027000     17.13209534     19.34254074
S        20.78891373     14.96296787     21.98886871
S        23.64737129     14.87497044     19.35016441
S        21.37308502     14.55986404     16.71578979
S        21.69261932     12.05579281     19.03800583
P        22.04696465     23.85406876      1.63850129
S        21.18071938     25.52157974      2.59073806
P        20.86196899     22.19274902      2.45877099
S        22.09914398     23.74857521     -0.35341600
S        23.96407127     23.44724274      2.23874903
S        19.03179550     22.55983925      1.55425382
S        20.58133507     21.99977493      4.54413366
S        21.68799400     20.47949600      1.71468222
P        20.13310242     23.69503021     10.02116966
S        19.36566925     23.55965042      8.15552044
P        21.65978432     22.22836494     10.58179379
S        20.75770760     25.51062393     10.59261036
S        18.48464584     23.13748169     11.02774906
S        21.70911217     20.24874878      9.89955425
S        21.66671753     22.11290169     12.67072201
S        23.53268433     23.06357765      9.43957043
S        21.17293358     25.11291885     18.65865517
P        20.91467476     21.95215988     19.20676041
S        18.95407295     22.02285194     18.58620262
P        22.14812088     23.44597626     17.96368599
S        20.82231331     23.04980850     21.10695839
S        21.72612190     20.23900223     19.26378822
S        21.75116348     23.10945320     15.86466217
S        24.02629662     23.13172722     18.60291481
