648

Na       -0.90829104     15.97328281    198.11903381
Na     -112.17156982    -63.40089035    -23.34844589
Na       70.85518646   -361.75942993   -309.30691528
Na      137.00555420     20.53714943   -229.30177307
Na      252.10289001    -56.69175720   -365.82952881
Na       -2.23320055      6.23967934    -56.55064774
Na      -69.07793427     88.01805115    263.49752808
Na       62.25693130     38.72175217    222.44255066
Na     -117.65602875    126.50730133   -327.89508057
Na     -213.03503418     70.85687256     70.57839203
Na      580.07391357   -120.68482208    -88.67639160
Na      205.97004700    -13.95218849    -68.05364990
Na      203.25590515     -0.72784168   -150.29629517
Na     -149.84101868    125.58322906     -5.61383915
Na      341.14804077    -90.80104828     49.36229324
Na       13.17229271   -196.07069397      5.04264355
Na      188.73655701   -215.60813904    104.32518768
Na      269.67559814    129.36705017    168.54353333
Na     -141.73904419     54.85386658    179.52745056
Na      -35.98942947    191.81127930    288.81414795
Na     -560.72918701     20.11953545    202.58229065
Na      176.38603210    -26.49895668     33.46276474
Na      -52.71260834    -96.78972626    104.58630371
Na      175.36224365    -52.76691437    116.70568085
Na     -226.42669678    229.13076782    286.99337769
Na      137.24581909    -67.33600616   -182.77066040
Na      272.93753052    -13.15737820    406.05319214
Na     -349.13378906     94.05851746    -85.56232452
Na      -12.53887177    -69.87113190    -51.70834351
Na        2.19648004   -203.91140747    -78.08176422
Na      252.99635315    -78.38015747   -285.46832275
Na      142.67630005     54.26994705     -0.48470879
Na       32.88570023    -56.40933990    214.40350342
Na     -180.47062683   -163.65538025    -72.64160919
Na     -352.69723511   -390.89620972   -222.19639587
Na      112.81415558     40.63373566    126.86951447
Na     -365.54910278     92.77288055   -217.50738525
Na      167.97500610    354.08929443   -187.25970459
Na     -124.92042542    143.83488464    421.65057373
Na     -142.90150452    295.75164795      9.20621109
Na      -40.84962845   -237.16346741    121.99712372
Na     -143.25559998    -68.67543793   -354.96508789
Na     -187.92729187   -254.81163025     75.91347504
Na      -43.69137573    239.57505798     41.73823929
Na      171.94056702     55.30268860   -169.44305420
Na      -94.84555817   -232.36116028    -73.91854095
Na     -170.84205627   -128.60206604    172.31797791
Na      -35.25136566    -15.26425934    224.28337097
Na       60.00883102     74.81874847    -17.64614677
Na      254.97554016   -161.89387512   -175.12588501
Na      349.85256958    -19.82431221    145.81408691
Na     -233.39318848    198.72151184     57.65955353
Na       39.69812775    342.42202759   -129.02874756
Na      -36.07105637     79.06511688   -106.39712524
Na     -150.38058472    -90.08801270     12.14023876
Na       99.88867188   -200.84420776     -4.97272396
Na     -289.27816772    271.28305054    233.98707581
Na     -100.47077942      7.71486521    527.73492432
Na       95.66452789    417.43237305     92.58151245
Na       65.67790985    145.08868408     48.76924515
Na      -49.30444336   -286.21658325     83.28574371
Na     -175.48835754    260.92620850   -353.92144775
Na      169.80195618     42.01947403   -125.80522919
Na      -14.33565807   -260.86264038      4.47552586
Na       66.64533997    -82.10088348    -42.14912033
Na      -27.20343399    -45.41612625     85.19853210
Na      121.63845062   -400.09518433    -73.54959869
Na      -34.80716705      3.44782329     83.39815521
Na       52.60576630    192.68247986    -33.46549988
Na      248.60490417    101.60615540    371.19012451
Na      -49.51626587    362.74963379   -191.98915100
Na     -116.66065979    -96.14477539    248.13725281
Na      125.51811981    266.05908203     49.26769638
Na       40.53513718    177.32325745      3.18702126
Na      257.70623779    -39.20994186   -105.45600128
Na      387.32406616   -121.00318909   -323.57296753
Na       27.84468460    275.71157837    278.82928467
Na       94.79794312   -272.07958984    -91.83018494
Na     -290.44107056   -118.50499725    -64.15597534
Na      172.28796387     22.84098625   -387.01358032
Na      184.26077271   -111.27120209    134.84208679
Na     -303.06329346    338.91638184    141.97528076
Na      143.04122925     36.28951263   -237.12829590
Na     -112.68521118   -222.64338684    172.70002747
Na      -22.34310532   -157.55705261    -13.32516670
Na      -68.53130341    325.14413452     95.11041260
Na      192.66874695    100.00411987     20.01188278
Na       58.56981277     54.67544937   -152.58656311
Na      171.79235840   -386.71484375     12.18218040
Na     -185.60443115    -99.95905304    147.22094727
Na     -217.45019531    -39.80564880    -18.81719589
Na      -82.43421173   -128.92736816   -251.74468994
Na     -208.73031616    -10.26523495    152.54685974
Na      248.54255676   -268.72894287    180.47016907
Na      197.58865356     69.23764801    207.72267151
Na     -214.11335754     45.31403351    155.51281738
Na      307.40338135    181.52693176    187.84587097
Na     -307.44122314    -54.81282806   -251.38325500
Na       26.81799126     71.14759064   -288.38217163
Na        6.34687853      6.96648407   -237.89213562
Na     -103.57279205     27.91248512   -173.77505493
Na        0.75368208     25.62193489   -161.27844238
Na     -357.60870361   -205.41421509    -64.91665649
Na      -48.46794510      6.77585840     58.12173080
Na      -83.38076019    231.44647217    129.57072449
Na      114.34506226    -60.69832611   -120.74945831
Na       81.48974609    138.30592346    234.20013428
Na      172.25137329   -164.89826965    133.95707703
Na       10.04557133    -81.58116150      7.63265133
Na     -227.55870056     19.38890266    -46.77286911
Na      115.18755341     89.02671051    -90.05503082
Na     -120.71279144    167.39016724   -216.32252502
Na      456.01611328   -162.95414734     66.87644958
Na     -255.65803528     80.99573517   -229.22149658
Na      -35.77194595    384.06729126   -199.28735352
Na     -260.34194946   -195.47744751    -44.49008179
Na       16.51189232    -68.79196930   -290.03131104
Na       35.50937271    205.04333496    -91.16455078
Na      161.01368713     -8.13504696     75.38742828
Na      -30.97654343   -163.31506348     -9.90236759
Na      371.55529785   -153.64590454   -216.70507812
Na     -119.75997925    -39.46126175    -26.50577545
Na       86.62789917    185.50326538   -111.37403870
Na      133.71968079     75.16797638     91.67887878
Na      192.72700500     95.48910522     91.61692810
Na      100.65183258    102.29309082     49.48649597
Na      -19.09241867    245.27717590     54.14581299
Na      152.86967468    163.57867432    272.96740723
Na       67.33858490     59.05107498    152.56137085
Na     -362.88424683    307.34695435     62.45571899
Na      -26.65096092    156.53701782    270.87841797
Na      278.18884277     19.17145348   -156.89356995
Na     -269.13717651   -114.60561371     86.63716888
Na      164.02664185   -228.98371887     90.10498810
Na     -298.31591797    230.07525635     80.67161560
Na      -43.54740906    137.31443787   -165.32608032
Na      337.05932617     58.06039810    -39.17369080
Na      383.59432983    -97.90996552    176.98539734
Na     -314.25442505    -14.88714790   -145.42007446
Na      116.89188385   -244.22175598      3.76963639
Na     -283.63394165     54.68538666   -207.01614380
Na       31.65419197    -54.26350403    227.68193054
Na      274.13064575    -76.76387024     -1.05965662
Na       30.86395645    197.52114868     54.83308792
Na       56.16633987    107.26731873    -56.12741852
Na       49.06665421   -166.43164062    261.95944214
Na     -121.71003723     44.70219421    276.02795410
Na     -172.76863098     21.01048279   -212.82218933
Na       37.37096786     97.15943146    122.61730194
Na     -176.22906494    142.26052856   -116.37186432
Na       38.69198227   -258.14776611    177.43569946
Na      171.92831421    -59.02197266    150.36758423
Na     -115.57690430    273.59365845    165.86550903
Na      -27.51910782    -68.72032166   -213.31121826
Na     -256.97933960     36.85388947    240.59757996
Na     -118.20137024    -74.28439331   -285.78366089
Na     -124.12687683     54.00571442   -314.45169067
Na      190.44517517     73.57470703     11.09939861
Na      -98.85943604    -34.11116409    -77.99061584
Na     -103.68137360   -314.16650391    379.84442139
Na       99.34826660    239.79406738   -137.14128113
Na     -166.94459534    -23.97055054    378.86114502
Na      273.60937500   -103.35780334     11.71191311
Na     -171.34957886    155.27369690   -140.78819275
Na     -149.22789001    101.05139160    114.82772827
Na     -159.83695984     -4.48393679     50.76718521
Na     -331.25521851    376.11178589   -219.53642273
Na     -183.63223267   -126.44293976    132.66722107
Na      232.94445801    124.06000519    -68.94991302
Na      175.53826904    296.87753296   -197.10536194
Na     -298.83523560     32.54889297    -98.23332214
Na      -86.87809753    210.39949036    135.88026428
Na       61.51992798    134.11596680     63.12026215
Na      -65.12551117   -213.62864685     -9.65476036
Na      -52.31639862   -236.75631714    113.90749359
Na     -146.47142029    -60.99826050    198.25064087
Na       40.73318100     15.54848576    121.17414856
Na      244.29199219    -85.87684631    -85.54482269
Na     -174.90124512      8.33022022    -26.78594589
Na        0.39376503     86.08566284    384.89535522
Na      110.54388428    109.05309296    135.78181458
Na        3.41596055   -217.10597229    -60.03272629
Na      311.73452759    176.88409424    241.00105286
Na      200.44749451   -378.12930298     11.90768909
Na        3.89306617    277.47967529    -99.12509918
Na     -158.70314026    146.53054810     41.72727966
Na       11.22155952    265.53958130    194.37257385
Na      273.98348999    -10.97728252    121.19178009
Na      -47.18366241     13.86640167   -199.90551758
Na     -361.89199829   -120.24459076   -178.67710876
Na     -310.11157227   -200.42089844     66.90019989
Na      -12.08231735    125.99507141    133.04435730
Na      -87.16335297     28.37455368    392.68304443
Na      -85.31496429   -280.95407104    -94.05980682
Na       52.25115204   -438.72613525     70.85402679
Na     -306.38116455    154.97654724    -93.67668915
Na      127.95080566   -456.13040161    241.10086060
Na      -68.80875397    435.32293701   -442.01654053
Na       55.07244110    -73.60729218     97.67324829
Na       11.02002048    334.09771729   -171.76408386
Na      126.18870544   -118.88529205    -27.08094025
Na     -119.82398224    254.46246338   -180.00093079
Na      -52.28507996   -348.03475952   -247.57289124
Na      138.32455444    303.87420654    172.36877441
Na      -43.53195190    189.09539795     79.67117310
Na      260.89825439      7.54535818    124.37197876
Na      205.41586304   -419.08517456    -25.16086578
Na      299.04608154   -137.90002441    138.24821472
Na       44.20864868    443.09326172    164.08380127
Na      -57.01886368     85.01467896   -207.90765381
Na       80.01123047    -22.24219894     28.81320000
Na     -434.42843628    -61.84498978   -218.99444580
Na      122.82435608   -115.75952911    224.85623169
Na        8.16877460    281.89376831    -68.97533417
Na     -420.02105713    232.34797668    -34.63185120
Na      134.43940735   -293.58258057     45.14441299
S        13.56247044     23.68229103      8.89517689
P        13.85861874     25.76881027      9.64555454
S        11.37753677     26.88641930      7.87073708
S        13.59265041     29.23991013      8.65007114
S        15.87658119     26.15026283      9.96512890
P        13.34955311     27.32015610      8.14661694
S        14.72887135     26.59134102      6.60700893
S        13.05099201     26.15505791     11.52320862
S        10.63632965     26.43691635     17.32785988
P        12.52505589     25.73731041     17.22973061
S        12.99420452     26.16887093     20.66962242
S        15.46301651     26.08690262     18.29280472
P        13.62169838     26.86098480     18.80280685
S        13.12124443     26.37563515     15.43549156
S        13.17315292     28.86005592     18.62264824
S        12.99471188     23.70335197     17.40883827
S        10.53606319     26.89667130     25.60069656
P        12.59199619     26.39068985     25.74808884
S        13.68268967     29.59296799     26.70148277
S        15.65697098     26.89304543     26.92056274
S        12.92027950     27.01828766     29.00319862
S        12.78080750     24.51291275     26.51417160
P        13.75040817     27.52828026     27.25461578
S        13.56769753     26.61091614     24.00821114
S        15.57073689      9.60013199      9.67438126
S        10.28175449      9.40706158      9.15564728
S        13.14070988     11.88212490      8.83988667
S        12.28459358      9.77429485     11.69286442
S        12.40758038      6.88085747      9.94252300
P        13.73132420     10.03473377      8.74379730
P        12.07577610      8.87737465      9.89130020
S        13.84918880      9.23505402      6.82520962
S        12.73849392      9.36574364     20.71115685
S        13.21983337      8.77642345     15.75943565
S        10.63368130      9.51646042     18.11165047
S        12.77114487      6.49098492     18.01040649
S        15.56038761      8.58394909     18.28575706
P        12.45550728      9.63907433     18.72787285
P        13.59763622      8.32958508     17.61253738
S        13.08883953     11.55409431     18.45423698
S         9.91264629     10.65350628     27.09626770
S        12.62539673      9.50307369     24.28520203
S        12.69907951     10.81672287     29.17594337
P        13.18747997     10.57696724     25.83774757
S        11.48897839      7.86162090     27.66975784
P        11.85567760      9.95528412     27.46009636
S        15.11956692     10.50574017     26.62434959
S        12.74219418     12.55497932     25.57568550
P        13.09655952     17.85093307      8.29425621
S        12.56805420     15.19854927     10.40995598
S        10.66195488     17.93962860     10.88314724
S        13.26953316     19.92551041      8.63746262
S        13.84487724     18.13773537     11.61151791
S        11.46473503     17.55227280      7.02439117
S        14.70356178     16.91260529      7.64714050
P        12.51931095     17.24228096     10.39517593
P        13.32909870     16.92078781     18.33521461
S        12.59634590     20.11247635     17.75358009
S        10.15379715     17.88789368     17.71483231
S        13.31129169     15.01176453     17.63713837
S        12.27218151     17.83145905     15.21685696
S        13.20443726     17.25241661     20.39542580
S        15.40262699     17.75250053     18.11808014
P        11.93025398     18.41946030     17.21376038
P        12.61053276     18.27935600     25.98060799
S        11.62971020     19.87934303     26.54791260
S        11.72809696     17.67495537     24.22216034
S        10.62818623     16.42840958     28.07632065
S        14.53175259     18.50320053     26.02298164
S        13.40214443     17.40712929     29.47723007
S        13.47040844     15.27797890     26.81984901
P        12.62527561     16.72920609     27.78037071
P        20.94474792      1.60753477      8.84317875
S        21.60186195      3.51277399      9.25859070
S        20.72504997      1.09674275     12.22871971
S        21.35050201     -1.60800397     10.06782722
S        23.84534454      0.65601367     10.73198509
P        21.82541847      0.41129780     10.55479145
S        21.91739273      0.93873388      7.31716490
S        18.96137810      0.92922837      9.14101982
P        22.30171776      0.09993307     17.71806717
S        21.79824066     -1.92105460     17.68157387
S        21.52101517      3.31615615     18.90546799
S        19.19198799      1.21910131     17.77765846
S        20.78484917      0.69938064     21.01533699
P        20.85232353      1.32247210     19.03613091
S        22.20020294      0.93640935     15.72938633
S        24.25804520      0.12535627     18.32675171
S        22.02407837      0.38825962     29.28232384
P        21.53072548      0.44318429     27.30135536
S        21.44933891      3.87628436     27.01908684
S        22.00889778      1.85520172     24.24175072
S        24.20891953      2.57979345     26.41758728
P        22.21137428      2.21712971     26.14433861
S        22.24831963     -1.00126600     25.98104477
S        19.57586670      0.39092031     27.07276535
S        20.83111763      7.02411604      8.29245377
P        20.61945915     10.61219406      8.50019741
P        21.45775986      8.59137535      9.38361740
S        21.36424828     11.92046356      9.82872295
S        18.63978195     10.35956764      8.66866207
S        20.54145050      8.43284130     11.22160149
S        21.32461739     10.79570770      6.64081669
S        23.51958275      8.70730019      8.98430729
S        21.81710815      6.18761015     17.32064056
P        22.21223450      9.46964645     18.42772484
P        20.98295975      7.99250793     17.31008148
S        21.55992126     11.22367096     17.86426926
S        24.20719528      9.21791077     17.80930328
S        20.76886177      8.31152153     15.24411964
S        21.98268318      9.08513451     20.68382835
S        19.07184792      8.44085789     18.02554131
S        22.36723518      8.65103054      3.36384916
P        22.71560478      8.61415005      1.41098070
S        19.46664047      9.22399139      0.65237558
P        21.32672310      9.80854702      0.00800372
S        21.74516869      9.63504887     -2.07954264
S        24.44818306      9.43701363      0.82247567
S        21.50946617     11.69258976      0.41574764
S        22.51582146      6.70611143      0.66552323
S        18.40645981     18.40640450      9.57397938
S        20.37574959     15.49748039      8.91528893
P        22.03197670     18.44396782      9.94255257
P        20.14117813     17.46210670      8.78637123
S        21.70196724     18.41991806     11.95724010
S        22.24178505     20.42915344      9.42059517
S        20.32071495     18.16558266      6.79989815
S        23.76040840     17.29999352      9.35074902
S        21.94765663     15.02788925     18.00157738
S        21.55262566     17.43077278     15.46595287
P        21.98868561     18.12285233     18.94739914
P        20.93035507     16.84652138     17.34985542
S        21.23287773     19.90421677     18.70001793
S        23.93377495     17.87241554     18.16518974
S        19.00282860     17.06137466     17.77917290
S        21.80405807     17.43894577     20.83094597
S        22.04607391     18.23557091      3.61733317
S        24.58399582     18.59587097      1.37339211
P        22.54291534     17.81436729      1.61251402
P        21.08652115     19.01424026      0.25619879
S        21.52782631     20.90581512      0.53392261
S        19.03520203     18.49600220      0.04786614
S        22.44886780     15.95842838      0.98958957
S        21.80636406     18.58681107     -1.80282128
P        30.97694397      0.89055192      8.56425571
S        30.79015541      2.83606434      8.15286922
S        29.56601715     -1.63120592     10.59973621
S        29.39748001      1.58027363     11.83596039
S        32.65209961      0.41862261      9.60917759
S        27.17700005      0.74829417      9.54732513
S        30.59907722     -0.41983676      7.14179945
P        29.23593712      0.35049734     10.20447350
P        30.93701172      1.51916146     18.30946541
S        30.51935577      3.61507797     17.98983765
S        28.89698410      0.40607837     15.95390511
S        30.28065300     -1.56452382     18.12924385
S        31.71465492      0.88536054     20.05776215
S        27.87431717      1.01386976     18.99732018
S        32.45687103      0.87418872     16.87505913
P        29.31832123      0.27466124     17.80333328
S         2.19031930     26.67767715     25.79322624
P         5.39921188     25.43361855     26.64699364
S         4.95093727     23.84665489     25.44592857
S         4.59163475     26.14837837     23.37644196
S         4.74119997     28.71391487     25.78033066
S         4.71626711     25.67137527     28.57879448
S         7.35176516     26.14870834     26.40804672
P         4.18451214     26.98990631     25.23397827
S         4.89491844     11.58178997     10.75566196
P         5.13904428      8.47493744      9.19465160
S         4.39124632      6.60690689      9.66304302
S         4.64101219      8.60109138     12.46733570
S         7.08224010      9.12884712      9.39404297
P         4.16959381      9.69364643     10.70237255
S         2.14135051      9.71012497     10.17752934
S         4.58883286      8.66172981      7.20095253
S         2.35346532      9.80516052     17.43628120
P         5.05324459      9.66181374     19.25759888
S         4.52215672      9.12133312     20.96267891
S         4.10124969      6.73850727     18.29183006
S         4.56975698     11.59756374     19.08537483
P         4.03844929      8.59884739     17.65954399
S         4.77138805      8.99971771     15.84926128
S         6.95831156      9.15037537     18.70787430
S         2.01784635     10.27076340      1.26699984
S         5.35351133      9.65839767     -1.20690918
P         5.29110432      8.67055511      0.65909094
S         4.93706799      6.65265131      0.79584605
S         4.88072109     11.67813110      2.33394551
P         3.89121366      9.97396183      2.05526996
S         4.07034111      9.22374153      3.86937809
S         7.02490377      8.97108459      1.55287361
S         1.61350882     18.16794777      9.78675270
P         4.76814413     16.54719353     10.37176037
S         4.10742855     14.83307076      9.32276630
S         4.41372108     18.45783234      7.41821527
S         4.06033945     16.44911766     12.34781837
P         3.69142485     18.54292870      9.29078007
S         4.57304955     20.19204140     10.13241673
S         6.75653410     16.99678802     10.25004959
S         3.81038904     20.12818527     18.37508774
P         4.45905638     16.95137024     19.02287865
S         3.59485865     17.16549873     20.92050362
S         1.73240435     17.47718430     17.65147018
S         6.53229475     17.46509171     18.88138962
P         3.59805298     18.26677132     17.61987877
S         4.25452995     18.18164062     15.70126057
S         4.48409414     15.12079620     17.87019730
S         4.16200781     15.41269875      1.18011737
P         5.53899050     18.67730331      0.82421005
S         5.83945704     18.52775383     -1.18663585
S         7.17091560     18.55234146      1.96557772
S         1.95941389     17.89455795      0.57750893
P         3.65941262     17.29604340      1.56882942
S         3.49521637     17.32183838      3.81758070
S         4.64721203     20.63496590      1.14169908
S         9.15220261      2.82072067      3.99360323
S         7.81223249      5.49294853      2.47071481
P         9.13132668      5.90766382      5.59322405
S         8.07216835      7.59242582      5.62894487
P         8.08272552      4.46069288      4.24209166
S        10.87753105      6.06653404      4.48657560
S         9.32255936      5.18029308      7.56306982
S         6.49729347      3.99853969      5.35027933
S         8.25225353      7.52277470     13.68024826
S         8.36586952      5.57455206     16.00994110
P         9.34854984      3.95447826     12.83215523
S        11.05866814      4.64241314     13.47727680
P         7.83280468      5.35640812     14.08312607
S         8.76726151      4.51534414     10.90407658
S         9.01714802      1.97720742     13.08356190
S         5.91161966      4.68944883     13.69271183
S         9.98619270      5.49285936     24.78115082
S         9.34341621      8.34655476     23.11004448
P         8.78937817      4.81556749     21.85429955
S        10.11596966      3.40044117     21.42468071
P         9.98322010      6.50386810     22.93534470
S         8.24760532      5.74211884     20.03804588
S         6.85832882      4.56484604     22.74443054
S        11.82791138      6.32582521     22.03059387
S         8.83223534     13.82266521      8.24919224
S        10.71212101     13.41629028      5.50389767
P         7.55001259     14.51566887      5.01709270
S         7.89433050     13.93688965      3.15460896
P         8.97169685     13.18890858      6.33427477
S         8.31219387     16.42246437      5.39730835
S         5.52488613     14.15978909      5.37270832
S         8.11686420     11.16101742      6.25426435
S         8.98514366     12.92720509     16.94700432
S         6.34540510     13.46836567     14.82956696
S         8.72906971     15.76577950     14.96891499
P         9.43393993     12.41391182     13.73949337
S        11.44034004     12.91619492     13.53490543
P         8.35261536     13.85559940     15.22746277
S         8.46709824     12.68723392     11.96013069
S         9.13513756     10.37793064     14.42811203
S         8.99900055     14.13118076     19.92433739
S         8.86611652     11.39203262     21.82570648
S        11.04358578     13.95469093     22.52140045
P         7.72403574     14.50604725     23.23051453
S         8.49165535     14.39192963     25.21793556
P         9.24332047     13.48054695     21.82527924
S         6.01491022     13.53093433     23.16918945
S         7.58269453     16.27696991     22.21596527
S         8.76224899     24.57242775      5.29677677
S         9.56305027     22.12708855      3.21945262
S        11.10899162     22.36579514      6.34593582
P         7.56116056     21.31164360      5.94881487
S         7.46274376     21.75721741      7.95858097
P         9.37970257     22.55603409      5.23958254
S         8.07907867     19.41616058      5.61057711
S         6.03806353     22.19218445      4.80172729
S         5.86557770     21.99473763     13.62684155
S         7.94122791     21.72351456     16.32261658
S         8.12499237     19.41404915     13.93507290
P         9.19423771     22.67828560     13.47617912
S         8.80731678     24.64495468     13.74646854
P         7.56688070     21.27075768     14.36802006
S         8.96379280     22.61124992     11.34232044
S        11.07105255     22.10970116     13.74308968
S         6.73238468     21.82635117     21.57582474
S         9.63800240     19.83656311     21.66682816
S         9.22852612     22.25437355     19.35409737
P         9.71210957     23.09146690     22.55797386
S         8.66661358     22.92900848     24.29244232
P         8.80582142     21.60538483     21.21744347
S         9.24153996     24.86189651     21.76897240
S        11.71631050     22.92214203     22.60241127
S        19.86779022      5.41403913      5.47628498
S        17.14062119      8.23282623      5.17220688
S        17.02641296      6.05364323      7.62265253
S        15.11110306      5.62285471      4.65899038
P        18.16908073      4.74694347      4.63211489
S        17.79656029      5.13824177      2.62377071
P        16.82645226      6.31720257      5.54584265
S        17.71838379      2.71797585      5.03651810
S        16.54381752      2.51050568     13.64065838
S        14.79990387      5.75430918     13.00684738
S        16.87988853      4.78011656     10.64267921
S        17.80215263      7.44059086     12.67718697
P        17.72173500      4.27474785     14.06760979
S        17.59617996      5.19608927     15.94916534
P        16.70670891      5.66567659     12.57632637
S        19.70265961      4.01496792     13.64325523
S        17.96385765      2.87483811     22.70229721
S        14.42522526      5.00977516     22.64155769
S        16.58330536      7.86261368     22.32262802
S        16.81254959      5.69706488     25.13949013
P        17.96676636      4.75297499     22.02879715
S        19.63424873      5.84031391     21.99857140
P        16.28085899      5.96213007     23.08788300
S        17.27722549      4.62142563     20.02950668
S        18.07410431     16.34586334      3.76009631
S        16.96392441     11.55681038      4.76752472
S        15.14578056     14.54144669      4.37810659
S        17.30283356     13.96247673      6.74496698
P        18.38120461     14.41709423      3.63876343
S        18.29375076     13.86065388      1.59675837
P        16.75264549     13.57665157      4.91376781
S        20.14636803     13.65681171      4.21732235
S        16.52455521     13.02271748     11.07477570
S        16.98788452     10.24792194     13.89187813
S        17.66836929     12.77687931     16.22445869
S        19.57528496     12.19572353     13.69854832
P        16.35316849     13.36223602     13.05117989
S        17.34230995     15.26983070     13.22919464
P        17.75332642     12.11461163     14.22006035
S        14.50954533     13.35214233     13.95832539
S        18.06912041     16.04768944     20.95567703
S        20.14302444     14.25732708     22.86129761
S        15.07402706     13.01439285     20.81391525
S        16.69951057     11.41390038     22.97802925
S        18.38343811     11.88666630     20.14609718
P        18.17715645     14.66582584     22.41420746
S        16.92506218     15.10606003     23.99224663
P        17.08407211     12.79472828     21.52515221
S        17.32133102     21.52254295      7.24503708
S        19.73847771     21.71847725      4.86951685
S        17.09802437     24.44727516      4.84059477
S        14.67801762     22.11861038      4.63217020
S        16.88409424     22.55928230      2.17949581
P        17.85099030     21.14825630      5.36721992
S        17.22211075     19.55412102      4.31139994
P        16.53893089     22.52647972      4.32214117
S        20.03994370     21.90421867     14.50705814
S        17.58143616     21.70774269     16.88720512
S        16.86102104     19.14588547     13.55893803
S        17.38472176     22.06196594     11.69001579
S        14.95052910     21.68263626     13.76661110
P        18.05132484     22.26312256     14.90040874
S        17.47168541     24.30513763     14.48102570
P        16.82602692     21.13892555     13.36019707
S        17.08278656     24.79813385     23.07643127
S        17.17045021     22.60841560     20.24412346
S        14.37708759     21.54450035     21.90691948
S        15.88659954     21.88998413     24.88126564
S        17.01558685     19.49409676     22.71996307
P        17.54323578     22.86901474     22.31070137
S        19.39741516     22.34149742     22.67802429
P        16.04563904     21.25088692     23.03820038
P        25.68282509      4.34027338      5.99099827
S        26.46410561      4.87620258      2.77134466
S        28.78484154      4.84008884      5.19875431
S        26.20639801      4.86317253      7.96769571
S        26.10999107      2.46413088      5.82795906
S        23.60565948      4.71251678      5.75690556
P        26.94051361      5.52946186      4.64375305
S        26.36898041      7.45106268      5.13752460
S        28.11336136      4.88496256     13.62423515
P        24.48065186      5.18081522     13.28431988
S        25.64005661      2.83777666     14.67183399
S        26.22630882      5.96344757     16.11049080
S        24.62811279      7.18190193     12.96302986
S        22.67651749      4.78606892     14.04588795
S        25.13128090      4.43733263     11.33059406
P        26.35738182      4.76838827     14.46242142
S        26.78325462      8.20378017     21.87877464
P        25.31080437      4.96795416     21.55793190
S        29.13520813      5.76982117     22.32037544
S        26.60703087      6.17471218     24.30543327
S        23.60577583      5.76272202     22.17584229
S        25.26209068      3.25475287     22.59726906
S        25.75343132      4.91541862     19.67997360
P        27.20642662      6.25921345     22.50491714
S        26.04553223     13.00612354      3.41227508
P        25.16191483     14.45294285      6.42841482
S        25.92563629     11.12439060      5.97091532
S        28.20550346     13.14754105      5.98435736
S        23.19476128     14.29059982      6.45579338
S        25.79484367     16.28141212      5.72083759
S        25.68516541     14.05172539      8.54897785
P        26.44014168     12.93685246      5.30551004
S        22.60298157     13.57602310     13.81330204
P        26.09162903     12.63281250     14.65530968
S        25.16213226     12.94639301     11.46908665
S        25.22958565     15.69697952     13.94233513
S        25.64283752     10.68846321     13.89450264
S        25.30870247     12.93318844     16.48630333
S        28.03501320     13.49242401     14.10353947
P        24.51959229     13.83831406     13.33000183
P        26.12654686     14.60128784     23.13961029
S        25.25597954     14.46765137     24.97087669
P        25.21127129     13.18294430     21.47155952
S        25.81294823     16.51725960     22.50955772
S        28.09620857     13.88862705     23.25922775
S        23.16168594     13.76332378     22.03288841
S        25.42239761     11.18437481     21.86492348
S        25.76747513     13.65009022     19.57672119
P        24.90847588     21.95422935      6.30695486
S        24.59025764     19.89684868      6.36812544
P        26.47031403     22.61923981      4.63592911
S        23.22878456     23.06026649      5.71114016
S        25.97064400     22.52294922      7.97315693
S        25.89163399     22.01497459      2.75728965
S        28.12678719     21.50346565      4.99927092
S        26.88345528     24.61400604      4.67353010
P        25.15862656     20.96047592     13.34794712
S        26.15744781     21.47190094     11.60483456
P        26.09173393     22.59508705     14.83592892
S        23.27614594     21.54261017     13.36291504
S        25.75660515     19.09940529     13.94377613
S        25.72613525     24.37495804     13.99562168
S        27.89775848     21.96460342     14.63806152
S        25.29291344     22.37803650     16.76588249
S        23.18847847     22.81180382     22.34353256
P        26.33279037     21.94698906     21.84410667
S        25.90309143     19.97882843     22.68157387
P        25.03287888     23.39749718     22.75038528
S        28.29938889     22.04122353     22.00633621
S        25.80185890     21.60812759     19.87474442
S        25.57760048     25.08125496     21.90751076
S        25.68960762     23.24586105     24.83480835
