648

Na     -145.95300293   -216.13267517    117.13852692
Na     -222.59056091    223.24809265   -313.47732544
Na      125.97537994    -49.13731766    437.45855713
Na       10.83710003    -15.76786232    207.92686462
Na       36.64542007    -44.55814362    118.54486847
Na     -276.80572510     -2.90042210    -54.85535431
Na      146.37554932     18.15476608     63.67155075
Na      192.29071045     19.11203194    -85.24722290
Na       74.30108643    361.55953979     33.44173050
Na      176.51062012    336.28710938    334.26251221
Na     -259.97817993    151.65420532    -92.08696747
Na     -301.87850952   -353.37261963    110.87431335
Na       41.32852936   -223.09887695    -97.05168915
Na     -391.74807739     78.16562653    142.86271667
Na     -201.80888367    -58.43432236    -28.75584984
Na     -258.22790527     -6.75678873     70.77427673
Na     -157.77445984    111.06143951   -236.84132385
Na      117.52020264    320.31958008     79.46035767
Na      117.47584534    204.21694946      0.22193833
Na      -74.86080933   -126.06699371    134.16195679
Na      274.34469604   -138.40032959    -67.88624573
Na       83.28397369    281.21722412   -316.43164062
Na      159.87889099     30.66225243     64.67996979
Na     -132.61401367    -11.43760967    181.14169312
Na      143.27803040     86.29689026   -131.49534607
Na      141.48283386   -124.47694397    122.09739685
Na      -84.53635406   -222.36447144   -144.39338684
Na      161.37611389     74.63916016   -136.18263245
Na       -9.90375805    -66.03620911   -144.44668579
Na      -72.82380676     11.60233688   -110.67549896
Na      -48.47467041   -100.98718262   -126.44683838
Na      451.80316162   -242.76658630    -20.70771790
Na     -188.34837341     98.71063232    190.56248474
Na     -178.40992737     92.89401245   -127.95788574
Na      -14.22383308    -99.55201721    -34.16388702
Na       31.91105080   -111.50476837     87.39103699
Na       36.02953339     51.63855362    225.09089661
Na     -140.50633240    298.55609131    122.47250366
Na     -187.99620056    -54.11072159   -152.57801819
Na     -154.56053162    -73.33486938     66.83473969
Na      133.89292908    364.08621216   -191.74858093
Na      -40.78219223    -66.76854706    -51.44898224
Na     -118.00504303   -338.76013184   -389.55395508
Na     -396.87899780     40.70330048   -131.16419983
Na      -42.50358582    -41.16956711    270.28399658
Na       77.93881989    218.05688477   -132.06669617
Na     -162.73355103    -24.51003838     62.40199661
Na      261.85357666   -337.93862915    -18.41616058
Na      -73.08468628    310.36987305   -359.91250610
Na      -27.41124535     56.00532532   -127.44827271
Na     -128.06037903   -307.73294067    -97.02470398
Na      252.67381287   -335.23791504     -0.90540659
Na     -194.16429138   -228.60667419    -44.95207214
Na     -145.48750305   -158.74464417   -128.84535217
Na     -274.13278198     90.61914062     43.20221329
Na       94.20777893    183.09478760    276.24948120
Na     -146.29273987   -295.96444702     29.38640976
Na      -12.07370949     98.49451447   -148.87147522
Na     -128.74945068    119.43570709    139.63638306
Na     -176.08747864   -196.88476562    282.66162109
Na      -77.75180817    186.73069763    368.58221436
Na       28.56595993    192.03958130    105.94302368
Na     -184.33663940    313.59594727   -255.39607239
Na      124.01975250     86.20966339    178.55424500
Na       -6.93629265   -112.76378632   -154.40129089
Na      -76.53176117   -329.53311157    200.45458984
Na      130.13980103   -126.16831207     45.68969345
Na       70.52384186     -7.18238926    283.37814331
Na      472.56741333    394.53182983   -305.60937500
Na     -191.46041870     87.17395782    -93.25664520
Na     -161.60519409     42.98796844    -82.29524994
Na     -170.88423157   -282.20434570    -54.48515320
Na        1.83260131   -177.05630493     92.73561859
Na     -115.99752808    117.58624268   -150.84970093
Na       41.45262146   -286.52609253    160.42256165
Na      253.88323975    -29.42265701    -17.80388260
Na       57.80139542    133.45510864     44.58211517
Na      108.13548279    -58.58394623    -30.00053978
Na     -109.98726654    126.97694397     -4.54945230
Na      300.90191650   -208.16351318     16.77911568
Na     -107.57643890     12.97246265    -89.44694519
Na     -146.96578979   -104.83792114    230.39100647
Na       48.20743942    255.14486694   -310.91116333
Na      -17.17104340   -175.49856567    -54.09442139
Na       91.91889954   -123.12913513   -292.34948730
Na     -196.76783752     90.26409149    122.68257904
Na      324.95407104    -28.38172340   -152.51805115
Na      164.25679016    344.79568481    271.97637939
Na      341.13839722     40.20993805     63.79752731
Na     -214.68263245    -70.17316437   -244.02833557
Na      176.36273193     62.35219574    -36.57017899
Na     -209.20347595   -226.30722046   -145.24151611
Na      446.89059448    318.87835693    274.79266357
Na      224.09814453    179.28350830   -125.04324341
Na       49.57948303    140.71699524      4.28246117
Na       44.33475494    361.26138306   -341.59243774
Na     -567.42016602    -11.22846985   -120.87930298
Na      672.86737061    311.42156982   -105.82096863
Na     -387.12405396    -88.74494171    193.67453003
Na     -179.42919922   -109.18389130    -32.84334564
Na      243.73266602   -251.32623291    182.33099365
Na     -209.06024170   -196.05784607    129.53948975
Na     -115.80915070    404.14480591    275.53158569
Na     -192.54479980   -312.24731445     37.71149445
Na      239.92485046   -281.25494385     13.02226067
Na       38.34270096    -23.55076599     33.35437012
Na     -161.77732849    132.57676697   -280.68399048
Na      138.43350220   -257.74404907   -271.73883057
Na     -344.73785400   -105.88974762     15.60456181
Na        2.16335249      7.15305519    110.84018707
Na     -145.06495667     49.20152664    233.71151733
Na       68.17710114    -51.76622009    -21.31352425
Na       87.47251129   -253.40347290    -48.40203094
Na      -95.08303833    127.43741608     51.67761993
Na     -110.84820557    288.84674072   -161.34591675
Na      -61.23046875   -159.52839661     30.10162735
Na      -25.41992378     10.40303230     57.80714798
Na      120.28610229    -85.22826385     16.48360634
Na     -120.43746185    175.06748962      9.20454597
Na       80.19266510     34.96158218   -251.91912842
Na     -107.02915192   -286.58251953     49.64233017
Na        7.02953768    141.60493469    -73.02351379
Na      -74.07100677     44.42008972     93.02504730
Na      -77.15303802   -121.29977417   -182.81877136
Na      288.34817505   -325.01062012     73.65636444
Na      -28.77321815     81.45117950    214.47801208
Na      -17.82411385   -133.84268188     89.93257141
Na       53.75877762     11.75686455    235.57441711
Na      265.33251953     61.66840744    115.24493408
Na       74.69510651   -104.91919708    -29.98828888
Na     -120.18466949    119.62988281   -149.56562805
Na     -128.32557678   -601.01489258     80.23407745
Na      185.27078247    211.61444092   -152.00042725
Na      -65.59721375     16.72499275    237.57272339
Na       -2.08536482     10.06533146    -16.94869614
Na       53.68212891    216.55210876    100.67750549
Na     -228.92616272    136.63084412   -161.67932129
Na        2.31872296   -146.23208618     92.55986786
Na     -223.17564392    181.77877808   -339.02819824
Na      -59.72279358     50.23595428    -93.95262146
Na      -30.90854263     27.42633247   -110.56253052
Na      -70.11247253    -24.56235886    315.85971069
Na     -151.08804321    382.65594482    -63.58987045
Na     -235.13867188   -181.56008911    -89.01390839
Na      218.52900696    267.89291382     12.80146694
Na      179.62484741     17.58720779    182.92272949
Na      -70.61464691    -96.86258698    534.49963379
Na      214.50836182     27.22151375     12.30644512
Na     -437.60922241    226.86920166   -109.25075531
Na      163.26782227    107.43148041     64.15729523
Na     -170.44416809   -240.82858276    260.88345337
Na     -366.98684692     13.16551113    -60.16612625
Na      331.38372803    288.78381348   -127.62560272
Na       34.07996750     15.09427547    -51.05776596
Na     -155.34251404    128.55772400    163.88624573
Na       -5.72700882    199.95281982     46.74628067
Na      146.68400574    148.71215820      6.40729809
Na       -7.20181990    186.89329529    470.94335938
Na      -30.97614861   -269.73419189    199.38890076
Na      -30.12103844   -353.42098999   -230.88543701
Na     -141.24778748    217.14884949   -147.73304749
Na     -208.37777710     31.06188774     43.38810730
Na      -89.97324371   -197.13731384   -176.57460022
Na      -44.31566238   -333.82781982    140.01458740
Na      341.18716431   -122.09144592     83.86214447
Na     -120.69776917    331.57904053    247.55366516
Na     -264.93457031    -44.94486618     93.61993408
Na      104.45938873    -33.49184036    153.19866943
Na     -257.43118286    225.48834229    187.39736938
Na     -111.20137024    277.10836792     42.20479202
Na     -125.22006226     43.14212418    -12.37367725
Na     -132.73510742     94.45365143     60.36920929
Na     -257.66186523    123.77053833   -226.63066101
Na      -47.66677094    -30.38282585    183.24969482
Na       49.38916397   -105.28892517    -13.17831612
Na     -136.96298218    239.19178772    207.14927673
Na      227.39123535   -215.48068237     46.29119873
Na      -74.07589722   -308.09228516    152.37213135
Na      -19.41889000     47.70156860   -387.98632812
Na      146.98150635    -92.29427338   -167.81324768
Na      -65.61415100   -139.64529419     49.10797882
Na      440.14553833     10.10728359    415.28692627
Na      308.58718872   -337.48123169    313.72885132
Na     -171.10461426     30.73568726    -93.72567749
Na      216.42303467     10.58066082    -56.02381134
Na      205.71035767    158.00698853    369.50808716
Na      422.48611450    149.51409912   -282.95617676
Na     -175.69320679     98.36943817    117.76574707
Na       73.76266479   -137.91519165    297.42938232
Na     -209.99922180   -126.76219177   -240.69596863
Na      -90.78529358    200.27868652   -304.56665039
Na        0.57153261   -290.61071777    218.42611694
Na      116.27108765   -286.55715942    -63.50498199
Na      -48.54999542     41.09816360     85.65571594
Na     -103.81221008   -159.95141602   -172.96006775
Na       49.53693008    -77.83609772   -186.94068909
Na      -65.52009583    147.17674255     81.35839844
Na      190.19578552     19.50168800    176.90254211
Na      154.55560303     81.16497803   -152.88160706
Na     -122.29803467    -72.49324799   -249.63423157
Na     -188.56648254     85.22784424   -242.33992004
Na     -124.24068451    -41.25081635    189.69010925
Na     -225.83386230   -117.62838745    -80.49169922
Na      184.95417786   -218.82241821   -131.15007019
Na     -322.72918701    158.43663025   -173.41436768
Na      115.52944183    -62.27091599    -92.15467834
Na     -154.20039368    212.46733093   -107.10733032
Na      168.62983704    -92.49130249   -101.57615662
Na      125.68798065     14.66117477   -194.12594604
Na     -124.12101746    152.48590088     54.92549133
Na      -73.44486237    -88.71055603    343.09896851
Na      -56.63745499    141.67474365     46.07053375
Na       67.00787354    119.23175049   -204.29785156
Na      100.30572510    102.01091003     77.76676941
Na       48.03234100     90.12078857     51.39558029
Na      231.77388000    302.72113037    212.88751221
S        20.21991920     29.13535881      9.95341969
P        18.22925949     29.43404579     10.58323765
S        16.82142448     28.86048508      7.54364252
S        17.28360748     26.17492294     10.01507378
S        17.67471313     31.39071465     10.45592117
P        16.61463165     28.22959518      9.59444523
S        14.67960262     28.31341362     10.33508396
S        18.29404640     28.72582436     12.44080544
S        19.94857597     28.82390785     18.76903915
P        18.26410866     27.79216003     19.22217178
S        14.89171314     28.97270775     18.18160439
S        17.40729332     31.50481796     18.28644943
P        16.94600868     29.50409126     17.93266487
S        17.24153900     27.93894577     21.06706047
S        17.28602600     29.18708229     15.94511986
S        18.11621857     26.00116158     18.21233177
S        15.33365631     28.76341438     27.04525375
P        17.20865631     28.42293549     27.58751106
S        17.56089020     32.04200363     26.67797852
S        17.91118431     29.18115997     24.40422821
S        20.38106918     29.59137535     26.74115372
S        17.73283577     28.76946068     29.79398155
P        18.50238419     30.03845596     26.35192108
S        17.68511963     26.44132805     27.18422127
S        14.89936161     11.85509109     10.51179218
S        20.06155396     11.99760342      9.91960812
S        17.51534271     11.50586700     12.69664955
S        17.73099899     14.14642525      9.77517605
S        17.86050415     11.51952744      7.37849426
P        16.84751892     11.04304600     10.74284744
P        18.26278114     12.32768726      9.16697884
S        16.99113655      9.07619381     10.31092930
S        17.68914413      9.71166801     18.96257973
S        14.89708042     11.77464104     18.57423592
S        17.78426552     12.12960243     21.30591583
S        16.90411949     12.02430058     16.20063019
S        16.80770874     14.70786095     18.46791649
P        18.24965096     11.73419571     19.28183746
P        16.64040947     12.66561413     18.03286171
S        20.14376640     12.01266289     18.58511353
S        17.09880447     12.59277821     29.47773552
S        17.87881660     10.79948044     24.70596886
S        14.86927605     11.59444141     27.09877586
P        18.50194550     11.14608383     26.67303658
S        17.42717171     14.24405098     26.57357597
P        16.78937721     12.33081245     27.40437889
S        18.23468971      9.44464397     27.73113441
S        20.34641838     11.70446301     27.10916710
P        16.71721458     19.93355942     11.11471748
S        17.33564568     23.47049141     10.83215332
S        17.29486656     21.67915154      8.10839939
S        14.81087780     20.08291054     10.47455502
S        19.69201088     21.01671600     10.27248764
S        16.98266983     20.00952721     13.32619762
S        17.22234535     18.08249664     10.54694653
P        17.79973221     21.65038872      9.86773109
P        18.27896881     20.02840233     18.31444931
S        17.32123375     20.63946342     21.68562126
S        14.98018837     19.87398911     19.06806564
S        18.61358643     18.13058090     18.98216057
S        16.77567863     22.92682838     19.20926285
S        19.87248230     21.05903244     18.98679161
S        18.07276917     20.59474754     16.43606949
P        16.68730545     20.89576721     19.75471878
P        18.23002243     19.46092224     26.92945671
S        17.88522720     17.42603874     27.16320038
S        20.16465378     20.13199425     27.20831108
S        18.05045891     22.78206253     27.58859825
S        17.81220245     19.97951889     24.89349174
S        17.88120270     20.39262009     30.11904335
S        15.23795319     20.40024567     28.01361847
P        17.20713234     21.05628967     28.30580330
P        25.41182137      2.87542057      9.16088963
S        23.37565422      2.98213291      9.31389904
S        24.81288910      5.90628099     10.32134342
S        25.71317863      3.61003685     12.85558701
S        27.93207169      4.81205940     10.91244125
P        25.96002197      4.31904030     10.99945831
S        26.38068199      3.53639507      7.43151712
S        25.94206619      0.96526831      9.80397415
P        27.18208122      3.82438684     18.08529472
S        27.00607109      5.71591997     18.91215134
S        24.10723305      3.35277891     19.01984596
S        26.03603363      0.74318248     18.79153442
S        26.60094452      2.98894262     21.23416328
P        25.97766113      2.67195988     19.26078224
S        28.87947845      2.95632410     18.26906204
S        26.51492119      3.98493648     16.17144012
S        26.19639587      3.59465456     29.85745621
P        26.69137383      2.72833991     28.06259727
S        25.56262207      2.87166786     24.86874771
S        25.54695702      5.54113388     26.85821915
S        23.34863281      3.23111773     27.46242332
P        25.12813377      3.55782866     26.66896057
S        28.60536385      3.05151343     27.33990860
S        26.27246475      0.71726382     28.39719391
S        26.45791245      9.85236263      9.36255169
P        25.11300087     11.96736431     11.48618031
P        26.30838966     11.77759647      9.53571033
S        23.19557953     11.64400578     10.92104244
S        25.90530968     13.79972649     12.05714703
S        28.17681694     12.42036629      9.66903973
S        25.92472267     10.52567387     12.67726517
S        25.50251007     12.85535049      8.01936340
S        23.78369713     12.21153641     18.15626144
P        27.01729584     11.61132145     19.17318535
P        25.70266533     12.67364979     17.84582901
S        26.55967712     11.96991253     21.13116646
S        28.76089096     12.68820286     18.78798866
S        26.07323265     11.91770077     15.82776833
S        26.79101944      9.51958466     18.96224976
S        25.96914101     14.71177959     18.06474495
S        28.79138184     12.12770557      1.90730250
P        27.11578560     11.28870964      2.52445054
S        25.68651962     14.45695972      2.13727331
P        25.34181595     12.35640812      1.59407949
S        23.38535118     11.76996422      2.36068273
S        26.50577164      9.31803417      2.28657246
S        25.15002632     11.98612309     -0.37240374
S        26.58661842     11.63367653      4.41606283
S        25.87097359     17.16139984     10.79338264
S        26.24083710     19.03939056      7.74805498
P        26.64776230     20.55922890     10.94537354
P        25.45987701     19.10906982      9.84624100
S        25.66141891     22.21121979     10.27227402
S        28.52987289     20.12417412     10.53523064
S        23.54343033     19.70631027     10.07009983
S        26.30140305     20.39682579     13.00924301
S        28.68283844     20.29836464     18.96438980
S        26.38279533     17.94188499     19.36452293
P        25.35404396     21.05832481     18.44465446
P        26.82536125     19.83554268     19.74196053
S        23.43307304     20.53059959     18.87232208
S        25.39758492     20.13762665     16.56647110
S        26.52328300     20.47493553     21.59949493
S        25.80525398     23.10816383     18.48912048
S        25.63162613     17.34480286      2.18326521
S        26.50806808     19.24657440     -0.55503476
P        25.47717857     19.09081459      1.32292831
P        26.56423187     20.92183495      2.72833014
S        25.29593277     22.51987839      2.19354224
S        28.44606209     20.44897079      2.28631115
S        23.55420494     19.65246773      1.45894015
S        25.94244385     20.34991646      4.72756004
P        34.43728256      2.66157436      9.68552780
S        34.47899246      0.67819345     10.30815506
S        34.65715027      3.33810019     13.08495903
S        33.60601425      5.77161026     11.33716393
S        33.62490463      2.83825731      7.94415903
S        31.50433350      3.02898312     11.84159660
S        36.49975204      3.48685813      9.66155529
P        33.53511810      3.84282041     11.56992626
P        35.43907928      4.34100533     19.66654587
S        37.37805939      3.86318088     18.53433037
S        34.09451675      3.13769865     16.78945732
S        34.39954376      1.18271077     19.39106560
S        35.12130356      6.26715231     19.64021111
S        32.41119766      3.80040884     19.66381836
S        35.66660690      3.84236932     21.65563965
P        34.00046921      2.95767117     18.82721138
S        11.21523094     28.90252876     27.33009148
P         8.18975639     28.06392097     28.30510521
S         8.61285114     28.66680908     30.19482231
S         8.61177349     31.34235001     27.00858688
S         8.77561283     28.39387512     24.90103912
S         8.35013771     26.03577614     28.26598358
S         6.17187977     28.25876808     27.82181358
P         9.32729435     29.26218224     26.67353630
S         9.63036537     11.97286892      7.94407320
P         8.10609722     11.65745163     11.36525059
S         6.29844475     12.01808548     10.65758705
S        11.66759396     12.83516884     10.75903511
S         8.84420300     12.28899574     13.12094402
P         9.65705776     12.85879707     10.02940941
S         9.08024693     14.94845200     10.02346706
S         8.96668816      9.86200047     11.22246265
S         8.38663292     11.86649227     21.61842537
P         8.48182106     12.38939762     18.42368126
S         6.62955713     11.73446941     18.43221855
S        11.44690323     12.67409515     19.86563873
S         9.19792271     12.05231190     16.49326324
P         9.73579311     11.36260986     20.06799507
S         9.85362053      9.52162838     19.84017181
S         8.53474331     14.49293423     18.90324211
S         9.56795406     13.86618137      2.51331091
S         9.06781960      8.86245918      2.40929079
P         8.45661640     10.86980247      2.65846992
S         6.64074087     11.22633743      2.02036858
S         8.55008030     12.08138180     -0.37376854
P         9.71224022     12.36050415      1.28644073
S        11.60818768     11.53948498      0.98143685
S         8.58551311     11.26340580      4.75743151
S         8.72033978     22.93329048     11.36322403
P         8.54051685     19.88993645     10.38179779
S         8.56201935     20.29894638      8.39458752
S        11.46405602     21.31708336     10.71588326
S         6.59138012     20.23075104     10.88696480
P         9.70949554     21.31635475     11.52730942
S         9.73699760     20.77410698     13.61624622
S         8.85384178     17.90040588     10.63058376
S        11.63889885     21.37442589     18.91696930
P         8.90993881     19.69444084     20.31810760
S         9.62059593     17.93820763     19.69031143
S         8.56604958     22.96088028     19.27326965
S         6.82565308     20.06060982     20.33552361
P         9.59436893     21.17368507     18.93758202
S         9.07498455     20.42774010     17.12921143
S         9.83847046     20.33533096     22.13192940
S        11.61007595     19.95902634      2.22051597
P         8.27958679     20.91636848      2.42012858
S         6.58369255     20.06063843      1.58394182
S         8.20946598     22.99362373      2.17646503
S         9.57981777     19.54312134     -0.35463428
P         9.83695698     19.38631058      1.66594040
S         9.48197937     17.63785934      2.58606124
S         8.11238098     20.53182602      4.47360516
S        13.24557972      9.84921646      5.87296820
S        15.82882023      7.94390249      6.42692661
P        12.92821980      6.32190323      5.41742039
S        13.57502460      6.22096157      3.50934649
P        13.87361240      7.95884562      6.65086842
S        11.02679062      7.00887108      5.76336432
S        13.33326817      4.49268150      6.31456757
S        13.40829849      8.06607723      8.50141430
S        13.34330273      4.82283688     15.18365383
S        15.91867447      7.09349966     14.22363281
P        13.03326893      8.41486359     15.54773140
S        10.96263695      8.25553036     15.30624199
P        13.89555359      6.62632179     14.39672279
S        13.99866867      9.90753746     14.71999836
S        13.26475620      8.00498104     17.54412460
S        13.34873772      6.98575115     12.51203918
S        14.03570843      5.22273016     22.39126396
S        16.40676308      7.73479128     22.88598442
P        13.28507805      8.22140408     23.68130493
S        13.82681942     10.23794556     23.59545517
P        14.52005672      7.06378794     22.08205795
S        13.77524948      7.32017469     25.49208260
S        11.26757050      7.85218763     23.26465797
S        14.20981503      7.84878254     20.35941315
S        12.69049358     16.03096390      3.65307808
S        12.73280716     18.58360481      5.88201666
P        13.57481956     15.69725132      6.83275986
S        13.12389851     13.84837532      7.03528547
P        12.02207565     16.76131439      5.37411451
S        13.64665794     16.56574821      8.67997265
S        15.30297852     16.10859680      5.73610640
S        10.31673336     16.46648026      6.13376808
S        14.99227619     15.97560310     14.84595776
S        13.39114952     15.76628304     11.71502399
S        12.58471394     13.63271332     14.49874687
P        11.86905193     17.08425331     14.98000145
S        12.55319691     18.88694572     14.14681625
P        13.33949089     15.54108238     13.95931721
S        12.05283356     16.84676743     17.14184570
S         9.98377895     16.72224045     14.38144016
S        13.94731331     16.10798073     25.47010612
S        13.24389172     13.64584637     22.92552567
S        11.28160000     16.34736824     23.69112015
P        14.47328949     16.57146454     21.94497108
S        13.48109436     16.46413994     20.12885666
P        13.20267773     15.56326199     23.55833054
S        16.17890167     15.63391495     22.05442810
S        14.39599991     18.67557716     22.42489433
S        11.10262299     23.55637360      5.08315897
S        11.57125950     26.84560585      5.52010584
S        11.84079075     24.86309052      8.04387474
P        14.27527714     24.69695473      5.38146162
S        14.94772530     26.39482117      6.53068209
P        12.11263657     24.97858238      6.11377144
S        14.26239967     24.89076996      3.43256807
S        14.99194241     23.02835464      6.26295948
S        13.86507320     24.89179420     17.32300758
S        13.50386524     22.47350311     14.98932362
S        11.20832348     25.03953743     15.44008923
P        13.83590221     25.45370865     13.75338459
S        13.10107517     24.92916679     12.00616455
P        13.07136631     24.43367577     15.58010292
S        15.79723549     25.01094627     13.93709183
S        13.27649879     27.46188736     14.03842640
S        13.80257034     27.10349655     23.46802711
S        13.32048321     24.75405121     21.14123344
S        15.98538494     24.57486153     23.59875298
P        12.80730057     23.83083725     24.24206543
S        12.72840881     24.32208443     26.12561417
P        14.04466534     25.27197838     23.03490829
S        13.34459972     21.91897583     23.91341209
S        10.80303860     24.16236115     23.53265762
S        21.48392296      7.69835091      8.70061874
S        24.30273819      7.41729450      5.82418633
S        22.50652313     10.47719955      6.10281897
S        21.69257927      8.47639751      3.56122851
P        20.66731834      7.24006605      6.86399412
S        21.17819595      5.41751766      6.19692612
P        22.24693489      8.44704437      5.70610857
S        18.82554436      7.89450979      6.49655151
S        19.45885658      7.84444046     15.57114029
S        24.36810112      7.14110184     14.62917519
S        22.10040855      4.99875355     15.93794823
S        22.92389107      8.05289459     17.48122597
P        21.09382439      8.44504929     14.58671284
S        21.00634384      7.82124996     12.64857006
P        22.70878410      7.08174133     15.70770264
S        21.38855553     10.46900558     15.11720753
S        22.00205421      9.92160416     22.95298767
S        22.06867218      4.79898357     22.56345367
S        21.86223602      7.26421452     20.10269547
S        19.28883743      7.09998035     21.88202286
P        22.31475449      7.86832666     23.39839363
S        24.41957855      7.32439613     23.15854073
P        21.23891830      6.58654261     21.98424721
S        21.94541359      7.35900021     25.65381432
S        20.85651588     13.52688503      5.57258368
S        21.63607788     16.54480553      8.62389946
S        18.83731079     16.46348572      6.51477957
S        21.10667419     19.02878761      6.20931292
P        21.97327614     15.48982906      5.33311987
S        23.88952827     15.45539188      6.11923265
P        20.81379890     17.06681442      6.71249676
S        21.79258919     15.85556221      3.42354035
S        24.23054886     16.86326981     14.97981071
S        21.66980171     15.93005943     11.99964142
S        19.15827179     15.94912624     14.21129036
S        21.86338234     13.70135880     14.38319206
P        22.23601151     17.14374542     15.11381149
S        21.42788696     17.02861214     17.10117531
P        21.17905045     15.55158901     13.86466312
S        21.50791931     18.95769310     13.98713493
S        21.71987724     16.28177643     24.87613487
S        21.33609962     13.61383629     22.68378639
S        24.52910614     15.20425701     22.60130119
S        23.15837669     18.39284706     22.28875732
S        22.49498177     16.11710930     19.98781013
P        21.41616440     15.56166935     22.95798492
S        19.55976486     16.46340370     22.46714973
P        23.13140678     16.38900185     21.85923386
S        19.54257011     24.74858856      6.49265671
S        21.64205742     24.25033379      3.84637690
S        22.17741776     24.99057198      8.96440315
S        24.80425453     24.51461792      6.48694086
S        22.59032249     22.27075577      7.01210880
P        21.37827492     25.26011467      5.65757132
S        21.87215042     27.23192406      5.46224356
P        22.88746643     24.45062447      7.13719225
S        21.80123520     23.85774231     12.05393219
S        19.57588005     23.69273186     14.74009609
S        21.56297684     25.48750114     17.16205978
S        21.12520981     27.32392311     14.26299381
S        24.10654068     25.97986984     15.20729351
P        21.53741074     23.78612900     14.24568176
S        22.51914215     22.25111198     15.05511951
P        22.12587929     25.68698502     15.13932896
S        22.46868706     25.98166084     22.44909477
S        19.27202034     24.85865593     23.23591995
S        24.50328064     23.34234238     23.25235748
S        21.48682594     21.21426392     23.65889740
S        22.01658630     23.98541641     25.61672974
P        21.16052246     24.46410942     22.55433273
S        21.39404488     23.78343201     20.71103287
P        22.42627907     22.95433807     23.78521347
P        31.10944366      8.34609985      6.97633076
S        27.62580872      7.40810871      6.46083403
S        30.07842636      5.06566429      6.76952648
S        32.97971725      7.63116932      6.45953369
S        30.71252060      7.82891273      8.97583199
S        30.72705841     10.23036003      6.37705755
P        29.49453926      6.90177441      6.04651642
S        29.89561844      7.31531668      4.10083389
S        28.25577545      8.85900402     15.09338856
P        30.96377182      7.04494143     15.55576706
S        29.48774147      7.57233047     12.30466270
S        30.85519791     10.09761333     14.00049210
S        30.32843781      7.25687170     17.59358025
S        33.06491852      7.15194893     15.52184010
S        30.27680779      5.25082541     14.90629864
P        29.86314583      8.45646286     14.16860580
S        30.38355255      7.47678328     21.00445366
P        29.38429070      7.99205542     24.19595528
S        31.22390938      5.28824997     23.22726059
S        32.63703156      8.20264149     23.37854195
S        29.67111969      7.34544611     26.04992676
S        27.63074112      7.19230413     23.52818298
S        29.65237045      9.94000435     23.63524055
P        31.03488159      7.20613909     22.89904594
S        28.02952385     16.21645546      6.90212774
P        31.06112862     16.69204140      5.27088165
S        30.74713898     16.30159187      8.80581665
S        30.34635353     13.45473480      6.80831575
S        30.21380424     15.92085934      3.67391229
S        33.10042191     16.21270180      5.10617018
S        30.57538414     18.54319572      5.69498444
P        30.09543991     15.58684921      7.05186462
S        30.44989014     18.93164825     14.53413296
P        30.53066635     15.42314339     14.07635117
S        31.07933617     16.76690102     17.12929153
S        27.90346527     16.63413811     15.35591030
S        29.70870209     13.80254745     14.85735321
S        32.58329773     15.51963520     14.01071262
S        29.48085594     15.68562889     12.30727768
P        29.87751198     17.11070824     15.43295097
P        29.80663300     16.26291466     22.65596581
S        30.03708458     18.26852226     22.87696457
P        31.40044403     15.14303970     23.95843887
S        27.91424751     15.64715576     23.52665329
S        29.61984444     15.90052891     20.62825966
S        33.08285141     15.63001823     22.92029572
S        30.92381287     13.26812744     23.31546211
S        31.10268402     15.58252430     25.90261650
P        29.30206871     23.28420639      6.23051405
S        29.56366920     21.81192780      7.57596636
P        30.50522614     25.17625809      7.17768383
S        30.15288925     23.24780083      4.43705034
S        27.43490982     23.99053383      6.22613335
S        32.51104736     24.67677116      7.52530098
S        29.56164742     25.36743736      8.92620468
S        30.05459213     26.90944481      6.26607132
P        29.36046600     25.23334122     14.40243435
S        27.47482300     24.43327522     14.49410629
P        30.72880936     24.02314377     16.12290573
S        30.65815353     24.83630943     12.77027225
S        29.51008224     27.07837677     15.09020329
S        32.01194763     25.44556427     16.23517227
S        31.17409134     22.12708855     15.73205948
S        29.28726959     23.94364738     17.62496758
S        32.96654510     25.39891243     23.05796814
P        29.80411148     24.15673065     23.86313820
S        27.89210129     24.59079361     23.26589966
P        30.97920227     25.72626114     22.71474838
S        29.87352180     24.40859985     25.83890915
S        30.48083878     22.37879944     23.78365517
S        30.09877014     27.45746422     22.89475822
S        30.39049149     25.05941200     20.69766808
