832

Na      132.32839966    -24.28336716    -30.80575371
Na       40.22171402     34.09993362    -74.77246857
Na       23.40320015    115.93613434    -78.31223297
Na      126.13433838     20.32181358     37.20342636
Na      -30.65341568    -34.15338516      9.92667198
Na       74.56175995     17.01252747     94.90974426
Na      136.54933167     67.81971741    -47.81036758
Na      177.02027893    136.56323242    -24.06047440
Na      152.85018921     57.88418961      3.88603616
Na       67.78394318     37.93039322     33.84756470
Na       78.39739990    -13.67259312    -16.99890900
Na        0.32091293      6.34799290     20.83574867
Na       24.22240639     99.15942383    -26.88108635
Na      -30.86985970     50.79916000    -13.70326519
Na       30.62851715      3.67342806     43.09675598
Na      -67.94160461     78.35137177     40.61553192
Na       26.95145988     17.07276535     27.26778984
Na      -54.67304993      6.34633160    -64.86170197
Na       -4.52640247     18.32052231      5.27557850
Na       -7.06263590    -13.42254353     20.28900909
Na       55.15471649     50.03985214    105.68927765
Na      -45.02904510    -23.14389229     54.83824158
Na       19.93305397    -67.97238159    -37.60257339
Na      -57.36436462     27.28181458     30.63538742
Na      -46.82603073    -40.78576279    -16.91054726
Na       74.69451904     64.18810272   -115.87950897
Na     -136.22109985     95.34158325     47.47305679
Na      -65.13333130     61.34439850     10.05744076
Na      -13.81864834    -37.47227859    -81.73632812
Na      186.81675720    -28.09424400    -57.57743073
Na      -43.82400131      7.50090122     -3.16932058
Na       47.20077896     61.62821198    -78.11302185
Na      -50.46803665   -115.23625183    -85.22449493
Na       34.17180252    102.30855560     81.17994690
Na      -21.26987457     51.24082565     68.30918121
Na       94.85218048     95.26476288    -26.16759491
Na       43.35093307     14.06561661      9.84924412
Na       78.62975311    -23.57998085    126.19123077
Na      -23.30552101   -105.22817993    -85.27843475
Na       17.07553482      3.51124334     34.45776367
Na       54.30950165   -112.79170227     27.49434280
Na        6.32183504    -71.74466705      6.63750172
Na       83.94593811     40.93571854    -58.11043167
Na       27.68225670     81.41239929     64.68822479
Na       41.32118607    -47.24072647   -112.53697968
Na      -33.57768250    -78.77341461    -40.98293686
Na        3.01383495     51.11226273    -71.51980591
Na      119.12512207     75.98047638     57.54176331
Na       23.74876022   -102.47926331    -44.39315796
Na      -24.49992561   -112.43450165    -68.01406860
Na       24.54838753     91.94541168     27.26355171
Na       96.13233185     78.28585052    -27.09197617
Na       58.25519562    -92.02442169     37.38496399
Na      -22.64234924    132.47595215    129.73031616
Na       95.40113831     74.88928223     10.09351254
Na       50.53081512    -10.13205814    -72.28195953
Na       37.94648361     78.56075287    -37.86051178
Na       10.66995144    -20.41572571     43.91325378
Na      131.54229736     57.34450531    -88.08230591
Na       95.19326782     13.32209492     41.02848053
Na      186.85108948     77.90979004     75.25638580
Na       10.26962948    -64.82959747    -10.09537220
Na      -61.43822098     54.75291443     -6.94140720
Na       -7.46027517   -115.40958405     85.17036438
Na      -44.06553268    146.81417847      3.77597594
Na      -37.33491898     10.04764557    105.55319214
Na       64.81410980     13.33564568    180.69314575
Na       65.25018311     78.60305023    -72.39737701
Na      -60.63829041      0.09525365    -20.50829315
Na        3.28803420    132.29347229      3.29563403
Na       58.22707748    122.16061401     64.51482391
Na        3.06219292     27.55946732     78.36524200
Na      -27.21971893    -30.15926170    -74.55716705
Na       -7.20572329    -40.79933929    -44.07169724
Na       54.52548981     40.88294601     40.74783325
Na      165.92286682    -48.02655411     10.06059933
Na      -30.33882332    125.65335846    121.94409943
Na       92.02277374      3.38954139    -34.46101761
Na       74.73912048      6.54026699     51.31880188
Na      123.47023010     64.31159973    -33.55995178
Na       17.11059189    -57.35029602    -40.14540482
Na       64.74942017     13.92344379    -23.99799919
Na      -10.38780117     78.03037262     74.50513458
Na       37.19950104     56.71232224    -17.20114517
Na      -23.95009613     10.51455784     95.39412689
Na       75.13282776     13.38207340    -20.07094765
Na       33.55206680    125.84950256      6.90718222
Na      153.78576660      3.04172921    109.80081940
Na       27.49451065     64.50867462    -59.63745117
Na       23.69536400     37.49447250     34.53227997
Na      -10.64651299   -104.56510162    -64.94344330
Na       13.83755875     -7.05799580    -14.09284592
Na       20.58395004    -88.63787079    -26.86855888
Na      -91.70232391     36.84251022     81.43695831
Na      -82.43197632   -125.93703461      6.94995975
Na      179.74563599     13.57500267     -3.11929083
Na      -19.92122459     75.62797546    -33.59473419
Na      -64.98964691    -37.95286560     54.12903595
Na       81.10569763     47.85627365     30.52036476
Na       75.06142426     -3.48870420     27.28393364
Na        0.08704522    -61.29278564     -9.92603397
Na      -23.71937180      6.48800993    -78.10472107
Na       20.66989899     98.95435333     62.03606033
Na      -57.79718399     41.70330048    -30.53553391
Na        4.13609028     -7.17437315     43.73235703
Na      -20.32596779     75.02304077     40.02406311
Na       33.73661041    126.03106689     47.83475494
Na        2.17603922     17.31361580    112.09133148
Na      132.95108032      3.11503553    -40.99753189
Na       62.09440613    -47.25995255     75.23015594
Na      -51.07030106     51.19217682      7.12058592
Na       21.07101440     -7.05330849    -61.52241898
Na       23.95744896     37.63351822    -34.68034744
Na      126.26030731     92.29460144    -40.74333954
Na      -67.60224915      4.09586620    -26.83824158
Na       47.79786301    -55.66745377    -50.67664337
Na      -26.90382767    -57.89616394    102.31795502
Na      133.10108948     57.19877625    -44.28237534
Na       84.74885559     20.08132935     37.51330948
Na       26.96562576     64.51345825     40.69112778
Na       34.00000763     88.09786987      0.64451325
Na       12.62076759    -14.04101849    -16.60900688
Na       51.04036331    -44.18297195    -10.48560619
Na       47.49051285     12.95265484      3.38004923
Na      119.27890778     64.52996826    -17.14414406
Na     -128.71710205    -54.51853943    -20.96264648
Na       -2.76989150      6.88970661    -10.49365902
Na       65.55789948     51.31744003    -21.03946495
Na      101.88486481     51.08002853     20.49821281
Na      -64.09883881     16.95784760    -61.34592056
Na       43.46773148    -57.75244522     34.19404221
Na      119.12924194    146.78961182     51.02321625
Na       68.07293701     81.82594299    -54.48554611
Na       -6.99268341     88.89721680     27.13430595
Na       60.73020935    -19.93833160     58.58927536
Na       91.74998474    -17.77997398     95.48146057
Na      109.03914642    -88.81364441     26.79124832
Na       64.72899628    -33.69802475     -3.35805845
Na       33.45120239     47.23823929    -44.86059570
Na       13.85380745     30.09885788     47.84524918
Na     -119.26486206     94.67843628     57.93388748
Na       54.09431458     20.35998726    -74.47193146
Na      -68.14564514     13.11030293    101.56783295
Na      -26.76258087     95.37407684    -17.25018692
Na      -60.70227814     74.79445648     23.35757637
Na      -85.18700409    -55.40520859     10.35680103
Na       40.84436417    -61.92831421     -6.01062441
Na       26.71829224     40.92321396     -3.91000748
Na       33.33891296     85.25534821     27.36313057
Na      -98.29480743    -10.28468037     -6.88030195
Na       58.49270248   -108.73857880      3.64411926
Na       64.71859741    109.54035950     98.60098267
Na      -51.53696442     10.02904510    -16.57330132
Na     -129.41804504     50.68982697     88.31558990
Na      -26.59841156    -74.52144623     51.30016708
Na      112.39525604    -71.34960938    -47.53144455
Na       27.39195061     27.01823616    -54.43617249
Na       43.84387589     17.32575798    -13.81148911
Na       74.99273682   -109.19496155    -54.04674530
Na       51.01929474    -30.44838524     88.32277679
Na       13.58592129     41.55729675      7.34415960
Na      -27.17244148     67.16308594     27.60004234
Na       13.67061615     16.99301720     95.72215271
Na       64.66271210    -33.65861511    -44.13900757
Na      149.47090149    -74.22365570     64.78324890
Na      112.43167114     27.38982773   -118.95814514
Na       68.49073792     37.06407928    -41.46587372
Na       74.76512909     64.71002197     13.81495571
Na      -44.47112656     75.07859802    -64.51917267
Na      -74.83961487     85.53403473     40.66231155
Na      -50.99008179     16.61457062     51.08995819
Na       -6.45271111    129.66392517    -99.31385040
Na      129.96688843     -0.09741005     68.39213562
Na      -20.17577744    101.94445801     77.89364624
Na       -3.36305189     85.76451874     81.36473083
Na      -92.24462891    -98.28234863    119.72812653
Na        3.20133829    -17.47564316    -29.67664146
Na       95.68840027     98.74028778    -21.47582436
Na      -13.11414242     60.95708466    -61.01375961
Na       17.03013802     21.35947227     -9.98240089
Na     -115.46964264     60.65692902     14.35401917
Na      -47.25579453    -50.53158188     75.02201843
Na       -4.34878635    -40.40052032     44.22048950
Na       71.85729218    112.33997345     74.77402496
Na      -44.51874924    106.06067657     84.69281006
Na       47.22545242    -81.39630127     51.40299606
Na       48.03341293    -71.45760345     81.94727325
Na       27.42846870     57.61375427    163.44184875
Na      -81.52285004    -23.70350266    -40.53311539
Na       17.04723930    -58.22411728     57.56930923
Na       98.11986542     -3.31498122     51.18612671
Na       -6.98885202     77.86839294      7.13904667
Na      -64.88554382    -17.47666550    -50.97228622
Na       84.72609711    -65.18019104     71.60743713
Na       95.89524078    -37.74246597   -116.73452759
Na       26.79167175    -54.29614639    -60.67672348
Na       13.74294186     64.54035187     54.13110733
Na        6.59313917     64.50305939    -27.01716614
Na       92.11972046   -133.09602356     31.16844177
Na       23.69975090     57.54318237    112.42679596
Na       32.04139709     61.51589584     -3.51904941
Na      -67.73100281    -82.24164581    142.05450439
Na      231.11325073     19.59814835    -23.70455170
Na       51.86936569      6.34443712     50.97741318
Na       81.10778046    -20.63649368     85.14837646
Na        3.06530833     -7.07006931     58.17457962
Na       61.32753372     98.57176971     13.01308250
Na       26.84791374    -47.62635422     54.45010757
Na      -37.11408997    -26.44342041     44.44794846
Na       10.75004768     54.20884323     29.98639107
Na       57.46142960    -37.50075150     33.91593933
Na      112.47580719     78.09188843    -54.72398758
Na      -75.28797150     65.24172974     41.17557144
Na       -3.32341075      9.93323040     78.04022980
Na       88.26614380    -27.95588875     81.28411102
Na       30.39399338      3.47831964    -16.14679718
Na       61.11199570    176.11795044   -115.23014069
Na       14.02426815      0.04327036     67.91174316
Na       10.17082024     10.10549164    -37.21353149
Na      -47.75131607     94.38145447     84.28047180
Na       71.63262177     44.17020416     64.44556427
Na      170.30088806    -27.15160370   -122.01414490
Na      126.05396271    -54.46651077     78.42542267
Na        0.07236784      0.12060656    -23.69357681
Na      102.50077820    -10.26812458     20.05205154
Na      -85.55104828     37.45590210     12.86129379
Na       54.04974747    -48.20561981     40.49387741
Na      -57.72611237    132.29974365     16.66612816
Na      146.25117493    105.99558258   -163.54254150
Na       64.22814178     17.31766510    -43.91737366
Na      159.74917603     23.05990601     64.79633331
Na       88.96726990    -13.46794891     17.51265907
Na      -54.06266785     -0.29733694     17.26747322
Na      -17.23136520     28.06225395     23.89020157
Na      -34.25868607    139.69270325    -47.48833466
Na      -30.70753860    -91.22719574    -84.46437836
Na      -40.85229111   -136.67347717    -44.28673935
Na       -6.75307941     33.38677597     47.57564926
Na      -50.86296844    139.03582764     61.44581985
Na      -44.26574707     60.48819733    -98.65744781
Na       13.42153835     -6.58566713    -47.79390717
Na      -54.80988693    -37.37707138    -20.42051315
Na      -43.98134232     92.28908539      0.13626243
Na     -101.65276337    118.70413208     20.36074448
Na       44.95043182     54.26310349     84.94406128
Na      -37.75708771     98.08026886     30.30973816
Na       88.46703339    -19.67097092     62.72535706
Na       40.97639465     61.32492447    167.15402222
Na      -27.55365181      6.56185246     88.74588776
Na       61.60643768   -129.34933472     16.98179626
Na       27.44578743    -91.97675323     20.00255775
Na      -91.63099670    -51.24073410     -3.23443604
Na       40.85128784    -23.89057159     95.27253723
Na       10.00059605    153.40075684    164.25636292
Na      -27.26649666     41.17852402     30.68953323
Na      125.76629639     27.81965637     37.46295547
Na       13.76734352     26.59772682    128.32063293
Na       47.48815918   -122.29501343     27.48378372
Na       23.28857613     -0.47277439    -37.02022934
Na       34.45945740    107.88835907     20.88098335
Na       23.84576607     47.62009811    -64.76729584
Na       51.07188797     58.08633041     88.44612885
Na       54.28687286     54.24393845     78.34155273
Na       47.59137344     75.23040009    -64.51501465
Na      -10.18781376    -30.38185120    -17.02838516
Na      -13.11334324     74.53824615    -81.49424744
Na       24.22788620     98.58663177     -6.69238806
Na       30.66634369   -119.15075684     81.24034119
Na       -2.93384767     -6.09290648     23.57722855
Na       -9.38437843    -34.03222275     -3.12311769
Na      105.76003265    -16.53625298     31.06284523
Na      -37.71396255    -37.25479889     98.91622925
Na       71.65773773      7.73120308     44.23082733
Na      -95.13338470      6.85690308      0.41018519
Na       95.74604797    -88.25028992    -57.21598053
Na      221.86151123    -26.64695549     10.17578316
Na       47.73183441    -47.47981262    180.51028442
Na      156.79191589     30.48926544    -54.81344986
Na       44.36430359    -50.50400162    147.68850708
Na       44.56405640    -44.75600815    -35.39340210
Na      -40.85181808    -78.35382843    -20.96170998
Na      -60.95395660    -40.71693039    -58.38246155
Na      156.21229553     34.26963043     88.56468201
Na      -16.83859444    -37.52445602     51.58277130
Na       43.72144318     20.72103500     30.56932831
Na       54.31531906     20.88469505     10.28626728
Na      167.27822876    -20.48627853     44.19091797
Na       81.63007355     -6.03609037     13.58433437
Na       31.35966492     41.08367157    112.13928223
Na       88.59738922    102.13267517    -23.80595207
Na       57.95781326     30.32964706     74.82012177
Na       -7.04821491    115.41860962    -44.31206131
Na       30.19066238   -126.07057953    -34.17314911
Na      -43.52458572    -30.20527077     23.80994797
Na       61.58904648     24.24771309     83.23204803
Na       61.37796021      3.76291823    -47.40901566
Na     -125.57507324     37.83866119     -6.90626335
Na       27.34327888    -28.59911537    176.87290955
Na     -138.41632080    -43.98488235     64.53023529
Na      167.10838318     44.10329056    -34.63772964
Na       37.24851608     95.74794769     51.00141907
Na       34.55995560     40.71233749   -130.01019287
Na       33.90843582     40.83956528    -57.05246353
Na       95.22559357    101.99706268    -37.14004898
Na      -57.78353119     -9.99476624     43.74594116
Na       61.84688950     27.30574989      9.87233543
Na      -67.71481323     60.88808441    -37.20312500
Na      108.44468689      2.68596363    101.62219238
Na       88.27665710     54.30409622     71.87477112
Na     -153.47077942    -64.84363556    -13.17832661
Na      -72.11887360    -20.49092293     58.09003448
Na       33.97088242    -47.38880539    -41.27190399
Na      -71.39688873    -51.30359650    -40.85561752
Na     -142.68763733     -0.08329637     10.95223808
Na        3.83811235    -44.41503525      3.41069651
Na        0.19042042    -79.02703857     88.37951660
Na     -115.64263153    -37.49277115     27.05458641
Na       85.14326477      2.54045057   -105.58329773
Na       44.78680801     17.08986855   -157.07226562
Na      -64.84664917    -68.22854614     16.49461365
Na       47.34709930     26.29683304    153.67892456
Na        3.51600266     44.42980576     68.21984863
Na     -156.85794067     16.66546822     26.88964462
Na       71.51095581     43.90291595   -112.54599762
Na       24.05266953    -57.70488358     81.81390381
Na       78.25989532    -39.29754257    -50.85391235
Na      -71.13501740    125.98209381     88.37699127
Na       58.20969009    -44.20022583    -37.28168488
Na      -19.82940292     81.87784576     30.14254761
Na     -108.48562622    -61.75356674     -6.73093271
Na       37.36576843    -23.45346832    -57.60965729
Na       64.59466553    -17.28881645      6.94894266
Na     -143.35090637    102.49271393     94.68643188
Na       43.79100037    119.12257385    -47.61636734
Na      -17.42333412    -31.26184654    -13.93004608
Na      101.85903931     10.37389660    -20.49377823
Na       81.41548157    -40.74345398    -92.05932617
Na      -52.57773590     92.37856293      0.88774216
Na       34.56844711     47.69977951    -10.30270004
Na       92.46733856     78.01088715     20.34686279
Na       95.48602295    149.81117249    104.96920776
Na      -88.66101837     23.94118500    -13.56136036
Na      109.20794678     17.28857422     13.61859798
Na      132.72813416     -3.68837500      3.34884667
Na      -68.01268005     -3.78018737    -33.60894775
Na       41.08987427     34.24925995     40.66253662
Na      -41.26771164    -54.27670670     51.11837769
Na       84.68692780     30.19501877     53.97898483
Na      -17.23277092    -36.66363907     30.96763229
Na       33.79919434    -40.57697296    -67.91029358
Na      -13.89393139   -107.55510712    -65.07117462
Na      -77.52204132     50.45957947     44.27248764
Sn        3.99306107     13.32485294      6.68676758
Sn        3.64170623     26.84596825      6.61795092
Sn       17.20987892     13.71559334      6.76722860
Sn       17.25662041     27.52939606      6.95469189
Sn        3.34505105      0.06991027     20.70486832
Sn        3.12175226     13.47937012     19.89972115
Sn       16.87902451      0.20983715     20.64082909
Sn       16.86139679     13.27982330     20.09449577
Sn        3.78945613      0.17229319     13.49441719
Sn        3.22941923     13.86344337     13.78627110
Sn       17.39506721      0.51185358     13.79880524
Sn       16.74463272     14.03702831     13.37546730
Sn        3.36108971     13.33684826     -0.04805396
Sn        3.50776148     26.96486664     -0.10336328
Sn       17.15409470     13.03715611     -0.12271722
Sn       17.12878609     26.80784798      0.24701053
Sn       11.07846928      6.80061865     20.63992500
Sn       10.42462254     20.30900002     20.24222374
Sn       23.75995636      6.24048519     20.36339569
Sn       24.13874054     20.31550980     20.11283112
Sn        9.72247982      6.56283808      7.01654100
Sn        9.90137672     20.78060341      6.94486856
Sn       23.54832268      7.05021667      6.84112263
Sn       23.98688889     20.31197166      6.79014254
Sn       10.29968834      7.22277498     27.57318878
Sn       10.39584637     20.83043671     27.01361084
Sn       23.71519661      7.26130629     27.15380478
Sn       23.75735474     20.73238754     27.36803818
Sn       10.39439297      6.38525248     13.48729515
Sn       10.20457935     19.88242912     13.79345894
Sn       23.57720184      6.30880404     13.57029533
Sn       23.90028572     20.03797150     13.33064365
Sn       10.15094566     -0.17546260     20.32266808
Sn       10.17378521     13.94598389     20.58192825
Sn       23.55153465     -0.20742895     20.80125999
Sn       23.53013039     13.80510521     20.33074570
Sn       10.66846561     13.59899139      6.87807655
Sn       10.63888454     27.31316566      6.65969515
Sn       24.14771652     14.07664108      6.57654667
Sn       24.54369736     27.59767342      6.98409271
Sn        9.99133492     13.21621990     13.69947052
Sn       10.57866192     26.57832527     13.30248356
Sn       23.58231926     13.19797993     13.50068474
Sn       24.41918755     26.85003471     13.74088764
Sn       10.13100910      0.56565833      0.02604704
Sn       10.02546120     14.00444603      0.04869893
Sn       23.98778152      0.59193188      0.23699439
Sn       23.83391953     14.25909996      0.08312647
Sn        3.07551622      6.70541716      6.95044613
Sn        3.09527993     20.70521164      6.82020283
Sn       16.70480728      6.98383570      6.80247259
Sn       17.05527878     20.63068581      6.99872828
Sn        4.04288864      6.87159872     20.52720261
Sn        3.51340199     20.18742180     20.24865913
Sn       17.48592186      6.46758795     20.69200706
Sn       17.34459305     20.24930382     20.42547607
Sn        3.18295789      6.50013590      0.26820511
Sn        3.91305065     20.22363853      0.41708508
Sn       17.34247589      6.26833868      0.17589450
Sn       17.40836334     19.95406532      0.27780196
Sn        3.36828017      6.98034573     13.62870312
Sn        3.25975990     20.19109344     13.41181087
Sn       17.14331627      7.21996593     13.84078789
Sn       16.90264130     20.52746964     13.63162231
S         2.04429650      4.86058474      1.64521289
S         1.91410482     18.89080429      1.27132428
S        15.75789928      5.37914991      1.93080735
S        15.81996918     18.46823311      1.64903355
S         4.91496706      8.41439152     14.87212753
S         4.80589342     21.75644302     14.51027870
S        18.71773338      8.50620365     15.02752781
S        18.10513496     22.03938866     15.26211548
S        11.52578449     11.87073421      8.57111549
S        11.97930145     25.95177650      7.99160862
S        25.69716263     12.45828438      8.04190540
S        25.82315445     25.97587967      8.32280922
S         8.96622372      1.67501915     21.23646164
S         8.35596466     15.01438332     21.58385468
S        22.19594574      0.93466085     22.40268898
S        22.41280556     15.54167366     21.62983513
S         4.69965649      5.29760075     26.03144836
S         5.19422102     18.75249100     26.20038795
S        18.58749771      5.00473547     26.11940765
S        18.56347466     18.42343140     26.07309532
S         1.77113616      8.36641502     12.17945194
S         1.96199381     22.00066948     12.04469681
S        15.85078335      8.64198494     12.13814068
S        15.65071678     21.92680550     12.01623917
S         8.87135506     12.27390766     19.28101540
S         8.91477585     25.33838272     19.09445953
S        21.91830444     12.31326103     19.23727226
S        22.13819122     25.62143135     19.36812973
S        12.02178192      1.24322844      5.12474823
S        11.69378471     15.17985153      5.37786865
S        25.59495544      1.59434545      5.06742668
S        25.99345589     15.13507843      5.43888760
S         8.67491817     11.80817127     15.38659286
S         8.98009586     25.66300964     14.98767662
S        22.25894165     12.06527615     15.06337833
S        22.60777473     25.76164246     15.29942131
S        11.79055977      1.98501146      1.62018859
S        11.54451942     15.51411438      1.55252075
S        25.33811951      2.04815578      1.51972032
S        25.37158012     15.57066536      1.45266175
S         5.29520607      5.10069180     21.70099449
S         4.87560415     19.05229759     21.90752602
S        18.59188461      4.91345787     22.22690201
S        19.10713959     18.82923317     21.76102638
S         1.55558074      8.04390526      8.00702477
S         1.31036496     21.93940163      7.87800169
S        15.08069801      8.24736309      8.19030380
S        15.49946213     21.79305077      8.50537109
S        11.31806564     11.68226910     12.43544102
S        11.97634983     25.28137016     11.87902164
S        25.26387405     11.96038342     12.22827721
S        25.44873238     25.10274315     12.32329369
S         8.42130947      2.16731286     26.28794670
S         8.58465576     15.42448139     25.72571564
S        22.43815041      1.56327856     25.98512459
S        22.51307678     15.72025776     25.58011627
S         1.68317831      5.41261435      5.55328131
S         1.49017465     19.10389328      5.81615543
S        15.12422180      5.37948561      5.79377651
S        15.28048801     19.30016327      5.39600563
S         5.50386810      7.98010588     18.97333336
S         5.23837566     21.30845833     18.87867928
S        18.91129875      7.51767731     18.87866783
S        18.81915092     21.82864761     19.28495789
S        11.74602318      8.46327782     26.00028992
S        12.10900688     21.99221230     25.77953720
S        25.38596153      8.31713009     25.57594109
S        25.35990715     21.99685287     26.05140877
S         8.77530098      4.75303268     12.01436710
S         8.64822483     18.84291077     12.25275421
S        22.34851646      5.06851435     12.14907074
S        22.33216858     18.71415138     12.10296249
S         2.03919768      1.39913690     19.09263611
S         1.47861803     14.92984009     18.51071358
S        15.68209362      1.58876085     19.04873085
S        15.50182152     14.65660954     18.77924156
S         5.27031326     11.73623562      5.29561472
S         5.26503229     25.51232910      5.13855457
S        18.32093811     12.03276634      5.59952974
S        18.66737938     25.98870468      5.69283962
S         8.95687962      8.87625027      1.80423367
S         8.94386864     22.16700745      1.23337340
S        22.93897629      8.89435291      1.41172445
S        22.36697006     22.01850319      1.63782239
S        12.03168201      5.19432402     14.90557671
S        11.56804562     18.62055206     15.25450897
S        24.80734253      4.95572758     15.22233582
S        25.51863861     18.90007019     14.52763653
S         5.17210388      1.19459867      7.98490334
S         5.35369396     14.69745541      8.28266430
S        18.96440887      1.43123019      7.99584532
S        18.69911194     15.18261528      8.02818584
S         1.74693549     12.40812302     21.44454193
S         1.65135586     25.92729187     21.77264214
S        15.30896568     12.28913879     21.54896545
S        15.38198090     25.82223320     21.97117615
S         4.94430017      1.86965644     12.30362511
S         4.49807167     15.14898300     12.43442535
S        18.67701721      1.80805433     11.97200012
S        18.22270775     15.28905869     12.06462574
S         1.68393290     12.07774448     25.54757881
S         2.11622572     25.52355576     25.93659782
S        15.74514484     11.74963570     25.75674438
S        15.77742100     25.57586098     25.90490723
S         8.25914669      8.16829300      5.94710875
S         8.74191475     22.47188377      5.08580780
S        21.90979385      8.56877613      5.50572538
S        22.92542267     22.05045319      5.39327431
S        12.27410793      5.28937721     19.29819679
S        12.01432037     18.74635315     18.97637939
S        25.48956871      4.97072935     19.29081917
S        25.22978783     18.64968872     18.59177971
S         2.10444832      1.71273422     14.47619915
S         1.79459739     15.39043713     15.02000237
S        15.78544903      1.85108840     15.09342766
S        15.59719372     15.35800076     14.92068577
S         4.34927750     11.79144669      1.24311626
S         4.80223751     25.39838028      1.37836087
S        18.30683708     11.43163013      1.32483363
S        18.66678238     25.23708153      1.18864262
S        12.48008156      8.63149357     21.98158646
S        11.81438923     21.55196190     21.63768005
S        25.59405136      8.01174831     21.66994476
S        25.65691185     21.88354874     21.31695366
S         8.27576828      5.29400110      8.56514072
S         8.61668873     19.39101601      8.37274647
S        22.17643356      5.63461065      8.25640869
S        22.28054237     19.08584023      7.85221815
S         1.94147968      0.89851034      1.30805278
S         1.71112883     14.67286110      1.07528365
S        15.76133537      1.18883467      1.44951189
S        15.44491959     14.35787868      1.01692092
S         4.78305769     12.62755489     14.92799854
S         4.94195127     26.02654648     15.14347076
S        18.46606445     12.59411430     14.60063457
S        18.76843452     26.00493431     14.99221230
S         2.29429221     12.26209259      8.05489731
S         2.18035150     25.87150955      8.22209263
S        15.37266922     12.40941715      8.06423759
S        15.93074417     26.09545517      8.19148731
S         4.52299500      1.46744084     22.09371376
S         4.40874529     15.00254822     21.52398872
S        18.52916527      1.29636919     22.16844749
S        18.02553368     14.50515175     21.90416527
S         4.73807526      1.24562049     25.82968712
S         4.80928278     14.47225857     25.61685181
S        18.54030418      1.37209332     26.20806694
S        18.39594460     14.60075951     25.87348366
S         1.91223919     12.59824562     12.04541492
S         2.41513109     26.22202110     12.00767040
S        15.23204803     12.56017113     12.32881355
S        16.37625694     26.14095497     12.50674534
S         4.58121109     11.96938515     18.90382195
S         4.56475353     25.66393661     19.32588005
S        18.53839684     12.18872452     19.00958252
S        18.21400261     25.85267830     19.40397835
S         2.39804530      1.30309093      5.37332630
S         2.25773168     14.45322418      5.33201075
S        15.91354179      1.34770703      5.32860708
S        15.88187695     15.26340485      5.48738766
S         8.91087151      7.54514265     15.07641792
S         8.59756184     21.62374687     14.83063221
S        22.58415794      7.86746120     15.06822681
S        22.27192307     21.42319489     14.63617516
S        11.59129047      5.68498707      1.67055511
S        11.69386482     19.09766197      1.49334693
S        24.62058067      5.81466818      1.61808240
S        25.28436661     19.37602615      1.32029617
S         9.86102581      5.69372416     22.38992500
S         9.27098560     18.95175934     21.91252708
S        22.61785316      5.27825356     22.00901222
S        23.09755707     18.82898903     21.82625389
S        10.79157448      8.04021549      8.70016575
S        11.86705112     21.91879654      8.28871346
S        24.93508720      8.17438507      8.41847324
S        25.18534470     21.64897728      8.58961105
S        11.52594757      7.80553246     12.17217922
S        11.44652271     21.32228088     12.35580540
S        24.92240524      7.87257814     12.19353485
S        24.99777603     21.72875404     12.19830608
S         8.64791584      6.07163811     26.06399918
S         9.14215755     19.26292038     25.82885933
S        22.54690361      5.94992924     25.54095840
S        22.07251930     19.62989998     25.50248909
S        11.03617287      5.58693981      5.27162743
S        11.23103714     19.23258591      5.57357216
S        24.87977791      5.85123491      5.23197842
S        25.50441170     18.87467766      5.49930668
S         9.71090126      7.84580946     19.07349968
S         9.17190933     22.05992317     19.03934860
S        22.90442276      7.85085869     18.89621162
S        22.52145195     21.82071877     18.82888603
S        11.33221149     12.74916458     25.85018539
S        11.66952705     26.45895958     25.99452782
S        24.97287941     12.94585705     25.68212509
S        25.28516197     26.66775703     25.81847954
S         8.77662277      0.42508274     12.15465450
S         8.79478741     14.66694450     12.38947392
S        22.98975182      0.88887328     12.18779469
S        22.11190033     14.64036369     12.15499115
S        11.93498993      1.06582856     19.19747925
S        11.57657909     15.09887981     18.86765862
S        24.32455444      1.42636514     19.11998940
S        24.95729637     14.81945610     18.88393784
S         9.40857887     12.18096447      5.43249083
S         9.36444283     25.82939339      5.15744495
S        22.67363930     12.59388256      5.22006845
S        23.27833748     26.08386421      5.58491755
S         9.01470757     12.50651073      1.67338693
S         8.88097000     26.06268692      1.46574891
S        22.51781845     12.75230694      1.50320876
S        22.93004417     26.00984955      1.44908309
S        11.90687847      0.84230804     14.47358894
S        11.44109631     14.72327042     15.02421188
S        25.76913834      0.97933638     15.05214214
S        25.20532227     14.52754307     15.18166924
S         9.08075619      1.35919273      7.97730780
S         9.66676331     15.00220776      8.59292698
S        22.94978905      1.55203283      8.21296883
S        22.36414719     14.70685768      8.41856384
S        11.52108383     12.42911339     21.86360168
S        11.69820786     25.69331932     21.59178734
S        24.81043243     12.40339661     21.95252991
S        25.16682816     25.26337433     21.76284218
S         4.41952133      5.68056917     12.09775734
S         4.84390736     18.91488266     12.06941414
S        18.68111038      6.29528046     12.15182114
S        18.30421638     19.12642479     12.17063713
S         1.76752186      8.08889675     26.27373123
S         2.61470771     21.36509323     25.86151505
S        15.93604183      7.56043005     25.97615433
S        16.10324287     21.33183098     25.81977081
S         4.64006996      8.15514946      5.79087114
S         4.34083223     22.28652763      5.45022774
S        17.83340263      8.53619766      5.26198912
S        18.22980690     22.21490479      5.54293537
S         2.52089858      5.78194809     19.03567123
S         2.21318507     18.75465393     18.96091080
S        16.01418114      5.44788933     19.31391716
S        16.08404732     18.94606209     18.99908447
S         1.68893731      5.67586470     15.05826473
S         1.83181286     19.03589630     15.03256130
S        15.34745884      5.80231333     14.80649662
S        15.41851139     19.19753647     14.83427906
S         4.82858467      8.00589275      1.89477694
S         4.97981596     21.53186226      1.98723221
S        18.46425056      7.92389965      1.61941373
S        18.29374313     21.48482895      1.73132372
S         2.46424007      8.17176533     21.95102119
S         2.23307920     21.46434021     21.64988899
S        16.38640404      8.34656334     21.86133194
S        16.38716316     21.64382935     22.07563210
S         4.38320637      5.20066261      8.31721878
S         4.32958508     19.22281647      8.08153152
S        18.25827217      5.64754868      8.12096596
S        18.66012001     19.30946541      8.01881409
S         1.32891452      2.53098941      8.95503521
P         0.04677905      3.60792685     10.19257450
S        -1.17562580      4.74626970      8.96836472
S        -1.01395893      2.34041238     11.38829708
S         1.15039790      4.88556528     11.36825371
S         1.32891452     16.14579010      8.95503521
P         0.04677905     17.22272682     10.19257450
S        -1.17562580     18.36107063      8.96836472
S        -1.01395893     15.95521259     11.38829708
S         1.15039790     18.50036240     11.36825371
P        13.66157818      3.60792685     10.19257450
S        14.94371414      2.53098941      8.95503521
S        12.43917370      4.74626970      8.96836472
S        12.60083961      2.34041238     11.38829708
S        14.76519680      4.88556528     11.36825371
S        14.94371414     16.14579010      8.95503521
P        13.66157818     17.22272682     10.19257450
S        12.43917370     18.36107063      8.96836472
S        12.60083961     15.95521259     11.38829708
S        14.76519680     18.50036240     11.36825371
S         8.07471085      9.14614868     22.61940765
P         6.89163589     10.19873905     23.90862656
S         5.62674999     11.38945198     22.83204651
S         5.82599831      8.87564850     25.11843300
S         8.04984188     11.40234184     25.15697098
S         8.07471085     22.76094818     22.61940765
S         5.62674999     25.00424957     22.83204651
P         6.89163589     23.81353951     23.90862656
S         5.82599831     22.49044609     25.11843300
S         8.04984188     25.01713943     25.15697098
S        21.68950844      9.14614868     22.61940765
P        20.50643349     10.19873905     23.90862656
S        19.24154854     11.38945198     22.83204651
S        19.44079781      8.87564850     25.11843300
S        21.66464043     11.40234184     25.15697098
S        21.68950844     22.76094818     22.61940765
P        20.50643349     23.81353951     23.90862656
S        19.24154854     25.00424957     22.83204651
S        19.44079781     22.49044609     25.11843300
S        21.66464043     25.01713943     25.15697098
S        26.27467155     11.16697121     18.33880043
S        28.55627823      8.72286510     18.17870331
S        28.66435623     11.24189854     15.95078182
P        27.42511559     10.03538895     17.04462051
S        26.22481155      8.93389606     15.77915859
S        26.27467155     24.78177261     18.33880043
S        28.55627823     22.33766556     18.17870331
S        28.66435623     24.85669899     15.95078182
P        27.42511559     23.65019035     17.04462051
S        26.22481155     22.54869652     15.77915859
S        12.65987206     11.16697121     18.33880043
S        14.94147968      8.72286510     18.17870331
P        13.81031322     10.03538895     17.04462051
S        15.04955864     11.24189854     15.95078182
S        12.61001110      8.93389606     15.77915859
S        12.65987206     24.78177261     18.33880043
S        14.94147968     22.33766556     18.17870331
S        15.04955864     24.85669899     15.95078182
P        13.81031322     23.65019035     17.04462051
S        12.61001110     22.54869652     15.77915859
S         5.33018923      4.41139507      4.51503038
S         7.92009449      2.28690720      4.76248741
S         7.84899044      4.56582499      2.26728678
P         6.70190191      3.29413009      3.45909548
S         5.69071388      1.95248342      2.25232363
S         5.33018923     18.02619553      4.51503038
S         7.92009449     15.90170765      4.76248741
S         7.84899044     18.18062401      2.26728678
S         5.69071388     15.56728363      2.25232363
P         6.70190191     16.90892982      3.45909548
S        18.94498825      4.41139507      4.51503038
S        21.53489304      2.28690720      4.76248741
S        21.46378899      4.56582499      2.26728678
P        20.31669998      3.29413009      3.45909548
S        19.30551147      1.95248342      2.25232363
S        18.94498825     18.02619553      4.51503038
S        21.53489304     15.90170765      4.76248741
S        21.46378899     18.18062401      2.26728678
P        20.31669998     16.90892982      3.45909548
S        19.30551147     15.56728363      2.25232363
S         5.66090107      2.23965740     18.17482376
P         6.83333492      3.45262146     16.98561287
S         8.10164452      4.68017149     18.06549644
S         7.98205566      2.27116585     15.78032589
S         5.58365917      4.65904808     15.85623550
S         5.66090107     15.85445690     18.17482376
P         6.83333492     17.06741905     16.98561287
S         8.10164452     18.29496956     18.06549644
S         7.98205566     15.88596535     15.78032589
S         5.58365917     18.27384758     15.85623550
P        20.44813538      3.45262146     16.98561287
S        19.27570152      2.23965740     18.17482376
S        21.71644592      4.68017149     18.06549644
S        21.59685516      2.27116585     15.78032589
S        19.19845963      4.65904808     15.85623550
S        19.27570152     15.85445690     18.17482376
P        20.44813538     17.06741905     16.98561287
S        21.71644592     18.29496956     18.06549644
S        21.59685516     15.88596535     15.78032589
S        19.19845963     18.27384758     15.85623550
S        26.04081917      9.06585693      4.69432783
P        27.29017448     10.11887264      3.44682360
S        28.62958336     11.21020794      4.56447363
S        28.31366348      8.81820297      2.19851542
S        26.16272163     11.41280270      2.27718925
S        26.04081917     22.68065643      4.69432783
S        28.62958336     24.82500839      4.56447363
P        27.29017448     23.73367310      3.44682360
S        28.31366348     22.43300438      2.19851542
S        26.16272163     25.02760124      2.27718925
S        12.42602062      9.06585693      4.69432783
P        13.67537689     10.11887264      3.44682360
S        15.01478386     11.21020794      4.56447363
S        14.69886398      8.81820297      2.19851542
S        12.54792118     11.41280270      2.27718925
S        15.01478386     24.82500839      4.56447363
S        12.42602062     22.68065643      4.69432783
P        13.67537689     23.73367310      3.44682360
S        14.69886398     22.43300438      2.19851542
S        12.54792118     25.02760124      2.27718925
P         6.61541605     10.23576450     10.11287880
S         7.82621670     11.29561710      8.80991650
S         5.19793081      9.15745163      9.03971481
S         5.59178972     11.56023407     11.30496883
S         7.80205965      8.95129108     11.16529369
P         6.61541605     23.85056496     10.11287880
S         7.82621670     24.91041756      8.80991650
S         5.19793081     22.77224922      9.03971481
S         5.59178972     25.17503357     11.30496883
S         7.80205965     22.56609154     11.16529369
S        21.44101715     11.29561710      8.80991650
S        18.81272888      9.15745163      9.03971481
S        19.20659065     11.56023407     11.30496883
P        20.23021507     10.23576450     10.11287880
S        21.41685867      8.95129108     11.16529369
S        21.44101715     24.91041756      8.80991650
P        20.23021507     23.85056496     10.11287880
S        18.81272888     22.77224922      9.03971481
S        19.20659065     25.17503357     11.30496883
S        21.41685867     22.56609154     11.16529369
S        14.85338497      4.44817972     22.60559654
S        12.30653381      2.29842520     22.75352859
S        12.54321575      4.73259497     25.06800270
P        13.60410881      3.41886640     23.86085701
S        14.70904350      2.17197299     25.12597466
S        14.85338497     18.06298065     22.60559654
S        12.30653381     15.91322422     22.75352859
S        12.54321575     18.34739304     25.06800270
P        13.60410881     17.03366661     23.86085701
S        14.70904350     15.78677368     25.12597466
S         1.23858511      4.44817972     22.60559654
S        -1.30826652      2.29842520     22.75352859
S        -1.07158363      4.73259497     25.06800270
S         1.09424412      2.17197299     25.12597466
P        -0.01069169      3.41886640     23.86085701
S         1.23858511     18.06298065     22.60559654
S        -1.30826652     15.91322422     22.75352859
S        -1.07158363     18.34739304     25.06800270
S         1.09424412     15.78677368     25.12597466
P        -0.01069169     17.03366661     23.86085701
