832

Na       -6.79186344     60.54297256    -54.13773727
Na       55.01532745     10.40225315    -33.41274261
Na      -41.74861526   -156.96804810    115.92001343
Na      -67.71554565   -119.40935516    177.10127258
Na       13.67103386    -81.12120056    -22.61833763
Na     -146.24694824    -36.48150635    -43.86036301
Na     -166.54252625     30.44459534    -64.72995758
Na      -30.53040123    -10.14382553     34.30245209
Na       82.43283844     46.97631454    -37.24518204
Na     -166.49169922   -143.04499817     71.54988861
Na      132.69207764   -112.69184875    183.81065369
Na      -81.36732483     20.83419418    156.41957092
Na      -44.13119125    123.05794525    -43.86214447
Na      197.45976257     75.59027100     13.42741203
Na     -204.43063354    173.28109741    108.56252289
Na      -70.85242462     37.73785400     -3.12145543
Na      -68.14523315      6.82598829   -108.52250671
Na     -126.19602966    -20.10151672   -132.60377502
Na       95.12374115    102.71003723     37.34878540
Na      -81.68244171    135.47473145     50.88381958
Na      135.65124512    -47.46257401      7.03081942
Na       95.60507202     29.97652817    122.88933563
Na      -47.91411591     24.08366394     54.92714691
Na      -20.82505417     10.17899513   -108.85565948
Na      -78.58925629     13.94286919    -98.54071045
Na      -41.34526825     30.09362411     20.15632629
Na       30.89443207     64.96768188     94.96157074
Na      -24.01177788    -27.46754265      3.66180754
Na       27.14575005    -64.83765411   -184.32292175
Na     -129.67111206    218.06756592    118.84251404
Na        7.31626558    -78.39028168    108.73444366
Na       -9.34619427     37.23847580    -54.85828781
Na     -180.63305664   -167.05984497    -14.02500629
Na      -16.57048988      2.56888080    -67.50784302
Na     -119.18560028     88.98806763     44.59827805
Na      184.06507874    -94.78295898    -88.78641510
Na      -44.89619064     53.21986389    173.67730713
Na      126.18853760    -74.63996887     50.96671295
Na      -17.05443573     75.16566467     -3.11164641
Na      -89.45847321     23.88770485     47.49393463
Na       85.16860199    -51.14078903     51.41370392
Na       99.65439606    -23.97137833    -47.77577591
Na       33.58225250    -98.77989960    -20.47269630
Na       48.39768219     20.51991272     20.04851723
Na      -82.58533478     98.72419739     20.39894676
Na      -98.93788910    -31.25331497     98.27245331
Na     -118.89350891    -78.59709167    -34.11262894
Na       64.79237366    -85.10959625     81.07547760
Na     -111.69626617     60.98486328    -30.26045418
Na      -61.02149582     -6.47212410    -68.41766357
Na       52.05511475    -54.03806686    -71.36575317
Na        6.87894535     -6.91349888    -17.29869461
Na      -51.10084534     30.79730225     37.32990265
Na      -98.70175171   -196.75592041     84.65188599
Na       20.89310646    -10.42500877    -41.01389694
Na       47.25018311      6.80459738     61.31837463
Na       38.11935806     30.49985123    -27.82253265
Na      -92.15459442      3.93246174    -17.42864609
Na       75.57636261     58.30538177   -115.64978027
Na       41.63364410    149.62402344    -21.32559586
Na      -72.27160645     64.92593384   -109.11450195
Na        3.32868671     78.63802338     68.28488922
Na     -146.64825439    -71.25633240    -17.29319954
Na       61.32612610    170.15226746     54.78117752
Na      157.18202209     74.43553925   -112.20182800
Na      129.04273987    -81.48353577     41.43495941
Na     -190.42658997    125.86077881     95.47164917
Na       91.35875702     71.67591095     82.10661316
Na      106.10729980    -37.12659454     44.51453018
Na       88.44992828   -214.13977051     61.17311478
Na      -10.09002781     10.32840061     60.98780823
Na      -29.97168732     -3.47552562    -94.66670227
Na      -13.43097210     71.30573273     -7.36093855
Na      105.52884674    -37.45242310      0.05548382
Na      -60.16952515      0.32396454     10.23452091
Na       61.43558884     57.60475540    -41.00712585
Na      132.99940491    -64.56006622    -41.20368576
Na       57.93403625     -6.46148634     91.61548615
Na       30.79236412   -258.85482788    187.14025879
Na       13.48906803    190.33049011    132.56340027
Na     -112.54049683     88.94886780   -180.50108337
Na      183.62458801     33.92903519    -13.68241787
Na       30.92082024     58.13892746     68.60229492
Na       84.47313690   -105.42193604     58.47254562
Na       -6.80365705    112.04055786     54.30313873
Na      -34.23797226    136.31048584    -85.43505859
Na      -61.68020248    -44.12550735    177.17678833
Na       17.33769417      5.82763481    -51.10510254
Na      -75.14424133    133.31663513    -20.91540527
Na       48.00238419     48.19370651    -45.23056030
Na     -112.21780396      3.51147962    108.88804626
Na      197.63902283     -6.86542082    -24.20114517
Na      -47.01108932     82.13784790    -37.19188309
Na      118.93892670    -15.73306274    -64.01920319
Na      224.23135376   -254.87739563     27.40987968
Na      -44.39057922     85.09420776    127.89546204
Na      118.95446777    100.26190186    -17.12116623
Na      122.13311768     57.93492508     54.79849625
Na       64.68724060    132.86309814    -88.70620728
Na      -57.68327713    -44.49214554    156.21574402
Na       57.31874466     44.04518509     -9.99784470
Na     -175.89016724     10.23894405     75.47521973
Na      -78.43486786     78.41223907    -17.05060387
Na       27.52623749      6.34266758    126.39143372
Na       54.87852478     94.28743744    -54.25550461
Na       60.89115143      6.99602413      9.05829620
Na      149.85737610     30.12371445    169.90348816
Na      -71.10227966    -84.97167206     78.32460022
Na       72.03227234     17.27735901     13.76018620
Na        0.19043307     95.49887085     34.71670532
Na       -6.95263195    105.15591431    -20.69668579
Na      -23.36061668   -101.60981750     51.11479187
Na       67.40167999   -101.28056335      9.80577660
Na     -138.49322510    -67.90542603    200.99282837
Na       50.90105820     23.83347702     64.92410278
Na       33.77273560     21.12088585     61.70191193
Na     -104.91223907    -29.98683167     -6.11756659
Na      -55.39359665    231.61422729     47.63640213
Na      224.77891541    -68.33048248    113.07997894
Na       91.83335114     71.59641266     71.40189362
Na      -68.37944031    -27.92474747   -143.17909241
Na       10.35067081    -28.02659607     44.37088776
Na      -10.22315502     30.09020042     57.67278671
Na      -64.96336365     -3.73407197    170.02767944
Na      -54.04618454     21.15057182    -17.14936638
Na      -10.03067207    -64.69623566     75.33898926
Na       57.48423004     84.77182770    -10.28559780
Na      -40.75022125    -33.24823761    -13.61731339
Na       27.19007111      0.22435318    148.59715271
Na        4.06244659      3.05998468    -26.62047958
Na      -40.54568863    -95.86864471     95.20886993
Na        0.20093450     26.68332672      7.46429777
Na      -85.49901581   -228.25054932     92.20215607
Na     -119.61748505     64.88827515     50.81548309
Na      -40.99389648     67.48283386    136.41889954
Na       16.75772858    156.97097778    111.98582458
Na     -145.91070557      3.53268409     78.11044312
Na      -61.30486679    -81.94795990     54.46540070
Na       99.02377319     44.33240891    -20.62902832
Na      167.18069458     40.52208710     85.10317230
Na      268.82055664    -30.40987206     27.80034447
Na       -2.32711148     19.90842628    -43.96807480
Na      -40.04487228     20.15909576   -142.98976135
Na      -20.15126419     38.08991623     94.90885162
Na      -23.45464325     37.39144516    -36.80906677
Na       27.19260597    -24.05308723     88.38900757
Na      136.74304199     37.86982727   -204.53318787
Na      132.70848083     26.77973938     51.34926987
Na       40.68632889    -40.87611389    105.80024719
Na     -125.89443970      3.49659252    -51.02957535
Na      -31.73967743     47.51845169   -159.60093689
Na      163.49847412     95.40570068      2.96824408
Na       23.37001228    -12.99994946     17.13031006
Na      -27.23089027    -50.46992874    -26.80619431
Na      -77.60884094    -71.37142181      3.77088857
Na       -3.02151847     57.62191010    -60.75767136
Na       16.87222290    -60.70368195    200.57911682
Na      -13.37602520   -153.43670654     61.39021683
Na        7.89869499    122.49706268     23.29601479
Na      -51.47398758   -136.47431946    -10.50339603
Na      -30.72476768    -58.14875412    -47.83903503
Na       61.58711624    -19.03507805    -64.69100952
Na      -88.69161987    105.02825928     81.77382660
Na      -26.68479729      6.95192575    -13.28259277
Na      166.92034912    -57.47678375     44.34643936
Na      135.82929993     61.16322327    -23.18353271
Na       68.14517212    126.11018372    -20.60519218
Na      -13.87181282      6.04967976    176.78341675
Na       86.12396240    -27.14674950     50.92039490
Na      -30.46596527    -17.20414734    -40.78762436
Na     -115.79293060    -59.90061569    -50.82102203
Na      -68.66582489     41.00064468     44.23569870
Na       34.41066360    -61.15268707    -65.17967224
Na       -3.95828819     40.01332855     23.53020668
Na      -30.78012466   -214.32362366    -71.93035126
Na       -3.06275821    -40.68999100    139.73753357
Na     -129.22129822     67.68229675     44.09654236
Na      122.43370056    -60.96288300     22.89023590
Na        9.93338013    -98.35956573   -133.11576843
Na      -64.69640350     50.84230423      3.12756348
Na      -33.51796341     68.17095184    -19.50681877
Na      -60.97947693     68.32406616     27.51535988
Na      -86.22047424     54.96799850     71.69919586
Na     -156.38162231     40.97178650     10.44539738
Na       33.19745636     17.20768738    -33.63299942
Na       67.61206055     64.82403564     67.71093750
Na       37.02111053   -153.00418091     61.23901367
Na       34.38859940     88.38071442    132.71383667
Na       37.19986725    -48.53416061     91.65768433
Na      136.28633118    166.45767212     13.46467209
Na      -61.53567886     88.78588104    -50.75491333
Na     -208.32458496     27.85778427    -23.59942245
Na       37.72052002    -47.64316559     17.03863907
Na       -0.70750612    -87.95165253     51.31008148
Na      -24.30970383      3.87735987     74.81458282
Na       38.40133286     33.82378387     -3.14683127
Na      104.88796234    137.03381348     30.59731102
Na      -95.41712952    -30.75565338    135.79638672
Na     -129.34101868    109.20587921    109.78372955
Na      292.42767334    -98.88452148   -102.18566132
Na      -34.13417435    -54.93337250     85.33854675
Na      -27.35758972    -40.83998489    -30.79094696
Na      -51.19683075     43.76138687    138.71211243
Na        3.18936181    136.79934692     92.17857361
Na      116.00162506   -129.29995728     40.44781876
Na       -6.21491575   -122.80580139      3.87897062
Na        2.92954302     74.17094421    159.89660645
Na      -80.61019897    -30.29879761    101.94648743
Na      -85.38786316    -16.37317657    146.29040527
Na      105.09751892    -50.86840057   -102.47312927
Na       85.14144897     44.43384933    -13.90210915
Na       28.31142235   -238.24700928     23.65291405
Na       44.26503754    177.29469299    -85.04399109
Na      -24.22587204    -44.47534180     -3.39719081
Na     -119.68412018   -112.46640778    -58.04129791
Na      108.92807007     54.36427689     85.34610748
Na      -34.40008926    -35.25346756    115.44961548
Na       81.40689087    -46.90593719     82.00730896
Na      -23.84083939     92.28458405    -44.09692383
Na      -61.60807419    -53.89009476     -7.08349133
Na      143.20138550     95.32464600     26.79203987
Na      -44.46736526     17.09538841    139.58644104
Na      -50.33266830     20.31415367    -64.45674896
Na      -34.36817169    -13.94880581     43.90194321
Na      -37.68614197   -105.84172821    190.39178467
Na      187.73704529     37.59593964    -47.85018539
Na      -34.03616714     71.72629547      0.38292164
Na        6.67983007     57.46142197    -33.98961639
Na       54.51745605    105.46441650    -55.12321854
Na      -20.06459808    -10.73859596     13.26655293
Na     -201.09278870    -85.37226868     27.49761581
Na       34.44422531    -74.83412933     74.22651672
Na      -44.69757843    153.37110901    -30.70654869
Na       -0.40036780    129.16540527    -78.08454132
Na       23.47761154    -75.81874847     85.24652100
Na      -78.96288300    -10.50780201    -54.85876465
Na     -238.36846924     88.48121643      4.14062548
Na      -67.89974213   -190.45068359    -37.47101593
Na      -41.37923050    224.46008301    112.67631531
Na        7.50890493     67.77416992    -74.43681335
Na        6.88748741    -61.39094543     -3.44490075
Na      -10.63675022     98.39134979    -27.60397720
Na       50.74113464    -16.67975616     98.65768433
Na       81.53831482     16.34718513    -27.29247665
Na       92.31610107     16.52501869     13.74454212
Na      -68.04817200   -218.13792419    108.83021545
Na       88.29435730     98.55490112    -20.18590164
Na       40.78696442    -34.12302780     57.46070480
Na      -13.38941765   -137.59246826    -67.94880676
Na      -54.82864380   -105.58557892    -34.23462296
Na     -119.01722717     44.22985840     17.07489204
Na      -27.05291748    -84.24633026    149.67535400
Na       74.68236542    -40.51343918     50.99071121
Na       71.52017212    -57.52313995    180.62995911
Na       -7.46543455     26.28040123    -37.08511734
Na       71.50662231    112.24001312     67.71418762
Na      -88.15309143    -54.46975708      6.88687038
Na       13.90279484    -67.96482849    118.75164032
Na       92.45364380     40.66126633    -51.02619553
Na      125.64924622    160.14453125     14.06455135
Na       43.67187500    -81.85979462     -3.16194844
Na     -107.90820312     37.43731308     34.17078781
Na      -37.14860916      9.93771648     57.53327560
Na       17.24072838    -43.76277542     17.37063980
Na      -45.35478210   -153.32246399     47.75925827
Na       75.13691711   -132.75466919     12.89283752
Na       84.62519073     77.72551727      6.55238199
Na      -88.24694824    -20.56893730     70.79854584
Na     -163.55670166    -61.54433060     54.91697693
Na       44.24473572     71.44736481     57.39037323
Na       30.23503494   -115.84671783    -51.00776672
Na      -55.00881958    -40.73646927     71.12385559
Na      -84.52023315    -74.61149597    -37.70688248
Na      -77.57333374      6.83000565    125.95675659
Na       44.26556396    162.79096985      3.54101968
Na       54.49893951    -81.90146637    -10.45382309
Na       27.21298790    122.89558411    -13.91903210
Na      -40.05915833     23.69002342    -34.15803146
Na       61.51300812     23.68759346    101.73214722
Na      -10.07739830    -40.62868500     44.30369949
Na       40.75396347    -29.55956650   -102.23355865
Na       47.86865234     65.25039673    -27.12232590
Na     -187.40895081    -47.51205063    -44.17422104
Na       64.88921356    -25.22877121   -152.84284973
Na      112.67932892    -10.84214115      5.73528910
Na       -3.65848660     23.58688354    105.92120361
Na      -44.41368103     91.24831390   -149.58306885
Na       37.35398483     51.46878052     57.51460266
Na      143.01332092     24.43307304    -40.54631042
Na       94.91020203     47.78050232     61.17662811
Na       44.34300613    136.60896301    -16.88499069
Na       41.43499374    -68.24692535    -23.77033806
Na       -9.78222561     95.08545685     57.57846832
Na     -102.21529388     47.88368607   -109.04509735
Na       57.65995407    -57.71467590    -25.38878250
Na       91.35363770    -57.53947067   -101.80959320
Na       54.63456345      7.16875744    128.94668579
Na        6.23969221     27.13841438     47.94086456
Na       57.92151260   -183.69393921      3.48426771
Na       33.23905563     38.16455841    265.41729736
Na     -119.16996002    -16.52169609    122.57862854
Na      -23.33812332   -187.65142822     60.91606903
Na       44.13145447     84.80806732    -37.59853363
Na     -142.03683472    -20.61474419     78.02350616
Na     -108.28754425   -170.43997192     40.99429321
Na       10.84251404     98.83078766    157.11389160
Na        9.91467857     58.37620163     23.37690163
Na      -47.67374420     27.62154770      5.85663462
Na      -95.86507416     74.55193329    -64.81702423
Na      -24.01857758    -71.70321655    -27.03183365
Na       21.09081078    -34.17744827   -119.65641785
Na       20.08973694    -76.00070190    -98.55586243
Na      -78.56627655    -31.04952240   -137.68399048
Na        6.98170471    128.63531494     -7.15886116
Na       91.10048676    272.06997681    -30.92914200
Na       -6.58762455    -47.79411316     -7.51279831
Na       -2.94191074     10.17519760    -85.14066315
Na      142.74212646     14.10507488    -34.05781937
Na      108.43023682   -163.24147034     20.55353165
Na      -33.90267563     44.18665695     76.03504181
Na       65.21385956    -98.62268066     64.46768188
Na     -112.28175354    -57.13559723    -78.12690735
Na       68.11218262     33.21217346    -92.14821625
Na       13.84507656     74.50659943     -0.25392500
Na      -92.29441833    -19.76729965     64.66826630
Na       14.35214138     34.23707962     47.15730286
Na      -16.88130569     44.60661697    -47.58864975
Na      101.93038940    228.16015625    -61.07554626
Na     -149.69754028    109.29273987    -44.55544662
Na      -24.88900185     71.52854156     -6.51932383
Na      180.65675354    -94.55554962   -126.37098694
Na      -82.06456757    224.46751404    119.48574066
Na       67.73576355    -40.89576721    -88.88009644
Na       16.51296234     78.86014557   -153.23881531
Na      -57.56593323    119.18243408      0.76354665
Na      132.70852661    -38.16052246    -30.57742500
Na       27.41601372     27.98982048    108.67785645
Na      105.17167664    -50.65135193   -166.56166077
Na       57.85667038     -9.96322727    -16.99580956
Na       78.50839233    -51.31325531    -13.76838493
Na      -63.73789215     74.77194977     78.52256012
Na      153.65615845    102.27470398    -37.80202484
Na      105.42996216     98.69920349    140.04798889
Na      165.90859985     67.68505096    153.20361328
Na       41.29792786   -156.71740723    -85.42427063
Na     -207.09979248    -77.80825806   -101.97597504
Na     -115.76601410    -30.40320015     95.39618683
Na      -41.38760376   -118.98307800    -81.92592621
Na      268.60662842    105.95152283   -200.50967407
Na       81.59385681     -6.62230539    -47.78619003
Na      -34.33452606     67.83193207     12.81926727
Na      -30.70652199    -44.78207016     85.63215637
Sn        3.41899538     13.18875694      7.00439262
Sn        3.75926900     26.98636436      6.63429308
Sn       18.02460098     13.79068661      6.42293119
Sn       17.33868790     26.97738075      6.74022579
Sn        3.23859882      0.26134980     20.16291237
Sn        2.77030492     13.63777733     20.40428925
Sn       16.69111633     -0.17727467     20.64892197
Sn       17.08044243     13.84386539     20.35396004
Sn        3.66963625      0.00771789     13.55500412
Sn        3.30381298     14.16537285     13.51160240
Sn       16.73237419     -0.11429281     13.83777809
Sn       17.26670074     14.19917583     13.28423500
Sn        3.50844455     13.28424358     -0.09958518
Sn        3.34973168     27.30760002     -0.16622491
Sn       16.87757683     13.31892681     -0.23535623
Sn       16.92195702     26.91225052      0.45190823
Sn       10.95890522      7.05578279     20.31272888
Sn       10.46009254     20.64551544     20.18015289
Sn       23.99337769      6.71528578     20.58459282
Sn       24.36829567     20.38349342     20.59784889
Sn        9.59807014      6.83579445      6.55565214
Sn        9.85107422     20.68839455      6.38853407
Sn       23.30393219      7.19173717      7.07834291
Sn       23.40529251     20.12994576      7.19220924
Sn       10.38935566      6.95440149     27.32121849
Sn       10.54008484     20.61746597     27.00503349
Sn       23.64653587      7.21910286     27.06789398
Sn       23.50184441     20.35578918     27.61604691
Sn       10.31743622      6.11981106     13.78506279
Sn       10.49575615     20.08568573     13.43098736
Sn       24.19286156      6.41946745     13.47246838
Sn       24.34383011     20.44072533     13.79192638
Sn       10.10867310      0.08364247     20.84663773
Sn        9.49477196     13.69248676     20.22634506
Sn       23.45434952     -0.29679018     20.63282967
Sn       23.51969528     13.44555759     20.36835861
Sn       10.94769096     13.69353485      6.89394808
Sn       10.06265259     27.34483910      7.17736006
Sn       24.08059120     13.82457447      6.89315605
Sn       24.40171623     26.80945778      6.85893202
Sn       10.28098869     13.02219677     13.87780094
Sn       10.17746639     26.64525795     13.64491844
Sn       23.57022858     13.38084602     13.70595169
Sn       23.61620903     27.07578850     14.01393509
Sn       10.39489746      0.16167343     -0.37888029
Sn       10.33161736     14.02444363     -0.16100115
Sn       23.90588570      0.14511500      0.07326953
Sn       23.67410088     13.74735069      0.25031760
Sn        3.17779708      6.95073080      7.10858631
Sn        3.21866775     20.06308556      6.73378420
Sn       16.65875816      6.80223370      6.57453012
Sn       16.64252853     20.34987831      6.79876423
Sn        4.00302982      7.25872278     20.42116737
Sn        3.94936609     20.53805542     20.61021805
Sn       17.49548721      6.69744778     20.33477592
Sn       17.53783226     20.59760284     20.02886772
Sn        3.52254343      6.71764088     -0.14403339
Sn        3.39443874     20.39392662     -0.32121688
Sn       16.56964684      6.63101244     -0.13926657
Sn       17.30297661     20.15061760      0.08806925
Sn        3.79999828      7.01535606     14.01669788
Sn        3.93193483     20.54901886     13.39541054
Sn       16.88517189      7.11980963     13.57959366
Sn       16.96256256     20.71787453     13.56743622
S         2.04588437      5.34685612      1.48985398
S         2.02752900     18.79385757      0.86545515
S        15.35363579      5.11370516      1.33053017
S        15.77383804     18.82743454      1.39525974
S         5.36578608      8.74918842     14.97102737
S         4.63317299     22.09597015     15.19682980
S        18.26796722      8.51557636     14.96515465
S        18.75086784     21.94052124     14.63422108
S        12.39099693     12.06114960      7.76641798
S        11.71414566     25.95821381      8.57151699
S        25.48544502     12.31568718      8.29824066
S        25.15969276     25.64973831      8.68804550
S         8.90035057      1.61662543     21.99992180
S         8.56933975     15.31808281     21.76564217
S        22.03668022      1.12264037     21.95672035
S        22.24072456     14.95355320     21.98536491
S         4.87039185      5.14693832     26.26898956
S         4.85165119     18.91753769     25.62764359
S        17.97684860      4.88965273     25.80300713
S        18.78438950     18.66900635     26.41215706
S         2.26850820      8.48027420     12.70085239
S         2.19128966     21.84860992     12.10967064
S        15.29370117      8.35635376     12.31259823
S        15.54420757     22.02352905     12.26436806
S         7.85552454     12.44668007     19.08773613
S         8.79104137     26.03652191     19.00692558
S        22.35125160     12.00341511     18.65043068
S        21.92400551     25.27312469     19.55353355
S        11.42601490      1.49737227      5.54074287
S        12.13605404     15.20574188      5.31161690
S        25.61309814      0.95310414      5.43990135
S        25.13750076     15.25370789      5.32692623
S         8.93525887     11.58444977     15.15468025
S         9.05842400     25.14301872     15.09026527
S        21.96386528     12.19002438     14.98542595
S        22.29138565     25.58606148     15.40319538
S        11.74194813      1.50499129      1.33407903
S        11.83021164     15.48844337      1.37111962
S        25.18420029      1.70318711      1.49419665
S        25.12719917     15.32450485      1.67956710
S         4.72590923      5.94178915     22.24120331
S         5.00548840     19.21586990     22.25864601
S        19.14246178      5.54752684     21.71992874
S        18.83439064     19.29668999     21.70531464
S         1.39943087      8.01178074      8.28694820
S         1.84593511     21.46531868      8.19873810
S        15.35457325      8.20585442      7.97377491
S        14.96124935     21.89532852      7.98939323
S        11.39240360     11.89613628     12.06482124
S        11.69243717     25.53449821     12.13764954
S        24.91172981     12.09198093     12.36637974
S        24.97613335     25.95139885     12.34721565
S         9.31324863      1.69771063     25.30869865
S         9.01966095     15.32530212     25.62354851
S        22.79629135      1.57797360     25.78136826
S        22.34685516     15.08514500     25.89637566
S         1.70209527      5.49404383      5.65828609
S         1.91484404     18.69412613      5.25480843
S        15.21618462      5.60549068      5.16157484
S        15.19879341     19.10276794      5.30647421
S         5.28999853      8.72921562     19.15652847
S         5.25166368     21.68997192     18.90862274
S        18.82888985      8.32940388     18.99073029
S        19.09987831     21.62122917     18.70299911
S        11.84856319      8.22130013     26.13120270
S        11.86365509     21.94829750     25.60095787
S        25.26983261      8.56693077     25.76514244
S        24.89464378     22.11699677     26.47978592
S         8.69374275      4.64968300     12.33827591
S         9.03298950     18.10733986     12.31533623
S        22.72402573      5.16004324     12.23956394
S        22.99374199     19.09579849     12.11139107
S         1.83673394      1.58314192     18.70049477
S         1.30729330     14.79283333     18.91425705
S        15.36093140      1.31302369     19.28176308
S        15.91808987     15.27487564     18.75074196
S         5.03795958     12.11680317      5.59083462
S         4.59882784     25.46984863      4.97720432
S        19.08294678     11.90561962      5.53440571
S        18.65438271     25.78333473      5.25379086
S         8.83366489      8.21507072      1.22931945
S         8.93186569     21.99232101      1.00547981
S        22.13679695      8.29683971      1.19191134
S        22.40641212     22.10575867      1.97110522
S        11.70367527      4.97405624     15.31129646
S        11.98412037     18.46202278     14.85267258
S        25.51148033      4.82069206     14.81734943
S        25.72463226     18.66116333     14.85780811
S         5.16707039      1.39360261      8.00086308
S         5.13345003     14.70867062      7.74090052
S        18.68457413      1.27955413      8.18171215
S        19.12289238     15.39595699      7.58865404
S         1.51225150     12.62977028     22.13613701
S         2.02181864     26.31620789     21.76289749
S        15.14635277     12.60679913     21.39899826
S        15.17155933     25.65218353     21.90995598
S         4.53532410      1.90460646     12.36351681
S         4.63170147     15.46601009     12.06571484
S        18.51914024      1.32187927     12.58882141
S        18.61202812     15.50614262     11.67211819
S         1.99959195     11.94064999     25.54981232
S         1.86352265     25.68358612     25.88844681
S        15.54436874     11.84447575     25.39638329
S        15.38397312     25.65274429     25.93029976
S         8.35882282      8.38835812      5.13269329
S         8.53127384     22.31439972      5.16516829
S        22.10441399      8.19496536      5.21813583
S        21.77453041     21.47878265      6.05704308
S        12.11244965      5.49766588     18.94186211
S        12.34601116     19.16633415     19.23856354
S        25.33731842      5.18692064     19.15827560
S        25.80377579     18.94164658     18.95837593
S         2.06291652      1.33810890     14.85707092
S         1.72292590     15.28790855     14.96908379
S        15.38710785      1.40684903     15.24073982
S        15.78080368     15.39346313     14.77357483
S         4.68044853     11.87909508      1.57217145
S         4.78605795     25.85951614      1.14211440
S        18.38351631     12.02805424      1.35763359
S        18.67529678     25.40849686      1.44457519
S        12.37719059      8.33029938     21.88037109
S        11.91705227     22.03112411     21.41835785
S        25.39631653      8.20929050     21.90367126
S        25.71796036     22.29483986     21.72161865
S         8.45839310      5.39054441      8.13501358
S         8.36842251     19.40081596      7.81069517
S        22.07851601      5.49206877      8.22243404
S        22.39306259     18.63582230      8.51388359
S         1.94565153      1.36980748      1.38084674
S         2.26146102     14.50296402      1.44266224
S        15.68924427      1.25772107      1.38321006
S        15.31438446     14.32417774      1.24822009
S         4.47689867     12.71727848     15.08002186
S         5.00209665     25.96957016     15.03918552
S        18.35812759     12.75292206     14.73327446
S        18.34758377     25.91653442     15.13086987
S         2.14007878     11.96969795      8.76710510
S         2.81456757     25.74975395      8.36142635
S        16.25468445     12.66163063      7.63754797
S        15.74092579     25.67749977      7.99931002
S         4.48195839      1.80742478     21.48270416
S         4.27672148     15.13289356     21.61324692
S        17.81809425      1.37808216     22.27597618
S        18.64839745     15.05831718     21.87473488
S         5.15814734      1.55313683     26.04006577
S         4.90539742     14.66797924     25.77881432
S        18.41944122      0.95526636     25.88918686
S        18.54350853     14.35058880     25.90930176
S         1.95902109     12.69917774     12.39389324
S         2.10139465     25.93307877     12.17502594
S        15.68244743     12.35090446     11.54952431
S        15.56485081     25.95340919     12.05461407
S         4.35778952     12.32646942     19.07503510
S         4.68951368     25.81917381     18.85306740
S        18.64030266     12.37414837     19.21784782
S        18.31899071     26.07692719     19.06622124
S         2.04211736      1.11183059      5.50674725
S         1.88953209     14.27144718      5.44368124
S        16.07260132      1.21084011      5.23498201
S        16.14082718     15.13569164      4.99759007
S         8.78703785      7.47024632     15.15638351
S         8.97065067     21.64982986     14.72523785
S        22.70274353      7.95788145     14.87381649
S        22.59015846     21.66290855     14.83841324
S        11.64942074      5.64609909      1.72948372
S        11.75224686     19.35890770      1.36440396
S        24.87834358      5.92414761      1.41518140
S        25.12128067     19.21742439      1.73295856
S         9.34178734      5.57890415     21.38516426
S         9.13015175     19.14757156     21.95813942
S        22.81104851      5.14861870     21.89279175
S        23.38357353     18.61891365     21.86107635
S        10.78944778      8.30710793      8.16250896
S        11.12800598     21.67430878      8.07301044
S        24.89125061      8.45743179      8.33574486
S        24.67682457     21.82604599      8.24220371
S        11.35436440      7.63266659     12.24162292
S        11.63221836     21.72892189     11.93670177
S        25.41891479      8.05127811     12.20971489
S        25.76185799     22.03995895     12.39332771
S         9.34131432      5.70011759     25.58220100
S         8.95263767     19.20020866     26.04506493
S        22.38569450      5.47307587     25.77283096
S        22.16013336     19.17573166     26.10114479
S        11.07011127      5.71767139      5.27032804
S        10.96592045     19.27055359      4.88151932
S        24.86856651      6.06251383      5.80388594
S        24.87243652     18.87393951      5.64698744
S         9.17942238      8.13381577     18.76110649
S         8.89006710     22.07109261     18.72147560
S        22.86950111      8.20670986     18.91244507
S        23.05733109     21.81820679     18.58241272
S        11.57455921     12.21145535     26.06508446
S        11.60594654     25.72057915     25.34536552
S        25.27053833     12.76374340     25.85418320
S        25.43065071     26.00936317     25.70745659
S         8.51590443      0.52182299     12.25353050
S         8.69727230     14.49349213     12.70501709
S        22.27728844      1.37173069     12.43271065
S        22.18769073     15.09754848     12.56645012
S        11.53351593      0.94072032     18.98645401
S        11.00961781     15.18763256     18.99545097
S        24.59304810      1.23023033     19.05781937
S        24.63666534     15.28796101     19.14588737
S         9.29536629     12.47808838      5.16693068
S         9.14379025     25.89577293      5.53875780
S        22.85068130     12.30590630      5.33520889
S        22.75813103     25.78385353      5.35519552
S         8.49857807     12.88506031      1.39197361
S         9.32083797     25.87047768      1.11273694
S        22.44252968     12.38773632      1.90967798
S        22.47688484     26.30276108      1.42823100
S        12.07711697      0.54743063     14.80866432
S        11.98914528     14.31800556     14.78009510
S        25.04844284      1.11464131     15.67655849
S        25.35445213     14.98393917     14.82797241
S         8.85538101      1.76513624      8.25162888
S         9.60737705     14.93006039      8.27301407
S        23.15137672      1.35194504      7.99458075
S        22.86758995     15.12419605      8.37615967
S        10.99073029     12.04000664     21.41461182
S        11.08103752     25.76126862     22.12847137
S        24.86707115     11.98977947     21.51807022
S        25.30203438     25.48212242     21.69287491
S         4.87815285      5.66731310     12.28635693
S         4.96150303     19.38621712     11.67043018
S        18.33443069      5.73739910     12.00678158
S        18.52790833     19.25397301     12.40143108
S         1.93049347      8.25452614     26.03814697
S         1.68887413     21.30189705     25.50635910
S        15.56777382      8.19805145     25.55345917
S        15.90615749     21.33289719     25.81631660
S         4.70537758      7.96778584      5.63868809
S         4.71661472     21.33959770      5.24046087
S        18.24441147      8.16564369      5.31043625
S        18.33323097     21.48368645      5.47724009
S         2.59816360      6.02938414     18.94287682
S         2.81092405     18.98903656     19.01405334
S        16.14033127      5.22279406     19.00363541
S        16.60848999     18.89200974     18.77281570
S         2.13585854      5.39345741     15.47425556
S         2.25976086     19.01369858     15.23105145
S        15.58130455      5.91677904     15.13349247
S        15.70408344     19.44957161     15.20039272
S         4.85585499      8.07829762      1.49018323
S         4.71999979     21.86134911      1.40359271
S        18.26329231      7.92287731      1.27019227
S        18.50623703     21.99319649      1.36579978
S         2.26075792      8.42249203     21.83244514
S         2.67342305     22.18599319     22.05443573
S        16.01479721      8.08130169     21.98455238
S        15.74756145     21.69807434     21.74751282
S         4.15390444      5.39058638      8.57150269
S         4.80450869     18.97423363      8.14753342
S        17.91651917      5.43580198      8.11206436
S        18.00500488     19.15518761      8.65806007
S         1.32891452      2.53098941      8.95503521
P         0.04677905      3.60792685     10.19257450
S        -1.17562580      4.74626970      8.96836472
S        -1.01395893      2.34041238     11.38829708
S         1.15039790      4.88556528     11.36825371
S         1.32891452     16.14579010      8.95503521
P         0.04677905     17.22272682     10.19257450
S        -1.17562580     18.36107063      8.96836472
S        -1.01395893     15.95521259     11.38829708
S         1.15039790     18.50036240     11.36825371
P        13.66157818      3.60792685     10.19257450
S        14.94371414      2.53098941      8.95503521
S        12.43917370      4.74626970      8.96836472
S        12.60083961      2.34041238     11.38829708
S        14.76519680      4.88556528     11.36825371
S        14.94371414     16.14579010      8.95503521
P        13.66157818     17.22272682     10.19257450
S        12.43917370     18.36107063      8.96836472
S        12.60083961     15.95521259     11.38829708
S        14.76519680     18.50036240     11.36825371
S         8.07471085      9.14614868     22.61940765
P         6.89163589     10.19873905     23.90862656
S         5.62674999     11.38945198     22.83204651
S         5.82599831      8.87564850     25.11843300
S         8.04984188     11.40234184     25.15697098
S         8.07471085     22.76094818     22.61940765
S         5.62674999     25.00424957     22.83204651
P         6.89163589     23.81353951     23.90862656
S         5.82599831     22.49044609     25.11843300
S         8.04984188     25.01713943     25.15697098
S        21.68950844      9.14614868     22.61940765
P        20.50643349     10.19873905     23.90862656
S        19.24154854     11.38945198     22.83204651
S        19.44079781      8.87564850     25.11843300
S        21.66464043     11.40234184     25.15697098
S        21.68950844     22.76094818     22.61940765
P        20.50643349     23.81353951     23.90862656
S        19.24154854     25.00424957     22.83204651
S        19.44079781     22.49044609     25.11843300
S        21.66464043     25.01713943     25.15697098
S        26.27467155     11.16697121     18.33880043
S        28.55627823      8.72286510     18.17870331
S        28.66435623     11.24189854     15.95078182
P        27.42511559     10.03538895     17.04462051
S        26.22481155      8.93389606     15.77915859
S        26.27467155     24.78177261     18.33880043
S        28.55627823     22.33766556     18.17870331
S        28.66435623     24.85669899     15.95078182
P        27.42511559     23.65019035     17.04462051
S        26.22481155     22.54869652     15.77915859
S        12.65987206     11.16697121     18.33880043
S        14.94147968      8.72286510     18.17870331
P        13.81031322     10.03538895     17.04462051
S        15.04955864     11.24189854     15.95078182
S        12.61001110      8.93389606     15.77915859
S        12.65987206     24.78177261     18.33880043
S        14.94147968     22.33766556     18.17870331
S        15.04955864     24.85669899     15.95078182
P        13.81031322     23.65019035     17.04462051
S        12.61001110     22.54869652     15.77915859
S         5.33018923      4.41139507      4.51503038
S         7.92009449      2.28690720      4.76248741
S         7.84899044      4.56582499      2.26728678
P         6.70190191      3.29413009      3.45909548
S         5.69071388      1.95248342      2.25232363
S         5.33018923     18.02619553      4.51503038
S         7.92009449     15.90170765      4.76248741
S         7.84899044     18.18062401      2.26728678
S         5.69071388     15.56728363      2.25232363
P         6.70190191     16.90892982      3.45909548
S        18.94498825      4.41139507      4.51503038
S        21.53489304      2.28690720      4.76248741
S        21.46378899      4.56582499      2.26728678
P        20.31669998      3.29413009      3.45909548
S        19.30551147      1.95248342      2.25232363
S        18.94498825     18.02619553      4.51503038
S        21.53489304     15.90170765      4.76248741
S        21.46378899     18.18062401      2.26728678
P        20.31669998     16.90892982      3.45909548
S        19.30551147     15.56728363      2.25232363
S         5.66090107      2.23965740     18.17482376
P         6.83333492      3.45262146     16.98561287
S         8.10164452      4.68017149     18.06549644
S         7.98205566      2.27116585     15.78032589
S         5.58365917      4.65904808     15.85623550
S         5.66090107     15.85445690     18.17482376
P         6.83333492     17.06741905     16.98561287
S         8.10164452     18.29496956     18.06549644
S         7.98205566     15.88596535     15.78032589
S         5.58365917     18.27384758     15.85623550
P        20.44813538      3.45262146     16.98561287
S        19.27570152      2.23965740     18.17482376
S        21.71644592      4.68017149     18.06549644
S        21.59685516      2.27116585     15.78032589
S        19.19845963      4.65904808     15.85623550
S        19.27570152     15.85445690     18.17482376
P        20.44813538     17.06741905     16.98561287
S        21.71644592     18.29496956     18.06549644
S        21.59685516     15.88596535     15.78032589
S        19.19845963     18.27384758     15.85623550
S        26.04081917      9.06585693      4.69432783
P        27.29017448     10.11887264      3.44682360
S        28.62958336     11.21020794      4.56447363
S        28.31366348      8.81820297      2.19851542
S        26.16272163     11.41280270      2.27718925
S        26.04081917     22.68065643      4.69432783
S        28.62958336     24.82500839      4.56447363
P        27.29017448     23.73367310      3.44682360
S        28.31366348     22.43300438      2.19851542
S        26.16272163     25.02760124      2.27718925
S        12.42602062      9.06585693      4.69432783
P        13.67537689     10.11887264      3.44682360
S        15.01478386     11.21020794      4.56447363
S        14.69886398      8.81820297      2.19851542
S        12.54792118     11.41280270      2.27718925
S        15.01478386     24.82500839      4.56447363
S        12.42602062     22.68065643      4.69432783
P        13.67537689     23.73367310      3.44682360
S        14.69886398     22.43300438      2.19851542
S        12.54792118     25.02760124      2.27718925
P         6.61541605     10.23576450     10.11287880
S         7.82621670     11.29561710      8.80991650
S         5.19793081      9.15745163      9.03971481
S         5.59178972     11.56023407     11.30496883
S         7.80205965      8.95129108     11.16529369
P         6.61541605     23.85056496     10.11287880
S         7.82621670     24.91041756      8.80991650
S         5.19793081     22.77224922      9.03971481
S         5.59178972     25.17503357     11.30496883
S         7.80205965     22.56609154     11.16529369
S        21.44101715     11.29561710      8.80991650
S        18.81272888      9.15745163      9.03971481
S        19.20659065     11.56023407     11.30496883
P        20.23021507     10.23576450     10.11287880
S        21.41685867      8.95129108     11.16529369
S        21.44101715     24.91041756      8.80991650
P        20.23021507     23.85056496     10.11287880
S        18.81272888     22.77224922      9.03971481
S        19.20659065     25.17503357     11.30496883
S        21.41685867     22.56609154     11.16529369
S        14.85338497      4.44817972     22.60559654
S        12.30653381      2.29842520     22.75352859
S        12.54321575      4.73259497     25.06800270
P        13.60410881      3.41886640     23.86085701
S        14.70904350      2.17197299     25.12597466
S        14.85338497     18.06298065     22.60559654
S        12.30653381     15.91322422     22.75352859
S        12.54321575     18.34739304     25.06800270
P        13.60410881     17.03366661     23.86085701
S        14.70904350     15.78677368     25.12597466
S         1.23858511      4.44817972     22.60559654
S        -1.30826652      2.29842520     22.75352859
S        -1.07158363      4.73259497     25.06800270
S         1.09424412      2.17197299     25.12597466
P        -0.01069169      3.41886640     23.86085701
S         1.23858511     18.06298065     22.60559654
S        -1.30826652     15.91322422     22.75352859
S        -1.07158363     18.34739304     25.06800270
S         1.09424412     15.78677368     25.12597466
P        -0.01069169     17.03366661     23.86085701
