832

Na       -3.55286980     17.02637100     33.38755798
Na      -30.77850914     17.09897614    -45.00064850
Na       34.43751144      7.08976841    -37.24219894
Na       37.23171997    -10.55405998    -13.27287197
Na        0.04119021     -3.34521198    -27.26315689
Na       20.59727097     20.49868202     51.03899002
Na       -3.49462438     60.79741287     37.47784805
Na       -3.24859500    -17.60259056    -30.51727676
Na       30.80960083    -17.45481682     29.93264389
Na        0.23333521     54.33146667     27.05298805
Na      -21.99454689     17.12473297     20.40911484
Na       61.10874557     58.21342468     34.27723694
Na        6.48215342     20.47967529     31.42299271
Na        3.00735545     40.81520081     17.05292511
Na      -40.48052216     47.71191788     47.86125183
Na       20.32978058     -3.40596962     33.98403168
Na       54.67189789     -0.09168642     17.27857018
Na       40.77789307     44.68367386     33.99368286
Na      -13.75084496    -13.30803967     -0.11103319
Na       30.74551392    -37.27205658      6.39359140
Na        3.81947351    -30.31059074    -10.33938885
Na      -30.75704002     -0.11824837     30.79624176
Na       20.06850624    -20.41177750      9.19633293
Na        3.94308877     30.86764526     13.97332191
Na        0.33709052     20.10806084     17.43273735
Na       44.54721832     37.65000153    -20.44359589
Na       41.07696533      7.33857298     13.67769051
Na       47.78158188     -3.62214804     -6.93056488
Na       17.58173370     -3.43437147     30.72908783
Na       20.34094810     -6.32507706     44.05029297
Na       20.77240753    -47.29170990     47.81525421
Na       14.04695034     -0.10968176    -10.80265903
Na        3.22947931      0.44207150     10.01021481
Na      -10.27865982     37.12507629     27.46107864
Na        2.94073820     84.85138702     -0.34748977
Na        3.95159554     34.17538071    -10.09683704
Na        6.57426643     50.60776901     27.67614365
Na       33.87656021      6.87303925     27.09667206
Na       17.11383820    -23.50007820     20.51585197
Na        0.63662249     27.04895973     -3.34817457
Na       -3.29415679     -3.55590057     33.71166229
Na        3.01823735     51.10294724     20.05964851
Na        0.03736512     74.74224091     26.93132210
Na       13.66458225    -23.49134254      6.86688614
Na       -3.85896802    -17.33812714    -10.55026531
Na      -26.98032761    -17.24104118     48.10377121
Na       34.66589737    -13.41534233     34.10332870
Na       37.24436951     50.97817612     30.59562111
Na       -0.26490477      3.85777307    -20.82072449
Na       -6.96847486     13.10345173      0.05656646
Na       -6.63175154      3.29443932     20.76251411
Na      -16.54547691    -30.17730331      0.28634611
Na       64.55002594      3.77261639     24.23711205
Na       17.30253220     20.83404922     10.14216995
Na       -7.08807945     40.26605606     -9.83824444
Na       23.94345474     10.50562286     -7.00060463
Na       -3.34975410     -6.54572725     -3.35947251
Na       30.22839737     37.70416641     37.63352966
Na       20.06111908     26.79875946    -23.46188927
Na       34.13001251     47.39056015     27.80614471
Na       -9.80698586     37.73021317     58.10219193
Na      -20.21729279     26.51901245      6.57826614
Na        9.77141094     37.35794067     44.46854782
Na       30.66857147     23.57358742     26.44326973
Na       16.59601784     -2.89959359     20.52087593
Na        6.39095592     23.84665489     47.56482315
Na       -0.14803718    -23.80885696     14.22587204
Na       44.18202209     30.38620186     26.55221367
Na       23.94839478      3.01165819     41.24893951
Na       47.48995209     31.12626648     13.28779697
Na       57.29093170     13.86767673     50.96112823
Na        6.63283539     47.77174377     16.82674026
Na       17.03971291     -9.98270798    -20.45410347
Na      -17.03548622    -17.07296562    -27.42917824
Na       20.52883530      3.49384499      6.92172003
Na       27.04887581     68.42233276     13.19165993
Na      -27.22480774     34.25257874     10.21667004
Na       27.66752625      6.72505426     -6.56182575
Na       20.21552277     27.14136505     74.78847504
Na       -7.07605648     17.44939613     34.04180527
Na        0.01264560    -27.39726830    -17.12113190
Na       30.75396156     23.90570450    -20.06708908
Na       34.55394745     -0.05357860     17.02891731
Na        6.92275810     13.68114185     24.17757416
Na       10.72091675      2.98354673    -13.82632542
Na       10.45571518    -24.10400772     17.17050362
Na       -6.77860212    -40.50201416    -30.67083549
Na       10.31439781     -6.65324306     24.04782677
Na       24.45717812     30.80664635     -0.02966731
Na        3.30885768     26.92295265      3.03135896
Na       30.28804970    -33.85794830     37.37221146
Na      -30.79346275     33.75473785     44.13896179
Na       16.42855453    -40.62039948     -3.44554305
Na       10.14116764    -13.42229652     23.89561653
Na       37.74688721     19.99878120     10.60576630
Na       20.25488281    -34.12783051     10.12286663
Na       17.73100662    -10.16048336     19.95869446
Na       30.37094688      3.68640375     44.50858688
Na       44.12722778     13.62117672     16.98247910
Na       20.22218323     37.40705109     33.45528030
Na       20.73584747    -16.63216972    -40.99760056
Na       -3.56205797     -7.08569336      3.12917709
Na       51.26741028     10.04434299    -16.31923485
Na       34.32182693     47.78033066     -6.71285629
Na      -13.39280605      3.81226730     13.83220673
Na       17.55887985     13.61600494     10.12297726
Na       40.81886673     10.08816624     34.20414734
Na       13.12418175      6.54115391      3.37663531
Na      -24.10296249    -37.15132141    -10.16596699
Na      -30.20044899     -6.60332870     43.96438599
Na       13.78066921    -10.50109196    -13.35938072
Na       20.27227592     78.61663818     13.47475433
Na       23.91991806    -17.04224968      3.70901895
Na       30.89928627     44.13191223     23.77463531
Na      -19.92573929     13.29186249      3.47109485
Na      -27.15924644     44.21858978     -6.84968090
Na       -6.92165232      0.54396248     23.60083008
Na       10.01353836     24.13686371     37.49239731
Na       -0.51387316     -6.49934435     37.16750336
Na       27.07055092    -13.69011593      0.29305601
Na      -20.36750412     17.79911041    -13.76577091
Na       31.12748337     23.50442505     30.32229614
Na       10.41411304    -17.50724602     13.88961029
Na       64.28520966     34.09502029      3.38844657
Na       23.71854973    -34.21390152     37.36196899
Na       -3.43293953     41.47723007     30.80088234
Na       61.44859314     13.65901661     37.71683884
Na        3.87023449     43.79850006     64.51831818
Na       23.94835091     17.41343498     27.60009003
Na       47.69266891      9.99063587      0.40426442
Na        6.91533279    -17.22406578     13.77187347
Na       54.15900421    -33.74637222      6.65210724
Na      -60.74274826    -34.12526321     47.38296509
Na       17.31881523     -3.29969263     -2.86923504
Na        6.85497475     17.44810104     33.89919662
Na       10.76047611     34.11716080     23.86859322
Na      -10.08866692      0.68657213    -10.16058826
Na        9.85606766     30.54377174    -20.60181046
Na       16.58214569     37.71134186     37.50604248
Na      -44.49213791     23.77754021     -6.70930672
Na        0.08889239      0.62544203    -20.36777878
Na      -20.71387863      0.03285513      0.53706443
Na       19.86606026     20.35126686     31.25844193
Na       34.01015854     20.07458115     -2.90933204
Na       -9.85609913    -10.31104374     27.08944702
Na      -16.82895088     41.09807968      3.50126362
Na       -0.21122059     13.62908077    -10.30036545
Na      -13.77666283    -19.97856140     10.49857044
Na       13.62456226     30.53992653     -6.82939768
Na        6.38162041     27.32172012    -34.21215820
Na       30.39200401      2.89578629    -24.35027504
Na       36.84078598     27.32138824     24.22008705
Na      -13.27603149     10.87851620     40.83681107
Na       23.63327980     51.35394287     27.18716621
Na       -4.30200577     -3.08727670     57.80007935
Na       40.56103516     20.23306465     30.88615227
Na        4.71662998    -50.69746399     20.42959213
Na       13.53831863     20.95936775    -16.98550606
Na       47.50429535     14.36821461     41.19554138
Na       20.33773613     13.45525742     57.91265488
Na       -0.02669195     37.99534607     33.99605179
Na       20.78761292     40.91260529      6.92444706
Na       23.96223450     24.09803009     -2.91773105
Na        2.84213853     47.20222473      3.15758300
Na       -6.92495918    -34.05588913      0.30003399
Na       27.35966873     40.93957138    -23.38679504
Na        6.90835667     13.88541031     13.97055340
Na       30.78466034     24.00806618    -13.45520401
Na        5.87890291    -10.42780304     27.01702881
Na       23.19370651     41.12174225     17.03318214
Na      -40.71757889     57.47378540     55.08863831
Na        6.85156965     -5.97237635     13.08509159
Na       -2.68326473     13.71853161     10.43581390
Na      -23.67839432     44.80561829     13.85181236
Na       13.99954796     24.16070557      7.23346901
Na       30.80136108      7.13648510     10.34929466
Na      -33.42022705     -0.46955773     16.74583626
Na       16.62287521    -54.71753311      3.27783799
Na       54.24576187     62.28173447     61.03406143
Na       44.08640671     16.57277870      3.24796462
Na        9.62889957    -37.10877228     27.80739784
Na       37.30883408      6.51130486     64.57037354
Na       17.30153084     -9.88228130     37.48175049
Na       30.35161781    -10.66748428     57.31136322
Na      -51.12640381     -3.01714253     -3.90902829
Na        3.31722546     10.29961395     13.89795780
Na       10.55418968     -0.03556073     37.90107346
Na       40.73737717     40.93068314     43.87310028
Na       42.08639908     13.56982327     30.68396187
Na      -30.55434227     30.32180405      3.10817480
Na       77.61550903     16.79989243    -34.30002975
Na        9.72110462     41.01070023     16.88009262
Na      -51.04079056     30.05072784     23.59524918
Na       33.96540070      9.67176914    -20.57215118
Na       30.60164452      9.97693443     -2.31309152
Na        0.06608783     -6.30050659     40.88466263
Na       10.44146442     37.54828644     -3.18582392
Na      -14.12538052     33.98276520      6.76335287
Na       13.89351463    -34.32447815     17.17181969
Na       13.28412056     20.60410309    -20.06883240
Na       16.88059044     17.52169228     17.12049675
Na       -7.02572680     27.00115967     27.73691177
Na       47.52271271     41.39898682     -6.76710320
Na       54.77779007     37.52652740    -13.68747997
Na       10.95281792     34.24038696    -10.22889709
Na       13.52013683     44.23899078     27.43854713
Na        9.57944965     37.60147476     20.73881721
Na       10.03861523     44.10064316      9.98230267
Na       -4.33852911     -0.51354247     37.47129059
Na       10.13289642      9.86126518    -44.12113571
Na       17.09437943     30.80371094    -10.03182316
Na       74.83937836     33.97537994      0.32786170
Na      -10.02161121     -3.83558178     17.20541000
Na       44.49209213     10.03504944     44.30288696
Na      -37.18520737      6.18453550     23.40748024
Na       10.29385757     51.11896515     51.33737183
Na       20.26798630     19.81651878     13.78257370
Na      -12.90981483      6.89734554     23.64447403
Na      -24.07859612      6.29344177     51.00006866
Na       27.50668144     -6.63663721    -31.26174736
Na       -3.54819465    -23.51704216      6.62657213
Na       -3.63885808     23.98596573     75.02673340
Na       27.28939438    -27.15839577      3.39348769
Na       10.32558250     55.62654877     31.02047729
Na      -17.98525429      3.28327823     -6.65090704
Na       47.72208023     61.86014557    -14.11577892
Na      -13.01040936      6.44886255     20.54478455
Na       44.00043869     -2.99569964     10.26944447
Na      -23.61856842    -33.95466232     51.02324295
Na      -20.61146164     30.63807678     81.58735657
Na       13.42736340     27.07354546     74.44732666
Na      -16.91091347    -16.63141251     30.75350189
Na       13.67083645     20.68311310     13.85498333
Na      -20.00185585      6.74961042     75.08164215
Na       40.62697983     13.37062550     78.27124786
Na        9.66779995     30.40753746     64.84066772
Na      -13.54156590     27.54754448     26.75964928
Na       -6.70330429     10.32339191     20.32617378
Na        7.09745359      6.54952717     23.94720650
Na       36.85319138     30.78408432    -26.60196686
Na       44.58155823     -6.59646368     17.29975128
Na       40.82899475     43.93079376     20.70760918
Na       68.46868896    -17.54285812     48.04452133
Na       27.42996216     30.63095474     -6.92725801
Na      -16.58250427    -10.39114761     17.11764908
Na      -10.09060955     65.21170044     13.54709053
Na       13.81175518      0.12387689     58.31422806
Na       28.33176804     41.15599823    -17.12097168
Na       30.67357635     33.42203522      3.61108589
Na        7.27187634     27.11911774     31.04782867
Na       27.56185150     24.11966896     12.73199558
Na       13.52883053     10.32252884      0.10591654
Na       10.07643795     -9.95998096     33.45893097
Na       -3.27229834     37.41010666     27.61415482
Na       81.92217255    -10.23513699      6.70727634
Na       20.30458450     33.98018265      6.08440304
Na       -3.24596906     17.10485649     17.06661987
Na       -0.45006397     47.10885620      3.47241092
Na       20.78202629     -0.20179221      7.26703310
Na       13.88770962     33.67102814     16.93878746
Na       -9.97058105     10.36013794     -6.58103514
Na        3.11355877     58.39189529      6.48285389
Na       10.10870934    -10.41676998    -29.88453293
Na       64.89944458     23.49649239     14.59665966
Na      -40.98662186     40.20634460     20.14620781
Na       10.55657768     74.62363434     17.07389069
Na      -23.34603500    -44.07386398    -20.22448921
Na       24.25716972    -23.79979324     -6.39178371
Na      -20.43292809     13.15053272     20.91945648
Na      -13.72871876      0.04778600     40.62918854
Na       27.62432480    -21.03535271      3.18681002
Na       47.95400620     57.91359711     27.07152557
Na       30.95428658     27.72737885     16.86853600
Na       13.59072876     20.69485283     -3.37180018
Na       37.36180115     -3.39983010    -20.52467537
Na       41.29043961     41.01877213      9.96880817
Na       64.56407928     16.77704430     20.62085152
Na       38.20059204     13.79143333     10.31910229
Na       17.01406670     37.44730377     24.07103157
Na       54.61396408     -9.57398319    -13.28826904
Na       20.19019508      7.15024948    -10.13726807
Na       54.77646255     37.42850876     -0.23556498
Na        3.48170972     -6.41984177    -10.00057316
Na        3.79667687     40.39020538     30.57378006
Na       37.24546051     10.30994225      6.92549610
Na        6.79308414     33.93046188     37.20204544
Na       17.01814651     24.32033348    -13.59163380
Na       33.71334076     20.42343330    -17.22948074
Na       -3.61529136     10.17768764     34.31346893
Na        0.10434413     61.00136185     13.43874454
Na       -3.73298717     30.23588371     37.67591476
Na       27.96436691     13.79018497     61.24725723
Na      -13.57720757     47.71142578      0.03421092
Na      -30.70074272     44.66223145    -30.53956032
Na        6.92653131     23.18548012      7.01011467
Na        0.14692615      6.68110800    -10.34220695
Na       13.42766762     27.07049942    -30.76826286
Na       20.46289253      0.67506802    -13.53934097
Na       16.88375092      3.54375625      6.58720350
Na       -0.26126733     13.32138920     -3.10746908
Na       -3.65775490     13.43365574     24.22605896
Na        6.70143223     54.59269333     10.39870262
Na       27.13877487     44.07967758    -26.99260521
Na       27.18791580     27.22086716     13.40267181
Na       16.84638405      3.12553620     57.00918198
Na       -4.05658722      6.33695221     57.98071289
Na       30.59858894      3.53276896     37.72629547
Na       44.38867950     -9.72875595     13.66573715
Na        6.72275496     10.15269947     27.53530693
Na        6.62621832     13.22654438     27.28261566
Na       -0.18235859    -27.42011070     20.15243340
Na       33.32148743      0.48201942     23.87932205
Na       54.09028625      6.06238031     -0.10349152
Na       31.28059578     37.63846588     47.94431686
Na       24.33138084     -3.64311767     14.17496490
Na       17.10465240     -8.38939285     24.09962463
Na        9.90213203     47.18639374      3.46953464
Na        6.77200651     40.42453003     -9.96384239
Na       40.87844849    -27.08526993      8.12782955
Na        6.73626137     26.48151016    -13.92022991
Na       23.68658447    -24.15929031     17.48242569
Na       -6.19061136     61.36783600     24.01282883
Na       17.08091736    -50.63536453     13.80762768
Na       41.24582672     51.07754135     54.01561737
Na        3.70742631    -17.08252335     17.62992287
Na      -20.79990578      7.02562523      4.09992886
Na       23.82769394      0.28684789     -3.60442114
Na       -0.10236932     -3.73197532     21.17617226
Na       44.27714157      7.05777931     10.23745060
Na       24.21309662     33.52477264     -3.39543939
Na       16.69640732     47.60041428     30.72488785
Na       -4.24418592     70.89286041     13.59626579
Na       23.96893120     51.88857269     -9.97325325
Na       13.49881744     51.26978302     13.37421227
Na       -0.14444830     34.30184174     -3.16279483
Na       54.30522919     13.79411316     -6.36218214
Na       -6.76572609     -3.62943435      0.28603914
Na       54.75431824     -3.14001608     34.40975189
Na       17.24115944      6.57113266      3.34288311
Na       30.07406235     -3.12144756     10.33315468
Na      -36.37099838     54.42433167     10.04301071
Na      -40.53381729     33.89572906     -0.46280539
Na      -13.41481113     -3.41877055    -33.56930542
Na       43.73829269      0.65043861     -3.54155350
Na       -6.63033772     13.78946400      9.92947674
Na       65.20613861     26.23374367     17.27128792
Na        6.98692751      6.21943378    -13.30816936
Na       16.78037834     -3.48189998     34.15244293
Na      -30.42090034     23.42371178     10.38177013
Na       41.48926926    -14.07113457     60.89462662
Na       17.22312355    -24.03532410     37.26251221
Na       -6.73294449     44.44633102     -0.11538187
Sn        3.93128181     13.59857655      6.92437458
Sn        3.55291724     27.40199852      6.92740536
Sn       17.37938690     13.72391224      6.72155714
Sn       17.28943825     27.41588402      6.75587797
Sn        3.30252552     -0.08940162     20.55081749
Sn        3.26702619     13.98530769     20.35540199
Sn       16.69190216      0.21669452     20.25604248
Sn       16.86099052     13.66219425     20.64719582
Sn        3.46445203      0.25297031     13.62126350
Sn        3.26465654     13.97034359     13.48299408
Sn       17.16774178      0.35030609     13.42190933
Sn       16.96227646     13.99568462     13.70002079
Sn        3.29777980     13.25586033     -0.24379332
Sn        3.43358994     27.06591415     -0.09951141
Sn       17.03043747     13.21043396     -0.03161896
Sn       16.83312225     26.82556725     -0.38511547
Sn       10.77816868      6.65437698     20.40485764
Sn       10.46404648     20.03486824     20.65565872
Sn       24.17077827      6.84131527     20.23791885
Sn       24.32851982     20.61528969     20.05779076
Sn        9.77433491      6.86830521      6.77915621
Sn        9.91777039     20.45785904      7.10200930
Sn       23.61969566      7.21448898      6.87922764
Sn       23.49470329     20.35246849      6.65453577
Sn       10.55122471      6.93324804     27.17718506
Sn       10.17672348     20.87808800     27.44977760
Sn       23.84203720      6.83698750     27.42385101
Sn       24.07286835     20.82890129     27.09751129
Sn       10.27651119      6.33759594     13.68432045
Sn       10.15442944     20.29692841     14.06318855
Sn       23.94908524      6.72490597     13.53110313
Sn       23.82734299     19.95694733     13.38448429
Sn        9.77163506     -0.06195003     20.69952202
Sn       10.07317066     13.57596111     20.39230347
Sn       23.72169304     -0.00671431     20.28946877
Sn       23.63155365     13.65948105     20.63899422
Sn       10.96125412     13.61896515      7.00485229
Sn       10.29435825     26.99773407      7.02040768
Sn       24.38839340     13.62624454      6.93061543
Sn       24.32602882     27.37515259      6.84411001
Sn       10.31418705     13.22449970     13.78266430
Sn       10.00117016     26.85189629     13.81033516
Sn       23.83879089     13.02373028     13.68253136
Sn       23.84723091     26.86889458     13.71409798
Sn       10.15718365      0.38594598      0.11982425
Sn       10.30119133     13.78114510      0.13815047
Sn       23.75193977      0.05186162     -0.20520240
Sn       23.85396576     13.70995045     -0.00254927
Sn        3.28489542      7.06625748      6.94788885
Sn        3.04424572     20.47216225      6.73156881
Sn       16.69568062      6.91923952      6.76259756
Sn       16.75635910     20.46798706      6.85270452
Sn        3.74963069      6.99203730     20.34850693
Sn        3.66561532     20.38882637     20.37953186
Sn       17.60724068      6.84761381     19.98601151
Sn       17.27660561     20.82949066     20.75384712
Sn        3.56791377      6.34341335      0.04108065
Sn        3.31673670     19.93667030     -0.13101962
Sn       17.31505203      6.59722900     -0.04560309
Sn       17.11858940     20.24688911      0.31038016
Sn        3.73366666      7.09346914     13.60089302
Sn        3.43093133     20.78003693     13.80359173
Sn       17.05798340      7.10104465     13.72896576
Sn       16.96707153     20.81812096     13.74301243
S         2.02110028      5.06954956      1.36145830
S         1.89620090     18.50003815      1.16489589
S        15.78268051      5.11093855      1.03106225
S        15.69483376     18.75245285      1.59891713
S         5.22652483      8.40896225     14.97389126
S         4.92662430     22.15035629     15.14221764
S        18.50873756      8.66825294     14.74934864
S        18.62302208     22.28714943     15.08371067
S        12.08705616     11.94565868      8.31441975
S        11.64460659     25.87271309      8.59059334
S        25.66592789     12.15193176      8.51991558
S        25.71685982     25.75022125      8.06776714
S         8.28463650      1.18765664     22.05220222
S         8.74309444     14.71549988     21.87052536
S        22.16426849      1.49284005     21.64544487
S        22.37611389     15.02445602     22.06915283
S         4.79600525      5.01348782     25.63867569
S         4.78740644     18.65810394     25.65281868
S        18.61477470      5.22581863     25.72125244
S        18.50201607     18.79207230     26.15546608
S         2.19376636      8.56933880     12.06939125
S         2.17643213     21.97627831     12.21459961
S        15.71819973      8.43179798     12.22623825
S        15.51720142     22.14119530     12.36916733
S         8.81070900     12.14707088     18.82424545
S         8.47329617     25.62616539     19.21744728
S        22.18571663     12.48608398     19.23323441
S        22.14226532     25.82913017     19.03133965
S        11.89840221      1.27043176      5.78026819
S        12.35729790     14.73836708      5.38795185
S        25.29465294      1.71821511      5.34674740
S        25.77651596     15.10776424      5.40192318
S         8.94918823     11.70323849     15.19570065
S         8.72980404     25.50931549     15.16324997
S        22.30347061     12.01289654     15.18974113
S        22.43050003     25.43035126     14.90396976
S        11.58614826      1.63117158      1.51631510
S        11.66312599     15.15115070      1.47195888
S        25.35005379      1.18129933      1.53517306
S        25.30274391     15.11456203      1.35717869
S         5.06804705      5.69007874     22.07090759
S         5.10753775     19.29744530     21.83715248
S        19.06789780      5.49180031     21.42283249
S        18.86447906     19.56637764     21.94640923
S         1.92949510      8.38907528      8.32810783
S         1.82775986     21.98900223      8.15821362
S        15.44715405      8.24420547      8.32897282
S        15.35917473     21.68132019      8.28382015
S        11.58922386     11.82910538     12.19896698
S        11.33387566     25.32246208     12.49627495
S        25.35129547     11.82222462     12.34275532
S        25.15730858     25.41883469     12.11658764
S         8.71261692      1.66198182     25.95849228
S         8.79861736     15.15513611     26.07062912
S        22.26998138      1.48543906     26.11812401
S        22.09231567     15.09681988     26.08537483
S         1.60577130      5.75635242      5.54227161
S         1.56930292     19.00857925      5.41156530
S        15.53977013      5.35512829      5.29799795
S        15.11614513     19.30208969      5.43744564
S         5.31535435      8.39931965     18.91163445
S         4.98775768     21.92328644     19.23358345
S        18.87550545      8.73505020     19.06001472
S        18.64661980     22.07577324     19.17739487
S        11.63555145      8.44687080     25.68009377
S        11.50515556     22.17238426     25.93306351
S        25.17680168      8.23416615     25.86043167
S        25.33275604     22.19507217     25.60343170
S         8.99221802      5.08768034     12.04277515
S         8.96919441     18.82282639     12.38467121
S        22.50905418      5.24161863     12.25094604
S        22.37483215     18.84732056     11.84577847
S         1.71961081      1.06342793     18.92387772
S         1.81381273     15.25378132     18.95668030
S        15.09069538      1.53769445     18.85799789
S        15.27595139     14.86345387     19.39496422
S         5.52567577     12.29059696      5.65389681
S         4.78006458     25.86579895      5.51908779
S        18.76651192     12.33820248      5.35978699
S        18.56523514     25.57668495      5.49501324
S         9.15529346      8.14876938      1.47978044
S         8.68521023     22.20382500      1.56136274
S        22.59622192      8.26341057      1.67015517
S        22.43432999     21.95096779      1.13388133
S        11.66371441      4.97809982     15.18913746
S        11.68787289     18.70394135     15.33699799
S        25.12724495      5.17286444     15.17321014
S        25.24165726     18.56930542     14.79111290
S         5.23992968      1.33560467      8.15248108
S         5.49889421     15.06206322      7.92119646
S        18.84210968      1.59995317      7.92110538
S        18.70850372     15.25575829      8.20718575
S         1.98294437     12.31239414     21.77262306
S         1.59660792     25.80189514     21.69702911
S        15.33483028     11.99890709     21.97598839
S        15.36073971     26.23259354     21.80521011
S         4.80122137      1.76878130     12.20619583
S         4.95110941     15.36020470     12.31386662
S        18.39719963      1.79219222     12.05799007
S        18.28535271     15.47960472     12.10372448
S         1.81635725     11.78668404     25.64526176
S         2.04404497     25.65773201     25.72817421
S        15.39017010     11.91831684     25.89954758
S        15.37194347     25.64254189     25.39904976
S         8.71855640      8.49583721      5.21021032
S         8.66633224     21.83506393      5.53005886
S        22.07324028      8.37810802      5.41929150
S        22.28361320     21.82809067      5.11139441
S        12.35210609      5.37206125     19.08899307
S        12.09914970     19.05455017     19.16263008
S        25.49402428      5.48432684     18.89364624
S        25.64421272     19.12555504     18.75620651
S         1.87256634      1.49572766     14.89917850
S         1.86828339     15.37284660     14.88920975
S        15.67263985      1.62115586     15.05837154
S        15.71014214     15.34470940     15.10580921
S         4.51659870     11.70949078      1.32211304
S         4.81828785     25.47246170      1.39995348
S        18.04356575     11.88906479      1.53178215
S        18.19616318     25.48492622      1.22426069
S        12.12094784      7.96943760     21.83137894
S        11.84651470     21.81596184     21.94260406
S        25.58399200      8.29274464     21.78503227
S        25.30633163     21.93286896     21.75663185
S         8.75623226      5.19669580      8.00387669
S         8.88284206     18.79792404      8.27666950
S        22.20446205      5.62612247      8.01782322
S        22.28286934     18.86187363      8.07815266
S         1.95405734      1.01096618      1.46816194
S         2.00251651     14.37413883      1.60358012
S        15.52555275      1.09317350      1.29683793
S        15.61907768     14.72998047      1.22803557
S         4.88941002     12.42367554     14.83015633
S         4.97790670     26.12523079     15.16268635
S        18.40186691     12.78016949     15.01287460
S        18.62557983     26.14560890     14.80981255
S         2.29999399     12.36878777      8.32109833
S         2.03550649     26.04740906      8.40461731
S        16.03365898     12.50823021      8.23361588
S        16.00662231     25.99533272      8.44205093
S         4.70456696      1.37010658     21.77051735
S         4.62182999     15.15498734     21.90023613
S        18.08981323      1.52793729     21.80147743
S        18.02448845     15.11099052     22.01521111
S         4.77292442      1.45979488     25.97790146
S         4.71239805     14.81815529     25.72528267
S        18.27983093      1.04413426     25.72526360
S        18.20612144     14.53454685     25.77320099
S         2.05375075     12.37115002     12.23024750
S         2.15580583     26.00347900     12.34855556
S        15.60874271     12.46364594     12.43686485
S        15.54096699     26.26813889     12.12073803
S         4.82675457     12.62918854     19.19401360
S         4.45513773     25.77448463     18.88243866
S        18.23233986     12.22820282     19.08182907
S        18.17573166     26.23476410     18.99652290
S         2.05464053      1.33898282      5.30693722
S         2.40096617     14.93271160      5.32317448
S        16.06450081      1.38817930      5.22957897
S        15.95026588     15.13810635      5.36129522
S         8.91096115      7.80146551     15.10067463
S         8.60409069     21.57470322     15.29257679
S        22.31377792      8.01311588     14.94016838
S        22.62986374     21.47890091     14.80446720
S        11.80678177      5.36292601      1.21621454
S        11.48997211     19.26870346      1.54851937
S        25.31152916      5.48080349      1.82845569
S        25.48996162     19.41340065      1.22579861
S         9.34354973      5.57031107     22.16208839
S         9.03921509     19.02018929     22.23486137
S        22.68153954      5.50293112     21.63261414
S        23.13222504     19.07259369     21.52087975
S        11.10068703      8.25923347      8.21495056
S        11.23052216     21.91954422      8.45150089
S        24.90579605      8.28357697      8.52427197
S        24.79325676     21.75970268      8.02823830
S        11.40029430      7.96183014     12.23441887
S        11.58745098     21.62976265     12.66881371
S        25.18212891      7.72731018     11.89196968
S        25.22991562     21.62408257     12.04860973
S         8.79898167      5.69531918     25.95611572
S         8.70330524     19.39594269     26.02941895
S        22.72101593      5.44999933     25.89197731
S        22.67236900     19.35780525     25.72946167
S        11.16245461      5.45464993      5.22186089
S        11.47007370     19.36695480      5.45389128
S        25.00445366      5.65851116      5.47734785
S        24.92189598     19.05371857      5.28040791
S         9.31133270      8.04415131     19.20558548
S         9.15236282     21.36877632     19.04630852
S        22.79528618      8.33604240     19.00980568
S        22.74424934     22.17392540     18.84183693
S        11.48679733     12.39054394     25.87983513
S        11.55090332     26.29718971     25.69756508
S        25.37157249     12.21243191     25.80061340
S        25.19118309     26.07278824     25.62720680
S         8.63931751      0.78638029     12.28579998
S         8.99189663     14.68871784     12.42749023
S        22.50622559      1.06106389     12.16646957
S        22.42380142     13.92808151     12.00196552
S        11.15378761      1.34864295     19.25878716
S        11.56376553     15.25952435     19.07254219
S        25.09710312      1.47633708     19.10110092
S        24.83985710     15.13465023     19.02557945
S         9.48538971     12.36408424      5.48081493
S         9.21970272     25.60491943      5.36098576
S        23.27714348     12.11522293      5.42447090
S        22.63804245     25.91700935      5.66940117
S         8.88102722     12.23038864      1.50047886
S         8.98066330     25.97246170      1.42663229
S        22.37602615     12.40566158      1.49577665
S        22.28855705     25.91051674      1.39866543
S        11.71894360      0.85144556     15.14087200
S        11.62059498     14.96651936     15.10918713
S        25.41187477      0.92180681     15.07282734
S        25.05416107     14.61550999     14.87844944
S         8.84064865      1.34913850      8.15078163
S         9.47981644     15.12444401      8.28815079
S        22.84574318      1.44964314      8.19148159
S        22.91593170     15.02969170      8.02700138
S        11.34035206     12.15141392     22.05900574
S        11.27870750     25.65756035     21.86227226
S        24.89594650     12.09104919     22.06614494
S        25.16044998     25.89859581     21.69033051
S         4.97298908      5.76936293     12.03888988
S         4.72401190     19.53108597     12.26551819
S        18.24128914      5.50937033     12.37583160
S        18.17501259     19.33540535     12.26484871
S         2.02853417      7.64663506     26.01057625
S         1.84384108     21.37026024     25.59035873
S        15.86193562      8.28866863     25.60614395
S        15.92578793     21.13681984     25.65566635
S         4.58174992      8.45073223      5.30600452
S         4.41218901     21.87742233      5.28856897
S        18.07078362      8.34827518      5.34099817
S        18.14028740     22.08020210      5.58692980
S         2.36147475      5.29974604     19.12721062
S         2.19593954     19.12742996     19.00967407
S        16.21721649      5.50418806     18.50229073
S        16.00324821     19.20347404     19.27639961
S         2.17277265      5.95197916     15.05896091
S         2.02153826     19.30179977     15.11192036
S        15.63167763      5.62429762     14.98297787
S        15.83400536     19.52816200     15.35449791
S         4.85866642      7.65949106      1.66302752
S         4.59255171     21.16953087      1.52365565
S        18.50726128      7.99804020      1.50114143
S        18.54876900     21.56935883      1.81570649
S         2.32768965      8.30461884     21.70129776
S         2.33461070     21.84376144     21.83601570
S        16.11282349      8.08158875     21.60419846
S        15.86173916     22.31622505     22.14680862
S         4.41625309      5.32574511      8.50325871
S         4.54200602     19.05168724      7.84466076
S        18.22376060      5.31304455      7.93750620
S        18.54590034     19.20315170      8.15857887
S         1.32891452      2.53098941      8.95503521
P         0.04677905      3.60792685     10.19257450
S        -1.17562580      4.74626970      8.96836472
S        -1.01395893      2.34041238     11.38829708
S         1.15039790      4.88556528     11.36825371
S         1.32891452     16.14579010      8.95503521
P         0.04677905     17.22272682     10.19257450
S        -1.17562580     18.36107063      8.96836472
S        -1.01395893     15.95521259     11.38829708
S         1.15039790     18.50036240     11.36825371
P        13.66157818      3.60792685     10.19257450
S        14.94371414      2.53098941      8.95503521
S        12.43917370      4.74626970      8.96836472
S        12.60083961      2.34041238     11.38829708
S        14.76519680      4.88556528     11.36825371
S        14.94371414     16.14579010      8.95503521
P        13.66157818     17.22272682     10.19257450
S        12.43917370     18.36107063      8.96836472
S        12.60083961     15.95521259     11.38829708
S        14.76519680     18.50036240     11.36825371
S         8.07471085      9.14614868     22.61940765
P         6.89163589     10.19873905     23.90862656
S         5.62674999     11.38945198     22.83204651
S         5.82599831      8.87564850     25.11843300
S         8.04984188     11.40234184     25.15697098
S         8.07471085     22.76094818     22.61940765
S         5.62674999     25.00424957     22.83204651
P         6.89163589     23.81353951     23.90862656
S         5.82599831     22.49044609     25.11843300
S         8.04984188     25.01713943     25.15697098
S        21.68950844      9.14614868     22.61940765
P        20.50643349     10.19873905     23.90862656
S        19.24154854     11.38945198     22.83204651
S        19.44079781      8.87564850     25.11843300
S        21.66464043     11.40234184     25.15697098
S        21.68950844     22.76094818     22.61940765
P        20.50643349     23.81353951     23.90862656
S        19.24154854     25.00424957     22.83204651
S        19.44079781     22.49044609     25.11843300
S        21.66464043     25.01713943     25.15697098
S        26.27467155     11.16697121     18.33880043
S        28.55627823      8.72286510     18.17870331
S        28.66435623     11.24189854     15.95078182
P        27.42511559     10.03538895     17.04462051
S        26.22481155      8.93389606     15.77915859
S        26.27467155     24.78177261     18.33880043
S        28.55627823     22.33766556     18.17870331
S        28.66435623     24.85669899     15.95078182
P        27.42511559     23.65019035     17.04462051
S        26.22481155     22.54869652     15.77915859
S        12.65987206     11.16697121     18.33880043
S        14.94147968      8.72286510     18.17870331
P        13.81031322     10.03538895     17.04462051
S        15.04955864     11.24189854     15.95078182
S        12.61001110      8.93389606     15.77915859
S        12.65987206     24.78177261     18.33880043
S        14.94147968     22.33766556     18.17870331
S        15.04955864     24.85669899     15.95078182
P        13.81031322     23.65019035     17.04462051
S        12.61001110     22.54869652     15.77915859
S         5.33018923      4.41139507      4.51503038
S         7.92009449      2.28690720      4.76248741
S         7.84899044      4.56582499      2.26728678
P         6.70190191      3.29413009      3.45909548
S         5.69071388      1.95248342      2.25232363
S         5.33018923     18.02619553      4.51503038
S         7.92009449     15.90170765      4.76248741
S         7.84899044     18.18062401      2.26728678
S         5.69071388     15.56728363      2.25232363
P         6.70190191     16.90892982      3.45909548
S        18.94498825      4.41139507      4.51503038
S        21.53489304      2.28690720      4.76248741
S        21.46378899      4.56582499      2.26728678
P        20.31669998      3.29413009      3.45909548
S        19.30551147      1.95248342      2.25232363
S        18.94498825     18.02619553      4.51503038
S        21.53489304     15.90170765      4.76248741
S        21.46378899     18.18062401      2.26728678
P        20.31669998     16.90892982      3.45909548
S        19.30551147     15.56728363      2.25232363
S         5.66090107      2.23965740     18.17482376
P         6.83333492      3.45262146     16.98561287
S         8.10164452      4.68017149     18.06549644
S         7.98205566      2.27116585     15.78032589
S         5.58365917      4.65904808     15.85623550
S         5.66090107     15.85445690     18.17482376
P         6.83333492     17.06741905     16.98561287
S         8.10164452     18.29496956     18.06549644
S         7.98205566     15.88596535     15.78032589
S         5.58365917     18.27384758     15.85623550
P        20.44813538      3.45262146     16.98561287
S        19.27570152      2.23965740     18.17482376
S        21.71644592      4.68017149     18.06549644
S        21.59685516      2.27116585     15.78032589
S        19.19845963      4.65904808     15.85623550
S        19.27570152     15.85445690     18.17482376
P        20.44813538     17.06741905     16.98561287
S        21.71644592     18.29496956     18.06549644
S        21.59685516     15.88596535     15.78032589
S        19.19845963     18.27384758     15.85623550
S        26.04081917      9.06585693      4.69432783
P        27.29017448     10.11887264      3.44682360
S        28.62958336     11.21020794      4.56447363
S        28.31366348      8.81820297      2.19851542
S        26.16272163     11.41280270      2.27718925
S        26.04081917     22.68065643      4.69432783
S        28.62958336     24.82500839      4.56447363
P        27.29017448     23.73367310      3.44682360
S        28.31366348     22.43300438      2.19851542
S        26.16272163     25.02760124      2.27718925
S        12.42602062      9.06585693      4.69432783
P        13.67537689     10.11887264      3.44682360
S        15.01478386     11.21020794      4.56447363
S        14.69886398      8.81820297      2.19851542
S        12.54792118     11.41280270      2.27718925
S        15.01478386     24.82500839      4.56447363
S        12.42602062     22.68065643      4.69432783
P        13.67537689     23.73367310      3.44682360
S        14.69886398     22.43300438      2.19851542
S        12.54792118     25.02760124      2.27718925
P         6.61541605     10.23576450     10.11287880
S         7.82621670     11.29561710      8.80991650
S         5.19793081      9.15745163      9.03971481
S         5.59178972     11.56023407     11.30496883
S         7.80205965      8.95129108     11.16529369
P         6.61541605     23.85056496     10.11287880
S         7.82621670     24.91041756      8.80991650
S         5.19793081     22.77224922      9.03971481
S         5.59178972     25.17503357     11.30496883
S         7.80205965     22.56609154     11.16529369
S        21.44101715     11.29561710      8.80991650
S        18.81272888      9.15745163      9.03971481
S        19.20659065     11.56023407     11.30496883
P        20.23021507     10.23576450     10.11287880
S        21.41685867      8.95129108     11.16529369
S        21.44101715     24.91041756      8.80991650
P        20.23021507     23.85056496     10.11287880
S        18.81272888     22.77224922      9.03971481
S        19.20659065     25.17503357     11.30496883
S        21.41685867     22.56609154     11.16529369
S        14.85338497      4.44817972     22.60559654
S        12.30653381      2.29842520     22.75352859
S        12.54321575      4.73259497     25.06800270
P        13.60410881      3.41886640     23.86085701
S        14.70904350      2.17197299     25.12597466
S        14.85338497     18.06298065     22.60559654
S        12.30653381     15.91322422     22.75352859
S        12.54321575     18.34739304     25.06800270
P        13.60410881     17.03366661     23.86085701
S        14.70904350     15.78677368     25.12597466
S         1.23858511      4.44817972     22.60559654
S        -1.30826652      2.29842520     22.75352859
S        -1.07158363      4.73259497     25.06800270
S         1.09424412      2.17197299     25.12597466
P        -0.01069169      3.41886640     23.86085701
S         1.23858511     18.06298065     22.60559654
S        -1.30826652     15.91322422     22.75352859
S        -1.07158363     18.34739304     25.06800270
S         1.09424412     15.78677368     25.12597466
P        -0.01069169     17.03366661     23.86085701
