832

Na        3.56648707     -3.03469586    -13.56859398
Na       -3.49752069     30.81390381     28.13146973
Na       54.20344925    -40.35352325     -0.10251065
Na       57.87397385      3.65940857      6.64782572
Na       20.98867989     30.32673073    -14.18089008
Na       34.17965698     27.44325829    -27.07479286
Na       30.06830215     20.87653542      3.63554978
Na       24.10535622    -16.61905098    -26.82559204
Na       23.38729858    -23.93058586     33.51487732
Na       13.87662411     54.79123306     13.37614441
Na       27.14334106      6.18053484     16.83266640
Na       30.90255737     23.46595001     44.29007721
Na       -7.02094698     -3.74513888    -26.91682053
Na       20.42377281      6.88433981     13.71108723
Na        0.27578500    -13.52670383    -23.39815331
Na       37.68879700    -10.38706970      3.37485456
Na        3.13683462     24.07694054     10.57176685
Na        6.18408155      6.69832754     10.11102104
Na       47.99380112     -0.47879878    -10.19602776
Na       13.87301350    -20.44983482     20.27363968
Na      -13.93118858      6.51015949     30.75869942
Na      -43.86730957     22.92898750     44.33802414
Na       40.91871262     33.40339661     43.92215347
Na      -20.39503860     24.46722794     13.68710899
Na       13.19273186     30.62621880     27.29585838
Na       -0.76087260     -6.99968195     57.88293457
Na       57.90013885      3.33541918     16.73943329
Na       67.48422241     54.42081833    -22.96201706
Na       37.19941711    -10.31254005     33.97729492
Na      -27.29437065     -3.65303612     -0.41079774
Na       40.87763596     24.41771126     34.11117554
Na       20.53689766      6.56060171     23.93342018
Na      -10.58894348    -10.77373791     30.57163048
Na       50.84917450     28.05680656     30.80874825
Na        0.25144342     -6.76713371     -3.26372528
Na       16.51421738     24.40596962     23.28835106
Na      -13.82998848     17.18450165      6.78367901
Na      -44.97066498     30.77502823     27.39056396
Na       51.04950333     34.15125656     37.47047806
Na       10.22105217     -6.33791113     30.61439323
Na        8.47371101      2.74411845     -7.05170393
Na      -10.15004063     10.56635380     10.59000587
Na      -17.53381729      6.50371790     30.48156738
Na       -6.73113155    -13.28450966     27.05339622
Na        6.92268705    -10.22755146     -0.02763877
Na        6.70543766     23.07546425     33.92926025
Na       13.93393803     -6.98570347     44.18888092
Na       13.86455917     75.14574432     20.24267578
Na       -4.05768061      6.44725418      3.43631148
Na        0.29719099     27.08715630     -6.54640341
Na       20.48833275     -6.52912235    -10.41663742
Na       -3.00992441     57.38749695     13.24759865
Na       -6.87140465     13.35326290     17.17130470
Na       20.56348038     50.90235519    -13.65433121
Na       33.74617004    -27.30648041     -6.70324087
Na       17.19281769     77.80519104      3.34082508
Na        3.33341599      3.12317109     30.27808189
Na       61.27729034     23.75386620     27.37444496
Na      -16.85981750     44.57944107     -0.32288957
Na       23.58931923     40.62423706    -10.01515007
Na      -27.18436432     21.05853844     13.51776695
Na        3.85652995      6.92312622    -10.07726192
Na       27.11187363    -17.01681900     34.65244293
Na       -0.46261364     13.38440132     16.74095726
Na        3.47332263      3.81532717      9.84617424
Na        0.07109906     37.74121475      0.01432977
Na       -3.70921373    -30.85997391     47.81110001
Na        3.91357803     24.02849007     30.74397659
Na      -24.21400070    -16.68654633     37.51311874
Na       17.48467064     23.35148621     26.58945084
Na      -10.21646595     44.37281036      6.37896299
Na        9.45856667     37.78620148     20.40646172
Na      -10.04925156     -7.09373188      3.63713360
Na       16.90374565     -6.03042555     10.20101070
Na        0.52456826     33.85831451     -3.32570696
Na       -3.72917438     12.04303741     10.23558998
Na      -10.08891487     16.86837959     19.61579895
Na       26.94704628      6.97376966      6.75182724
Na       54.44536591     71.44658661     33.86531448
Na       13.39479160     57.97463226     33.54700089
Na       51.33589172     44.31124496      3.48698759
Na      -20.70911407     13.95528507     19.71567535
Na       51.28092194     -2.76774669     -3.17882419
Na       17.49663353     17.22194481     14.08636379
Na       16.93060875     10.50233173     -6.80651712
Na       23.61786652     -9.71245384     78.36456299
Na       51.16222763    -10.41456985     44.37350845
Na       88.50008392      1.62111092     40.78629303
Na      -17.26523590     57.65133286    -44.03279114
Na       34.56744385     20.57388306     16.74383163
Na        6.64102983     54.18997192     23.92403984
Na       27.02970314     -0.16946979      0.15119237
Na       10.09276295     -6.15341997     23.86887741
Na       -3.40443158     14.18280220     23.82168388
Na       13.82522583     23.99019432     20.61513519
Na        6.76497889      6.27194357     -7.17754889
Na       20.61127090     37.62522507     47.40566635
Na       20.21031761     26.85969734     20.38850784
Na        7.42139578     -0.32521531      3.54508257
Na        3.01627827     43.86967087     -0.38938087
Na      -20.58008575    -26.88925171     37.85691833
Na      -27.88808823     13.49914837     20.28712273
Na        4.06979847      3.02682805     27.45550728
Na       30.40588760    -16.66370964      6.62122488
Na       33.88382339     -6.94239569     10.17750549
Na       30.42899895      3.67432976     13.56416225
Na       17.11877441     37.52091599     30.91866684
Na       37.71791458      7.09307718     23.54540443
Na       37.32239914     23.88995743     37.87249756
Na        0.08065759     24.13993454    -20.24948311
Na        2.96376419    -58.40768814      0.10263845
Na      -30.89535713      3.87658238     24.15445137
Na      -23.73073769     14.07153034     37.18483734
Na       40.96989059     34.34629059     -3.13596749
Na       13.92822552      6.75677013     27.06959343
Na       33.85045624      9.64342880    -20.63839149
Na       40.52426910     54.63376617     -6.71885586
Na        3.86465836     13.71052647      3.12427902
Na       13.69766140     23.82185173     -0.18510316
Na      -16.66355515     23.46241188    -13.23550987
Na      -13.58584023     13.77415180      7.69691420
Na       24.29239464     71.24525452     13.42192554
Na       61.36847687     -0.11902785      7.22384787
Na       33.79850388     47.39019012    -27.49064255
Na       13.77408981     27.91540527      7.39791536
Na        6.62882423     20.59040833     30.66077614
Na       43.76391602     41.03149414     -3.18435502
Na       -2.93708801     64.32698059     -6.83112335
Na      -77.96252441     -9.77443027    -12.96556854
Na       -2.88505006     20.13780212     17.00910950
Na      -17.15626335    -10.17630482     23.91050911
Na       -6.37962580     15.73499393     13.35307789
Na      -10.48203659    -26.41959190     23.64521599
Na      -37.31370926     41.02370834     37.41554260
Na       16.80537224    -17.46417618     27.23490334
Na       27.33368874     61.03178787     13.72660828
Na       23.57015991     37.74016190      7.12805128
Na      -23.60336876     54.20133972     30.51773453
Na       20.64082527     26.81085396    -14.01225185
Na      -13.71113777     27.14367485     24.27918053
Na       -6.59106016     33.93164062      0.69994611
Na       30.16272926      0.08165681     -3.25628066
Na       -7.36415052    -13.77477169     -6.54434252
Na       30.54113579     23.71535301     20.18237686
Na      -27.68054581    -41.52951431     -3.66441107
Na      -13.29077339     10.50747776     13.31656075
Na        6.74697161     -3.28817391     -7.08945084
Na       54.31424713     27.81046677     35.66940689
Na        6.66939545     20.58049393     13.53038979
Na       20.98445511      7.04120016    -33.80903625
Na       17.25750732    -30.37344360     40.97557068
Na      -37.42736053     -3.47569489     17.63688469
Na      -37.71149063     29.86368942      2.92479992
Na       27.38330460      0.12737080     30.97018051
Na       61.24156570    -36.96241760      6.94307899
Na       10.25782108      3.10564399     44.51502609
Na       -3.29626751     33.92481613    -10.33019447
Na       41.00354385     37.40267944     34.10012436
Na       20.39489174    -34.21074677     37.05257034
Na       16.77945709     40.38174438     57.78737259
Na       -6.69623137     26.54102516     27.00595665
Na        6.52235460     34.51171112      3.54747939
Na       20.22930336    -17.28539658      6.46003914
Na        6.96735239     20.38402939     -3.39050078
Na       17.41294098     10.49329758     17.08626366
Na       10.44394588     17.21586609     -6.50104904
Na       31.45310783      3.45104599     -7.17318392
Na       -7.17648411     14.14961815    -57.82574081
Na      -34.37733841      3.72822094      6.86859894
Na      -14.31590748     30.73548698     -7.08900738
Na       37.53329849    -30.72819710     47.94150543
Na       -3.38375449     17.06354523    -20.84169960
Na      -20.58080673     13.64264202     23.79864883
Na       -3.15158153     13.12867451     30.36265373
Na      -37.19808578     43.80632401      0.26287079
Na       72.04966736     58.22566605     68.07344818
Na       11.28154945     54.57569504     10.48495960
Na       44.56891251     20.63911819     23.56007195
Na       27.17763329    -13.58255196    -17.45402908
Na       -6.95312786     70.96215820      7.01703501
Na      -14.39706039     41.00083923    -23.66942978
Na        3.49508333      0.35329551     37.44545746
Na       34.08012772      6.27049923     54.43507004
Na       16.59517097     24.27418327     37.38815689
Na       -3.67182398     -6.10131693     23.89833069
Na       26.69274712     47.90002441      6.77848053
Na       30.67302513     51.29767227      6.99457121
Na      -10.47194004      4.22050285    -10.12302780
Na      -17.25794029     23.89999962     -0.31278104
Na        0.02222151     61.76535797     10.38061619
Na        6.60717154      3.77183747     34.42560577
Na       24.14048386     33.97977066     -3.52769804
Na       37.34320831     -3.02272487     30.10928345
Na       20.23406029     61.13733673      6.45981026
Na       43.95417404     23.75077820    -20.25736618
Na       10.55343628    -17.61767769     14.29557610
Na      -10.38020611     37.82441711     40.87647629
Na       -4.13612652    -10.04007912      0.20565048
Na       -0.40062186    -20.53067398     30.83251953
Na       23.88048363     -3.63461351      6.40086031
Na        3.07397151      6.88572073     10.06859779
Na        3.99647689     10.45417404    -14.04932976
Na       51.09790421     -7.56759977      9.89967251
Na        3.44356751     17.42615509     10.53018379
Na      -27.44463348     41.18653107     13.31379318
Na        9.75357723     30.16105843    -31.00266266
Na        0.25346941     37.73641968     13.17471504
Na       34.12827682     12.92210770     13.37260532
Na       17.24673653     44.46839523     10.66652584
Na       13.55313492     14.01671505    -10.45348167
Na       68.33805847     44.35403061    -34.26771927
Na       -4.03091478    -57.59998703     30.50017929
Na       40.37262344     13.61281204     47.16262054
Na       23.27593803     24.27249336     27.33701324
Na      -16.43568993     13.91619682     37.61198425
Na       13.65026665     47.49737549     30.92690468
Na      -27.43401527     -3.57443023     20.73073196
Na       13.44441319      7.01321220      9.83867741
Na       20.10296059     61.29373932      9.85859299
Na      -20.46836281     40.69933701     16.33368874
Na      -23.72071075     -8.03393936     23.85840416
Na       -3.04799485     -3.28368950     16.94552040
Na       17.00770378      9.94296074     23.87788582
Na      -17.37602997     64.83900452     26.90122032
Na      -78.29494476    -17.24505234     -9.67726612
Na      -16.85908508    -24.16770744      3.78173757
Na        0.05129069      0.37962684     39.76245499
Na       48.00401688     19.39323235     14.01069260
Na      -10.49653244      3.53980303     34.36366272
Na       14.28277302     54.49880219     16.83539391
Na       40.68416977    -33.93862915     27.20310593
Na       78.71131134     -4.17881012     41.12067032
Na       64.55789948     10.76501656     30.30086899
Na       81.30593872     30.77305031     33.73113251
Na       10.57591820    -10.95509338     13.55243206
Na       -3.47120333      9.56698227    -10.37588501
Na       -9.90305614    -37.32989502     -3.98608613
Na       -4.71694279    -37.58130264    -34.25302124
Na      -23.66790771      3.33376789    -30.65005112
Na       -6.67005157     54.75350189     33.87076187
Na       13.36521149     20.86430550      9.86888313
Na       10.02794552     -3.36879039     34.29201508
Na       20.24527359     34.34530640     17.02995110
Na        6.84843826     17.16636658     -6.91504622
Na       37.51155472     12.64018536     43.96025085
Na      -20.51378059     13.25021172     -0.24724741
Na       22.68605614     20.35003662     57.92343521
Na       40.97411728      7.02964067     40.86315536
Na       -3.45680237    -11.41300106     10.07099438
Na      -16.58961296     47.13016891     37.30110931
Na       84.95947266     27.03682899    -10.63528156
Na      -88.67168427     23.58788872     46.83384705
Na      -20.12294579    -37.70765686     40.67389679
Na        0.52090603     57.58058167     28.15263176
Na      -10.19376564     -6.89150286     16.74017715
Na      -26.99554062     -6.66906548     27.38003159
Na       47.82585526    -13.75188255     61.34824753
Na       13.00790405     40.63504028     -2.99575830
Na       -6.49785757    -13.86622715      3.36229587
Na       30.19414902     44.43238449     30.91766930
Na        0.34431815      3.39281416     20.17046547
Na        0.45110714     17.37243462     40.84706879
Na       40.84944916     16.33510208     54.65871048
Na       26.55702782     27.00636864     23.94094658
Na       -6.85024166     -0.24136864      2.87678599
Na       -6.69142580     37.46220398      0.44477943
Na       -6.74210691     27.43884659    -17.33018875
Na      -20.30491257     -0.34763786    -10.10987377
Na       34.30499649    -20.60241699     23.68928337
Na       33.87466812     37.23316193     47.51693726
Na      -16.33873749    -24.16126251     13.60448933
Na       19.92010880     74.50279999     60.61006165
Na       23.84666634     50.90561676     10.14310551
Na        0.19833174      6.88821840     -7.13961077
Na       23.31987190    -17.34703255     30.87610054
Na       -3.23369360     64.15544128     13.16333866
Na       30.30642891     20.99975204     10.15743828
Na       13.40961075     37.53861237     20.95235443
Na       27.27586174     20.00152016     20.69611740
Na       24.24889946     -0.21365613     10.52070808
Na       13.82590294     24.20597649     40.43965149
Na       37.84896088     -9.14209747    -10.03389645
Na        4.02557611     19.68063354    -10.02621174
Na       54.06390381     70.80474854    -34.12070084
Na       30.81657410    -17.40763664      3.05184317
Na       13.56410980      0.11199707    -26.81064606
Na       23.74810982      3.36342382     10.19210720
Na       16.55946541      0.65578979     10.23536777
Na       13.22374725     10.36931419    -54.49370193
Na       30.53716850     37.65515900     23.58525276
Na       34.51113129      9.88273716     68.26728058
Na      -10.10009098      3.01880693     -0.69408768
Na       -6.97482824    -43.65052414    -13.55701542
Na      -34.07041550     19.61188126     54.69356537
Na       47.93142700      3.47690368     -6.88602304
Na      -40.25344849      3.44899416    -13.45284462
Na       10.03813267     54.08395386     23.99141121
Na        3.52398348     17.32901955     34.18288040
Na       -6.43177032     46.90589523     -7.16500998
Na       28.19249916     10.44210720     47.52997208
Na       -6.51983356     -7.09623194     23.88600922
Na      -13.38513660     17.12335014     13.92348957
Na      -20.35852623    -13.45635891     33.99285889
Na       43.84762573      6.68194962    -17.05080414
Na       -2.79330683      3.14382839     48.10128784
Na        7.19806528     61.94721603     44.18762589
Na       37.54263687     10.43384361     33.60527802
Na        2.79954982     43.77543640     47.66139221
Na      -13.55459023    -13.43978786     40.09996796
Na        7.33446741     20.35527992     20.28537369
Na       43.91484833      7.33299208     16.97053719
Na       -9.95414448     27.78539085     16.96667671
Na      -50.96138000    -17.18090820     26.85874557
Na       17.12413216      5.70221853    -30.73381233
Na       26.56174850     17.09925079     27.32362747
Na       -6.47749615     54.63094330     23.64011574
Na       26.92845345      0.40212825    -10.47411251
Na      -24.18665314     61.13375854     30.60562706
Na        0.11197331     24.41244125    -13.88319874
Na       36.95200729     13.55767632    -30.63386917
Na      -50.39731979      7.02480936     23.77329063
Na      -40.68506241     -6.80826569     40.64723587
Na       64.11444092      3.62046480      7.24397469
Na        3.42521310     23.09813690     -3.54996967
Na       20.61907768    -23.93915939    -27.29389572
Na      -24.23857117     68.80358887     23.74656868
Na       23.79767990      3.25858474     16.93796349
Na       54.68810654     -7.57705736     17.22363853
Na       13.11241722     47.87147903     34.14248657
Na       16.61767006     26.80096817     30.85614586
Na       10.80068779     26.80838203     17.40472794
Na       54.38052750     20.58843231     10.37975597
Na      -10.10663319      9.93408203     34.19507599
Na       19.96787643     51.00366592    -47.70921707
Na       10.67693329     10.67938423     10.07893276
Na       61.74308395     41.19189072     10.08833122
Na       17.16584969      6.72123432     30.28730583
Na       10.32485390      7.52049065    -10.00920486
Na       34.36310577    -14.08525085      3.53203559
Na       40.50448227     61.28217316      6.44971752
Na      -12.96559715     47.57502365     24.13203430
Na       65.23840332     10.07016373     24.14734077
Na       10.01579285    -10.34756565     10.42168236
Na        6.71232700     33.38469315     40.70991516
Na       -9.77078533    -12.65170002    -10.66262054
Na       -6.71727180    -13.56575394    -16.96487617
Na       -3.44424057     10.45895672     -3.21544862
Na       58.04233932     14.18244267     17.24411392
Na       44.23905182     30.44283295     47.72608566
Na        0.31545764    -20.47560692     27.25831032
Na       33.70155716    -17.15184021     27.64317513
Na       10.00891399     33.73505783     37.32223892
Sn        3.12049508     13.82679462      6.81435871
Sn        3.34812689     27.38811874      6.66706705
Sn       17.21844673     13.49435234      6.68545485
Sn       16.88286972     27.10305977      6.93568039
Sn        3.40402961      0.00230958     20.03580856
Sn        3.16281462     13.25204182     20.46107674
Sn       16.99251556     -0.21900634     20.39247322
Sn       16.30405807     13.68082619     20.62537384
Sn        3.46377921      0.36935368     13.42354488
Sn        3.47932792     13.90139008     13.65553474
Sn       17.39655304      0.11501247     13.46914387
Sn       17.18695259     13.90230274     13.43399429
Sn        3.17759514     13.31419086     -0.11812132
Sn        3.24855661     26.68434334      0.01284784
Sn       16.69957352     13.14447498      0.00465375
Sn       16.95916939     26.82066345     -0.14563702
Sn       10.35828686      6.76232481     20.26473045
Sn       10.55233860     20.72385025     20.51491737
Sn       24.22271919      6.51914978     20.33115196
Sn       24.35651398     20.18830872     20.69810295
Sn        9.82200146      6.90807343      6.78306103
Sn        9.67881584     20.24022293      6.66892481
Sn       23.61566544      6.93935823      6.89679289
Sn       23.19299698     20.56638527      6.67419720
Sn       10.29442787      6.88274670     27.30492592
Sn       10.31272697     20.67500687     27.35013199
Sn       23.97941208      7.12465620     27.38838577
Sn       23.57970238     20.77491760     27.20557022
Sn       10.24888706      6.49166393     13.38393116
Sn       10.21052170     20.05242348     13.51230907
Sn       23.87459755      6.18306446     13.62921810
Sn       23.84938622     19.73855209     13.79825401
Sn       10.19532394     -0.23933335     20.57737923
Sn        9.70181561     13.89537811     20.21926880
Sn       23.82832146     -0.16962713     20.23194885
Sn       23.26489449     13.25766277     20.51207352
Sn       10.32332611     13.47246361      6.79015541
Sn       10.20529270     27.21382141      6.90138006
Sn       24.16861153     13.57283306      6.64721155
Sn       24.09189034     27.03975105      6.99363232
Sn       10.15310001     12.96420765     13.58746147
Sn       10.22475529     26.88536072     13.85074520
Sn       23.77528572     13.06580734     13.64889240
Sn       23.90177345     26.54053879     13.66859055
Sn       10.07842350      0.11381173      0.12023655
Sn       10.09997940     13.81034660     -0.01722392
Sn       23.81752968      0.35420451      0.00549212
Sn       23.83107758     13.95660591     -0.05996638
Sn        3.08676195      6.87220621      6.64768267
Sn        3.00771117     20.61897659      6.97376156
Sn       16.82993126      6.81799078      6.68963242
Sn       16.84443092     20.58747101      7.13897562
Sn        3.48730898      6.81553984     20.47887039
Sn        3.82628512     20.26421928     20.62692642
Sn       17.44991684      6.90113258     20.46481133
Sn       17.50795746     20.45068359     20.45023727
Sn        3.72272205      6.35628176     -0.29310176
Sn        3.35919309     20.02658844      0.13544378
Sn       17.44369316      6.67511559     -0.22933173
Sn       16.89304543     20.03731537     -0.06980993
Sn        3.42308354      7.12636662     13.60436344
Sn        3.42873931     20.88383293     13.70892525
Sn       17.16170120      7.19298172     13.52923393
Sn       17.34631729     20.63465691     13.46648884
S         2.27654099      4.99301910      1.17909670
S         1.65511632     18.60545540      1.08308995
S        15.89792728      4.95924044      1.01337934
S        15.52112484     18.65023232      1.47744405
S         4.75599670      8.49365139     14.91647148
S         4.93153477     22.21165657     15.11833191
S        18.48145485      8.51383209     15.22716427
S        18.60353470     22.18171883     14.87948036
S        11.72650528     12.01306629      8.11133862
S        11.63961601     25.78845024      8.32387257
S        25.44097710     12.18155479      8.12981224
S        25.24643898     25.55377960      8.54477406
S         8.56477737      0.97598392     21.96396446
S         8.45656872     15.28957367     21.71379662
S        22.39639664      1.10029590     21.64938164
S        21.77722549     14.31309700     21.99428368
S         5.12476254      4.94759989     25.74654770
S         4.85361528     18.54895020     25.94275475
S        18.81180954      5.10555840     25.70266724
S        18.39742851     18.43664169     25.92820168
S         2.04692125      8.61393356     12.16046143
S         1.94286704     22.27444839     12.36085033
S        15.50298595      8.71566200     12.45037651
S        15.75937176     22.40217209     12.18387794
S         8.40701675     12.44853020     18.65780449
S         8.76362324     25.80968475     19.02543831
S        22.25248718     11.75284576     18.77588844
S        22.22924042     25.61727715     18.95175934
S        11.62583351      1.50558329      5.72043324
S        11.76908588     14.98969364      5.68089104
S        25.45595551      1.36024618      5.84702063
S        25.53300476     14.83489799      5.24603415
S         8.74161243     11.71118259     15.04994678
S         9.00719547     25.42400551     15.49286938
S        22.37943459     11.69640636     15.09591866
S        22.41245461     25.14019775     14.83000088
S        11.03091908      1.75435531      1.46649134
S        11.31274223     15.41593933      1.34383929
S        25.31273460      1.48155773      1.67216265
S        24.78319359     15.44839764      1.39188075
S         4.90901661      5.42983484     21.91337585
S         5.48757887     18.89617729     21.81344604
S        19.00600433      5.46675682     21.66373444
S        18.95975304     19.23418999     21.97800827
S         1.98488855      8.41825676      8.09207916
S         1.35111666     21.87355614      8.06995869
S        15.31891632      7.97861528      8.19706917
S        15.20033646     22.00294685      8.33498859
S        11.54640198     11.52632236     12.32583141
S        11.40070343     25.35825729     12.28525925
S        25.36580276     12.05140686     12.26909256
S        25.37975121     25.27561760     12.15505505
S         8.90761757      1.52694774     25.75988770
S         8.96674156     15.21545410     25.48368263
S        22.38632011      1.78168738     25.81965828
S        22.48379898     15.35801029     25.62164307
S         1.64540100      5.41155815      5.39664888
S         1.79202747     19.11046982      5.50914240
S        15.57986259      5.31049347      5.25101042
S        15.49192047     19.29332352      5.64470434
S         5.05214167      8.09964943     19.27989197
S         5.28270912     21.74320602     19.04837799
S        19.01502419      8.41090679     19.29268646
S        18.78142166     21.66060638     18.59180641
S        11.84952736      8.39200115     26.04491425
S        11.75804520     21.97717476     25.91253471
S        25.35486412      8.61710358     26.04054642
S        24.80250359     22.50177956     25.92126465
S         8.84764957      4.72297239     12.45405388
S         8.55620098     18.88204384     12.03562355
S        22.33561897      5.18128490     12.14566422
S        22.62707329     18.41992378     12.22229385
S         2.19038892      1.49177444     18.77841377
S         1.41304421     14.53779984     19.12361717
S        15.50719547      1.34114397     19.06424141
S        15.30525684     15.12816620     18.87849045
S         4.51571131     12.35623169      5.42569065
S         4.85326767     26.12566948      5.38700008
S        18.56145477     12.18815517      5.15376711
S        18.27068520     25.49028397      5.66631699
S         9.05861378      8.55489063      1.43404567
S         8.77899837     21.96652222      1.57384634
S        22.68975830      8.59296608      1.64529395
S        22.02873802     22.00978088      1.27129757
S        11.91916084      5.22484159     14.69567204
S        11.70743942     18.54842186     14.74756432
S        25.33660698      5.10803175     15.12606525
S        25.53600311     18.56619644     15.10732269
S         4.85043240      1.71167254      7.90734529
S         5.09590673     15.11153603      8.01156235
S        18.35787773      1.56901598      7.99955273
S        18.50255203     14.94708824      8.22614574
S         1.68139100     12.26932907     22.14811516
S         2.11132836     25.88192177     21.78132439
S        14.81615925     12.21920681     21.94983864
S        15.28560352     26.44119835     22.03152466
S         4.71796036      1.92287993     11.97764587
S         4.84006929     15.37734509     12.11415005
S        18.51400948      1.65588856     12.11410999
S        18.48492813     15.41425610     12.05997372
S         1.74310648     11.90564823     25.70039177
S         1.84273660     25.30086517     25.81192589
S        15.71951389     11.67116261     25.73422050
S        15.57722378     25.28417206     25.72199631
S         8.62892246      8.21966457      5.06042433
S         8.53272533     21.73549271      5.30368042
S        22.27970505      8.20056248      5.59241104
S        22.03224564     22.11248970      5.21790171
S        11.65247631      5.60860300     18.71481323
S        12.04848194     19.45677376     18.96541595
S        25.61815453      5.08989096     18.91036606
S        25.48611450     18.50807190     19.56082344
S         1.75377011      1.62812114     14.63310051
S         2.01959848     15.29864788     15.06988525
S        15.89436436      1.60883307     14.76592541
S        15.50746346     15.19153690     14.55969334
S         4.79624891     12.06068134      1.34178770
S         4.78769970     25.42284584      1.43924034
S        18.17256737     11.90404415      1.56914806
S        18.69615555     25.52668571      1.38733494
S        11.67310619      8.25946903     21.77613831
S        12.17399311     21.85434914     21.90525627
S        25.62063217      8.01353836     21.66806030
S        25.71681976     21.62297249     22.19493294
S         8.27878857      5.66518021      8.32642365
S         8.61909199     18.92692947      8.44600010
S        22.27170372      5.27094555      8.28586388
S        21.68012428     18.99825096      7.75672626
S         2.19191217      1.10738516      1.37437654
S         1.88493121     14.75334454      1.26386714
S        15.72337246      1.05610943      1.35716474
S        15.23156452     14.37722492      1.37808084
S         4.74119568     12.42302513     14.91986275
S         5.20939398     26.50447464     14.73666000
S        18.53735924     12.54193497     14.90281010
S        18.71106720     26.14301300     15.04397678
S         2.15765309     12.32290840      8.35235596
S         1.96909118     26.12228775      8.18393230
S        15.79968834     12.14383125      8.23236942
S        15.50527573     26.10887337      8.36438560
S         4.46974325      1.35361731     21.70951653
S         4.87084436     14.79431725     21.63925552
S        18.45611191      1.21823132     21.78635216
S        17.83430862     15.18643379     21.75734138
S         4.72135592      0.67901188     25.80519485
S         4.78369236     14.40503502     25.81895447
S        18.70818520      0.84974301     25.98406601
S        18.14752769     14.63026714     25.86059570
S         1.97424662     12.73340893     12.03843117
S         2.11477351     26.02203178     12.04990482
S        15.72101593     12.38437080     11.95718765
S        15.93265915     26.08731079     12.00597572
S         4.36274862     12.05858994     18.90309143
S         4.63994074     25.60686111     18.81858063
S        17.81631851     12.56885624     19.07894325
S        18.23771286     25.49775505     19.10565186
S         1.92767692      1.55692637      5.25827217
S         1.96269047     15.32828045      5.36899424
S        15.48127365      1.22382915      5.30569410
S        15.76928520     14.92445087      5.38230515
S         8.77200699      7.63963938     14.91560078
S         8.94073772     21.65739441     14.90701962
S        22.68538666      7.86754894     15.04261589
S        22.68240929     21.26606560     14.96657562
S        11.81938934      5.62881422      1.50572324
S        11.70992661     19.30882835      1.48840976
S        25.52358627      5.54839849      1.23419070
S        25.04233742     19.54296875      1.45197928
S         9.04195499      5.21817350     21.50915718
S         9.38937092     19.31539917     22.03120613
S        22.87408638      5.13722610     21.88108826
S        22.62257767     19.08609009     22.05307770
S        11.17982578      8.35477352      7.95503712
S        11.01303387     21.76087952      8.02081490
S        24.87088394      8.52477837      8.41210747
S        24.62166405     21.65225029      8.34505177
S        11.52674389      7.84630871     11.95895290
S        11.64576149     21.41584969     12.14024830
S        25.19103241      7.70923138     12.32752895
S        24.92682838     21.13608742     12.17809010
S         8.81730366      5.76778126     25.68506241
S         8.90221691     19.56531906     25.78606796
S        22.67235565      5.66897011     25.95070457
S        22.50667191     19.42361259     25.63094330
S        11.06335258      5.29831791      5.43189526
S        11.33512402     18.96212006      5.30617380
S        25.01956940      5.52888823      5.43598318
S        24.72978210     19.16796684      5.24556303
S         8.77339840      8.36345196     19.00753403
S         8.86119652     21.95512009     19.31758499
S        22.81560135      7.92056799     18.70583725
S        23.25067902     21.51025772     19.07136917
S        11.28738594     12.20183945     25.79918671
S        11.64408112     25.95547295     25.80299377
S        25.21400261     12.60297298     25.76483345
S        25.00162315     25.91979980     26.05953026
S         9.19981575      1.16222775     12.48732948
S         8.75580597     14.55090332     12.14541149
S        22.58502960      0.85401750     12.04958344
S        22.70810318     14.60480595     12.06865215
S        11.33722305      1.49760246     19.40222359
S        11.31393242     15.30788612     19.05066490
S        25.29826355      1.33284354     18.80982399
S        24.38092613     14.91795731     19.08734322
S         8.80736828     12.27803993      5.40731716
S         8.99842739     25.63319206      5.51073456
S        22.50757790     12.13050938      5.41170454
S        22.60037804     25.94008636      5.45549059
S         8.76260567     12.40620518      1.42653334
S         8.71364117     25.75734329      1.24280202
S        22.44324493     12.50529671      1.30423200
S        22.50953102     26.27392006      1.53977561
S        11.91538239      0.85928488     15.33794498
S        11.62784576     14.32484150     14.94694710
S        25.42116356      0.80845237     14.64684868
S        24.99868584     14.53785038     15.18430710
S         8.90000057      1.58398771      8.32812309
S         8.98524284     14.90117741      8.25022984
S        22.65210342      1.30144298      8.45102024
S        22.67385483     14.95734692      7.79705238
S        11.07617188     12.46515083     21.68971825
S        11.58470058     25.57994270     22.12211418
S        24.68392372     12.07760143     21.92682266
S        25.17333221     25.59329033     21.62330818
S         4.46669865      5.66815710     12.12210369
S         4.53363419     19.36945343     12.34940720
S        18.33084297      5.93780756     12.02171707
S        18.67954636     19.10376930     12.10733509
S         2.40873814      7.99958658     25.57858276
S         2.05711412     21.34828568     25.64373970
S        15.72699738      7.66288376     25.56293869
S        15.65053463     21.51787186     25.76629066
S         4.39619589      8.38722515      5.30002165
S         4.21530342     22.20864677      5.50897980
S        18.19355774      8.20216846      5.19747019
S        18.00436020     21.95359039      5.45731497
S         2.27600813      5.06892300     18.91004562
S         2.31786871     19.00720596     19.20912743
S        16.24067879      5.55578232     19.00666046
S        15.86175346     19.24329948     19.24173164
S         2.07772779      5.78803158     15.29285049
S         1.94753480     19.49164963     14.94254684
S        15.98742485      5.58171177     14.98524475
S        15.71889400     19.39347267     14.86334038
S         4.80516434      7.95517635      1.22955632
S         4.68925810     21.29901886      1.67236006
S        18.60746002      8.16460419      1.37129259
S        18.38508606     21.57012939      1.34004617
S         2.25641656      8.36489201     21.75271034
S         2.20441246     21.59327126     21.87696838
S        15.88491440      8.29460144     21.97381401
S        16.28098869     22.25336838     21.57473946
S         4.54845762      5.53625965      8.14640808
S         4.37482834     19.27613258      8.50116539
S        18.37620354      5.64909410      8.20461750
S        17.98973274     18.98600388      8.57274818
S         1.32891452      2.53098941      8.95503521
P         0.04677905      3.60792685     10.19257450
S        -1.17562580      4.74626970      8.96836472
S        -1.01395893      2.34041238     11.38829708
S         1.15039790      4.88556528     11.36825371
S         1.32891452     16.14579010      8.95503521
P         0.04677905     17.22272682     10.19257450
S        -1.17562580     18.36107063      8.96836472
S        -1.01395893     15.95521259     11.38829708
S         1.15039790     18.50036240     11.36825371
P        13.66157818      3.60792685     10.19257450
S        14.94371414      2.53098941      8.95503521
S        12.43917370      4.74626970      8.96836472
S        12.60083961      2.34041238     11.38829708
S        14.76519680      4.88556528     11.36825371
S        14.94371414     16.14579010      8.95503521
P        13.66157818     17.22272682     10.19257450
S        12.43917370     18.36107063      8.96836472
S        12.60083961     15.95521259     11.38829708
S        14.76519680     18.50036240     11.36825371
S         8.07471085      9.14614868     22.61940765
P         6.89163589     10.19873905     23.90862656
S         5.62674999     11.38945198     22.83204651
S         5.82599831      8.87564850     25.11843300
S         8.04984188     11.40234184     25.15697098
S         8.07471085     22.76094818     22.61940765
S         5.62674999     25.00424957     22.83204651
P         6.89163589     23.81353951     23.90862656
S         5.82599831     22.49044609     25.11843300
S         8.04984188     25.01713943     25.15697098
S        21.68950844      9.14614868     22.61940765
P        20.50643349     10.19873905     23.90862656
S        19.24154854     11.38945198     22.83204651
S        19.44079781      8.87564850     25.11843300
S        21.66464043     11.40234184     25.15697098
S        21.68950844     22.76094818     22.61940765
P        20.50643349     23.81353951     23.90862656
S        19.24154854     25.00424957     22.83204651
S        19.44079781     22.49044609     25.11843300
S        21.66464043     25.01713943     25.15697098
S        26.27467155     11.16697121     18.33880043
S        28.55627823      8.72286510     18.17870331
S        28.66435623     11.24189854     15.95078182
P        27.42511559     10.03538895     17.04462051
S        26.22481155      8.93389606     15.77915859
S        26.27467155     24.78177261     18.33880043
S        28.55627823     22.33766556     18.17870331
S        28.66435623     24.85669899     15.95078182
P        27.42511559     23.65019035     17.04462051
S        26.22481155     22.54869652     15.77915859
S        12.65987206     11.16697121     18.33880043
S        14.94147968      8.72286510     18.17870331
P        13.81031322     10.03538895     17.04462051
S        15.04955864     11.24189854     15.95078182
S        12.61001110      8.93389606     15.77915859
S        12.65987206     24.78177261     18.33880043
S        14.94147968     22.33766556     18.17870331
S        15.04955864     24.85669899     15.95078182
P        13.81031322     23.65019035     17.04462051
S        12.61001110     22.54869652     15.77915859
S         5.33018923      4.41139507      4.51503038
S         7.92009449      2.28690720      4.76248741
S         7.84899044      4.56582499      2.26728678
P         6.70190191      3.29413009      3.45909548
S         5.69071388      1.95248342      2.25232363
S         5.33018923     18.02619553      4.51503038
S         7.92009449     15.90170765      4.76248741
S         7.84899044     18.18062401      2.26728678
S         5.69071388     15.56728363      2.25232363
P         6.70190191     16.90892982      3.45909548
S        18.94498825      4.41139507      4.51503038
S        21.53489304      2.28690720      4.76248741
S        21.46378899      4.56582499      2.26728678
P        20.31669998      3.29413009      3.45909548
S        19.30551147      1.95248342      2.25232363
S        18.94498825     18.02619553      4.51503038
S        21.53489304     15.90170765      4.76248741
S        21.46378899     18.18062401      2.26728678
P        20.31669998     16.90892982      3.45909548
S        19.30551147     15.56728363      2.25232363
S         5.66090107      2.23965740     18.17482376
P         6.83333492      3.45262146     16.98561287
S         8.10164452      4.68017149     18.06549644
S         7.98205566      2.27116585     15.78032589
S         5.58365917      4.65904808     15.85623550
S         5.66090107     15.85445690     18.17482376
P         6.83333492     17.06741905     16.98561287
S         8.10164452     18.29496956     18.06549644
S         7.98205566     15.88596535     15.78032589
S         5.58365917     18.27384758     15.85623550
P        20.44813538      3.45262146     16.98561287
S        19.27570152      2.23965740     18.17482376
S        21.71644592      4.68017149     18.06549644
S        21.59685516      2.27116585     15.78032589
S        19.19845963      4.65904808     15.85623550
S        19.27570152     15.85445690     18.17482376
P        20.44813538     17.06741905     16.98561287
S        21.71644592     18.29496956     18.06549644
S        21.59685516     15.88596535     15.78032589
S        19.19845963     18.27384758     15.85623550
S        26.04081917      9.06585693      4.69432783
P        27.29017448     10.11887264      3.44682360
S        28.62958336     11.21020794      4.56447363
S        28.31366348      8.81820297      2.19851542
S        26.16272163     11.41280270      2.27718925
S        26.04081917     22.68065643      4.69432783
S        28.62958336     24.82500839      4.56447363
P        27.29017448     23.73367310      3.44682360
S        28.31366348     22.43300438      2.19851542
S        26.16272163     25.02760124      2.27718925
S        12.42602062      9.06585693      4.69432783
P        13.67537689     10.11887264      3.44682360
S        15.01478386     11.21020794      4.56447363
S        14.69886398      8.81820297      2.19851542
S        12.54792118     11.41280270      2.27718925
S        15.01478386     24.82500839      4.56447363
S        12.42602062     22.68065643      4.69432783
P        13.67537689     23.73367310      3.44682360
S        14.69886398     22.43300438      2.19851542
S        12.54792118     25.02760124      2.27718925
P         6.61541605     10.23576450     10.11287880
S         7.82621670     11.29561710      8.80991650
S         5.19793081      9.15745163      9.03971481
S         5.59178972     11.56023407     11.30496883
S         7.80205965      8.95129108     11.16529369
P         6.61541605     23.85056496     10.11287880
S         7.82621670     24.91041756      8.80991650
S         5.19793081     22.77224922      9.03971481
S         5.59178972     25.17503357     11.30496883
S         7.80205965     22.56609154     11.16529369
S        21.44101715     11.29561710      8.80991650
S        18.81272888      9.15745163      9.03971481
S        19.20659065     11.56023407     11.30496883
P        20.23021507     10.23576450     10.11287880
S        21.41685867      8.95129108     11.16529369
S        21.44101715     24.91041756      8.80991650
P        20.23021507     23.85056496     10.11287880
S        18.81272888     22.77224922      9.03971481
S        19.20659065     25.17503357     11.30496883
S        21.41685867     22.56609154     11.16529369
S        14.85338497      4.44817972     22.60559654
S        12.30653381      2.29842520     22.75352859
S        12.54321575      4.73259497     25.06800270
P        13.60410881      3.41886640     23.86085701
S        14.70904350      2.17197299     25.12597466
S        14.85338497     18.06298065     22.60559654
S        12.30653381     15.91322422     22.75352859
S        12.54321575     18.34739304     25.06800270
P        13.60410881     17.03366661     23.86085701
S        14.70904350     15.78677368     25.12597466
S         1.23858511      4.44817972     22.60559654
S        -1.30826652      2.29842520     22.75352859
S        -1.07158363      4.73259497     25.06800270
S         1.09424412      2.17197299     25.12597466
P        -0.01069169      3.41886640     23.86085701
S         1.23858511     18.06298065     22.60559654
S        -1.30826652     15.91322422     22.75352859
S        -1.07158363     18.34739304     25.06800270
S         1.09424412     15.78677368     25.12597466
P        -0.01069169     17.03366661     23.86085701
