832

Na        3.95955992      3.19354749     -3.49176359
Na       16.66828346     10.37461758     -6.91178131
Na       23.55921745     -0.17314719     -3.03715205
Na       33.84184265     13.63234997     -3.53626132
Na        7.00025511      3.87293887      7.12606144
Na       16.43163872     30.89581490     13.19929409
Na       27.15549088      6.65019608      6.87693357
Na       23.45392990     33.84792709      3.36999393
Na       13.77685833      6.73356915     27.37528419
Na        9.97646904     13.77605915     23.42494011
Na       20.48423195     -0.39443049     30.74008942
Na       20.17070770     20.49623108     31.08051872
Na       13.06283092     10.44546127     13.60610104
Na       -7.11386824     13.69628525     13.60074043
Na        7.30338001     23.29974747     14.47072601
Na       16.61035156     28.05809402     10.43160820
Na       10.71702576      0.21013144     10.09553528
Na       10.34289932     23.77356529     10.53069305
Na       23.77000809      9.65778637     10.18307018
Na       23.88375664     24.48427582      3.71814752
Na        6.20327425     16.78288651     27.23309898
Na       -6.42897606     20.27823639     23.20505333
Na       10.21275806      3.54788804     23.96851921
Na        0.00431135     20.83435822     37.31896591
Na        3.63853502      3.57424951     19.90911674
Na        4.40151119     10.39705849     16.91684341
Na        9.55094433      7.00560808     10.07878685
Na       27.31689262     27.24759483     13.88590240
Na       16.94332886      3.84098029     16.71698380
Na       23.38574028     10.04598236     17.49889565
Na       44.44412613      0.24520166     16.86304665
Na       33.81756973     14.09924507     10.89582157
Na        9.79924297     10.03319836      3.53491068
Na        0.14581683     19.91993904      3.36813664
Na       17.09398651     10.57344532      6.84469175
Na       30.35069466     23.77479935      6.38432503
Na       -3.46211743     -3.12644839      7.11942863
Na       -2.90028930     13.32347298     17.15596962
Na       17.09045029     11.03501892     13.57041550
Na       13.32497406     13.83810234     20.29886627
Na       10.65174103     16.95414925      3.34502959
Na        2.82315159     17.01309586     -0.48127577
Na       24.23739243      3.47114038      7.39186668
Na       13.85666084     10.76527786      7.24256992
Na        3.60117579      6.64688110     23.36107826
Na        3.91216969     16.99615860     23.56880379
Na       24.43329811     20.08781052     10.10979462
Na       20.76531410     20.30112457     20.33096695
Na       -3.66859293      3.46197295      1.33967233
Na        3.85717487      9.76035309      3.20708585
Na       13.82233047      0.78400296      3.38163137
Na       17.63918114     13.64380932      3.05877948
Na       10.53594780     -4.03799963     14.09242153
Na        7.23216963     23.69657135     27.73663521
Na       29.80945206     13.45452213     16.96665764
Na       24.16860580     33.96720123     16.99880600
Na       -0.00482938     13.33955574     14.55408287
Na        4.05814600     23.80577660     13.31249619
Na       16.14691353     10.50278950     10.25296211
Na       16.93981743     24.39187241     10.52638245
Na       21.17823410     -1.73142123     13.28344727
Na       -0.06380463     24.07064247      7.11772013
Na       13.63334656      9.96929836     26.76427650
Na       17.23114204     23.71521950     24.06214905
Na        7.20708227     -7.26230431     27.52227592
Na        6.43035984     13.30149269     20.68603897
Na       20.64838791      6.51301813     20.05448532
Na       16.62887383     16.16330719     27.05047035
Na       10.79180145     10.48834610     23.27257919
Na        6.81556749     14.13718987     14.13538742
Na       17.34864235     10.03333473     17.17830849
Na       20.69551659     20.92364883     17.00788689
Na       -0.07473698      0.51078159      3.56528354
Na        7.07748508     20.42425728     16.67841530
Na       13.81687164     13.62654114     17.08290291
Na       13.82953262     13.69011211      9.29594135
Na       16.47867584     -3.48764133     20.53064156
Na       -0.01556775     20.09166718     17.03846550
Na       17.06654167      7.14392138     16.91658592
Na       20.49086952     17.54529762     13.64478493
Na       13.24260807      6.65712643      6.68847656
Na       10.25786400     23.71703529      3.74114513
Na       27.25700569      7.47356415      0.08178776
Na       40.62479401     16.61224365      6.75602674
Na       10.59326077     -3.17502141     27.70946312
Na       10.54965496     20.26746559     16.99893379
Na       24.26585960     10.37264538     27.76259232
Na       16.86854553     27.97910690     24.01648331
Na       20.52661133     10.65159130     13.54777813
Na        3.58522582     20.42575836     17.12073708
Na       23.20955467     -3.60567832     -0.31864625
Na       20.35634613     20.99989510     12.83440113
Na       16.68714523      6.93385983     10.14725876
Na       13.86744308     24.44225311     13.49325371
Na       20.63606071      4.19957876      7.03706074
Na       27.58301544     20.32653618     13.73775291
Na       10.56353188     -0.58816671     30.63566971
Na        6.47517586     17.09102631     20.71197510
Na       13.32491684     13.25683403     27.27601624
Na       27.21720314     27.30053520     19.59806633
Na       13.56545830      3.31114936     20.20285797
Na        6.92814493     21.03729248     -6.91723490
Na       27.60998154      3.58184218      0.37186706
Na       26.83247185     20.77158165      6.57747173
Na       10.65926552     16.86991692     13.11029911
Na       13.57590294     27.07385635     24.09071541
Na       20.34724045     16.59358025     27.25319290
Na       23.55744743     28.08440208      3.78177118
Na       -3.34055829      2.87884521     12.42239666
Na        9.82743835     16.65284157     10.14051056
Na       23.79582214     10.68478680      3.29888105
Na       23.70064545     17.11325264      6.94133997
Na        9.64762115      9.89450836     12.71996403
Na        7.27778864     26.99787903      7.03460503
Na       24.09846687      6.06195736      9.94432068
Na       17.15153694     13.04006386     -3.30738544
Na        3.42726827     10.12712765      6.99044418
Na        2.89177728     34.19084167      3.64913702
Na       24.32262039     16.92644119      3.58377028
Na       16.90069962     27.17757225      3.52351379
Na        9.03215218     17.08639145     23.45362473
Na       23.99856949     27.10156441     17.46219254
Na       14.26877689     17.03370094     13.39708614
Na       21.34268761     16.66949844     20.31199074
Na       10.09809399      9.76359367     16.29034615
Na       -0.39676455     13.38851452     20.24538803
Na       31.22198105     20.87181473     23.67757607
Na       14.22957230     20.85641289     20.17227554
Na        3.59359288      3.20362091      6.25314093
Na       13.90461159     20.14698029     13.39177513
Na       26.90356255      6.94786501      3.38215137
Na       33.82897186     21.07115555      7.50147152
Na       20.69744110      2.37316656     20.44048309
Na       -3.15644860     20.47522545     16.81226349
Na        6.86372232      6.13008261     24.12707520
Na       24.28654289     19.68135643     23.79459572
Na        2.58350515      9.97185040     -0.17674227
Na        4.42058611     24.13535690    -10.30350208
Na       13.88153553     13.45811367      3.45202351
Na       16.86300087     23.17476845      3.33634019
Na       -3.83575535     -0.36741519     10.47782898
Na       -0.32890293     16.75964546     20.15323067
Na       16.95560265     17.14895439     10.31101036
Na       17.58211708     17.56897354     14.04478836
Na        0.27832642      7.01084566      9.97963428
Na       -4.05748320     17.02016449     -3.53168273
Na       13.77298737      6.53463840     13.27898693
Na       13.90628147     20.13464737     17.00825691
Na       10.20663452      0.43307981     -3.29333520
Na        7.05238247     26.92209053     13.42969131
Na       23.98249817     17.06486893      0.14251076
Na       13.30375004     20.21456909      6.98291969
Na        0.42018077      6.68434000     20.07788467
Na       -0.17780644     30.31861877     20.66340256
Na       13.93977737      6.37525225     16.69909668
Na       10.52809811     20.68803406     23.95152283
Na        6.79255152      7.19119263      7.48654079
Na       -3.61104774     16.80236244     13.65544033
Na       20.60684586      0.52692676      6.85192013
Na       27.24825478     14.19290733      7.65900898
Na        2.68247461     -0.26645169     23.96483803
Na       13.98148251     20.28843307     23.47996140
Na       20.65313339      6.84732723     16.48211670
Na       24.10631561     17.02638817     10.18978786
Na        6.95227146      3.39997911     -6.76070070
Na       -6.90875578     26.85815811      0.33799312
Na       23.67165947      9.76303673     -6.58600044
Na       13.01683807     33.99019241      3.56070542
Na       -3.11396599     -3.88844037     10.30866146
Na       10.63232613     -1.02638137     17.14717293
Na       17.01592255      4.00212955      9.97558784
Na       10.01925945     16.77628326      6.48123503
Na       20.20080757      7.35949993     13.20876217
Na        3.87154484     16.84180832     14.36815357
Na       23.94140244     -4.06007528     -3.19980955
Na       16.79207039     16.89366150     30.33937454
Na        0.03188749      6.79846191     13.29152298
Na        3.73466492     30.83014488     10.26891994
Na       28.10264587     10.51648808     20.19776917
Na       17.34929276     24.34241867     16.95199585
Na        7.08004951     -0.29729354     27.20302200
Na       -0.09022102     23.89625740     20.86597633
Na       17.04966927      3.28276014     20.28935814
Na       13.62102890      9.96139908     20.49595833
Na       20.13310623     10.28285503     20.22951508
Na       16.79102707     17.15991402     17.70853615
Na       27.00923538     13.49086761     23.99780655
Na       37.79017258      3.65327954     20.55835152
Na        6.10661268      6.67824221      3.18664026
Na       13.60471630     20.39907646      3.62588739
Na       25.96503258     13.51433182      3.92249060
Na       16.78906250     30.06211281     -0.26958835
Na        3.64890265      3.75724530      2.18475986
Na        2.88700008     13.74256325     -3.33988929
Na       20.40644646      7.35227489      9.43692112
Na       16.68756294     17.05824089      6.67962933
Na       18.21733665     13.17050648      9.84802055
Na       24.08363342     23.52174759     14.27623081
Na        9.89283752     10.51805210     -0.29999202
Na       26.85811234     13.12558365     11.09450245
Na        6.70331669     13.77369213     17.10786819
Na       27.34370041     33.90201569     16.88122368
Na       20.56228256     20.13985252     27.52369499
Na       30.84474182     24.26444435     21.05731773
Na        2.98275042     14.32026100     10.41208267
Na        9.72126007     23.78074837      7.46863031
Na       20.85250854     13.56927967      3.71609044
Na       16.37479973     23.82464218      6.73197174
Na       10.24244308      2.99018836     13.75094032
Na        6.89738846      0.69080514     10.56534004
Na       16.91643715      6.42536831      3.31493616
Na       27.10094833     10.37269402      7.36940813
Na       13.65525723     20.41420364     26.74843025
Na       17.43222809     20.03380775     24.16446686
Na       23.70628929     13.45570374     23.99691582
Na       27.48373985     34.19005585     23.71672821
Na        2.37057495     -0.03638197     17.39820480
Na        3.23151398     16.33407211     30.67650032
Na       14.23065662      6.71915388     23.77186394
Na       20.30825233     30.02737236     27.16478539
Na       -0.01734555     24.08694077     27.11291313
Na       -6.87862492     33.80663681     27.61108398
Na       16.97933769      9.83752155     30.33575439
Na       29.67397881     37.67491150     23.85121536
Na        6.67113781      3.21582937     13.68338871
Na        3.14735365     10.34819031     13.53720951
Na       24.03251839      3.36160374     24.45535278
Na        7.33407640      6.85884285     20.38877869
Na        0.11404632     -0.09818794     27.35347557
Na        0.02111525     20.90905571     27.44730759
Na       12.67107868     -3.37819457     20.70002174
Na       14.18717957     24.58093452     27.40547180
Na       14.01768875      0.83147901     12.93753147
Na        0.52330947     17.26484108      6.84701157
Na        9.90975952      9.85753155      6.86720467
Na       17.57271004     13.97423267     17.33067513
Na        0.14782001     17.36543083      0.43933824
Na        6.24886084     23.98454857      6.69107914
Na       10.33234215     13.83849907      2.97008681
Na       13.74904823     30.75934982      6.04942608
Na       20.43476868      0.00989878     23.90761948
Na        3.24441814     17.27140617     17.45455170
Na       19.91201782     -3.22582865     20.54746056
Na       24.07993317      6.65993166     23.53565407
Na        7.04545593      6.36625051     27.33780289
Na       12.91559505     34.68967438     36.90744781
Na       20.41576576     13.09626865     27.28522110
Na       20.54102325     37.22601700     27.58914757
Na        3.87280083     -0.04030332     10.25133324
Na       -3.23242950      9.69228745     13.48534584
Na        6.82167816     -0.29230607     20.92544556
Na        9.86192894     12.83156204     10.45418358
Na        3.27284455      7.37083292     17.01365662
Na       10.43072987     23.68927574     23.87208939
Na       20.44496155     13.52180386     24.28963280
Na       17.11428452     30.19554138     30.47756195
Na        6.24630260      2.77673411     -0.22980836
Na        3.17306566     12.79160309      3.30141282
Na       16.67203522      3.62317228      7.17666674
Na        9.71529865     20.09357262     10.14906216
Na        0.02523500      3.46471524     13.82366943
Na        6.62316656     10.56815243     13.97209740
Na       20.47674942      3.30625653     12.81265926
Na       32.40983200     17.08006096      6.84772825
Na        0.12867604     13.23703957      0.54417628
Na       -0.22602172     26.85902023     -3.36574531
Na       10.39852047     13.33623695     16.75726509
Na       13.48364353     13.45348549     -3.55387640
Na       20.39631271     -0.46395051     17.56951332
Na        0.33321717     20.55623436     20.46629143
Na       30.86481094     -3.70634317     30.12523842
Na       23.85121536     17.00176048     17.27486420
Na       13.52655411     13.77516556     13.71717167
Na        6.95755625     37.72744370      6.09415960
Na       27.49895477      0.11105132      7.23671389
Na       13.34433746     23.98488235      7.04509115
Na       14.04065609      6.52165794     20.48870468
Na        7.44454098     18.53997231     13.91076756
Na       27.73623657    -10.15099335     13.71139526
Na       30.23892212     30.67341995     13.06525517
Na        7.06319237     13.64738941      3.73349190
Na        3.30139518     20.22277069      3.32599092
Na       13.46978378      2.03876114      0.02984600
Na       20.23300171     22.95374298      6.76436234
Na        3.12181163      3.80036283     16.64900208
Na        7.06480742     20.12697220     -3.43525958
Na       20.54388618    -13.40378380      6.67198563
Na       20.44754601     10.03845596      6.31418705
Na        3.13583732     17.11367798     20.84479523
Na       10.00406551     30.89118385     27.61539841
Na       17.55217171     -2.80061841     13.48133183
Na       16.93243408     20.58058929     10.24202633
Na       -3.36958838     10.00872707     -3.07912755
Na        7.06291580     27.02536583      3.69242215
Na       20.19169426     13.18341064     -6.69684887
Na        9.60726452     20.02343750      3.54634094
Na       -0.21574973      9.72747421     13.59546852
Na       10.44084549     16.84933281     17.43791580
Na       17.14568520     -6.44726133     17.17783546
Na       22.73633003     13.29897785     10.36101151
Na        6.33862591     -6.75511122      3.74153304
Na       13.51585293     20.92160988      9.82323742
Na       30.90355110     -9.85316944     10.52876568
Na       27.29555702     -3.51880026     13.66914272
Na        6.67359829      9.92481422     27.43241119
Na        9.68813610     17.21094704     27.04643250
Na       16.67014122      9.82019806     24.05618477
Na       17.59587669     33.71828842     23.72950554
Na        4.22981834     -3.22333503     26.51115227
Na        0.76385540     20.54191017     24.04216194
Na       20.50601578      5.47214222     23.78533363
Na       17.02395439     16.48959923     23.60354805
Na        4.21099854      7.09864283     10.37117863
Na        3.28947830     10.33928204     10.47943020
Na       20.29576302      6.98282099      3.54023695
Na       13.01728344     17.26919365     20.75935555
Na       10.08643723      7.18067980     -3.46708894
Na       10.19165802     29.92988396      4.06636572
Na       24.49117470     20.81890106      3.21398807
Na       27.39143562     26.96144676     10.66126728
Na       13.80378437      0.36490726     16.61423683
Na       16.63088226     20.08902168     30.66148376
Na       23.48155022     -3.50833440     20.59851837
Na       40.61084366     27.22329903     20.46575546
Na        6.85372543      6.59641981     16.54786682
Na        5.55975771     20.68129158     10.68308163
Na       23.65584183     10.37312126      6.85461617
Na       20.66084862     20.03659058     10.08836174
Na        6.76488113      6.92144299     12.85047245
Na       -3.27542233     30.58829689     16.89676285
Na       20.47127342     13.46971989     17.22833443
Na       13.95387268     27.43549919     34.43004227
Na        6.97093201     13.57145977      7.23657274
Na        0.37450778     30.38827705      6.20360613
Na        7.86296415      9.95655727     -7.28891325
Na       20.06199074     27.89404869     10.20514584
Na        9.58029652      6.26735878      3.21805835
Na       17.68490028     23.25216866     -0.05053191
Na       30.73858261     -0.06679553      3.60136485
Na       20.53271103     17.49766350      6.73944283
Na       10.10751057      2.86662817     17.42318344
Na       10.14289951      6.45647240     16.79695511
Na       31.65394783     10.20624161     20.77224541
Na       23.88541031     24.10915565     17.66803932
Na        2.85253406     -3.53716636     10.21599960
Na        9.41691589     23.97422791     20.40472412
Na       10.19102859      3.47843194      9.82719135
Na       13.38360119     17.02615929      0.06319520
Na        6.37707233     -0.05639194     17.19767380
Na        6.57368946     13.45823479     27.68906403
Na        6.69239759      0.17632878     23.80113220
Na       24.04255867      3.25873137     20.72046852
Sn        3.85842514     13.70087242      6.96233463
Sn        3.81167555     27.22812462      6.81354094
Sn       17.12108803     13.96655750      6.75996399
Sn       17.50676727     27.21379852      6.82219982
Sn        3.24462128      0.61213911     20.33819199
Sn        3.04231119     13.67945671     20.44012451
Sn       16.66334152     -0.12441418     20.40889359
Sn       16.76231003     13.57876110     20.40473938
Sn        3.38824940      0.10182268     13.94971752
Sn        3.21481609     13.91964531     13.49682140
Sn       17.22664261      0.31696972     13.71266174
Sn       17.02439308     13.91565609     13.52500343
Sn        3.25234771     13.45664787     -0.07275546
Sn        3.23122621     27.27317429     -0.11407231
Sn       16.64958382     12.77500248     -0.12802371
Sn       16.87646484     26.69013596      0.17833593
Sn       10.58312702      7.07296181     20.51898766
Sn       10.46313667     20.14482880     20.44846535
Sn       24.26235580      6.77653456     20.30880547
Sn       24.11787987     20.27918625     20.37234306
Sn        9.99490833      6.49164534      6.67498493
Sn        9.73153210     20.09734535      6.82957268
Sn       23.42543030      6.83392811      6.58146048
Sn       23.43946648     20.46681023      6.70751095
Sn       10.18070316      7.34032679     27.27701569
Sn       10.34158421     20.37977219     27.20841026
Sn       23.97257614      6.85513735     27.17510033
Sn       23.81789017     20.40589905     27.15438271
Sn       10.30726051      6.21845484     13.48676109
Sn       10.37602520     19.89093018     13.59934330
Sn       23.62309074      6.30066490     13.65551567
Sn       23.93438530     20.27001381     13.34586048
Sn       10.04702187      0.23301060     20.57164001
Sn       10.08968353     13.83471394     20.27759743
Sn       23.31361961     -0.44411340     20.91000366
Sn       23.76643753     13.53256416     20.69699097
Sn       10.56735134     13.62371540      6.66300011
Sn       10.54269123     27.06337738      6.73444510
Sn       24.04331589     13.79897118      6.96213961
Sn       24.16331863     27.47404480      7.05874968
Sn       10.25699615     13.20416832     13.53343773
Sn       10.27854824     26.84506798     13.73579407
Sn       23.72237396     13.34493065     13.71279812
Sn       23.88638115     27.16728210     14.20557213
Sn       10.18420219      0.28867403      0.27672905
Sn        9.94710159     13.80654907     -0.27500185
Sn       23.93238831      0.07224660      0.36919469
Sn       23.52601624     13.65753174      0.40291741
Sn        3.06322074      6.60913229      6.80741453
Sn        2.80509686     20.26826286      7.02695370
Sn       16.92594719      7.01299047      6.80798817
Sn       16.81802368     20.49017334      6.87545586
Sn        3.90988922      7.07361174     20.02158356
Sn        3.47949505     20.55515671     20.37956047
Sn       17.31709099      6.62899828     20.42323494
Sn       17.43998528     20.34482574     20.64419937
Sn        3.40176105      6.58655214     -0.12125183
Sn        3.50611544     20.31329346      0.13794148
Sn       17.15831947      6.54596329     -0.02074190
Sn       17.19589233     20.04266167      0.23818366
Sn        3.33445644      7.00913620     13.39334393
Sn        3.83263493     20.53524208     13.85361481
Sn       17.20083618      7.22158337     13.48280430
Sn       17.34408569     20.79266930     13.80934525
S         1.93832862      5.58855820      1.42582428
S         2.06990480     18.99327660      1.49727428
S        15.83240986      4.67562485      1.30258381
S        15.43120861     18.55980873      1.56788993
S         4.79466248      8.44696045     14.72292614
S         5.07387447     22.03164101     15.29603004
S        18.62711143      8.75896263     15.04053402
S        18.56224632     22.23899651     15.30275249
S        11.69409084     12.21635342      8.27952194
S        11.59623146     25.56364632      8.26082230
S        25.33292007     12.26238537      8.56272793
S        25.54778671     26.11931610      8.64948845
S         8.74194336      1.64868474     22.05715752
S         8.44467735     15.07175541     21.65901566
S        22.37141418      1.46155286     22.18596268
S        22.22496605     14.61560249     22.06469154
S         4.90078592      5.00194836     25.76819801
S         4.87483835     18.80381012     25.91810989
S        18.53765678      5.00932217     26.01626778
S        18.49465752     18.28515053     26.13979149
S         1.91894996      8.49572945     11.93731022
S         2.44558454     21.93746185     12.27518082
S        15.79927349      8.85257339     12.54210663
S        16.08170700     22.40813828     12.52909279
S         8.70351887     12.37678719     18.82921982
S         8.51273727     26.30640030     19.09160233
S        22.56636238     12.24738216     19.13718033
S        22.19795227     25.65571594     19.11881828
S        12.07788754      1.26908696      5.60710192
S        11.90855694     15.04646397      5.07694578
S        25.65131378      1.51340568      5.48311043
S        25.68614388     15.38591862      5.87996960
S         8.76251984     11.86785316     14.97093201
S         8.62466621     25.51055908     14.83928490
S        22.34911346     11.85322285     15.24505520
S        22.76518631     25.65336418     15.80431843
S        11.42229939      1.68563962      1.72822046
S        11.35324478     15.27565479      1.13864601
S        25.36307716      1.70009673      1.69057310
S        25.05411720     15.22152615      1.60968697
S         5.25878859      5.57573795     21.35042191
S         4.93552017     19.15273476     21.77516937
S        18.65664291      5.36958838     21.80092239
S        18.73587227     18.93026733     22.24875259
S         1.77102256      8.28527164      8.03993797
S         1.71913981     22.08641052      8.29228306
S        15.35160255      8.31504345      8.12063313
S        15.26413822     21.95484161      8.21272850
S        11.76752853     12.25419426     12.04167271
S        11.72449875     25.80035210     12.22609329
S        24.65479469     11.76183796     12.08804417
S        25.12840462     25.62563515     12.66019917
S         8.56847858      1.62856305     26.08476257
S         8.55298710     15.37518501     25.66376305
S        22.46982193      1.28393447     26.15709686
S        22.37895775     15.17848015     26.23628426
S         1.81868696      5.28085661      5.20246792
S         1.68623483     18.96610641      5.33171558
S        15.48947811      5.54712868      5.45588303
S        15.14781094     19.26100540      5.47308064
S         5.25104713      8.51162148     18.74914551
S         5.02352762     22.06454659     19.03268242
S        18.62515068      7.88198090     18.81991577
S        18.78743362     21.81033707     19.19805145
S        11.50072765      8.65192986     25.61496735
S        11.68903160     21.95682526     25.97290993
S        25.27232742      8.53998470     25.80234909
S        25.40427971     21.93629837     25.89055443
S         8.88226223      4.95272589     12.07170010
S         9.07494640     18.43687057     11.93094063
S        22.38711739      5.10718727     11.97647667
S        22.44438744     18.80584908     11.97043705
S         1.62765789      1.93204689     18.99799347
S         1.50562322     15.07572937     19.12939262
S        15.50632572      1.72659516     19.09481812
S        15.44934464     14.94969273     18.95133209
S         5.04864788     12.25109386      5.44104767
S         5.20021248     25.94065094      5.36955214
S        18.69245911     12.34682846      5.25414467
S        18.98250771     25.95602798      5.48628998
S         8.61020851      8.15303612      1.63507867
S         8.85950279     21.59498405      1.25259614
S        22.51354980      8.45140553      1.31658626
S        22.29955673     21.88878632      1.46831894
S        11.59644413      4.95472336     15.24343395
S        11.99478340     18.84802055     15.04406929
S        25.29854774      4.91956854     14.79152393
S        25.38583374     18.78181839     15.05716801
S         5.10757685      1.38462734      8.15632820
S         5.15478420     14.92756462      8.45120907
S        18.43224716      1.79926550      8.36700344
S        18.63749123     15.52193546      7.90385914
S         1.54018390     12.17336750     21.85811615
S         1.67119241     26.23033333     21.55070496
S        15.18337536     11.99084282     21.43400192
S        15.27613831     25.93557739     22.08176422
S         4.78148937      1.55128062     12.44174957
S         4.76707125     15.21799564     12.38845825
S        18.17858696      1.96691835     12.21841049
S        18.45114517     15.47003269     12.38790131
S         1.80108297     12.10309219     25.89923096
S         1.78216696     25.67150116     25.86028290
S        15.25468063     11.79770184     25.38191986
S        15.75003242     25.76372337     25.49751091
S         8.34873676      7.48063946      5.18141985
S         8.35109901     21.57866287      5.45957375
S        22.16658401      8.18507004      4.80215883
S        22.13523102     21.73049164      5.24305677
S        12.03417110      5.46999884     19.01855278
S        11.95332623     18.93605995     18.99791527
S        25.61322594      5.11134577     19.06166077
S        25.47748566     18.86298752     19.18526649
S         1.80509746      1.70620465     14.95217419
S         2.03977156     15.29570293     15.02828503
S        15.72824860      1.78719866     14.99276638
S        16.14904785     15.53727531     15.12783051
S         4.49803925     11.80615520      1.19813144
S         4.52555132     25.52505302      1.37667501
S        18.19300652     11.63002777      1.20107651
S        18.01934242     25.18903160      1.77707529
S        11.97276783      8.26040268     21.97537041
S        12.05943680     21.28480148     21.98610687
S        25.64288902      8.13948345     21.55104256
S        25.40993500     21.65784836     21.88949013
S         8.76119709      5.48075676      8.40862179
S         8.09139156     18.83738136      8.48314667
S        22.26293755      5.57641077      8.18042755
S        22.31860542     18.96543312      8.29358196
S         1.93138647      1.16856027      1.46565235
S         1.96942472     14.81498909      1.60650504
S        15.40843678      0.91281164      1.43672872
S        15.38766098     14.12303925      1.41435564
S         4.84173584     12.71526527     14.81346798
S         5.08169794     25.89397430     14.95022583
S        18.27612495     12.56852245     15.09931087
S        18.88205528     26.10788155     14.98035908
S         2.27774596     12.26769924      8.27748680
S         2.50207973     25.76653481      8.23540783
S        15.88141346     12.40379333      8.25815105
S        15.86829090     25.82847023      8.19195843
S         4.99286890      1.75586009     21.77148628
S         4.61433077     14.84899616     21.87013435
S        18.17540550      1.38330841     21.69070816
S        18.10905457     14.66173172     21.92709732
S         4.73440218      1.03109980     25.53762627
S         4.71982384     14.93686295     25.80791092
S        18.30475235      0.73956257     26.07591438
S        18.19096184     14.38360119     25.84667206
S         1.63089204     12.57790279     12.44716549
S         1.96786809     25.78961182     12.55899048
S        15.34055614     12.89448643     12.12798595
S        15.72073841     26.06828308     12.37066078
S         4.36422586     12.21230412     18.92203712
S         4.25365400     26.14756203     19.08760643
S        18.34945107     12.16376877     19.16259766
S        18.01383972     25.74231339     19.00982094
S         2.30350661      1.32124400      5.54056978
S         2.46714401     14.87320995      5.56174660
S        15.98728657      1.64039969      5.60601473
S        15.71683025     15.01562977      5.14091778
S         8.81823635      7.70394039     14.81594181
S         8.79457855     21.09624100     14.89534187
S        22.50317192      7.91825151     15.04877949
S        22.53198624     21.51878738     14.89755535
S        11.73316002      5.72979832      1.44892871
S        11.90923119     19.35843468      1.45307577
S        25.47885895      5.63402081      1.15762317
S        25.24484062     19.10731316      1.40712595
S         9.24471188      5.69114065     21.88741112
S         8.51085949     19.35921478     21.67237473
S        22.61233711      5.38897848     21.57038498
S        22.73484993     18.83091354     21.80498886
S        11.18692493      8.15646839      7.86243773
S        11.02447224     21.70851135      8.58233356
S        24.91021729      8.04061127      8.13893318
S        24.76611519     21.98794556      8.22136211
S        11.68855190      7.70818567     12.25923252
S        11.55684566     21.32493782     12.16211224
S        25.10774994      7.89534426     12.13501453
S        25.61188889     21.81277847     12.18470669
S         9.05531311      5.80933428     25.82968712
S         8.82247257     19.09113121     25.75252151
S        22.57645416      5.47879124     25.82443237
S        22.24621010     19.14486694     25.74346924
S        11.52319813      5.15855265      5.28731108
S        11.34308338     18.98168373      5.37517786
S        24.79206467      5.10587406      5.34530354
S        25.07174873     18.98265266      5.66881704
S         8.95067024      7.89261770     18.89272499
S         9.36159229     21.72834396     18.99800110
S        22.57979012      8.07043743     19.12330246
S        22.74544907     21.75554085     18.99624634
S        11.52815533     12.65359211     25.58507729
S        11.70220375     26.41090965     26.06223297
S        25.16683578     12.48556519     26.02698517
S        25.26863098     25.78893661     26.16020584
S         8.95940876      1.05349469     12.20035172
S         8.83893585     14.60715294     12.17603111
S        22.14712143      0.84446889     12.62087250
S        22.24216652     14.90746880     12.42429161
S        11.51270103      1.46508741     19.00364685
S        11.56707859     15.18796539     18.91326523
S        24.74267387      1.07614148     19.52987671
S        24.96553040     15.01434994     19.16056442
S         8.86729717     12.16443539      5.05752277
S         9.12571144     25.77046585      5.29807949
S        22.88094902     12.76670742      5.40183830
S        22.63762856     26.03769875      5.65243006
S         8.77445507     12.56482220      1.33482444
S         8.83687210     26.07461166      1.67281735
S        22.28373718     12.12347698      1.58749497
S        22.44537163     25.98604393      1.75636876
S        11.46526241      1.02664852     15.35758305
S        11.50269222     14.81368065     14.85770702
S        25.45161247      1.61592758     15.10362244
S        25.13740730     14.67908573     14.94639301
S         9.26844120      1.35604548      7.96856642
S         9.35965538     14.88602829      8.17911053
S        22.62053680      1.50770688      8.35735798
S        22.57872963     14.93988037      8.34362698
S        11.46206665     12.53103542     21.65653801
S        11.26840782     25.85268402     21.98632240
S        25.10479736     11.94504929     21.89428139
S        24.59558868     25.49720001     22.39030457
S         4.67624855      5.42382240     12.24442005
S         5.13522053     18.71985435     12.88188934
S        18.57204247      5.90182972     12.12126350
S        18.74047089     19.29720116     12.23766327
S         2.23373175      7.75102282     25.44383812
S         2.31257844     21.71214867     26.04827881
S        15.70899773      7.56424475     25.71807098
S        16.08711624     21.48505020     26.00639915
S         4.73225689      7.86224699      5.27632475
S         4.37447834     21.50311661      5.62348652
S        18.06750488      8.35821819      5.09358549
S        18.04390335     22.04775810      5.44688702
S         2.70180225      5.42152357     18.64063835
S         1.92460406     19.02497864     19.04741859
S        15.82665730      5.39180422     19.01423073
S        15.95353603     19.17794991     19.07166100
S         2.16088247      5.42970371     14.75386047
S         2.18317175     19.14688492     15.11122417
S        15.83122253      5.72091389     14.91872692
S        15.93360329     19.35394669     15.03723717
S         4.83856344      8.01812363      1.19325745
S         5.00997877     21.58893394      1.56527889
S        18.37233353      7.86924267      1.53712916
S        18.48908234     21.17481613      1.90674126
S         2.43132758      8.23733521     21.55845070
S         2.19415522     21.92083168     21.81055069
S        16.11350822      8.01459408     22.08449364
S        16.02734756     21.70155716     22.03664017
S         4.41646576      5.26716995      8.31974888
S         4.10731792     18.88222504      8.63165188
S        18.48197937      5.69970179      8.20332623
S        18.18146706     19.35336876      8.34155560
S         1.32891452      2.53098941      8.95503521
P         0.04677905      3.60792685     10.19257450
S        -1.17562580      4.74626970      8.96836472
S        -1.01395893      2.34041238     11.38829708
S         1.15039790      4.88556528     11.36825371
S         1.32891452     16.14579010      8.95503521
P         0.04677905     17.22272682     10.19257450
S        -1.17562580     18.36107063      8.96836472
S        -1.01395893     15.95521259     11.38829708
S         1.15039790     18.50036240     11.36825371
P        13.66157818      3.60792685     10.19257450
S        14.94371414      2.53098941      8.95503521
S        12.43917370      4.74626970      8.96836472
S        12.60083961      2.34041238     11.38829708
S        14.76519680      4.88556528     11.36825371
S        14.94371414     16.14579010      8.95503521
P        13.66157818     17.22272682     10.19257450
S        12.43917370     18.36107063      8.96836472
S        12.60083961     15.95521259     11.38829708
S        14.76519680     18.50036240     11.36825371
S         8.07471085      9.14614868     22.61940765
P         6.89163589     10.19873905     23.90862656
S         5.62674999     11.38945198     22.83204651
S         5.82599831      8.87564850     25.11843300
S         8.04984188     11.40234184     25.15697098
S         8.07471085     22.76094818     22.61940765
S         5.62674999     25.00424957     22.83204651
P         6.89163589     23.81353951     23.90862656
S         5.82599831     22.49044609     25.11843300
S         8.04984188     25.01713943     25.15697098
S        21.68950844      9.14614868     22.61940765
P        20.50643349     10.19873905     23.90862656
S        19.24154854     11.38945198     22.83204651
S        19.44079781      8.87564850     25.11843300
S        21.66464043     11.40234184     25.15697098
S        21.68950844     22.76094818     22.61940765
P        20.50643349     23.81353951     23.90862656
S        19.24154854     25.00424957     22.83204651
S        19.44079781     22.49044609     25.11843300
S        21.66464043     25.01713943     25.15697098
S        26.27467155     11.16697121     18.33880043
S        28.55627823      8.72286510     18.17870331
S        28.66435623     11.24189854     15.95078182
P        27.42511559     10.03538895     17.04462051
S        26.22481155      8.93389606     15.77915859
S        26.27467155     24.78177261     18.33880043
S        28.55627823     22.33766556     18.17870331
S        28.66435623     24.85669899     15.95078182
P        27.42511559     23.65019035     17.04462051
S        26.22481155     22.54869652     15.77915859
S        12.65987206     11.16697121     18.33880043
S        14.94147968      8.72286510     18.17870331
P        13.81031322     10.03538895     17.04462051
S        15.04955864     11.24189854     15.95078182
S        12.61001110      8.93389606     15.77915859
S        12.65987206     24.78177261     18.33880043
S        14.94147968     22.33766556     18.17870331
S        15.04955864     24.85669899     15.95078182
P        13.81031322     23.65019035     17.04462051
S        12.61001110     22.54869652     15.77915859
S         5.33018923      4.41139507      4.51503038
S         7.92009449      2.28690720      4.76248741
S         7.84899044      4.56582499      2.26728678
P         6.70190191      3.29413009      3.45909548
S         5.69071388      1.95248342      2.25232363
S         5.33018923     18.02619553      4.51503038
S         7.92009449     15.90170765      4.76248741
S         7.84899044     18.18062401      2.26728678
S         5.69071388     15.56728363      2.25232363
P         6.70190191     16.90892982      3.45909548
S        18.94498825      4.41139507      4.51503038
S        21.53489304      2.28690720      4.76248741
S        21.46378899      4.56582499      2.26728678
P        20.31669998      3.29413009      3.45909548
S        19.30551147      1.95248342      2.25232363
S        18.94498825     18.02619553      4.51503038
S        21.53489304     15.90170765      4.76248741
S        21.46378899     18.18062401      2.26728678
P        20.31669998     16.90892982      3.45909548
S        19.30551147     15.56728363      2.25232363
S         5.66090107      2.23965740     18.17482376
P         6.83333492      3.45262146     16.98561287
S         8.10164452      4.68017149     18.06549644
S         7.98205566      2.27116585     15.78032589
S         5.58365917      4.65904808     15.85623550
S         5.66090107     15.85445690     18.17482376
P         6.83333492     17.06741905     16.98561287
S         8.10164452     18.29496956     18.06549644
S         7.98205566     15.88596535     15.78032589
S         5.58365917     18.27384758     15.85623550
P        20.44813538      3.45262146     16.98561287
S        19.27570152      2.23965740     18.17482376
S        21.71644592      4.68017149     18.06549644
S        21.59685516      2.27116585     15.78032589
S        19.19845963      4.65904808     15.85623550
S        19.27570152     15.85445690     18.17482376
P        20.44813538     17.06741905     16.98561287
S        21.71644592     18.29496956     18.06549644
S        21.59685516     15.88596535     15.78032589
S        19.19845963     18.27384758     15.85623550
S        26.04081917      9.06585693      4.69432783
P        27.29017448     10.11887264      3.44682360
S        28.62958336     11.21020794      4.56447363
S        28.31366348      8.81820297      2.19851542
S        26.16272163     11.41280270      2.27718925
S        26.04081917     22.68065643      4.69432783
S        28.62958336     24.82500839      4.56447363
P        27.29017448     23.73367310      3.44682360
S        28.31366348     22.43300438      2.19851542
S        26.16272163     25.02760124      2.27718925
S        12.42602062      9.06585693      4.69432783
P        13.67537689     10.11887264      3.44682360
S        15.01478386     11.21020794      4.56447363
S        14.69886398      8.81820297      2.19851542
S        12.54792118     11.41280270      2.27718925
S        15.01478386     24.82500839      4.56447363
S        12.42602062     22.68065643      4.69432783
P        13.67537689     23.73367310      3.44682360
S        14.69886398     22.43300438      2.19851542
S        12.54792118     25.02760124      2.27718925
P         6.61541605     10.23576450     10.11287880
S         7.82621670     11.29561710      8.80991650
S         5.19793081      9.15745163      9.03971481
S         5.59178972     11.56023407     11.30496883
S         7.80205965      8.95129108     11.16529369
P         6.61541605     23.85056496     10.11287880
S         7.82621670     24.91041756      8.80991650
S         5.19793081     22.77224922      9.03971481
S         5.59178972     25.17503357     11.30496883
S         7.80205965     22.56609154     11.16529369
S        21.44101715     11.29561710      8.80991650
S        18.81272888      9.15745163      9.03971481
S        19.20659065     11.56023407     11.30496883
P        20.23021507     10.23576450     10.11287880
S        21.41685867      8.95129108     11.16529369
S        21.44101715     24.91041756      8.80991650
P        20.23021507     23.85056496     10.11287880
S        18.81272888     22.77224922      9.03971481
S        19.20659065     25.17503357     11.30496883
S        21.41685867     22.56609154     11.16529369
S        14.85338497      4.44817972     22.60559654
S        12.30653381      2.29842520     22.75352859
S        12.54321575      4.73259497     25.06800270
P        13.60410881      3.41886640     23.86085701
S        14.70904350      2.17197299     25.12597466
S        14.85338497     18.06298065     22.60559654
S        12.30653381     15.91322422     22.75352859
S        12.54321575     18.34739304     25.06800270
P        13.60410881     17.03366661     23.86085701
S        14.70904350     15.78677368     25.12597466
S         1.23858511      4.44817972     22.60559654
S        -1.30826652      2.29842520     22.75352859
S        -1.07158363      4.73259497     25.06800270
S         1.09424412      2.17197299     25.12597466
P        -0.01069169      3.41886640     23.86085701
S         1.23858511     18.06298065     22.60559654
S        -1.30826652     15.91322422     22.75352859
S        -1.07158363     18.34739304     25.06800270
S         1.09424412     15.78677368     25.12597466
P        -0.01069169     17.03366661     23.86085701
