832

Na       54.96655655    -47.72936630     48.23091125
Na       13.88147163      7.87104750     -3.55438399
Na       13.38137817     61.46097183      6.69380188
Na      -88.46673584     50.76511383    -27.06033516
Na      -91.89933777     13.86316395    -71.46640778
Na       54.96773911      0.50205106    -47.56747055
Na       54.33174515     44.16340256    -34.09876633
Na       -2.69732738     84.62241364    -40.96268463
Na       14.06826973     -0.03156204    -20.34008217
Na      -64.67527771     -3.67040563     -2.74403238
Na       57.72896194    -65.24558258     81.41603088
Na       26.98093224     47.49174881     -0.38737851
Na      -24.19445610    -57.56773376    -30.24884033
Na        6.54067373     44.00991821     34.59544754
Na      -84.80737305     44.21069717     88.70031738
Na      -36.86655426    -44.51735306     81.40983582
Na      -37.35412979    -31.17832565    -54.59025192
Na      -53.97102356     81.67890167     30.62097168
Na       44.28094864     30.66986465     -3.55758047
Na       10.65678120     91.82320404    -81.07733917
Na       75.18299103     64.08964539     54.62777710
Na       12.97000980     68.16060638     37.46683121
Na       88.60733032     33.64596939     -3.38220286
Na       34.05225754      3.41521931    -13.46107960
Na       33.77524567     21.12386513     40.32113647
Na      -54.82411957    -23.22007179    -47.86353302
Na       -0.11948910    -43.70161438    -20.18366432
Na       43.95683670     27.48213577     44.34152985
Na     -118.96662140    -34.01376724      9.76830769
Na       99.00722504     37.54291153     17.44042206
Na      -18.51350403    -30.32026291     57.96713638
Na       37.11237335    -10.71089554     37.71648026
Na      -67.83960724    -13.80748177      0.37823343
Na      -40.43378448     98.65721130     -7.58698177
Na       31.39387894     -0.31775525     57.76538086
Na      115.86263275     37.87727737     19.93715477
Na       51.50202942    -10.05284119     -9.90280819
Na      -16.98571014      0.15440424     37.73245621
Na       40.81936646     20.57148170     33.70945358
Na      -71.12142944     17.12615013    -20.13154602
Na       10.80225945     23.97123909     74.86992645
Na       51.89552689     50.83000183     13.99702072
Na      150.03053284     98.90374756    -47.71354675
Na        6.89060402     27.22333717    -92.28476715
Na      -30.11709213     47.64014435     24.21473694
Na      -10.26363277     64.68218994     23.78664017
Na      -60.13056564     68.60906219     84.59656525
Na      -13.56522465     -0.99588609     23.89860725
Na      -41.71332169    -74.90733337     85.20381165
Na       43.81185150     23.91058922    -20.76878548
Na      -54.40586472    -44.36962891    -27.47096825
Na     -125.48263550     53.84042358    -91.41729736
Na        3.87053132      6.41655397    -10.14082527
Na       27.03882027     47.74810028    -47.45036697
Na       71.84193420    -23.89699745    -44.82793045
Na       33.70430374     -3.89519954    -81.46987152
Na       78.36351013     68.21530151    -30.79305649
Na       57.46501541     85.29724884    -37.24192429
Na       37.61483383     37.20712662     68.48224640
Na      -27.13498116     40.66109467      9.94669056
Na       -3.20961833     47.49872589    -10.02760601
Na      -23.42789841    -24.16351891     -3.42328024
Na       20.81611443     -6.87831211    -50.54386139
Na       10.71405220     71.50935364     58.17443466
Na       -3.87267518    -34.73262024    -44.08024597
Na      -20.26801109    -40.66009140     50.91996765
Na      -27.47697258     61.49139786    -30.41817474
Na       -3.22454429     98.80848694     54.29050064
Na       27.26860619     34.33225250     37.84354782
Na        3.50426936     92.17963409      6.35633373
Na      -23.97591782    -10.98277569     57.58388901
Na      -13.66863632    -68.37791443    -29.92363548
Na      -34.13163376     68.64633179    -68.35366821
Na      -20.39346123    -74.60588837     13.07113457
Na      -10.72588158     72.19502258    122.36037445
Na      -61.22109222    -54.66251373    135.27772522
Na      -24.08531952     20.13778114    -16.75669670
Na      -29.88956451     48.19074249      3.34564853
Na      112.94961548     67.48119354     10.11386585
Na       67.73902130     16.81417847    -13.33683777
Na        3.38690138     64.47930908     18.04524040
Na       34.47573853    -16.61086464     13.76550102
Na      108.98507690    -12.92066669      7.10431910
Na       78.26137543      9.96768951     10.10867310
Na      -34.10624313    -24.74155426     27.12645721
Na       12.67765141    -78.98575592     26.57178116
Na      -40.90116882    -60.80898285    -44.38744354
Na       23.35863686    -64.93811798    -13.11729240
Na      -47.54666901    -68.78049469     54.14780045
Na       68.49201965    -57.17270279     40.68217087
Na       54.37646484      3.25219083    -27.29627228
Na       17.88438606     54.61662674     10.06719685
Na        9.91073895      6.22797298    -91.86511230
Na      -23.63698006     34.40435410     -3.47882342
Na     -115.56826019    -68.63091278    -47.61016464
Na       24.05517387    -78.43562317     54.03585815
Na      115.06041718     30.77258301      6.71337080
Na      -72.19326782     13.09913349    -17.32042122
Na       37.09160995     16.63625526    122.97039795
Na       37.49086761     30.00057602    -37.27694321
Na       93.11708069      3.25288701     47.98087311
Na       17.24694252     17.10333633     88.44721222
Na        6.61654902    -67.96125031     41.05444717
Na       17.56454849    129.19656372     -3.37467599
Na        3.22175670    -33.68750381     44.35409927
Na      -27.13451576     71.74179840     14.30086613
Na       13.44870281     20.35434723     54.24139404
Na       30.32479095    -74.35538483    -44.19819260
Na       24.00498581    -51.34894562     85.55448151
Na       81.62855530     40.46149445    -30.83715820
Na      -51.18142700     -7.37751389    -23.42730713
Na       78.38844299     -3.35164881     24.21700859
Na      -13.86761570     41.13635635    -23.25214195
Na      -27.35074806    -20.12146568    -40.54469299
Na       54.31611633    -20.13600731    -48.04477692
Na       60.99002838      6.94540262   -119.16817474
Na       81.58289337      3.27620196    -13.42422867
Na       -3.40207672     10.33392429    -54.52024460
Na      -40.79788971     51.21599579    -20.32064629
Na       52.00194550      6.92442703     16.89916801
Na      -68.11459351     74.85580444    -64.59778595
Na       -3.73594046     78.74179077     34.29756165
Na       57.58056259     17.41766548     44.72067642
Na      -27.09459114     17.33411789    -47.63210297
Na        2.88378286     50.62926865     27.55399323
Na       40.60308838     27.02538681    -91.78790283
Na       40.71279907     33.70039749    -27.64434052
Na      -34.09371948    -44.01141739     95.51476288
Na       60.93553925     60.47661209     81.63055420
Na      -67.58724213    -26.89165306    -50.95264053
Na       78.71118927    -26.79830551     -3.30905700
Na       64.60003662     85.38623047    -77.91524506
Na       55.05404663      6.22859383     17.40867043
Na      -26.88001823     27.79336166     17.23037148
Na       58.04879761     44.46720886     51.16947556
Na       54.52287292     48.13611603    -71.10345459
Na       14.15431499     67.82757568     17.20812798
Na      -78.37528992     -9.95397091     33.77519226
Na       32.36073303     75.04827118     23.94432259
Na       17.23200035     48.33707047    -37.26709366
Na      -77.77600098     30.72079659     95.28775024
Na      -88.04764557      0.07031486     34.50481415
Na       41.28674698    -23.41825676     40.89381027
Na      -78.63364410    -85.22805786     33.83397675
Na      -34.31966019     13.96596241     23.67698097
Na      -44.36721039    -64.60556793    105.83679962
Na      -64.25768280    -54.69849014     51.04751205
Na      -20.73297119     33.78349686    -24.08021164
Na      -74.63539124     47.30739594     32.48523331
Na       60.78675842     -6.61865568     36.53977966
Na       13.86071205    -61.64045334    -23.63067627
Na       92.86093140     13.39615345     -9.85168362
Na       85.07743073      3.15725589     30.40739250
Na       -0.40092215     51.00428772     27.02769470
Na       37.83342743    -30.76754761    -53.93522263
Na       23.99192238     68.68722534      9.95611477
Na       37.70732117     85.32437897     61.57986832
Na       72.15285492     82.08320618     30.55880356
Na      -34.24644852     -0.24724331    -14.47282124
Na       29.94587898    -13.30305767     23.73972130
Na       10.62492180     -6.14440203     58.07620621
Na      -31.17099190    107.95187378     10.09725380
Na      -37.46881104    -64.09664917    -10.25836658
Na       47.66608810     -6.59698153     67.33883667
Na       54.22435760    -62.16548920    -23.73659897
Na       -9.29219246    -40.88300323    -23.71748352
Na       94.87405396     12.78646564    -67.39757538
Na      -33.98419571      6.83024406     16.99105644
Na      -58.10669327    -17.19049454     13.08981609
Na      -20.31176186     98.02315521     81.69710541
Na        7.69425583     95.08286285      3.58757448
Na      -61.00192261     -0.21914896     17.29773903
Na     -105.99294281     54.87097931    -17.28869247
Na      -10.67237186     88.40768433      3.53293943
Na       64.78319550    115.02307129    -16.83981133
Na       34.15534592     -6.82538223     20.55195427
Na      -13.16407681     -3.24672794     -6.13412476
Na      -47.41424179     71.95396423    -40.93416977
Na       70.60422516    -51.00553513     26.92536926
Na       44.37985229     23.72396088      2.84068632
Na      -57.77125549    -64.99997711     20.72048378
Na       30.77685547     71.11541748     10.28708267
Na        0.19055822     23.55996132     20.77932930
Na       27.03814697     64.88073730     13.48135185
Na       30.73454285    -51.12217712    -33.86965179
Na      -44.42873383     37.14774323     17.43612099
Na      -30.79174042     85.04379272     16.69455528
Na      -13.50432587     75.19266510    -68.12640381
Na       13.81042767     10.63268471    -47.53543091
Na      -13.68416405     75.08825684    -30.33418465
Na       19.90399361     71.72156525    -41.16711426
Na       41.03644180      6.42575598     44.04168320
Na       84.58145142    -57.74252319     64.41944122
Na      -19.19341469     85.09380341     47.40808105
Na       51.61909103    -37.48154068     30.78383446
Na       84.98822784     44.53200150     -6.60685205
Na      -61.32893753     -3.33729696     67.94966888
Na       64.81325531     54.67683792    -30.48530960
Na      -94.95549774     30.59979248    -47.86944580
Na      -23.92188263     30.71226311      6.70826149
Na      -60.70481873    143.16256714    -34.16671371
Na       40.68546295     34.16497040    -13.57927227
Na       58.32704163      0.23535214     44.02138138
Na      -10.10275364     14.21783257     17.35224152
Na       33.70248032    -75.27732849     37.38119888
Na      -44.59786224     37.47388077     47.55006409
Na       19.72674561     60.30820084   -108.48478699
Na       27.40587997    -12.84918118    -14.34046364
Na       58.13245392     13.26976585    -37.30712128
Na       51.12059402    122.39156342     16.91986847
Na       51.11559677     87.79595184     37.47615051
Na        9.37220573     20.58999443    -44.02218628
Na        4.04457855     51.04354477     67.94776917
Na      -11.25766659    112.68744659     58.26431274
Na       27.14214134     81.19155884     13.93891907
Na       68.16968536     91.79128265     -0.05005560
Na       79.30715942    -58.43193054    -16.53520966
Na      -17.62363434      0.26821002     30.55556107
Na       -6.79752064    -24.03151894     47.66853333
Na        6.65169144     47.11957169      0.41177520
Na       10.41232777    -17.44348526     64.85102081
Na      -64.87013245     37.43615341     33.67258835
Na      -18.12981224    -33.93462753     51.06074905
Na      -50.66654205    187.19612122    112.70326996
Na       65.49890900    -64.43900299     44.24769592
Na      -50.86611176    -43.88333511     40.37861633
Na      -38.04425812      6.34325600     37.59189224
Na       -3.25746322     27.21419525      3.24602938
Na       -6.88127661     54.18475342     21.13601303
Na       -7.74648714     37.81730652    101.74805450
Na      -27.35411453    -27.45437431    118.95590973
Na      -20.61015129     61.49645615     61.23985291
Na       -6.87419605    -85.02139282     47.65943527
Na      -20.17696571    -13.45819092     -9.70902252
Na       16.95042610    -43.62779617     13.42836666
Na       78.23889923    -30.87641144    -33.65581894
Na       36.81592560    -51.14649963    -26.52940178
Na       19.79722786     34.28942871    -17.06272507
Na       54.37372589     33.64872742    -27.26206398
Na      119.36300659     33.71331024     23.80827904
Na      -37.12269592    -23.73074722     33.73332214
Na       78.38668823    -17.19034386    -37.73447418
Na       77.48543549    -58.06508636     17.08638954
Na      -82.04257965     -0.39757162    -33.74909592
Na      -74.88299561     -0.13307714     51.43893051
Na      -13.19940758     87.17022705     47.48865891
Na       81.86737061     37.52174377     20.62272072
Na       23.66492081    -16.89844513     -6.89589024
Na       36.85287857     57.99090195    -30.88137627
Na       74.87500763     13.88109493     47.24472046
Na       30.76616859    -16.82456017     -3.17468643
Na      -13.47903728     71.75872803      0.14539528
Na       44.79664230     -3.19324422     16.22510338
Na     -146.83642578     33.62678146     23.83610535
Na       13.31523228    149.60983276     75.33760834
Na      -71.21845245     30.14730453     13.72100163
Na        7.25151968    -20.38740921    -61.51609039
Na      -10.35097027     30.65181923     -6.70449972
Na      -64.56917572     97.96106720     57.89549255
Na       54.67200089     20.88718796    105.07035828
Na      -10.74852276    -30.16533279    -16.35579681
Na       20.68539429     17.08838081      7.17798996
Na       54.70138550     67.59580231     19.58213425
Na       16.50816345     57.77717972    -64.63112640
Na       68.63738251    -40.59046936     34.54251099
Na       34.01837921    -16.82543945      6.37110567
Na      102.51762390     -7.06065321     71.07884216
Na       22.75425148     57.79245377     -3.40602636
Na        6.94076109    -54.42813110     88.22021484
Na       74.63784027     12.84080696    -54.46058273
Na       54.64912033     94.88362122    -26.87875175
Na       65.45333862    -57.89499283    -17.32147026
Na      112.64972687    -23.50792122    -71.48930359
Na      -13.46683979     53.68272781     27.87733269
Na       24.52385712    -28.07311440    -10.13282967
Na        6.97299719     20.55898857    -37.26403809
Na       88.67969513     16.35989380     48.13045120
Na       30.85650826    -17.58709908    109.37824249
Na       81.70221710    -61.36933899    -37.01720428
Na      102.19638062     33.53779221     32.70632172
Na        6.14507723     50.79521179    -47.52179718
Na       78.29512024     64.53012085     -3.02455902
Na      -57.91149902     34.38929367     24.02822876
Na      170.04287720    -26.73976707      0.43829569
Na       34.12120056    173.09083557      0.01097129
Na       43.95915985    119.20278931     64.87174225
Na       -0.01918035     40.84440231    -23.59005356
Na       72.03409576     30.79311371     13.88700199
Na      136.37698364     40.56285858    125.21083832
Na       74.49771118     60.86478043    -30.85874367
Na       81.10108948   -105.88592529    101.88328552
Na      102.10915375     34.44899368    -68.18431091
Na       10.53910923    -44.47182083    -30.35235977
Na      -23.73353004     44.77147293     67.88451385
Na       47.85060501    101.35273743     23.62696075
Na       47.97974014     57.29118729    -13.78097916
Na      -61.25703430    -40.64091492      9.65409946
Na      -98.67199707    -64.41443634     54.40565872
Na      -61.06990433     20.00733566     20.56913948
Na       33.75880814    -54.40924454     19.85202599
Na        6.86182880     78.64846802     20.50480652
Na       16.88604164     16.57669449     -0.88057214
Na      -51.11668396     78.53396606     44.94394302
Na       44.36015701     -3.51139951     -6.93423128
Na       37.76387405     51.01732254     -3.15256476
Na     -139.27070618     91.71215057    -48.31012726
Na       10.03437614    -67.91012573     51.24428558
Na       -9.98289967     17.06849861     92.00331116
Na      -10.15552998    -95.32611847     78.66122437
Na      -47.31470871     78.39026642     13.41952610
Na       23.84808159    -51.19208145     10.22859001
Na       10.18312931    -57.66524124     34.13861847
Na       69.00846863    -17.10618210     20.39486313
Na      -10.06560993     10.06824017      3.01885557
Na      -58.04576111     17.00563622     23.93887138
Na      -27.31164932     20.79907799    -95.01634216
Na       -6.46229219     26.67960930    112.39265442
Na      122.70532990     54.91628265     41.38748169
Na      -61.49864960     17.01558685     54.30086517
Na      -27.17407227     16.78956604    -26.90614319
Na       -6.11543560    -50.90400314    -19.78125191
Na       23.06791496     33.41529083    139.54310608
Na        3.69030523      3.11990523     54.26864624
Na       23.83485031     58.14574051     19.93474579
Na       20.34609795     20.48912239     27.22191811
Na       74.30904388    -40.81259918    -65.06771851
Na      -30.77824211     64.36527252    -23.73849106
Na       20.27868271    -31.06234169      6.00794458
Na       36.81171799    -16.81521034     31.09156990
Na      -85.55068970     -3.03916788    111.95822144
Na       37.67216492     77.24951172     16.87931252
Na      -27.50898170    -21.30671310     58.10655594
Na      -17.52186775    -44.20783997    -47.28099823
Na      -16.31648827     -3.88593745    -13.42752838
Na      -50.86854172     78.90404510     48.21004868
Na      -40.50288010     -6.99592733     -6.41776323
Na      -23.73712730    -41.57410049      3.16742349
Na        6.86905432    -68.17779541     88.97900391
Na       47.68073273    -60.68826294      7.78930664
Na       81.39527893     51.06510925      7.02117491
Na      -10.30423069    -74.66395569     16.69693184
Na       44.53679276     71.20615387     20.40622902
Na       83.74795532     54.60463715     78.33481598
Na        3.23504353     61.23405838     57.97434998
Na      -34.41894531    -17.35731697    -47.69078064
Na       61.47063065     55.02074051    -17.16652107
Na      -81.83940125    -26.92384911     54.52219772
Na       13.82589531     54.10637283     37.35182571
Na      -37.40623856    -34.74813843     84.93501282
Na       40.69610596    -47.15496826     37.43038940
Na      -16.33769798     16.94946671     20.97775459
Na       40.76472473    -26.33310127     48.24502563
Sn        3.54820395     13.67548180      6.74655342
Sn        3.55627012     27.22117424      6.69912863
Sn       17.17974281     13.27192974      6.86775398
Sn       17.49261475     27.29389381      6.72432852
Sn        3.03513575      0.34694466     20.57956505
Sn        3.59605074     13.82734203     20.47778702
Sn       16.88509941      0.05282737     20.20307350
Sn       17.10703468     13.51605511     21.00754356
Sn        3.65979886      0.18417586     13.26020145
Sn        3.31372428     14.03753090     13.76336288
Sn       17.10845566      0.04548357     13.50394630
Sn       16.67061996     13.98995018     13.72460365
Sn        3.76222944     13.04974651      0.01414918
Sn        3.27969074     26.95399284     -0.28765088
Sn       16.94983673     13.37295151      0.14145131
Sn       17.05599785     26.87545967      0.14991201
Sn       10.55878544      6.68810892     20.18356514
Sn       10.42562485     20.67633247     20.34494591
Sn       24.21007347      6.87319088     20.51010132
Sn       24.30581093     20.23170280     20.69845772
Sn       10.05104733      6.84492302      6.82505369
Sn        9.79622173     20.21310806      7.03749180
Sn       23.50064468      6.89521551      7.06318235
Sn       23.60417175     20.56963730      6.89497709
Sn       10.00459766      6.70669031     27.32166100
Sn        9.94408607     20.51806450     27.20184898
Sn       23.65528488      6.79435778     27.62169456
Sn       23.63453674     20.54309845     27.49651146
Sn        9.78366184      6.51257801     13.73040771
Sn       10.29199982     20.03035927     13.67459393
Sn       23.50185013      6.47426462     13.77654362
Sn       23.80887222     19.96175003     13.74368000
Sn        9.79380417     -0.18331921     20.86509705
Sn        9.92428303     13.76232529     20.51084328
Sn       23.64800262      0.19556075     20.38947678
Sn       23.75314522     13.39745426     20.32153702
Sn       10.60509014     13.92008972      6.86749315
Sn       10.46980286     27.43029594      6.90431690
Sn       23.78871346     13.70462132      6.48507357
Sn       24.30037498     27.73616028      6.91380978
Sn       10.17488575     13.29829025     13.80302429
Sn        9.98027229     27.00957298     14.01006699
Sn       23.78227425     13.48474789     13.53583050
Sn       23.79724884     26.97736549     13.82493496
Sn       10.22127247     -0.11476775      0.17501527
Sn       10.34117889     13.76161575      0.49237308
Sn       23.59832573      0.08097170      0.07354488
Sn       23.90007591     13.81008434      0.11824676
Sn        3.07603121      7.00300789      6.97340965
Sn        3.17907310     20.67484856      6.89735508
Sn       16.85893631      7.01475716      6.92611361
Sn       16.65472031     20.54762459      6.60104990
Sn        3.89475513      7.17553663     20.46209145
Sn        3.63773251     20.60390472     20.73167992
Sn       17.35375404      6.98180103     20.29458427
Sn       17.33340073     20.46988678     20.36404037
Sn        3.15324354      6.15596247     -0.16066872
Sn        3.29847717     20.14368629      0.26407439
Sn       17.03967094      6.86562729      0.16218701
Sn       17.13515854     20.10951614     -0.08484791
Sn        2.96284008      7.11106634     13.74665928
Sn        3.24513698     20.67126846     13.65671825
Sn       17.08140755      7.21525383     13.34131718
Sn       17.02078819     20.99000931     13.78674603
S         1.73945713      4.64387894      1.12580514
S         1.84193373     18.49851608      1.66005528
S        15.60131168      5.47103119      1.31582689
S        15.85055351     18.54154396      1.25056005
S         4.12965059      8.29642296     15.24620819
S         4.89853048     21.81318474     15.05864716
S        18.34917068      8.62093735     14.73743057
S        18.89816856     22.19360161     15.27977562
S        11.80696583     12.10250664      7.95408869
S        12.11879253     25.90514565      8.02039337
S        25.02113342     12.52354813      8.25605297
S        25.48807907     26.12875938      8.29635143
S         8.17148972      1.37868071     21.94163895
S         8.75012112     15.25152111     22.19032669
S        22.22424316      1.85953081     21.37924576
S        22.34862900     14.52714825     21.89577675
S         4.49784136      5.23597145     25.13428879
S         4.66620445     18.62722969     26.12607193
S        18.01345825      5.17691183     25.75394440
S        18.78825569     18.89545822     25.65603256
S         1.55417264      8.54261494     12.44781399
S         1.89360046     22.10802650     12.24090576
S        15.49591446      8.29834843     11.97850609
S        15.63941002     22.10400963     12.15797806
S         9.00243187     12.39811897     18.92055130
S         8.50435543     25.66134834     19.36334229
S        22.25300789     12.16554260     18.97774696
S        22.27824402     25.63300705     19.42786789
S        12.01062489      1.48457432      5.47859335
S        12.17388916     15.35171890      5.56894779
S        25.81219101      1.66056800      5.63021421
S        25.55657005     15.26270199      5.30507421
S         9.02361202     11.90402889     15.41302299
S         8.64946556     25.46083260     15.23583031
S        22.19775200     12.06260967     14.99911308
S        22.51670265     25.08345795     14.79779339
S        11.62989330      1.33677387      1.54516757
S        11.75791359     15.38818169      1.59233630
S        25.14411354      1.45068800      1.48284161
S        25.22451591     15.09176540      1.86832333
S         5.02415180      5.78882933     21.94931412
S         5.09820843     18.95799446     21.88485336
S        18.61102867      5.20058250     21.64878082
S        18.48614502     19.01478386     21.88417816
S         1.34737849      8.08378506      8.25636482
S         1.67238986     22.11955643      8.02913666
S        15.31628323      8.26602840      8.30583000
S        15.42035866     22.12041092      8.16667366
S        11.22788143     11.90450573     11.95972157
S        11.41063499     25.50754738     12.26320934
S        25.32031250     11.79279709     12.19129944
S        25.42082214     25.85391808     12.43345928
S         8.84537888      1.36598480     25.89078331
S         8.90121460     14.92349148     26.26813507
S        22.42585945      1.36070716     25.59551811
S        22.56695557     15.17438126     25.98326302
S         1.89101505      5.33750963      5.35313129
S         1.71123409     19.11281967      5.60290623
S        15.41138172      5.58793259      5.64009809
S        15.18346024     19.12338257      5.33880997
S         5.45650721      8.34593105     19.16035080
S         4.82449198     22.02759171     18.99093246
S        18.81760597      8.10024166     18.75509262
S        18.58537865     21.94684792     18.98394203
S        11.45658112      8.33592606     26.32426834
S        11.33090782     21.58036041     25.71916008
S        25.17069244      8.16790867     26.01395035
S        24.71691895     22.10573578     26.09273720
S         8.32374573      4.99508286     12.33651733
S         9.04350567     18.70588112     12.05988121
S        22.22171783      4.99850607     12.25705814
S        22.26961517     18.61149406     12.48883152
S         1.62792468      1.86410379     19.10545158
S         2.06747651     15.22605324     19.22603416
S        15.40111542      1.65317178     18.89741707
S        15.51661015     14.35783195     19.41417313
S         4.92326069     12.44474983      5.33474731
S         4.91980934     25.67442513      5.63216734
S        18.60766220     11.83041668      5.41703367
S        18.59315681     25.79975319      5.53016281
S         8.31125164      8.02408123      1.31003726
S         8.51256466     22.02799988      1.22008860
S        22.43740845      8.12028503      1.86385787
S        22.55616379     21.64505959      1.90357769
S        11.24972725      5.15810728     15.09145069
S        11.99531555     18.88804054     15.04490089
S        25.21231270      5.14494419     14.87238026
S        25.36890221     18.53185844     15.12232304
S         5.20661116      1.02426469      8.11822224
S         4.85142136     14.77025414      8.21795273
S        18.94222641      1.51851082      7.99888992
S        18.41741562     15.12047386      8.13957214
S         1.91204524     12.46935749     21.71665001
S         1.70242763     25.95805168     21.68492889
S        15.52835369     12.06355190     22.24267387
S        15.39040470     26.11688805     21.88196564
S         4.80697107      1.76154637     11.77664375
S         4.80337238     15.17672825     12.30994701
S        18.27176666      1.67372727     12.28600693
S        17.91349220     15.47552395     12.14685059
S         2.19769239     11.67228603     26.10995102
S         1.66478860     25.60897255     25.63235474
S        15.68405056     11.77003860     26.04277229
S        15.62493992     25.40904427     26.16891861
S         8.64148426      8.48477554      5.49948263
S         8.57495689     22.03349113      5.80781174
S        22.50692749      8.18641949      5.49144411
S        22.24072266     22.03033447      5.51952600
S        11.71067429      5.36938095     18.74395370
S        11.94010639     19.25718689     19.16397667
S        25.69803047      5.37242079     19.32561493
S        25.36975861     18.46503258     19.19073105
S         2.08900213      1.49030828     14.82383823
S         1.85552764     15.48120403     15.33401489
S        15.73136044      1.79904747     15.11379719
S        15.71344185     15.53475189     15.39045143
S         5.10288858     11.59723473      1.40565789
S         4.63485765     25.36617661      1.00656533
S        18.34739304     11.74882793      1.51684785
S        18.72577095     25.35771561      1.40797257
S        11.98395538      7.66627741     21.80406761
S        11.91549587     21.82564926     21.79548454
S        25.61188889      8.39191628     21.98458099
S        25.47705078     21.80707741     22.06335449
S         8.46433067      5.42107105      7.88205624
S         8.47422123     18.78993416      8.44403744
S        21.59623909      6.05904579      8.18291187
S        22.40464211     19.19641685      8.24789524
S         2.07153916      0.65922016      1.49759710
S         2.15197659     14.30881310      1.43804991
S        15.73506260      1.09399617      1.57683396
S        15.68266964     14.88926220      1.41101110
S         4.76849222     12.43161869     14.84984779
S         4.83423853     26.05073929     14.78677082
S        18.40838814     12.87897968     14.66268349
S        18.54137802     26.34620667     15.15749359
S         1.80993164     12.40098953      8.05954266
S         2.13303566     25.88366318      8.17620468
S        15.98478413     11.80193996      8.47717094
S        16.03617477     26.09102058      8.27454853
S         4.47499657      1.57999372     21.82486916
S         4.66128635     15.18239212     22.24639893
S        18.06542206      1.28304815     21.89459801
S        18.86586761     15.10038376     21.81240845
S         4.69613934      1.02138889     25.77097511
S         4.97151089     14.58919334     25.91716957
S        18.48737335      1.20935619     25.99765015
S        18.59764862     14.48364830     25.98063278
S         1.98352337     12.92243385     12.19078445
S         2.29840946     25.94178391     11.97806263
S        15.10743427     12.66716862     12.20440197
S        15.32315826     26.39754868     12.23468304
S         5.01412058     12.38138962     19.06751633
S         4.47053432     26.25467873     18.96176720
S        18.34919548     12.63181400     19.22053909
S        18.28233147     25.66177750     18.95350456
S         2.16320109      1.19832540      5.15554571
S         2.16973853     15.14529896      5.30733013
S        15.83126926      1.37229657      5.47791481
S        15.73791313     14.91788769      5.67657423
S         8.20765781      7.97313976     15.26618004
S         8.88446903     21.49654579     15.03875732
S        22.25571632      8.03145599     15.07734871
S        23.01231956     21.55251503     15.28413296
S        11.33257294      5.66104937      1.80538464
S        11.54796696     19.52796745      1.38420951
S        25.15442276      5.45307207      1.49766600
S        25.17237854     19.11782074      1.41226220
S         9.21006203      5.24962950     21.31407928
S         9.20512867     18.91660881     21.67805862
S        22.51092148      5.32230854     21.73678780
S        22.73937607     18.98853111     22.09340668
S        11.28206825      8.37554550      8.15078163
S        11.38264465     21.58448982      8.02423477
S        24.93828773      8.23678493      8.38692188
S        24.83962631     21.83172989      8.29251766
S        11.17602921      7.91449165     12.37485504
S        11.83755684     21.49708557     12.17351627
S        25.06560326      7.81898737     12.49324322
S        25.08925247     21.08533287     12.23174572
S         8.95910549      5.22922087     25.58604050
S         8.55509949     19.14479637     26.00883675
S        22.13832283      5.63734293     26.03799057
S        22.08981895     19.11567879     26.01071930
S        11.54737186      5.26020908      5.60875988
S        11.00813198     19.11167145      5.31137800
S        24.71317291      5.35789299      5.51821566
S        25.14311790     19.19095421      5.51278496
S         9.04326820      8.03645325     18.91957474
S         8.87775707     21.98012924     19.15141869
S        22.82584000      7.92586565     18.90214729
S        22.85021019     21.47744942     19.27265930
S        11.75571537     12.48944283     26.09490967
S        11.78412151     25.75404739     25.97261047
S        25.37736130     12.45652771     25.76676750
S        25.15575600     25.94956970     25.92489624
S         8.78070927      1.16417074     12.64569378
S         8.59709263     14.32155418     12.20280552
S        22.74129868      1.12396371     12.32656288
S        22.47326088     14.72378826     12.06325340
S        11.06066132      1.14517212     19.28115654
S        11.90451145     15.21069336     19.33434105
S        24.90506935      1.37229276     18.60811424
S        24.98909760     14.87963390     18.86712456
S         8.97431660     12.47202110      5.77761984
S         9.19495869     26.09470177      5.47733927
S        22.71146584     12.26580620      4.89061785
S        23.05302620     25.96759033      5.31638002
S         8.90029716     12.28113937      1.28476620
S         8.88964748     25.60049057      1.41942239
S        22.47114944     12.08438110      1.52315438
S        22.22678566     25.84353065      1.33675039
S        11.45913792      1.03481185     15.50660801
S        11.94820213     14.83498383     14.98384094
S        25.14230347      0.99453908     15.29985237
S        25.54763985     14.51487255     14.80388737
S         9.07958508      1.36998558      8.56622791
S         8.97180271     14.94481468      8.33268929
S        23.01261711      1.83147895      8.39714336
S        22.24893761     14.89756775      7.78853369
S        11.23253441     12.03149223     21.61949921
S        11.60309410     26.04463387     22.06776428
S        25.14480782     12.17019463     21.75146484
S        24.82685089     25.88932419     21.90151978
S         4.60903025      5.89392996     12.17726326
S         4.64938116     19.39622688     12.17901039
S        18.37281227      5.59408855     12.12516403
S        18.03991508     19.37711143     12.27593327
S         1.79452646      7.71242142     25.93542099
S         2.19942522     21.43488121     25.77126122
S        15.81426525      8.25170326     25.78755760
S        15.70275974     21.45025253     25.74139404
S         4.52690744      8.16607857      5.46414757
S         4.69436741     21.72513390      5.19345570
S        17.98842430      8.10404015      5.20129919
S        18.00294685     21.86403465      5.19941139
S         2.48693895      5.48474026     19.20606613
S         2.27462983     19.26111984     19.40604019
S        16.08085632      5.73554277     18.69845581
S        15.91287422     19.01987457     19.16517258
S         1.78561091      5.35558748     15.12077618
S         1.81406283     19.35496902     15.27956676
S        15.86591911      5.82898378     14.89032841
S        15.47089672     19.73109055     15.10771179
S         4.47836685      7.23581457      1.52364564
S         4.62327051     21.65977478      1.72614110
S        18.43036079      8.23984814      1.28286052
S        18.54749870     21.30250740      1.60259700
S         2.36676264      8.45055008     21.77342606
S         2.81769800     21.79653358     22.49686623
S        16.07925606      8.39772129     21.75765228
S        15.82126045     21.77577209     21.85185814
S         4.46085453      5.53450918      8.39391613
S         4.45281649     19.22718430      8.39210892
S        18.10731506      5.67728519      8.53547478
S        18.22200775     19.26944351      7.88801193
S         1.32891452      2.53098941      8.95503521
P         0.04677905      3.60792685     10.19257450
S        -1.17562580      4.74626970      8.96836472
S        -1.01395893      2.34041238     11.38829708
S         1.15039790      4.88556528     11.36825371
S         1.32891452     16.14579010      8.95503521
P         0.04677905     17.22272682     10.19257450
S        -1.17562580     18.36107063      8.96836472
S        -1.01395893     15.95521259     11.38829708
S         1.15039790     18.50036240     11.36825371
P        13.66157818      3.60792685     10.19257450
S        14.94371414      2.53098941      8.95503521
S        12.43917370      4.74626970      8.96836472
S        12.60083961      2.34041238     11.38829708
S        14.76519680      4.88556528     11.36825371
S        14.94371414     16.14579010      8.95503521
P        13.66157818     17.22272682     10.19257450
S        12.43917370     18.36107063      8.96836472
S        12.60083961     15.95521259     11.38829708
S        14.76519680     18.50036240     11.36825371
S         8.07471085      9.14614868     22.61940765
P         6.89163589     10.19873905     23.90862656
S         5.62674999     11.38945198     22.83204651
S         5.82599831      8.87564850     25.11843300
S         8.04984188     11.40234184     25.15697098
S         8.07471085     22.76094818     22.61940765
S         5.62674999     25.00424957     22.83204651
P         6.89163589     23.81353951     23.90862656
S         5.82599831     22.49044609     25.11843300
S         8.04984188     25.01713943     25.15697098
S        21.68950844      9.14614868     22.61940765
P        20.50643349     10.19873905     23.90862656
S        19.24154854     11.38945198     22.83204651
S        19.44079781      8.87564850     25.11843300
S        21.66464043     11.40234184     25.15697098
S        21.68950844     22.76094818     22.61940765
P        20.50643349     23.81353951     23.90862656
S        19.24154854     25.00424957     22.83204651
S        19.44079781     22.49044609     25.11843300
S        21.66464043     25.01713943     25.15697098
S        26.27467155     11.16697121     18.33880043
S        28.55627823      8.72286510     18.17870331
S        28.66435623     11.24189854     15.95078182
P        27.42511559     10.03538895     17.04462051
S        26.22481155      8.93389606     15.77915859
S        26.27467155     24.78177261     18.33880043
S        28.55627823     22.33766556     18.17870331
S        28.66435623     24.85669899     15.95078182
P        27.42511559     23.65019035     17.04462051
S        26.22481155     22.54869652     15.77915859
S        12.65987206     11.16697121     18.33880043
S        14.94147968      8.72286510     18.17870331
P        13.81031322     10.03538895     17.04462051
S        15.04955864     11.24189854     15.95078182
S        12.61001110      8.93389606     15.77915859
S        12.65987206     24.78177261     18.33880043
S        14.94147968     22.33766556     18.17870331
S        15.04955864     24.85669899     15.95078182
P        13.81031322     23.65019035     17.04462051
S        12.61001110     22.54869652     15.77915859
S         5.33018923      4.41139507      4.51503038
S         7.92009449      2.28690720      4.76248741
S         7.84899044      4.56582499      2.26728678
P         6.70190191      3.29413009      3.45909548
S         5.69071388      1.95248342      2.25232363
S         5.33018923     18.02619553      4.51503038
S         7.92009449     15.90170765      4.76248741
S         7.84899044     18.18062401      2.26728678
S         5.69071388     15.56728363      2.25232363
P         6.70190191     16.90892982      3.45909548
S        18.94498825      4.41139507      4.51503038
S        21.53489304      2.28690720      4.76248741
S        21.46378899      4.56582499      2.26728678
P        20.31669998      3.29413009      3.45909548
S        19.30551147      1.95248342      2.25232363
S        18.94498825     18.02619553      4.51503038
S        21.53489304     15.90170765      4.76248741
S        21.46378899     18.18062401      2.26728678
P        20.31669998     16.90892982      3.45909548
S        19.30551147     15.56728363      2.25232363
S         5.66090107      2.23965740     18.17482376
P         6.83333492      3.45262146     16.98561287
S         8.10164452      4.68017149     18.06549644
S         7.98205566      2.27116585     15.78032589
S         5.58365917      4.65904808     15.85623550
S         5.66090107     15.85445690     18.17482376
P         6.83333492     17.06741905     16.98561287
S         8.10164452     18.29496956     18.06549644
S         7.98205566     15.88596535     15.78032589
S         5.58365917     18.27384758     15.85623550
P        20.44813538      3.45262146     16.98561287
S        19.27570152      2.23965740     18.17482376
S        21.71644592      4.68017149     18.06549644
S        21.59685516      2.27116585     15.78032589
S        19.19845963      4.65904808     15.85623550
S        19.27570152     15.85445690     18.17482376
P        20.44813538     17.06741905     16.98561287
S        21.71644592     18.29496956     18.06549644
S        21.59685516     15.88596535     15.78032589
S        19.19845963     18.27384758     15.85623550
S        26.04081917      9.06585693      4.69432783
P        27.29017448     10.11887264      3.44682360
S        28.62958336     11.21020794      4.56447363
S        28.31366348      8.81820297      2.19851542
S        26.16272163     11.41280270      2.27718925
S        26.04081917     22.68065643      4.69432783
S        28.62958336     24.82500839      4.56447363
P        27.29017448     23.73367310      3.44682360
S        28.31366348     22.43300438      2.19851542
S        26.16272163     25.02760124      2.27718925
S        12.42602062      9.06585693      4.69432783
P        13.67537689     10.11887264      3.44682360
S        15.01478386     11.21020794      4.56447363
S        14.69886398      8.81820297      2.19851542
S        12.54792118     11.41280270      2.27718925
S        15.01478386     24.82500839      4.56447363
S        12.42602062     22.68065643      4.69432783
P        13.67537689     23.73367310      3.44682360
S        14.69886398     22.43300438      2.19851542
S        12.54792118     25.02760124      2.27718925
P         6.61541605     10.23576450     10.11287880
S         7.82621670     11.29561710      8.80991650
S         5.19793081      9.15745163      9.03971481
S         5.59178972     11.56023407     11.30496883
S         7.80205965      8.95129108     11.16529369
P         6.61541605     23.85056496     10.11287880
S         7.82621670     24.91041756      8.80991650
S         5.19793081     22.77224922      9.03971481
S         5.59178972     25.17503357     11.30496883
S         7.80205965     22.56609154     11.16529369
S        21.44101715     11.29561710      8.80991650
S        18.81272888      9.15745163      9.03971481
S        19.20659065     11.56023407     11.30496883
P        20.23021507     10.23576450     10.11287880
S        21.41685867      8.95129108     11.16529369
S        21.44101715     24.91041756      8.80991650
P        20.23021507     23.85056496     10.11287880
S        18.81272888     22.77224922      9.03971481
S        19.20659065     25.17503357     11.30496883
S        21.41685867     22.56609154     11.16529369
S        14.85338497      4.44817972     22.60559654
S        12.30653381      2.29842520     22.75352859
S        12.54321575      4.73259497     25.06800270
P        13.60410881      3.41886640     23.86085701
S        14.70904350      2.17197299     25.12597466
S        14.85338497     18.06298065     22.60559654
S        12.30653381     15.91322422     22.75352859
S        12.54321575     18.34739304     25.06800270
P        13.60410881     17.03366661     23.86085701
S        14.70904350     15.78677368     25.12597466
S         1.23858511      4.44817972     22.60559654
S        -1.30826652      2.29842520     22.75352859
S        -1.07158363      4.73259497     25.06800270
S         1.09424412      2.17197299     25.12597466
P        -0.01069169      3.41886640     23.86085701
S         1.23858511     18.06298065     22.60559654
S        -1.30826652     15.91322422     22.75352859
S        -1.07158363     18.34739304     25.06800270
S         1.09424412     15.78677368     25.12597466
P        -0.01069169     17.03366661     23.86085701
