2048

       Li  1.5355980606975610E+001  1.0195327329098339E+001  3.6078373955361700E+000 Li1 1
       Li  1.0484180741375704E+001 -2.5652552307802132E+001  2.5693800304512980E+001 Li2 2
       Li -6.6107626006094069E+000 -1.5850735469540359E+001  1.7158112564061128E+001 Li3 3
       Li  1.4527644275268237E+001  8.8767838649735253E+000  1.6684121975228233E+001 Li4 4
       Li  1.0627367500720618E+001 -1.1796317664311671E+000  2.4836548668392023E+001 Li5 5
       Li  6.3127352829564156E+000 -5.4913643934020415E+000  2.1479270303193974E+001 Li6 6
       Li  1.4958747218795191E+001  3.2936813365886337E+000  4.2217487676681351E+001 Li7 7
       Li  7.0400106007935372E+000  1.0081046608608144E+001  2.9553718627907166E+001 Li8 8
       Li -2.4592277277843912E+000  2.1530817602472805E+001  8.1022439293140511E+000 Li9 9
       Li  2.7609353215034965E+001  4.5125298400036833E+000 -2.6741261239929946E-002 Li10 10
       Li  1.9197220793072571E+001  8.2483863634930081E+000  1.2704281390440320E+001 Li11 11
       Li  1.0577557280695746E+001  1.6599995835664600E+001  5.0772923236055163E+001 Li12 12
       Li  1.9239835283786675E+001  4.0425793142090662E+001  1.6777735937874464E+001 Li13 13
       Li  1.9107368043412244E+001  3.5053106574401760E+001  4.2037095665512901E+001 Li14 14
       Li -1.8907813794689401E+000  4.3484630180677982E+001  1.2869112786767683E+001 Li15 15
       Li  1.1300192617266433E+001  2.9670731782579921E+001  2.1887581172057537E+001 Li16 16
       Li -1.5304959204837898E+000 -8.5181164660185207E+000 -8.3813747269808498E+000 Li17 17
       Li  2.3748062308750548E+001  3.3907231019351811E+000  4.3678200022886884E+000 Li18 18
       Li  3.6832137284826359E+001 -9.8922023871567055E-001  3.8168915955766508E+001 Li19 19
       Li  1.9177247750417674E+001  1.0606352493101921E+001  3.4289611719456367E+001 Li20 20
       Li  1.5744309881401323E+001  1.3167672828822100E+001  2.0877977788815933E+001 Li21 21
       Li  1.8188444922753078E+000  7.8094137139975928E+000 -2.0247806913520053E-001 Li22 22
       Li  3.6519535534819383E+001  4.7051111155120850E+001  8.9717923068986103E+000 Li23 23
       Li  1.9998565752248627E+001  2.3646038937998263E+001  3.7653516393156472E+001 Li24 24
       Li  1.9853342338270199E+001  4.7617936157801843E+001  1.2784496091171684E+001 Li25 25
       Li  3.6705702524055091E+001  2.6477799555300749E+001  4.6695932407335569E+001 Li26 26
       Li  2.8178774647591613E+001  4.1633419338641176E+001  4.2378670386733006E+001 Li27 27
       Li  1.9381421636035991E+001  1.7023812360859612E+001  2.5000278493707530E+001 Li28 28
       Li  1.0577575791085815E+001  3.5186787596709870E+001  2.1302375852073478E+001 Li29 29
       Li  1.9620477711314287E+001  2.3231979628706267E+001  9.0358418035944563E+000 Li30 30
       Li  1.9597783581922879E+001  3.8515604026403288E+001  5.5631027638571219E+001 Li31 31
       Li  1.9351380414699793E+001  1.9788931038219218E+001  3.4423065207802409E+001 Li32 32
       Li  3.3150017543600967E+001 -1.0913294408706410E+001  3.9026629544290032E+001 Li33 33
       Li  4.0913606282373223E+001  6.3574480295627325E+000  2.6221082654165510E+001 Li34 34
       Li  2.3484480379665275E+001  1.5411779854339670E+001  3.4416538801030185E+001 Li35 35
       Li  4.0586901620729435E+001  1.1890005224379477E+001  3.2615869014374958E+001 Li36 36
       Li  2.3631760308562701E+001  1.2448014295960908E+001  4.2066804389936891E+001 Li37 37
       Li  1.4870038439879675E+001 -6.0171889324282795E+000 -5.7857762859240858E-001 Li38 38
       Li  2.8157614169964777E+001  1.1394407745794936E+001  3.0173086134403302E+001 Li39 39
       Li  1.9629648589288539E+001 -7.5448005394367121E-002  4.6787152618484384E+001 Li40 40
       Li  1.0680572914444884E+001  1.0861038162704308E+001  9.3235236190054405E+000 Li41 41
       Li  3.6631139038654887E+001  2.8622905905845599E+001  2.6025687090621386E+001 Li42 42
       Li  1.4646295450046876E+001  1.8237011223810768E+001  3.3993268703808106E+001 Li43 43
       Li  3.6711078709386086E+001  2.3038253698481380E+001  4.2500053156632497E+001 Li44 44
       Li  2.8658926420688694E+001  4.1533763228924208E+001  2.0781684614904922E+001 Li45 45
       Li  2.7606513265678174E+001  3.1365103315419720E+001  1.6954916307889064E+001 Li46 46
       Li  2.7920105027702569E+001  2.0021038996314243E+001  4.3185083763174887E+001 Li47 47
       Li  1.9665438271013787E+001  1.7867350513291104E+001  2.1152280617546495E+001 Li48 48
       Li  2.7833101966660017E+001 -4.5825583855970144E+000  2.5487986247043946E+001 Li49 49
       Li  3.3135794178044662E+001  8.9318571846590089E-001  3.7976648447959654E+001 Li50 50
       Li  3.7123105803002510E+001  1.1667819624872065E+001  3.8475386037000447E+001 Li51 51
       Li  3.7125162289923118E+001  5.8048805856079664E+000  2.9106509254006127E+001 Li52 52
       Li  3.1720183559290774E+001  1.7548880432134978E-001  8.3898995975496344E+000 Li53 53
       Li  3.6450699783852293E+001  1.9858303589131310E+001  8.9969044333236781E+000 Li54 54
       Li  3.2195780362840971E+001 -5.5958935569089272E+000  2.4940908735558491E+001 Li55 55
       Li  3.7439780763557131E+001  2.7030526107015220E+001  2.9829319195438938E+001 Li56 56
       Li  4.0103374985890859E+001  2.4265661107770782E+001  2.6660735356520600E+001 Li57 57
       Li  1.9413661511992860E+001  2.1028139585300742E+001  2.1439030922887348E+001 Li58 58
       Li  4.6012675399342527E+001  3.2589529092448650E+001  2.0437819629722853E+001 Li59 59
       Li  1.1107577355841389E+001  2.3469828711701357E+001  3.7980816851279243E+001 Li60 60
       Li  2.8314547347691480E+001  1.4204744675544026E+001  2.7146263270196624E-001 Li61 61
       Li  3.6510326680772479E+001  2.4787493089910814E+001  1.5864295789573552E+001 Li62 62
       Li  3.2109074173476131E+001  2.1469453629043219E+001  2.5002967092657517E+001 Li63 63
       Li  3.6444783886809404E+001  3.8166804046933343E+001  3.4696268067480133E+001 Li64 64
       Li  2.2230161158415789E+000 -1.5450677075976394E+001  1.3615615554486599E+001 Li65 65
       Li  2.5130829896205236E+000 -1.2561679225226127E+001  2.1040700127766378E+001 Li66 66
       Li  1.0936006004523538E+001  8.2284135489247969E+000  2.9880012021613457E+001 Li67 67
       Li  1.7698238463230966E+000  4.1480428123115045E+000  1.6953373895164763E+001 Li68 68
       Li  1.9712233515278108E+000 -1.4582788611611257E+000 -4.9557891205952570E-001 Li69 69
       Li  6.1978707122525334E+000  3.0480390283018579E+000  1.6294673231186827E+001 Li70 70
       Li  8.5022521945910654E+000 -7.7837467953879678E+000  3.5890744916698743E+001 Li71 71
       Li  1.0720510596503079E+001  1.4203436977071817E+001  3.4028115841099861E+001 Li72 72
       Li -5.9431015380080536E+000  2.9879962530022969E+001  1.3140315423712918E+001 Li73 73
       Li -3.2065144791163966E+001  5.7369691192309178E+000  3.4179507114088929E+000 Li74 74
       Li -1.4550490853108903E+001  1.4578794692743804E+001  2.9155649706268857E+001 Li75 75
       Li  1.1180546863632255E+001  2.9621442088598279E+001  1.3590694251016348E+001 Li76 76
       Li -2.6843484315605743E+000  3.3397207796225516E+001 -7.6183346215712699E+000 Li77 77
       Li  1.1336647229333295E+001  3.2613569869338875E+001  1.2244567628274680E+001 Li78 78
       Li -1.0233576892387664E+001  2.7873727946404031E+001  1.2371433968366128E+001 Li79 79
       Li -6.4885821116686841E+000  2.0224496467387404E+001  2.1372591586372909E+001 Li80 80
       Li  2.3675868674065214E+001  3.3739788500596828E+000 -3.7737384870253177E-001 Li81 81
       Li  6.8977596546105664E+000 -2.9040651246745281E+001  2.1611878492940086E+001 Li82 82
       Li  3.2200825193610264E+001  2.7723038663542262E+001  4.2732405309602647E+001 Li83 83
       Li -2.5315706627995764E+000 -5.6820291431648124E+000  4.1802827857338102E+001 Li84 84
       Li  2.3545215309278912E+001  1.2741716093801047E+001 -4.2282223217806632E+000 Li85 85
       Li -1.1211579909349052E+001 -5.7672846159039830E+000  1.6495681011033515E+001 Li86 86
       Li  6.8705048727966176E+000  6.9611157097490928E+000  4.7139646293147372E+001 Li87 87
       Li  1.0588159029886445E+001 -9.9318224351175104E+000  3.8337964654087941E+001 Li88 88
       Li  1.0417708859351752E+001  1.7079310055920423E+001 -4.7494618188321147E-001 Li89 89
       Li  2.2344471766994731E+000  8.0043227208114551E+000  7.9763561660330495E+000 Li90 90
       Li  1.5658637207287647E+001  1.6115592193583137E+001 -3.6586397763153902E+000 Li91 91
       Li  1.9284924808364710E+001  2.8715209824159079E+001  2.5513600021398918E+001 Li92 92
       Li  1.0962939062963118E+001  1.7125428674714467E+001  1.2850131191479319E+001 Li93 93
       Li  6.9114193050597139E+000  3.7126217623169744E+001  1.2479804069381093E+001 Li94 94
       Li  6.1604143505339257E+000  3.5285384482814535E+000  2.9716423458157909E+001 Li95 95
       Li  1.1343664752351986E+001  3.9079419666811852E+001  2.4825124835801457E+001 Li96 96
       Li  2.8049396072359709E+001 -4.3337800761860894E+000  8.5824774708864098E+000 Li97 97
       Li  1.5115867998705816E+001 -3.0015213942994343E+000  2.0493732547999517E+001 Li98 98
       Li  6.4025302662798360E+000  2.9700624211071536E-001  1.7246899715467013E+001 Li99 99
       Li  2.4516497794420420E+001  1.0460752424550217E+001  4.5559820111248754E+001 Li100 100
       Li  1.5190742141905403E+001  6.1309399768486497E+000  8.6833142752651327E+000 Li101 101
       Li  1.0653834366198719E+001  4.7676588779002227E+000  3.3913281762301722E+001 Li102 102
       Li  2.8095291411828381E+001  1.1415945193067895E+001  4.2223819546039621E+001 Li103 103
       Li  2.7812127583178825E+001  1.6918427026741288E+001  4.1932429036724216E+001 Li104 104
       Li  6.0086904511995503E+000  1.4440278894577646E-001  8.4297556713296871E+000 Li105 105
       Li  1.9195861932407396E+001  2.1895850091693319E+001  2.5274468651294736E+001 Li106 106
       Li  2.8404907714353801E+001  2.9475034271141794E+001 -3.8111808277394750E+000 Li107 107
       Li  1.4848863559536706E+001  1.2298505077462009E+001  2.4555852529107931E+001 Li108 108
       Li  2.3398623354547176E+001  3.0535961375134718E+001 -2.8955215179522409E-001 Li109 109
       Li  2.8301080860696484E+001  3.5355738678428736E+001 -4.2846443220516619E+000 Li110 110
       Li  2.8120762457656397E+001  1.0902187528781939E+001  5.1517250348418671E+001 Li111 111
       Li  2.8697438830322444E+001  4.1584224752432497E+001  3.7660038295675321E+001 Li112 112
       Li  3.2217101460058750E+001 -5.6276129218851114E+000 -7.0907916026921580E-001 Li113 113
       Li  2.4046389668441389E+001  8.5002792436720698E-001  3.8421867234782603E+000 Li114 114
       Li  2.8055855238266147E+001  1.0754929578430239E+001 -8.0118878489706145E+000 Li115 115
       Li  1.9968165087371901E+001  1.1648936617250452E+001  2.1817766852199192E+001 Li116 116
       Li  2.0154340685676235E+001  9.1169084538552632E+000 -4.5096206191047843E+000 Li117 117
       Li  2.8048677224683974E+001  1.7899002569142193E+000 -7.9430488102404171E+000 Li118 118
       Li  3.2887753865652734E+001  1.0141568014714593E+001  3.7502555788695389E+001 Li119 119
       Li  2.3561210748802448E+001 -2.9066443466501144E+000  3.4173198808602422E+001 Li120 120
       Li  2.0198844470808268E+001  1.4272417443267214E+001  1.2342319522536576E+001 Li121 121
       Li  2.4376173402336907E+001  7.2869048755849963E+000  1.3081787807971473E+001 Li122 122
       Li  1.9542465132836536E+001  1.7211253155262302E+001  2.9968569643511664E+001 Li123 123
       Li  1.9436305453421046E+001 -3.9625621740649759E+000  4.0621515513226636E-001 Li124 124
       Li  2.3637501902704621E+001  4.8696741173371358E+001  1.6653571119942889E+001 Li125 125
       Li  1.5579935177083513E+001  1.9048941989561172E+001  1.2232371172090767E+001 Li126 126
       Li  3.1886873524385337E+001  3.9597885838415557E+001  3.3418991264385767E+001 Li127 127
       Li  2.7978771223411325E+001  2.6423873442881721E+001 -4.1855617632681081E+000 Li128 128
       Li -2.2059357954515000E+000  3.5631532655866458E+000  4.4021198485856958E+000 Li129 129
       Li -1.0897835327946682E+001 -2.8310428867319968E+000  1.6934419181605982E+001 Li130 130
       Li -2.3085127734356869E+000  3.4988995121804960E+000  2.9797651780344736E+001 Li131 131
       Li  2.5905575187098093E+000  2.7079494518015901E+000  3.8454384564914889E+001 Li132 132
       Li -1.4687086334123503E+001 -3.5594151776320349E+000 -4.8258059497766244E+000 Li133 133
       Li -6.5959040160855604E+000  1.7405013772532094E+001  4.5434663979777739E+000 Li134 134
       Li  6.0850651934279805E+000  2.1311155991204163E+001  7.9377310066117905E+000 Li135 135
       Li  2.0593553465054240E+000 -4.1608010066280006E+000  8.7894656290593360E+000 Li136 136
       Li  2.4273120702463955E+000  3.2493887118696172E+001  2.0914139087371055E+001 Li137 137
       Li -3.5335610234010223E-001  2.5081209401312734E+001  3.1596181080568019E+001 Li138 138
       Li  1.5006623535682863E+001  2.7479259587352203E+001  4.2497188372239435E+001 Li139 139
       Li  1.5000181682848803E+001  3.6426767516621801E+001  2.5580731240421034E+001 Li140 140
       Li  1.0495654634451169E+001  4.4011760385191238E+001  2.5182293830456508E+001 Li141 141
       Li  1.0489287881435517E+001  1.9495334840705318E+001  2.5550715040021860E+001 Li142 142
       Li -1.0397504793426906E+001  2.7888598156666554E+001  3.7905141023298654E+001 Li143 143
       Li  1.5519464238627949E+001  4.6326489012668425E+001  4.6346832998945892E+001 Li144 144
       Li  1.4941354367897928E+001  1.2934488933231000E+001  1.2734781935633899E+001 Li145 145
       Li  1.5534042580405570E+001 -1.9020274877191992E+000  3.0225211622476508E+001 Li146 146
       Li  1.0535410709247557E+001  1.0655268592822726E+001  1.7430544590581530E+001 Li147 147
       Li  1.9421768495196567E+001 -7.3257291031530762E+000  3.4006767114920315E+001 Li148 148
       Li  1.0678222400343794E+001  8.2313576510956068E+000 -3.5711120556073089E-001 Li149 149
       Li  3.1094181239887284E+001  2.4497417414918491E+001  3.6164498185861554E+001 Li150 150
       Li  1.4761087711567448E+001  8.8044713058029647E+000  2.5299418217517040E+001 Li151 151
       Li  2.8485426669884799E+001  1.1646601122502553E+001  5.5851711582332115E+001 Li152 152
       Li  1.0892739890017051E+001  2.3153595764453204E+001  1.8589563438114884E-001 Li153 153
       Li -2.4493891816576561E+000  1.2278102730528950E+001  1.6445374519024075E+001 Li154 154
       Li  1.5669667015856188E+001  3.6883972909707495E+001  2.9317015702539198E+001 Li155 155
       Li  6.8060643363400448E+000  3.7086015569381274E+001  2.9076979879917353E+001 Li156 156
       Li  2.2128677148858693E+000  2.9591607183878189E+001  4.6109015909552662E+000 Li157 157
       Li  6.0974208975292701E+000  2.7250829246442770E+001  2.5192733583052547E+001 Li158 158
       Li  1.9325613970752855E+001  2.5851009676329497E+001  3.3942478443458420E+001 Li159 159
       Li -1.0547371610590810E+001  2.8383891378543996E+001  5.1798849161964085E+001 Li160 160
       Li  1.1372959834147068E+001  2.3567493071759770E+001 -2.1332792370756277E+001 Li161 161
       Li  2.4462960824075321E+001  1.9052817312497961E+001  2.0547168403455622E+001 Li162 162
       Li  3.2165439896296988E+001  6.3675035612899205E+000  9.3094978279006320E+000 Li163 163
       Li  2.3820924304158776E+001  3.6546726074670355E+000  8.3288697142558679E+000 Li164 164
       Li  6.6907122520970530E+000  1.8773242321495974E+001  3.9744220640308061E+000 Li165 165
       Li  2.3524800995863611E+001  2.1546342970551908E+001 -4.0012405437256660E-001 Li166 166
       Li  1.9165524348406720E+001  2.6056821030170926E+001  8.1274394354165214E+000 Li167 167
       Li  1.1127620956365574E+001  1.3970147248359249E+001  5.9383522149797564E+001 Li168 168
       Li  1.9322661255981952E+001  2.8901887361079734E+001  1.7222423514812121E+001 Li169 169
       Li  1.4970403475380582E+001  2.1451931710750305E+001  3.3406176209477515E+001 Li170 170
       Li  1.0489344288616952E+001  1.3695136738540114E+001  1.7187757372925375E+001 Li171 171
       Li  2.4308663367043057E+001  2.8308800909172788E+001  2.9502184256843389E+001 Li172 172
       Li -2.6172307171195426E+000  1.2387600050942607E+001  7.7632741927671152E+000 Li173 173
       Li -2.0371216534109204E+000  2.5208645649732652E+001  2.1495677067044497E+001 Li174 174
       Li  1.4876154608863400E+001  5.1647611644036964E+001  4.3078049719190602E+001 Li175 175
       Li  2.3392549995812224E+001  3.9798266516415396E+001  2.1421817248529230E+001 Li176 176
       Li  3.2005870407818598E+001  2.6746780473578720E+001  3.3784236652761138E+001 Li177 177
       Li  3.3076036095446511E+001 -8.0415284604461572E+000  2.0857230660251233E+001 Li178 178
       Li  6.9332534082194073E+000 -2.0206271355582260E+001  3.0359342676410972E+001 Li179 179
       Li  3.6181503946391501E+001  3.1837950489608687E+001  2.5553207963399561E+001 Li180 180
       Li  2.4563980008763437E+001  6.8439718083252288E+000  3.0833287211933889E+001 Li181 181
       Li  4.1081434234265899E+001  2.1784443645373813E+001  3.8321713407557873E+001 Li182 182
       Li  1.5146166151473905E+001  2.1744829240631702E+001  2.9768314381313438E+001 Li183 183
       Li  3.6664176099266633E+001  7.8558969595906865E+000  3.8544894976243533E+001 Li184 184
       Li  1.9091090952887253E+001  1.6768180153480966E+001  8.0660715122198443E+000 Li185 185
       Li  2.7401864325192328E+001  3.4949723329249437E+001 -4.3821014595184654E-001 Li186 186
       Li  2.8464689683880511E+001  1.1048527556191107E+001  3.8433991724258775E+001 Li187 187
       Li  1.9084625997077090E+001  1.6989922633387057E+001  3.3765980161928695E+001 Li188 188
       Li  2.8036942298721218E+001  2.5663226893327320E+001  2.5277453303710701E+001 Li189 189
       Li  2.7619386625214521E+001  2.8694693177518243E+001  9.0200643833804719E+000 Li190 190
       Li  2.3504148869174553E+001  2.4211473392869038E+001  8.9681859664727277E+000 Li191 191
       Li  4.0824617342787349E+001  4.2472084097077271E+001  4.2759158860759058E+001 Li192 192
       Li  1.9981270045213355E+000  1.0692931682778889E+001  3.4433708520330384E+001 Li193 193
       Li -2.4268878719017790E+000  3.4225757423304728E+000  2.5043482819270434E+001 Li194 194
       Li -2.5961858991811897E+000  1.2338530638756414E+001  3.3510420508856825E+001 Li195 195
       Li  1.4437232097299356E+001  6.2512244708624696E+000  2.6366486220303422E+001 Li196 196
       Li  1.4781836488178477E+001  2.4610118830149649E+001 -7.9268287020743822E+000 Li197 197
       Li -1.8034235266438796E+000  9.9269963642013384E+000  2.0804471716899016E+001 Li198 198
       Li -1.5296033843529122E+001  8.4111843109827156E+000  2.1301650629054965E+001 Li199 199
       Li  1.0646062510508836E+001  1.9968446075662261E+001  5.1106855010117791E+001 Li200 200
       Li  1.1889722182302574E+001  3.6236918498577481E+001  3.8056873006569475E+001 Li201 201
       Li -1.4902183164696181E+000  2.8184229375894454E+001  2.9205676105610344E+001 Li202 202
       Li -1.5167349184470948E+000  6.9447877927715025E+000  2.1747104603642118E+001 Li203 203
       Li -6.0811421042170481E+000  2.8536626252852120E+000  3.8334796204826446E+001 Li204 204
       Li -1.0852072767885847E+001  1.5212719268707529E+001  1.7185460574163681E+001 Li205 205
       Li  6.3830050330933679E+000  3.3629374915525190E+001  1.7243598855974220E+001 Li206 206
       Li  6.9898941340856888E+000  4.6327312291769857E+001  3.7619265843566893E+001 Li207 207
       Li  1.8213452270356441E+000  2.5964200731641178E+001  4.2009691553586485E+001 Li208 208
       Li  1.6024735848224786E+001  9.8812013837920920E-001  3.3421532335193587E+000 Li209 209
       Li  6.7545111909089517E+000 -1.1499849273327525E+001  2.0981859085764626E+001 Li210 210
       Li  1.1093964036582786E+001  1.1559309126394060E+001  4.7163085636243402E+001 Li211 211
       Li  6.5323772281447559E+000 -1.0810391463944034E+001  3.8304691186482934E+001 Li212 212
       Li  1.4994141888590756E+001  3.0835204646351354E+001  2.5099274048614394E+001 Li213 213
       Li  1.9361343817037543E+001  1.9611981483641770E+001  8.7796402003705083E+000 Li214 214
       Li  1.4640612314540633E+001  2.4351277023401806E+001  3.4583456699501795E+001 Li215 215
       Li  1.4935829508473654E+001  2.3707354156501463E+001  1.7401077103241583E+001 Li216 216
       Li  1.1287744442441625E+001  2.7129954538922089E+001 -4.4289199046739700E+000 Li217 217
       Li  1.0576498702116405E+001  3.5136873334360828E+001  1.6859597920063436E+001 Li218 218
       Li  1.5252113266151461E+001  1.2671758863740031E+001  2.9697520037385964E+001 Li219 219
       Li -6.2529607428045155E+000  3.2249904039421374E+001  3.7848275652649960E+001 Li220 220
       Li  1.5394306829246814E+001  5.2319985307252907E+001 -2.9397531373401389E+001 Li221 221
       Li  2.3707376581994438E+001  5.7554711891632635E+001  4.5125644972060286E+000 Li222 222
       Li  1.9778210804428756E+001  4.7643283887910997E+001  3.7935308094824464E+001 Li223 223
       Li  2.2940969986725723E+000  3.5128554213763415E+001  2.0899948453328140E+001 Li224 224
       Li  1.9254718784235020E+001  7.7384019801421848E+000  1.6553147545692987E+001 Li225 225
       Li  2.3572486712930953E+001  1.2728556355267468E+001  1.2895434631745591E+001 Li226 226
       Li  1.1237801713096010E+001 -3.5016433828784175E+000  2.9468884181584123E+001 Li227 227
       Li  1.9406368085203553E+001 -1.1074403629597254E+000  2.5103335131108015E+001 Li228 228
       Li  1.0829056733758010E+001 -7.5135517849471976E+000  1.7348512330346549E-001 Li229 229
       Li  1.5455877102557299E+001  1.6057261159884881E+001  4.7382785859873216E+001 Li230 230
       Li  2.3826752511114698E+001  1.6343520949840848E+001  3.0344782392065394E+001 Li231 231
       Li  2.3148857837782074E+001  1.5272890710850650E+001  6.0232352755753332E+001 Li232 232
       Li  1.5787360718976801E+001  3.1692586548167629E+001 -4.1747928936132581E+000 Li233 233
       Li  1.3546505178516307E+001  2.1187263464161049E+001  1.5148503023945388E+001 Li234 234
       Li  2.3600408712852632E+000  2.3925409005093179E+001  1.2184502044542324E+001 Li235 235
       Li  1.1253176188068418E+001  1.1738375800301169E+001  3.8498377565132280E+001 Li236 236
       Li  1.1314560988528180E+001  2.9589950260742764E+001  5.1222872732556430E+000 Li237 237
       Li  2.4030908305466252E+001  3.4253060253285611E+001  2.9696838737579824E+001 Li238 238
       Li  1.6717327858746035E+001  2.4929060674835604E+001  4.8372723439795749E+001 Li239 239
       Li  2.7653763088999771E+001  4.0909184712233014E+001  5.9429998297523390E+001 Li240 240
       Li  3.2443857506196352E+001  3.5435941354375400E+000 -2.5552716695927604E+001 Li241 241
       Li  2.8333568933035480E+001  1.4368608030685117E+001  3.7722217844886750E+000 Li242 242
       Li  2.3573354246709140E+001  6.4661256309297830E+000  2.6141516934210003E+001 Li243 243
       Li  1.8989862297737350E+000 -2.2310641431650623E+001  4.2318797028331424E+001 Li244 244
       Li  1.9118477024776322E+001  1.9387816891743730E+000 -7.9264393289699626E+000 Li245 245
       Li  1.1162955819103161E+001  2.4472579219928567E+000 -1.2357976326769457E+001 Li246 246
       Li  2.9029320180090188E+001  1.4660447648281279E+001  2.0341422183699994E+001 Li247 247
       Li  2.7984425123925579E+001  8.1995224861173330E+000  4.6500168838856432E+001 Li248 248
       Li  4.0906593205747079E+001  3.9781790620908744E+001  2.1620773696526015E+001 Li249 249
       Li  3.2236284559178401E+001  1.8509687449041060E+001  1.7095034298095282E+001 Li250 250
       Li  2.4344094395579113E+001  2.4871931393758786E+001  1.3217744993128179E+001 Li251 251
       Li  4.4961622990175201E+001  3.8018729034899849E+001  6.8617632970157729E+001 Li252 252
       Li  3.6716079713911043E+001  3.5611994232236491E+001 -4.2486857852604247E+000 Li253 253
       Li  4.0967990705150733E+001  6.3580398180234965E+001  8.5514304330911131E+000 Li254 254
       Li  6.2495719789718525E+000  3.0138827433254747E+001  7.7883391198022753E+000 Li255 255
       Li  1.4937355037179408E+001  2.1436316744757612E+001  8.2794437219133776E+000 Li256 256
       Li  2.0432092844898628E+000  1.0527497756222417E+001 -1.6568093021842969E+001 Li257 257
       Li  1.9947972315520271E+001  3.2977757080611568E+001  5.4206043444864726E+001 Li258 258
       Li  1.5467134669285738E+001  7.0455186274349932E+000  1.3601219339291070E+001 Li259 259
       Li -2.5453295931170521E+000 -2.9171459969024887E+000  1.7725696805297314E+001 Li260 260
       Li  1.0969922065150209E+001  1.1685989141721736E+001  2.1480053686187993E+001 Li261 261
       Li  1.0792584223888717E+001  2.0253078289423073E+001  2.1382470772484751E+001 Li262 262
       Li -6.8682343914352382E+000  1.1088911382079722E+001  3.4548490417668781E+001 Li263 263
       Li  2.5160065907593614E+000  1.4464061909942640E+001  3.7780694564656457E+001 Li264 264
       Li  6.5766722176249663E+000  1.2728225944962169E+001 -3.9455626402377502E+000 Li265 265
       Li  2.0407589425691786E+000  1.9707984669152314E+001  2.5039262114983249E+001 Li266 266
       Li -2.3543297992777145E+001  2.0582684778708323E+001  4.3320732782067104E+000 Li267 267
       Li -2.6183679518262961E+000  8.9978836209361450E+000  1.7100667201535973E+001 Li268 268
       Li  1.1367348052833048E+001  4.1562189279562240E+001  2.0867252576994986E+001 Li269 269
       Li -2.5341093802588248E+000  2.4599816855448651E+001 -7.7395661381209431E+000 Li270 270
       Li -2.5274626320745144E+000  2.2102617103791079E+001  4.3607011719425639E+000 Li271 271
       Li  2.3809301003467358E+001  5.7782414289913696E+001  1.6637722758019205E+001 Li272 272
       Li  1.5133487759754797E+001 -2.7148359048649096E+000  1.7444678276340820E+001 Li273 273
       Li  2.0164637579030622E+001  5.6930822526903384E+000  2.0489231028074030E+001 Li274 274
       Li  1.4885381255234172E+001 -5.4586304260881828E+000  4.2304333148835568E+001 Li275 275
       Li  6.9875666252144022E+000  6.9129792495046667E+000  3.0410037908509835E+001 Li276 276
       Li  1.9724260660459934E+000 -1.1498637189706504E+000  8.0515372936581713E+000 Li277 277
       Li  1.1014753465914609E+001  2.6834386408352544E+000 -4.0218451518028022E+000 Li278 278
       Li  1.5602948429008537E+001  1.9040028180299572E+001  2.0894212018867048E+001 Li279 279
       Li  2.2611065596983764E+000  1.4374963513335469E+001  3.4113197213982325E+001 Li280 280
       Li  1.9521272673844159E+001  4.1136477094261068E+001 -6.2729911807017424E-002 Li281 281
       Li -2.0691260542663965E+000  1.6436264296422827E+001  3.8464344114133837E+001 Li282 282
       Li  1.0421113827358287E+001  2.5703664182546703E+001 -1.0082256023419967E+000 Li283 283
       Li  6.8074605955471172E+000  1.0278878512911778E+000  2.0654467033593814E+001 Li284 284
       Li  2.4199753239543673E+000  1.1582762506484173E+001  2.1681764957250085E+001 Li285 285
       Li -6.2216772541640148E+000  2.3638419348778758E+001  2.9393753030918106E+001 Li286 286
       Li  1.1179239204612175E+001  3.2230928203561845E+001  2.5664404744371598E+001 Li287 287
       Li  1.4963959637951453E+001  3.0000778380657412E+001  1.6087350922597164E+001 Li288 288
       Li  2.4232075136856011E+001  1.1850993750441143E+000  1.2486113089091505E+001 Li289 289
       Li  2.3362546176664740E+001  2.2746037773509167E-001 -8.3652544242441280E+000 Li290 290
       Li  2.8645275163596235E+001  2.3632584828233782E+001  2.0851577711480591E+001 Li291 291
       Li  1.9838426768630661E+001 -1.6622748760989617E-001  2.9680338695601897E+001 Li292 292
       Li  1.0530256227751314E+001  2.8873604543436539E+001 -7.8128509483586246E+000 Li293 293
       Li  2.7853437572834906E+001  8.3204113574866856E+000 -4.1171398708297522E+000 Li294 294
       Li  2.4023588522970119E+001  2.5782175593050702E+001  5.0603782925051050E+001 Li295 295
       Li  1.5016409298911782E+001  9.0695560424756039E+000  8.5381351563514283E+000 Li296 296
       Li  1.9751699662873325E+001  2.3710523938672928E+001 -4.7806068877908290E+000 Li297 297
       Li  3.2805423303257598E+001  1.9046707419648822E+001  1.2455045605362981E+001 Li298 298
       Li  2.3098985858581464E+001  4.2567448095972473E+001  3.4938156770531464E+001 Li299 299
       Li  3.2843253712570181E+001  3.6826786821087701E+001  4.6462307041616540E+001 Li300 300
       Li  2.3819003938808059E+001  3.0971821018691951E+001 -2.1321148069714223E+001 Li301 301
       Li  2.7912187544425141E+001  2.6289296124574555E+001  1.2930251020701116E+001 Li302 302
       Li  3.2147551723687961E+001  4.5532024563477734E+001  2.5731267758594452E+001 Li303 303
       Li  2.7535665402564671E+001  4.0295256580208132E+001  1.6795027268498110E+001 Li304 304
       Li  4.0863744383808168E+001  2.3281180629335343E-002  9.4146899535302267E-002 Li305 305
       Li  4.5599348386173041E+001  1.1096236585963519E+001 -4.2932683917938927E+000 Li306 306
       Li  3.2153030427552530E+001 -5.5310237608732944E+000 -1.7278429430045769E+001 Li307 307
       Li  1.9904212636372414E+001  5.6157178921958781E+000  3.8161296533131170E+000 Li308 308
       Li  3.7644169871033540E+001  1.8010073335461719E+001 -2.6120099714358302E-001 Li309 309
       Li  3.6116133259194719E+001  1.3505218064614288E+001  2.5351217885628547E+001 Li310 310
       Li  2.4286183549882196E+001  1.8971354613001324E+001  3.7867429796877182E+001 Li311 311
       Li  2.3065636626288644E+001 -9.2422973224412530E+000  2.5514501304746052E+001 Li312 312
       Li  3.6677239444936149E+001  1.7369313975752355E+001 -4.0965420612839809E+000 Li313 313
       Li  2.3510259938723305E+001  2.4114259959697968E+001  2.5726157905867449E+001 Li314 314
       Li  3.2108642683918532E+001  5.1387302299913621E+001  8.9162533565524582E-001 Li315 315
       Li  2.0083101560280859E+001  2.0400790628362735E+001  3.0402931349421156E+001 Li316 316
       Li  2.8470102020296970E+001  5.0704569153064810E+001  1.2577171661952120E+001 Li317 317
       Li  1.8937535570683391E+001  2.6206914862686560E+001  1.6524920271498953E+001 Li318 318
       Li  3.6704468053798358E+001  1.7472459492876457E+001  2.1373853531020984E+001 Li319 319
       Li  2.3262131255305057E+001  4.5333364561203986E+001  2.5429126992758103E+001 Li320 320
       Li  6.8036856026123749E+000  7.0757737896853969E+000  4.3983303060794103E+000 Li321 321
       Li -1.5568437911260668E+001 -1.3527949750560637E+001 -1.4219102620675161E-001 Li322 322
       Li  1.4734413078974425E+001  6.9391938725114038E-002  1.6889083463603715E+001 Li323 323
       Li  1.9104861007798416E+001  7.6891966388974344E+000  2.5331276390985462E+001 Li324 324
       Li -6.8630814201481343E+000  7.9259573047522158E+000 -2.4920869102087045E-001 Li325 325
       Li  9.1535587600106805E+000  1.8512891596494683E+000  2.7310066836287341E+001 Li326 326
       Li -2.0890239812531788E+000 -5.2065931624235349E+000  1.3012388623766627E+001 Li327 327
       Li  1.4955026832395527E+001  1.1846181611796123E+001  5.0146064605107824E+001 Li328 328
       Li  2.0630601015807097E+000  1.0472274538485696E+001 -8.1243863613776313E+000 Li329 329
       Li -6.7557527237548154E+000  1.3688268745646312E+001  1.6899158631340654E+001 Li330 330
       Li  6.9360313820488049E+000  9.8245639259762410E+000  1.2378299672324815E+001 Li331 331
       Li -6.5906641807216610E+000  1.9772871571318948E+001  5.9619271829461717E+001 Li332 332
       Li -1.7130053671856647E+000  4.3274611205904833E+001  4.9156563015938213E+000 Li333 333
       Li  1.1411900642069051E+001  4.1703289156987388E+001  3.7450429885063770E+000 Li334 334
       Li  3.5183513273296811E+001  5.2681602218903585E+001  3.2272051295791677E+001 Li335 335
       Li  1.9024814329174846E+000  8.1221337600397341E+000  2.9932154679619778E+001 Li336 336
       Li  1.9463170770254475E+001  1.7031393405863234E+001  1.2772938065700300E+001 Li337 337
       Li  1.9982675449741532E+001  5.5887064940634543E+000  1.2089566973371834E+001 Li338 338
       Li  1.5594594812708866E+001  1.0183587209552225E+000  4.6261597811566041E+001 Li339 339
       Li  2.1379167596212366E+001  2.4411660742437302E+000  4.0328982752496252E+001 Li340 340
       Li -1.7961664441410197E+000  9.5763031511557468E+000  8.5941640126030023E+000 Li341 341
       Li -1.7941048749137407E+000 -4.5476640672035824E+000  4.2863674051412461E+000 Li342 342
       Li  1.0757678076775774E+001  1.7272001308304063E+001  2.9845203890860411E+001 Li343 343
       Li  1.5318339010487962E+001  2.5046643079479818E+001  3.0190462552777980E+001 Li344 344
       Li  1.4863878238331750E+001  3.0708272740563757E+001  2.1251554418755461E+001 Li345 345
       Li  2.3632678940690560E+001  2.7903637213473491E+001  3.4121542189090221E+001 Li346 346
       Li  2.3829705556239645E+001  2.2032764499785959E+001  2.1133671304820908E+001 Li347 347
       Li  1.1009622938422353E+001  2.0048686931998631E+001  4.6471633140248322E+001 Li348 348
       Li  1.9811072979740292E+001  3.2568415727736152E+001  4.1478403296265762E+000 Li349 349
       Li  6.5513408721745234E+000  3.3664649578116361E+001  4.2549332718677846E+000 Li350 350
       Li  1.0474649244275486E+001  1.3813356005987119E+001  4.2379832103229113E+001 Li351 351
       Li -1.6380354061378573E+000  9.8709044786593516E+000  4.6251996672199866E+001 Li352 352
       Li  3.2978259875566160E+001  1.3703150981595964E+001  4.2736220221485244E+000 Li353 353
       Li  2.4169635330034399E+001  7.6831871238180058E+000  8.2696742046029001E+000 Li354 354
       Li  3.2293816914429513E+001  1.2271239528527595E+001  2.4893984652204210E+001 Li355 355
       Li  2.4205384091311458E+001  9.6764170775540084E+000  3.7952573960982569E+001 Li356 356
       Li  3.6293865571142419E+001  4.3698973634269951E+000 -8.6728783721793032E+000 Li357 357
       Li  2.7877622828863966E+001  7.8557456845124252E+000  2.5132386963625404E+001 Li358 358
       Li -1.8915666531337407E+000  7.5283575382748360E+000 -3.9682906163983995E+000 Li359 359
       Li  3.7049514260224605E+001  1.1559330193575848E+001  3.0522060979255556E+001 Li360 360
       Li  1.0457883601217121E+001  8.2733971049306287E+000  2.1414965587331366E+001 Li361 361
       Li  6.9173269997313032E+000  1.9288462709912842E+001  2.0705131411340972E+001 Li362 362
       Li  1.9775190869671498E+001  2.3564811043780306E+001  1.7214518642092806E+001 Li363 363
       Li  1.1024925951980844E+001  8.6581944700639006E+000  1.2536468453211199E+001 Li364 364
       Li  3.6807298165176547E+001  2.8780676508238678E+001  1.7561471563140380E+001 Li365 365
       Li  2.4416389683296423E+001  3.7221927518384625E+001  2.0637662757309915E+001 Li366 366
       Li  4.9668689394538220E+001  5.7692298765274899E+001  2.5168165785277775E+001 Li367 367
       Li  2.4216148856030198E+001  1.5822553393081604E+001  3.8847224389534176E+001 Li368 368
       Li  2.0015199438614022E+001 -3.0805943537506320E+000 -2.2261564053815757E+001 Li369 369
       Li  3.2344363007095744E+001  3.3430917746287898E+000  1.3151743534101058E+001 Li370 370
       Li  1.9499517941339128E+001  5.2771024673188149E+000  8.5722579504574163E+000 Li371 371
       Li  1.0450707141573380E+001  7.6607496070119341E+000  4.1714989553749255E+001 Li372 372
       Li  2.7722409079819812E+001 -1.2004028945250136E+000  8.0606331175363479E+000 Li373 373
       Li  3.2242403615922079E+001  1.5411449245914222E+001  2.5855607415979510E+001 Li374 374
       Li  2.3433114825692662E+001  3.4606636972222309E+000  1.6608255653972787E+001 Li375 375
       Li  2.7971030460956626E+001  2.9371635316295706E+001  3.3527746608578795E+001 Li376 376
       Li  4.9868246187910259E+001  2.7873251827158374E+001  1.2403639398471912E+001 Li377 377
       Li  1.4844270538291537E+001  1.4996874116490478E+001  4.0348633510076853E-001 Li378 378
       Li  3.2968175911564266E+001  1.6315482916582997E+001  4.7010106876456163E+001 Li379 379
       Li  2.8445721623616517E+001  2.0576185964962146E+001  2.9835579609163581E+001 Li380 380
       Li  4.0787431258762702E+001  3.3147690469128477E+001  2.5709677429515807E+001 Li381 381
       Li  4.5156124961749605E+001  2.5891676280739187E+001  1.6787752390972081E+001 Li382 382
       Li  3.6913258254834247E+001  4.4316218642278457E+001  2.1119135016128958E+001 Li383 383
       Li  2.8215187491186139E+001  3.6015007822667549E+001  3.8153163379995362E+001 Li384 384
       Li  2.4399776075158739E+000  2.0469773085138762E+001 -4.1496874070884298E+000 Li385 385
       Li  2.0987002569622044E+000  4.9432147607657040E+000  8.5527716964422247E+000 Li386 386
       Li  1.7600553310400986E+000  2.8530494716797339E+001  8.4755096189744226E+000 Li387 387
       Li  3.0094816172041274E+000  5.4007273665988498E+000  5.4634417018430831E+001 Li388 388
       Li  6.0370550089798636E+000  1.5259639036463154E+001  2.5853349452381355E+001 Li389 389
       Li -5.9906263628125274E+000  5.6465923633155013E+000  1.2027093833486619E+001 Li390 390
       Li  2.3653116158151919E+000  1.4691037025235225E+001  2.9122266566425459E+001 Li391 391
       Li  1.0528993026242620E+001  2.8970156281126410E+001  1.7269340014150156E+001 Li392 392
       Li -1.6252034710610445E+001  1.9889002054111032E+001 -6.7507572141711041E+000 Li393 393
       Li  2.8288275601225074E+001  2.2957838389817660E+001  2.5595366918329507E+001 Li394 394
       Li  6.2329027172870726E+000  2.1204014075058993E+001  2.5040333349429758E+001 Li395 395
       Li  1.6278372869413871E+000  2.2499314901584317E+001  3.3726399121478558E+001 Li396 396
       Li  1.5532876704277660E+001  4.6081102386431233E+001 -4.3803077483270716E+000 Li397 397
       Li  2.4544676562849506E+000  3.2590404976818675E+001  1.2661247139495076E+001 Li398 398
       Li  1.7326594334397549E+000  4.3773839012235086E+001  1.6607688720143670E+001 Li399 399
       Li  2.1892181373575617E+000  3.1019030082497224E+001  3.3717100819017993E+001 Li400 400
       Li  1.6017034903432066E+001 -4.7734662888065014E+000  4.0829132647708537E+000 Li401 401
       Li  2.4442747633044100E+000  1.9432788091802227E+000  1.3234716856955767E+001 Li402 402
       Li  5.9910403513353696E+000  1.5215003790032238E+001  1.7434304515983477E+001 Li403 403
       Li  1.9452429392668183E+001  1.0632197214801110E+001  2.5990198546494341E+001 Li404 404
       Li  1.5671710958618746E+001  2.2583784784626445E+001  2.1099868637295454E+001 Li405 405
       Li -1.7351201040441968E+000  8.0713521637165853E-001  2.9470143491448862E+001 Li406 406
       Li -2.2247340525659132E+000  2.4660312220285221E+001  2.9186224935532323E+001 Li407 407
       Li  7.1587037385986418E+000  1.8955735672601509E+001  2.9360467707471809E+001 Li408 408
       Li  1.9660470006718832E+001  4.8103792634731860E+001 -3.6659158130146312E+000 Li409 409
       Li -6.6940495838787299E+000  8.1254365918585254E+000  2.1284902107681464E+001 Li410 410
       Li  1.5116410819443500E+001  6.1568391376323728E+000  1.7221098536019490E+001 Li411 411
       Li  1.4920332748258980E+001  2.4421197074621396E+001  3.7791674110085474E+001 Li412 412
       Li  2.3546539586520183E+001  3.9310791765480332E+001 -8.6869100951356515E+000 Li413 413
       Li  1.9279763875456357E+001  3.7789224652970972E+001  8.6362545972189633E+000 Li414 414
       Li  1.0717080335788616E+001  2.6317668548611898E+001  1.2917212877399495E+001 Li415 415
       Li  6.4034473846808861E+000  3.3298153347043048E+001  3.4277243387418402E+001 Li416 416
       Li  2.5889628764496044E+000  1.4442207150845668E+001  2.0922228321455087E+001 Li417 417
       Li  3.5546430846542485E+001  2.9047886971330772E+001  6.9232977514507482E+001 Li418 418
       Li  6.0860096369489360E+000  6.2039153144326979E+000  3.4567733339603912E+001 Li419 419
       Li -7.0872839214645387E+000 -1.3506188367830717E+001  3.3800001400982396E+001 Li420 420
       Li  3.3064129842652790E+001  2.7642216930407066E+001  5.0982229681979966E+001 Li421 421
       Li  1.5373822386162182E+001  1.2899559571259589E+001  4.3629177274698678E+000 Li422 422
       Li  4.0708720551759654E+001  2.1416778771890765E+001 -3.9998696959632773E-001 Li423 423
       Li  1.9775218347870020E+001  5.6914672853008614E+000  6.3135482962815999E+001 Li424 424
       Li  1.0809706093436358E+001  3.1787443244865567E+001 -1.6833345128893285E+001 Li425 425
       Li  1.9704586676294596E+001  3.0233920403174654E+001  1.2988673826748137E+001 Li426 426
       Li  1.5680672761114048E+001  1.6343404977088792E+001  2.1707807627734297E+001 Li427 427
       Li  1.9786523862386285E+000  1.7045214998985887E+001  4.2127110456597741E+001 Li428 428
       Li  2.7897492525131266E+001  4.9969726771249562E+001 -8.4561464081740372E+000 Li429 429
       Li  1.4894782920353746E+001  1.5319358862772981E+001  2.6174257796496338E+001 Li430 430
       Li  1.0758812203337577E+001  4.0781307403860083E+001  1.6958246253716485E+001 Li431 431
       Li  2.3361230920665669E+001  3.6172492062575621E+001  3.3951724954985622E+001 Li432 432
       Li  1.9341669421939621E+001 -2.0763981440706325E+000  2.2302050261833848E+001 Li433 433
       Li  2.7810000385764283E+001  8.0674180804912332E+000  8.2295902313295208E+000 Li434 434
       Li  3.1821910702019828E+001  3.4971049314096372E+000  1.6714731746815765E+001 Li435 435
       Li  1.4771931944328493E+001 -1.1907501690000021E+001  4.2819610831520336E+001 Li436 436
       Li  2.8102244694276415E+001  1.9612799858070410E+001  7.1980221028243021E-003 Li437 437
       Li  2.8564192896810439E+001  3.8626500567606712E+001  2.1929492656815277E+001 Li438 438
       Li  1.0882646105490261E+001  1.7210797096654971E+001  5.5115667029827648E+001 Li439 439
       Li  1.9833657109673720E+001  1.4436782088245643E+001  3.7971297299845141E+001 Li440 440
       Li  1.5720608069594491E+001  1.8769156033182831E+001 -4.4686380398932002E+000 Li441 441
       Li  2.4121934226225648E+001  2.5437474984469890E+001  2.1471088199640803E+001 Li442 442
       Li  2.3612382008138891E+001  3.0747191637870191E+001  2.9796016488331826E+001 Li443 443
       Li  4.1295805031941882E+001  2.7813828503514927E+001  2.0926279667478866E+001 Li444 444
       Li  3.6294010836243338E+001  3.8154351014868169E+001  9.2228767602767885E+000 Li445 445
       Li  3.1836001725105831E+001  3.1118698273493912E+001 -4.2025144453598759E+000 Li446 446
       Li  3.7103972171559903E+001  2.9722299018823488E+001  2.1850002783183911E+001 Li447 447
       Li  1.4897298452792107E+001  1.2342149390762261E+001  3.3509189253145472E+001 Li448 448
       Li  1.5126023369370895E+001  1.8557403808441766E+001  8.4398595037891795E+000 Li449 449
       Li  1.9633182534607556E+001  5.3932180374198442E+000 -8.3194519091919386E+000 Li450 450
       Li  1.9303014711184986E+001  1.0906343297842682E+001  1.7189430136954556E+001 Li451 451
       Li -5.9602283655932258E+000 -3.3257546721860707E+000  2.0556434022902518E+001 Li452 452
       Li  1.5707049986867053E+001  1.9365444041753960E+001  3.7541042358689175E+001 Li453 453
       Li  1.4833969308871827E+001  2.7373365572122701E+000 -5.8097700798184770E-001 Li454 454
       Li  1.4531608114701676E+001  1.5366694252977702E+001  1.8215672224001654E+001 Li455 455
       Li  1.5391622672098840E+001  6.5009145374737436E+000  2.9929336231968694E+001 Li456 456
       Li  2.4101711516783652E+001  3.4052735805654166E+001  4.2297272756237199E+000 Li457 457
       Li  6.7276474302397515E+000  1.3007812995431808E+001  2.1383172260456380E+001 Li458 458
       Li -1.0627087273154071E+001  8.8275561807736669E-001  1.7042894556232824E+001 Li459 459
       Li  2.3058691205600507E+001  5.1452376109677553E-002  4.2438188730008108E+001 Li460 460
       Li  6.6261871725147969E+000  3.0631525685108645E+001  4.1948755492217691E+000 Li461 461
       Li  6.3552403860841995E+000  2.4621198426495500E+001  1.7202553382568585E+001 Li462 462
       Li  1.0759965340136976E+001  3.5535296674500877E+001  2.9831196997136232E+001 Li463 463
       Li  1.9258781883637191E+001  2.6394349776690071E+001  1.2768342800011174E+001 Li464 464
       Li  1.9372470567064809E+001 -4.0228836569255613E+000 -1.7091166413779661E+001 Li465 465
       Li -1.8318055354446390E+000 -1.7641812753385908E+000  3.0475321523348892E+001 Li466 466
       Li  1.5306484602081833E+001  5.5626561957441956E-001  8.5327653143023312E+000 Li467 467
       Li  2.3573963065083518E+001 -6.1720646838072968E+000  2.4872884094895760E+001 Li468 468
       Li  1.4954936410701889E+001  2.1643917497802647E+001  4.5799150912382949E+000 Li469 469
       Li  1.9480503013917456E+001  8.2783125233500741E+000  4.1503034705767128E+000 Li470 470
       Li  1.9135565222671474E+001  1.3811360800718393E+001  2.5431869962888744E+001 Li471 471
       Li  1.0479127703310969E+001  1.6886022692882815E+001  8.1792156163865393E+000 Li472 472
       Li  2.3994660745442108E+001  2.5513431149233316E+001 -4.1297328383173388E+000 Li473 473
       Li  1.5069287470102815E+001  6.0897205712343760E+000  7.0235575010744111E-001 Li474 474
       Li  1.0954779922356924E+001  3.2244592435952640E+001  8.4991351917458520E+000 Li475 475
       Li  9.6775766293133483E+000 -1.6579102000898229E+000  6.8101748772915585E+000 Li476 476
       Li  2.4054424685533796E+001  4.3114655750727851E+000 -4.1336913532727335E+000 Li477 477
       Li  2.7802501789235038E+001  2.6238010941571975E+001  4.5060443276319253E+000 Li478 478
       Li  1.5158174896527592E+001  3.0581339542050646E+001  1.2716485440996520E+001 Li479 479
       Li  2.3781710048661747E+001  3.0873267213157497E+001  3.8249376638264842E+001 Li480 480
       Li  1.8842434124018951E+001 -4.7052151422831088E+000 -8.3847917388630790E+000 Li481 481
       Li  2.3199413122887609E+001  6.2688016004705398E+000  1.7978047519417558E+001 Li482 482
       Li  1.9184400431415515E+001  1.7138748665469297E+000  1.7739976893821339E+001 Li483 483
       Li  2.3057157342944137E+001  8.8987023593636501E+000  1.6680344863070477E+001 Li484 484
       Li  2.3602163317491097E+001  1.2709099432095096E+001 -1.2625208954588594E+001 Li485 485
       Li  4.0676509026307528E+001  1.2206665937603605E+001 -9.0315734291726830E+000 Li486 486
       Li  2.7561118798825408E+001  7.6963118857947723E+000  1.6202561396591765E+001 Li487 487
       Li  1.9811447274147660E+001  2.3414355146827678E+001  1.2307337826622508E+001 Li488 488
       Li  4.1430159369662931E+001  2.5225956173679741E+001  1.3054560943197737E+001 Li489 489
       Li  1.9855952420259197E+001  1.4844708349042506E+001  2.0400799580871990E+001 Li490 490
       Li  2.7515837085656134E+001  1.7009586779517129E+001  3.3551223111930398E+001 Li491 491
       Li  3.6546450225585225E+001  2.5495008552129274E+001  2.5110587180467540E+001 Li492 492
       Li  3.1811091788578455E+001  1.7991492098741041E+001 -1.9878797818410718E-001 Li493 493
       Li  3.2349703205505584E+001  2.1633763479023642E+001 -1.7433714722366378E+001 Li494 494
       Li  2.8175504435475943E+001  3.5316380580331021E+001  2.1275155431663872E+001 Li495 495
       Li  2.4457085379397490E+001  1.6055638809070185E+001  4.7565997316637272E+001 Li496 496
       Li  2.7841710581722200E+001 -1.0366717455942227E+001 -4.8978143382339351E-001 Li497 497
       Li  4.5163277689079230E+001  2.6007108412323291E+001 -8.4821859912716242E+000 Li498 498
       Li  4.9800838893859890E+001  7.0219374656001472E+000  3.8498300351066746E+001 Li499 499
       Li  5.4181589090788322E+001  1.0131363362041441E+001  4.2704308776143662E+001 Li500 500
       Li  3.7340396036953010E+001  2.4511181779501059E+000 -3.7630568686735080E+000 Li501 501
       Li  3.7071769387432091E+001  1.7444881266593686E+001  4.0900233905924797E+000 Li502 502
       Li  4.5586374461290376E+001  2.1015433691246660E+001 -3.9449079761003349E+000 Li503 503
       Li  3.2764131932922218E+001 -1.0862793746444837E+001  1.3111156519561639E+001 Li504 504
       Li  4.5323204871721437E+001  2.6262067239405496E+001 -1.2558310420187572E+001 Li505 505
       Li  3.6310346610206452E+001  2.6120060057991914E+001 -3.7632870803298940E-001 Li506 506
       Li  4.0571868556673351E+001  1.8044239751261422E+001  8.7258921830137020E+000 Li507 507
       Li  3.2053969588434576E+001  9.0684255266279141E+000  3.3947933320002512E+001 Li508 508
       Li  3.6868481033271330E+001  3.2477383448168467E+001 -1.6865924835597887E+001 Li509 509
       Li  4.0537066326926706E+001  3.6184937182755682E+001 -8.6871929140920869E+000 Li510 510
       Li  2.8469451326763394E+001  2.3446952173542023E+001  1.2548200950296485E+001 Li511 511
       Li  4.5291351906930700E+001  1.7448849469621820E+001  3.8260989522283445E+001 Li512 512
       Li -2.4515965265306718E+000  1.5054339240981992E+001  8.5319888535032149E+000 Li513 513
       Li -1.1205453272905942E+001 -1.8071298741590496E+001  2.5566113600892283E+001 Li514 514
       Li  6.0866369718665156E+000  6.2439215407333579E+000  1.7416958990495125E+001 Li515 515
       Li  1.7958948699652051E+000  4.7828674897123298E+000  3.3591613356028930E+001 Li516 516
       Li  2.6014108614944007E+000  2.3835394143964553E+001 -4.4369049585733684E+000 Li517 517
       Li  1.0352465846863627E+001  1.9710081151008513E+001  3.1708398714975383E-001 Li518 518
       Li -1.8940377501518427E+001 -8.0993972589165377E+000  2.9088249742070488E+001 Li519 519
       Li -1.6033405022412794E+000  1.9001545068372518E+001  3.7728712346837973E+001 Li520 520
       Li  1.0518581213324149E+001  1.9669343546757979E+001  8.9002443790651711E+000 Li521 521
       Li  6.3062267215313312E+000  1.8274591395703766E+001  1.6983572236766758E+001 Li522 522
       Li -2.4146628179098477E+000  2.1838681430631915E+001  1.2950611134174212E+001 Li523 523
       Li -2.4455556042564055E+000  3.3197375739124446E+000  2.1314452538290443E+001 Li524 524
       Li  1.4979600300298019E+001  3.3305459089676575E+001 -7.8099413956685053E+000 Li525 525
       Li  6.1142242379438621E+000  3.9522481091255365E+001 -2.8778277038216771E-001 Li526 526
       Li  1.0440129682169756E+001  3.8039224601091703E+001  1.7828977257198940E+001 Li527 527
       Li  2.4714011546768528E+000  1.7935916998360451E+001  1.2621612831459329E+001 Li528 528
       Li  5.9296903710960942E+000  9.0025944169083676E+000 -1.6958859548407613E+001 Li529 529
       Li  1.9189150674143541E+001  7.8184568864960857E+000 -4.6897351052019803E-001 Li530 530
       Li  5.9213392015889665E+000 -1.2190764736626203E+001  4.8337794072749246E-001 Li531 531
       Li  2.5877406502943257E+000 -6.0430048643437990E+000  3.0195401873799728E+001 Li532 532
       Li  1.4673922802065022E+001  3.3890929337927109E+000  1.6613408962692308E+001 Li533 533
       Li  1.9147661601308158E+001  1.6590869105726558E+001  1.6587894129491968E+001 Li534 534
       Li  1.4527862125618956E+001 -2.8159033814610927E-002  6.1095501800682309E-002 Li535 535
       Li  2.3403590138938931E+001  2.6993461853615987E+001  4.2477541716826344E+001 Li536 536
       Li  2.4452990132546808E+000  5.2974263909988046E+000  1.2390030844584581E+001 Li537 537
       Li  6.4077284588582568E+000  1.2682462344281038E+001  1.2864639957256122E+001 Li538 538
       Li  1.0503606863666384E+001  2.5996398738248448E+001  8.0130454106026097E+000 Li539 539
       Li  2.3571761378334686E+000  1.1901432713648161E+001  4.6826937227815790E+001 Li540 540
       Li  1.9930133042302362E+001  2.9966639990350028E+001 -4.0485217252219492E+000 Li541 541
       Li  2.3811729656399852E+000  2.9542486584583887E+001  1.3063300605123203E+001 Li542 542
       Li  6.1562724776545057E+000  4.4989535906941171E+001  3.3961749352301368E+001 Li543 543
       Li  1.4824990411844682E+001  3.3101030797116735E+001  3.4358514336466570E+001 Li544 544
       Li  1.5151264683644088E+001  3.7344790853008658E+000 -1.2709187230885449E+001 Li545 545
       Li  6.1043190949868587E+000 -2.4146192613008640E+001  1.5909392509304347E+001 Li546 546
       Li  4.1593885301853661E+001  2.5338592967427978E+001  3.0047838423742409E+001 Li547 547
       Li  1.5103228294270787E+001  4.2170830453996704E+000  1.2722775609334370E+001 Li548 548
       Li  2.7531393921857408E+001  1.7129685130114293E+001  1.6565160457519468E+001 Li549 549
       Li  2.8928570589637268E+001  2.0465411814026371E+001  5.2311874178431381E+000 Li550 550
       Li  1.4994776917971466E+001  3.4979239500675998E+000 -8.7608225039566285E+000 Li551 551
       Li  1.0800401851059405E+001  5.1778386012888129E+000  2.9340332732417856E+001 Li552 552
       Li -1.6814445612296967E+000 -1.9295481133216146E+000  2.1889708723636659E+001 Li553 553
       Li  2.3536710574318633E+001  4.8738328172519431E+001 -8.9205178888602212E+000 Li554 554
       Li  2.3807503449272883E+001  1.2420983526968232E+001  3.7978473197859827E+001 Li555 555
       Li  1.9037531111467402E+001  2.8737501542387367E+001  9.2087783628123727E+000 Li556 556
       Li  2.8047387967597313E+001  3.5380719840783385E+001 -2.1046597230843059E+001 Li557 557
       Li  1.1146524264327704E+001  1.4654620677039244E+001  3.8567847424049764E+000 Li558 558
       Li  1.5458359805494585E+001  2.5100847050190154E+001  2.1758328727049584E+001 Li559 559
       Li  1.9154096708643799E+001  3.7908351481562036E+001  3.4708710328188801E+001 Li560 560
       Li  2.4038011081953499E+001  1.8749712730765683E+001 -1.6848707899818049E+001 Li561 561
       Li  3.2018255478748237E+001  6.3949422894093413E+000 -1.6114596868012210E+001 Li562 562
       Li  6.2424619092434437E+000 -1.8209709717697002E+001  2.5517473147172158E+001 Li563 563
       Li  2.8230132294522900E+001  2.2355739509663994E+000  2.9610443126340353E+001 Li564 564
       Li  1.9050550234626410E+001 -1.4363510221910982E+000 -2.4939469520370461E-001 Li565 565
       Li  3.6575325264863217E+001 -9.8979726461744388E-001  1.2859107614318072E+001 Li566 566
       Li  3.2485369778905003E+001  1.2862749533566070E+001 -1.2598157120821503E+001 Li567 567
       Li  3.2290539511233121E+001  2.1817050385105006E+001  2.1343077742626487E+001 Li568 568
       Li  3.2437753266209853E+001  2.7723124354828638E+001  3.8140215161203046E+000 Li569 569
       Li  2.7816017117615896E+001  1.4134923297729349E+001  8.8778389909179225E+000 Li570 570
       Li  2.8471541017700748E+001  2.9513729649145489E+001  2.1755941998670643E+001 Li571 571
       Li  3.6186887392415699E+001  1.6909606467015628E+001  1.6448918038030364E+001 Li572 572
       Li  3.6721044276047571E+001  2.6356769967332614E+001  2.1291246201832372E+001 Li573 573
       Li  6.6460262831974921E+000  2.3985626800631337E+001  8.5551984240740246E+000 Li574 574
       Li  1.9446326993655923E+001  1.7319520013705819E+001  4.3286030397379767E+000 Li575 575
       Li  2.3561557352930024E+001  2.4770382885596781E+001  3.4535997275366903E+001 Li576 576
       Li -6.2168152445868063E+000  1.1460422751349794E+001 -2.0933041686820967E+001 Li577 577
       Li -1.1022325984843777E+001 -2.8752926266212024E+000  9.0199196570898472E+000 Li578 578
       Li -2.0963248090983861E+000 -1.1513585377011040E+001  1.6963420969750562E+001 Li579 579
       Li  2.4510184544808080E+000  1.4297294903049577E+001  1.7115362452468705E+001 Li580 580
       Li  1.0335446307045199E+001  4.5995769821011772E+000  8.5526436587462467E+000 Li581 581
       Li  6.1528926263095185E+000  1.5561907592190478E+001  8.3005584706374658E-001 Li582 582
       Li -6.3824987730918039E+000 -6.7579051046822318E+000  4.4396910853550402E+000 Li583 583
       Li -6.5952509411974338E+000  1.6199276093340622E+000  3.2108677056586921E-001 Li584 584
       Li  6.2549353466668984E+000  3.0414549592547772E+001 -9.1147683492362006E+000 Li585 585
       Li  1.0634119127591068E+001  2.8508755439620064E+001  8.9105800019284285E+000 Li586 586
       Li  2.5059525189510206E+000  2.3623854941009309E+001  3.7232076756148715E+000 Li587 587
       Li  1.5125552821447586E+001  1.8356552578046493E+001  2.5641969431088985E+001 Li588 588
       Li  2.6163164965376646E+000  3.2402909653781819E+001  3.9831494320455567E+000 Li589 589
       Li  3.0936573289634466E+000  2.7050894833731281E+001  4.2676753037889830E+000 Li590 590
       Li  1.1922006971455465E+001  3.8708355682369309E+001  5.7946628795628286E+000 Li591 591
       Li -6.1094280032508417E+000  3.2590963884202345E+001  4.6199040630609517E+001 Li592 592
       Li  1.0705850029730541E+001 -1.2870176404944960E+001 -8.5710326589648691E+000 Li593 593
       Li  6.2479268028037760E+000  3.7512841836632811E+000  1.2857497607256096E+001 Li594 594
       Li  1.5520808921937245E+001  2.2338271846421048E+001  1.2771717296658531E+001 Li595 595
       Li  1.4871823080557583E+001  3.4916576698517958E+000  2.9996704660809080E+001 Li596 596
       Li  1.8257491489439068E+000  1.6737964889440853E+001 -9.0189828703003094E+000 Li597 597
       Li  2.8458374272436640E+001  2.6687274870080273E+001  2.1181009950954095E+001 Li598 598
       Li  2.3319063768072844E+001  2.1287695931879149E+001  7.9486289811673396E+000 Li599 599
       Li  1.9573312059519610E+000  8.3708236114602546E+000  4.6674595642283158E+001 Li600 600
       Li  6.5967354024193909E+000  1.5881251873859558E+001 -2.9717335296810528E+001 Li601 601
       Li -2.6194291207067510E+000  2.1996949765777359E+001 -3.9865211231758835E+000 Li602 602
       Li  6.6937118797611941E+000  1.6186322358146985E+001  4.6933666284174791E+001 Li603 603
       Li  3.2841086978311218E+001  3.6968719557551701E+001 -1.3109247088247306E+001 Li604 604
       Li  6.1829817459462157E+000  2.7080501299189280E+001 -1.4112238847345984E-001 Li605 605
       Li  7.2966687653035782E+000  2.8179725851401336E+001  1.1932659625541811E+001 Li606 606
       Li  1.0889840497963466E+001  1.7102532728549349E+001 -9.0391079290593517E+000 Li607 607
       Li  1.5659575014623657E+001  2.8000689677635101E+001  3.7934392629926492E+001 Li608 608
       Li  1.9852590126754173E+001 -6.2949305356502281E+000 -1.2139884386184994E+001 Li609 609
       Li  2.7729589431594672E+001  2.1510055856651644E+000  8.9886071846404043E+000 Li610 610
       Li  2.3448616039791325E+001  4.3010548131617465E+000  1.2765625788517358E+001 Li611 611
       Li  2.3983124931323331E+001  9.9081419812001705E+000  2.9421101257598718E+001 Li612 612
       Li  3.2241365763544330E+001  5.9030608185218139E+000  5.5650907114707626E-001 Li613 613
       Li  2.3995291091972327E+001  1.8956644532908779E+001  8.7975888370536861E+000 Li614 614
       Li  2.0046392534075483E+001  3.8798379340718661E+001  1.3265950047560512E+001 Li615 615
       Li  2.3514106759808634E+001  2.1486938647896242E+001  2.5213353252663879E+001 Li616 616
       Li  7.0057062646966566E+000  9.9184764102928167E+000  8.5553936576042080E+000 Li617 617
       Li  1.4548550830904826E+001  2.7038901439028091E+001  1.7048695587783222E+001 Li618 618
       Li  6.7635992496277986E+000  9.8482335606761779E+000  2.0802385000565909E+001 Li619 619
       Li  2.7866233474696781E+001  2.8680933782102745E+001  1.7438265268939158E+001 Li620 620
       Li  2.8138736515843924E+001  1.7271976980644439E+001 -4.1410916038276833E+000 Li621 621
       Li  3.1848912395386488E+001  3.6143298631339952E+001  1.6601081503084629E+001 Li622 622
       Li  2.3515572787705086E+001  3.3089803572662177E+001  2.5746221125320396E+001 Li623 623
       Li  1.9677168100932001E+001  2.6725951939382504E+001  2.9747653573840402E+001 Li624 624
       Li  2.8357237390373420E+001  2.3587925881529266E+000  1.3126591339566563E+001 Li625 625
       Li  2.8403698377731583E+001 -3.7663620548891457E+000 -4.6368037147521912E+000 Li626 626
       Li  5.3839926767735314E+001  8.0538039498853404E+000  8.0105386332443729E+000 Li627 627
       Li  4.0958496964248866E+001  2.1576728513307227E+001  1.7032269637033966E+001 Li628 628
       Li  3.2205329848955728E+001  2.1472640417856262E+001 -3.8103007539748424E-001 Li629 629
       Li  3.5868612488376634E+001  1.9684089058796371E+001  1.8031477249324116E+001 Li630 630
       Li  4.5809601339142041E+001  2.3430577295930920E+001  2.9260911190026306E+001 Li631 631
       Li  2.7959494762029880E+001 -1.0921534483169650E+000  2.4997925109523056E+001 Li632 632
       Li  2.8025468048813725E+001  2.8546512254002312E+001 -8.2154262855956173E+000 Li633 633
       Li  3.7112042790022315E+001  2.0664365271897722E+001  2.1674782077106840E+001 Li634 634
       Li  3.6505889033656146E+001  4.3865157639420083E+001 -8.8093712050557560E+000 Li635 635
       Li  3.7059705771568460E+001  3.8709436913340127E+001  2.2134743484698156E+001 Li636 636
       Li  4.1410798448817928E+001  3.4206469723952075E+001 -3.6105452975566310E+000 Li637 637
       Li  4.0762580149819193E+001  3.9288650100535413E+001  8.2027343034033517E+000 Li638 638
       Li  1.9207372535010066E+001  2.6543678622723572E+001  3.8286322688960496E+001 Li639 639
       Li  2.4024611661640805E+001  1.8987758154575062E+001  2.9227519598894222E+001 Li640 640
       Li  2.3824124063870805E+001  1.8680983348216557E+001  4.7272571240557698E-002 Li641 641
       Li -2.1022271155485459E+000 -5.1287903844769884E+000 -1.2745053096866693E+001 Li642 642
       Li  1.9416892139315132E+000  1.5941346825703542E+000  2.6296251113828728E+001 Li643 643
       Li  1.1383924301997359E+001  1.4558044590627466E+001  2.9111474854451696E+001 Li644 644
       Li -6.7850228031378386E+000 -1.0267358202479864E+001 -1.7248176264233408E+001 Li645 645
       Li  1.9331776862580394E+001  2.0068420875128506E+001  1.7067100380375475E+001 Li646 646
       Li  1.9550137861483876E+001  2.7217544750220949E+001  5.5088291258131179E+001 Li647 647
       Li  6.3253382073540232E+000  1.8508603076771749E+001  3.3987184517333226E+001 Li648 648
       Li -2.3791565962089525E+000  2.4495823710818176E+001  8.9710968703727723E+000 Li649 649
       Li -2.9776084242677778E+000  1.8202622425065652E+001  2.4906244781261414E+001 Li650 650
       Li  6.5754144118538287E+000  3.4379827157148348E+001  2.1346507516164102E+001 Li651 651
       Li  7.0328318346782996E+000  1.9116245387643708E+001  4.6080792430833576E+001 Li652 652
       Li  1.5323307725932050E+001  3.4623305928496450E+001  4.3257307384271613E+000 Li653 653
       Li -6.6688931409878895E+000  2.6090989788245253E+001  8.2000110682431178E+000 Li654 654
       Li  6.2717693500360507E+000  3.3174545131305578E+001  8.9966381167179605E+000 Li655 655
       Li  1.4954442202488309E+000  2.2608275202852418E+001  2.5423404284824795E+001 Li656 656
       Li  1.9476892060061690E+001 -4.9412493749116386E+000  8.3051015038440603E+000 Li657 657
       Li  1.1004410701551317E+001  5.4155481050104930E+000  1.2419622824015814E+001 Li658 658
       Li  1.5845519223774483E+001  2.7910124910872621E+001  2.0828567116334085E+001 Li659 659
       Li  2.8779828169624071E+001  5.3195704041078624E+000  2.9483333934879976E+001 Li660 660
       Li  1.0969645649904832E+001  2.0830081603501376E+000  1.2633201715923603E+001 Li661 661
       Li -2.1592973283764008E+000  1.5153977630911863E+001  5.0874928863060099E+001 Li662 662
       Li  2.4325638907453904E+001  1.8667999479907884E+001  4.6245415008333545E+001 Li663 663
       Li  2.4352937355839320E+001  1.6375381410687122E+001  2.1832996751403293E+001 Li664 664
       Li  1.0392306201157549E+001  1.0821253545318095E+001  5.6690501672782312E-001 Li665 665
       Li  2.8310556332792043E+001  1.7575711144338559E+001  1.2832079964911072E+001 Li666 666
       Li  2.7885740443699927E+001  1.6600786182949182E+001  2.5179234622390318E+001 Li667 667
       Li  7.0386587065582207E+000  3.7199425351372838E+001  3.7736238727458733E+001 Li668 668
       Li  5.8892410455366893E+000  2.1977591273461943E+001 -1.2473849727839434E+001 Li669 669
       Li  5.8772492104334768E+000  1.5033473564722383E+001  8.9538684489541200E+000 Li670 670
       Li  1.4703546304056896E+001  2.7133158084792200E+001  2.5248209922511997E+001 Li671 671
       Li  1.1411830568190068E+001  3.2662537758932018E+001  3.7588506706552188E+001 Li672 672
       Li  2.4097574456585164E+001  9.7903459623103011E+000  7.1274140951076217E-002 Li673 673
       Li  2.7905032277531877E+001  1.6027392987759599E+000 -1.6513285910784507E+001 Li674 674
       Li  1.0702031557404096E+001 -4.2081701861639678E+000  3.3383101809055732E-001 Li675 675
       Li  1.0405161339478822E+001 -7.7481302701401444E-001  1.2985018896181405E+001 Li676 676
       Li  2.4196803746278210E+001  6.8613162540901662E+000  4.8855374020791142E+000 Li677 677
       Li  6.8127849203510058E+000 -4.9081265667188241E+000  1.2694064353350523E+001 Li678 678
       Li  3.2154624829926462E+001  1.2727442575121199E+001  1.2596334229382531E+001 Li679 679
       Li  2.3524447981742227E+001  1.5174876482626027E+001  8.6785707646806802E+000 Li680 680
       Li  2.4284187149360349E+001  3.4406522962612037E+001 -1.2669037247218904E+001 Li681 681
       Li  2.7658370753392493E+001  3.4905656292276618E+001  1.6778997342108553E+001 Li682 682
       Li  2.4534333096988483E+001  2.7807282957577190E+001  2.0811117504790577E+001 Li683 683
       Li  2.4298592259979777E+001  1.0084846059816687E+001  5.4526061603938402E+001 Li684 684
       Li  1.9557408620199258E+001  3.9107115433448520E+001 -3.7798676827170397E+000 Li685 685
       Li  2.3475980808800522E+001  4.8725624715932625E+001 -4.1817255369850082E-001 Li686 686
       Li  2.4079330951030673E+001  3.4543886274722162E+001  1.2662465111800902E+001 Li687 687
       Li  7.0516633236834245E+000  2.7628326544423807E+001  1.7032675371451699E+001 Li688 688
       Li  3.3126163623984006E+001 -1.7090314301299843E+000  4.9314760837589056E+000 Li689 689
       Li  1.9901263584688952E+001 -1.2540864227512884E+001  2.0446003458082007E+001 Li690 690
       Li  4.4884202877566722E+001  7.3911239218875524E+000  4.9685371435083951E+001 Li691 691
       Li  3.7145308518960007E+001 -3.5141540699409615E+000  2.9298263159136152E+001 Li692 692
       Li  1.0527731033565926E+001 -1.2972149542474316E+000 -3.2790724990748765E-001 Li693 693
       Li  3.2282923595793335E+001  1.2734745026406969E+001 -4.2242853970599912E+000 Li694 694
       Li  2.8319011869989495E+001  2.3211294950269018E+001  4.2733347908496555E+001 Li695 695
       Li  2.8441252500280566E+001  2.3503022118262884E+001  3.7794461621765642E+001 Li696 696
       Li  1.9776827401359238E+001  2.9773653671635476E+001  4.9261504630796740E+000 Li697 697
       Li  4.1389222998824074E+001  3.4296625889971985E+001  1.3742342699458767E+001 Li698 698
       Li  2.4381077944481333E+001  1.3427428740338916E+000  6.2808424342292078E+001 Li699 699
       Li  2.8006817086038623E+001  8.0025201459824586E+000  3.8299939380125124E+001 Li700 700
       Li  3.3340355499270132E+001  1.8777282341549697E+001  2.9229134393926198E+001 Li701 701
       Li  2.4160892523664952E+001  2.5043171869780551E+001  4.8962231535894034E+000 Li702 702
       Li  4.1614169003810865E+001  3.1472664438598798E+001  2.9535933178095288E+001 Li703 703
       Li  4.0983902310246705E+001  4.8863610852867197E+001  3.8192096460798297E+001 Li704 704
       Li  1.8822614486540592E+000 -1.6810897567148628E+000 -9.2595532017355726E+000 Li705 705
       Li  2.0083851329883409E+001  2.0850941437320884E+001  5.1371220729669957E+000 Li706 706
       Li  6.3123839286672663E+000  9.5200182025126026E+000  2.5350567494010043E+001 Li707 707
       Li  1.9372215932199726E+001  1.3535030272431019E+001  8.4506993422031787E-002 Li708 708
       Li  6.1761530584704127E+000  2.7269396415529665E+000 -9.5023637558693164E+000 Li709 709
       Li  5.9910700045348442E+000  3.0536920434405879E+001  3.3700743863267505E+001 Li710 710
       Li  1.0344291307179942E+001  2.2496670528048025E+001  1.6650427243011851E+001 Li711 711
       Li  2.3797494734411050E+001  2.1686002844162246E+001  1.2942264957709543E+001 Li712 712
       Li  1.5378060790835915E+001  4.3629667710328434E+001  2.1373419095656242E+001 Li713 713
       Li  3.0057769997584112E+000  1.4480390682200090E+001  1.2410472401099337E+001 Li714 714
       Li -1.7410654829330989E+000  1.0326589093694746E+001  2.9130821083997329E+001 Li715 715
       Li  1.5419474839663168E+001  3.3980708945824475E+001  4.6457259981182439E+001 Li716 716
       Li  1.9238760400918837E+000  3.7697438838002263E+001  1.7317346060938448E+001 Li717 717
       Li -2.0982068650211914E+000  3.3909787594931885E+001  8.0326754250960093E+000 Li718 718
       Li  1.0382106859800802E+001  3.7652932203248739E+001  4.2869596226580477E+001 Li719 719
       Li -2.0374113902391553E+000  2.7893287916308669E+001  4.6465908936911255E+001 Li720 720
       Li  1.4964015298591784E+001  3.6589039500053113E+000  4.3911199844105102E+000 Li721 721
       Li  1.0835393645600069E+001  8.1245214634286533E+000  4.4451080074716876E+000 Li722 722
       Li  1.5653189078009376E+001  8.6317962090609013E-001  2.0824393698691448E+001 Li723 723
       Li  1.9484460143072990E+001  2.0330164321305762E+001  1.3439510911203477E+001 Li724 724
       Li  1.4738709265773004E+001  1.2424367847773055E+001  7.9129704099159781E+000 Li725 725
       Li  2.4317495238138346E+001  6.7771124368795910E+000  2.1727592620457596E+001 Li726 726
       Li  1.1240763817023195E+001  1.4413592127647474E+001  1.2583932595673307E+001 Li727 727
       Li  1.5297112853003712E+001  2.7650378892041189E+001  2.9027021467804615E-001 Li728 728
       Li  6.3624475334729453E+000  3.4119463317259382E+000  4.4897431339358276E+000 Li729 729
       Li  1.0681302828753317E+001  2.2768782420955642E+001  8.5580463822076496E+000 Li730 730
       Li  1.1650858414111681E+001  1.4492379428480364E+001  2.0702974177138344E+001 Li731 731
       Li  3.1844949231011206E+001  3.5988553799100444E+001  3.4175284618383927E+001 Li732 732
       Li  1.1034475011683968E+001  2.3472739957964809E+001 -1.3220540186808742E+001 Li733 733
       Li  1.9189242055470945E+001  3.5014355420560406E+001  1.6636132028291950E+001 Li734 734
       Li  1.9887590577249625E+001  3.6214987539772203E+001  4.1595813802193868E+000 Li735 735
       Li  1.4943127686507799E+001  3.3287449798877041E+001  8.9146114985082061E+000 Li736 736
       Li  3.2668174215315354E+001  5.8588539658487626E-001 -8.2378585952426704E+000 Li737 737
       Li  4.0686721212652415E+001  3.0495473808851177E+001  1.6480082421080741E+001 Li738 738
       Li  1.5508007676943146E+001  1.0190096308930720E+001  2.0625596488975841E+001 Li739 739
       Li  3.1837442609761720E+001 -3.0810650602014098E+000  3.4507095884592530E+001 Li740 740
       Li  2.3501444343862914E+001 -5.6005412627279716E+000  8.3397701696686291E+000 Li741 741
       Li  2.8541698055882286E+001  2.0616442459018561E+001  1.3213997312449646E+001 Li742 742
       Li  3.2159460538802918E+001  6.2257574549482531E+000  2.5707646911225584E+001 Li743 743
       Li  1.4761395840894783E+001  9.1117578641668295E+000  3.3760697080304126E+001 Li744 744
       Li  3.2774255585757814E+001  1.9027498825102452E+001 -1.3470096753080234E+001 Li745 745
       Li  3.2734820755758228E+001  3.4303331102382700E+001  1.2896404924172604E+001 Li746 746
       Li  1.9231701255449170E+001  2.5799795253137020E+001  2.4967042475445567E+001 Li747 747
       Li  2.3720461081939298E+001  2.1923828973748719E+001 -4.1419001632411758E+000 Li748 748
       Li  1.8839825109678653E+001  1.3887638396619495E+001  1.7076924155460436E+001 Li749 749
       Li  1.1640586937353605E+001  2.9790345012273438E+001 -3.7511100679034377E+000 Li750 750
       Li  2.8532448715303111E+001  5.1203021271768357E+001  2.8632697701322758E+001 Li751 751
       Li  4.1214901139254678E+001  1.6090767532723980E+001  2.1866618724035618E+001 Li752 752
       Li  3.2362671292346441E+001  1.5472493320729171E+001 -4.5713555146068279E+000 Li753 753
       Li  4.1453389851921273E+001  2.8651958678031146E+001 -5.4665712394020201E+000 Li754 754
       Li  4.0907442038382321E+001  1.2443001555162953E+001  4.2106580632008487E+001 Li755 755
       Li  3.2790424696016629E+001  1.6045977728794014E+001  2.1459445757358790E+001 Li756 756
       Li  1.5430947958078969E+001  1.9046600444799299E+001 -1.6788951460342101E+001 Li757 757
       Li  3.7684437839395564E+001  2.1740987397739858E+001  1.6763567382305208E+001 Li758 758
       Li  2.8305615914390536E+001 -3.8314756660256131E+000  2.7090882548882306E-001 Li759 759
       Li  1.8991069471515907E+001  1.3128388405162726E+001  8.4167055976662830E+000 Li760 760
       Li  4.1405553328309253E+001  2.1900580777411562E+001 -4.2007780883276755E+000 Li761 761
       Li  3.1960173248666720E+001  5.4224329711404756E+001  8.4043336078673097E+000 Li762 762
       Li  4.0601283930728833E+001  2.1455516861760987E+001  4.7119201463649595E+001 Li763 763
       Li  2.3746981311742427E+001  3.0889211026816881E+001  2.1312474242100393E+001 Li764 764
       Li  2.8528650236923564E+001  2.3495300708517330E+001  1.6981328387350370E+001 Li765 765
       Li  2.7877033406956635E+001  1.7288268264864929E+001  2.1412797224151387E+001 Li766 766
       Li  3.6438681548368400E+001  3.5073134451116573E+001 -1.7407535780313665E+001 Li767 767
       Li  3.6854943024669332E+001  2.0760802648711280E+001  3.8335304572442148E+001 Li768 768
       P  1.3356039000000000E-001  7.4293202999999997E+000  2.0588220000000002E+000 M0 769
       S  7.6231070000000012E-002  6.3014880000000009E+000  3.3862743000000001E-001 M0 769
       S  3.8128957000000008E-001  6.3950570000000004E+000  3.8189075000000003E+000 M0 769
       S  1.7179713999999999E+000  8.7286415000000002E+000  1.9627905000000001E+000 M0 769
       S -1.7625262000000002E+000  8.2472700000000003E+000  2.1633266999999998E+000 M0 769
       S  7.6231070000000012E-002  6.3014880000000009E+000  8.8165270000000007E+000 M1 770
       S  3.8128957000000008E-001  6.3950570000000004E+000  1.2296806999999999E+001 M1 770
       S  1.7179713999999999E+000  8.7286415000000002E+000  1.0440691000000001E+001 M1 770
       P  1.3356039000000000E-001  7.4293202999999997E+000  1.0536722000000001E+001 M1 770
       S -1.7625262000000002E+000  8.2472700000000003E+000  1.0641227000000002E+001 M1 770
       S  1.7179713999999999E+000  8.7286415000000002E+000  1.8918589999999998E+001 M2 771
       P  1.3356039000000000E-001  7.4293202999999997E+000  1.9014622000000003E+001 M2 771
       S  7.6231070000000012E-002  6.3014880000000009E+000  1.7294428000000000E+001 M2 771
       S  3.8128957000000008E-001  6.3950570000000004E+000  2.0774708000000000E+001 M2 771
       S -1.7625262000000002E+000  8.2472700000000003E+000  1.9119127000000002E+001 M2 771
       P  1.3356039000000000E-001  7.4293202999999997E+000  2.7492521000000000E+001 M3 772
       S  7.6231070000000012E-002  6.3014880000000009E+000  2.5772327000000004E+001 M3 772
       S  3.8128957000000008E-001  6.3950570000000004E+000  2.9252607000000005E+001 M3 772
       S  1.7179713999999999E+000  8.7286415000000002E+000  2.7396490000000004E+001 M3 772
       S -1.7625262000000002E+000  8.2472700000000003E+000  2.7597027000000001E+001 M3 772
       S  3.8128957000000008E-001  1.5441257000000002E+001  3.8189075000000003E+000 M4 773
       S  1.7179713999999999E+000  1.7774840999999999E+001  1.9627905000000001E+000 M4 773
       P  1.3356039000000000E-001  1.6475521000000001E+001  2.0588220000000002E+000 M4 773
       S  7.6231070000000012E-002  1.5347688000000000E+001  3.3862743000000001E-001 M4 773
       S -1.7625262000000002E+000  1.7293470000000003E+001  2.1633266999999998E+000 M4 773
       S  1.7179713999999999E+000  1.7774840999999999E+001  1.0440691000000001E+001 M5 774
       P  1.3356039000000000E-001  1.6475521000000001E+001  1.0536722000000001E+001 M5 774
       S  7.6231070000000012E-002  1.5347688000000000E+001  8.8165270000000007E+000 M5 774
       S  3.8128957000000008E-001  1.5441257000000002E+001  1.2296806999999999E+001 M5 774
       S -1.7625262000000002E+000  1.7293470000000003E+001  1.0641227000000002E+001 M5 774
       S  7.6231070000000012E-002  1.5347688000000000E+001  1.7294428000000000E+001 M6 775
       S  3.8128957000000008E-001  1.5441257000000002E+001  2.0774708000000000E+001 M6 775
       S  1.7179713999999999E+000  1.7774840999999999E+001  1.8918589999999998E+001 M6 775
       P  1.3356039000000000E-001  1.6475521000000001E+001  1.9014622000000003E+001 M6 775
       S -1.7625262000000002E+000  1.7293470000000003E+001  1.9119127000000002E+001 M6 775
       S  3.8128957000000008E-001  1.5441257000000002E+001  2.9252607000000005E+001 M7 776
       S  1.7179713999999999E+000  1.7774840999999999E+001  2.7396490000000004E+001 M7 776
       P  1.3356039000000000E-001  1.6475521000000001E+001  2.7492521000000000E+001 M7 776
       S  7.6231070000000012E-002  1.5347688000000000E+001  2.5772327000000004E+001 M7 776
       S -1.7625262000000002E+000  1.7293470000000003E+001  2.7597027000000001E+001 M7 776
       P  1.3356039000000000E-001  2.5521720000000002E+001  2.0588220000000002E+000 M8 777
       S  7.6231070000000012E-002  2.4393888000000000E+001  3.3862743000000001E-001 M8 777
       S  3.8128957000000008E-001  2.4487457000000003E+001  3.8189075000000003E+000 M8 777
       S  1.7179713999999999E+000  2.6821041000000001E+001  1.9627905000000001E+000 M8 777
       S -1.7625262000000002E+000  2.6339670000000002E+001  2.1633266999999998E+000 M8 777
       S  7.6231070000000012E-002  2.4393888000000000E+001  8.8165270000000007E+000 M9 778
       S  3.8128957000000008E-001  2.4487457000000003E+001  1.2296806999999999E+001 M9 778
       S  1.7179713999999999E+000  2.6821041000000001E+001  1.0440691000000001E+001 M9 778
       P  1.3356039000000000E-001  2.5521720000000002E+001  1.0536722000000001E+001 M9 778
       S -1.7625262000000002E+000  2.6339670000000002E+001  1.0641227000000002E+001 M9 778
       S  1.7179713999999999E+000  2.6821041000000001E+001  1.8918589999999998E+001 M10 779
       P  1.3356039000000000E-001  2.5521720000000002E+001  1.9014622000000003E+001 M10 779
       S  7.6231070000000012E-002  2.4393888000000000E+001  1.7294428000000000E+001 M10 779
       S  3.8128957000000008E-001  2.4487457000000003E+001  2.0774708000000000E+001 M10 779
       S -1.7625262000000002E+000  2.6339670000000002E+001  1.9119127000000002E+001 M10 779
       P  1.3356039000000000E-001  2.5521720000000002E+001  2.7492521000000000E+001 M11 780
       S  7.6231070000000012E-002  2.4393888000000000E+001  2.5772327000000004E+001 M11 780
       S  3.8128957000000008E-001  2.4487457000000003E+001  2.9252607000000005E+001 M11 780
       S  1.7179713999999999E+000  2.6821041000000001E+001  2.7396490000000004E+001 M11 780
       S -1.7625262000000002E+000  2.6339670000000002E+001  2.7597027000000001E+001 M11 780
       S  3.8128957000000008E-001  3.3533656999999998E+001  3.8189075000000003E+000 M12 781
       S  1.7179713999999999E+000  3.5867240000000002E+001  1.9627905000000001E+000 M12 781
       P  1.3356039000000000E-001  3.4567920000000001E+001  2.0588220000000002E+000 M12 781
       S  7.6231070000000012E-002  3.3440086000000001E+001  3.3862743000000001E-001 M12 781
       S -1.7625262000000002E+000  3.5385868000000009E+001  2.1633266999999998E+000 M12 781
       S  1.7179713999999999E+000  3.5867240000000002E+001  1.0440691000000001E+001 M13 782
       P  1.3356039000000000E-001  3.4567920000000001E+001  1.0536722000000001E+001 M13 782
       S  7.6231070000000012E-002  3.3440086000000001E+001  8.8165270000000007E+000 M13 782
       S  3.8128957000000008E-001  3.3533656999999998E+001  1.2296806999999999E+001 M13 782
       S -1.7625262000000002E+000  3.5385868000000009E+001  1.0641227000000002E+001 M13 782
       S  7.6231070000000012E-002  3.3440086000000001E+001  1.7294428000000000E+001 M14 783
       S  3.8128957000000008E-001  3.3533656999999998E+001  2.0774708000000000E+001 M14 783
       S  1.7179713999999999E+000  3.5867240000000002E+001  1.8918589999999998E+001 M14 783
       P  1.3356039000000000E-001  3.4567920000000001E+001  1.9014622000000003E+001 M14 783
       S -1.7625262000000002E+000  3.5385868000000009E+001  1.9119127000000002E+001 M14 783
       S  3.8128957000000008E-001  3.3533656999999998E+001  2.9252607000000005E+001 M15 784
       S  1.7179713999999999E+000  3.5867240000000002E+001  2.7396490000000004E+001 M15 784
       P  1.3356039000000000E-001  3.4567920000000001E+001  2.7492521000000000E+001 M15 784
       S  7.6231070000000012E-002  3.3440086000000001E+001  2.5772327000000004E+001 M15 784
       S -1.7625262000000002E+000  3.5385868000000009E+001  2.7597027000000001E+001 M15 784
       S  6.8809740000000010E+000  8.2472700000000003E+000  2.1633266999999998E+000 M16 785
       P  8.7770605000000010E+000  7.4293202999999997E+000  2.0588220000000002E+000 M16 785
       S  8.7197309999999995E+000  6.3014880000000009E+000  3.3862743000000001E-001 M16 785
       S  9.0247900000000012E+000  6.3950570000000004E+000  3.8189075000000003E+000 M16 785
       S  1.0361471000000000E+001  8.7286415000000002E+000  1.9627905000000001E+000 M16 785
       S  6.8809740000000010E+000  8.2472700000000003E+000  1.0641227000000002E+001 M17 786
       S  8.7197309999999995E+000  6.3014880000000009E+000  8.8165270000000007E+000 M17 786
       S  9.0247900000000012E+000  6.3950570000000004E+000  1.2296806999999999E+001 M17 786
       S  1.0361471000000000E+001  8.7286415000000002E+000  1.0440691000000001E+001 M17 786
       P  8.7770605000000010E+000  7.4293202999999997E+000  1.0536722000000001E+001 M17 786
       S  6.8809740000000010E+000  8.2472700000000003E+000  1.9119127000000002E+001 M18 787
       S  1.0361471000000000E+001  8.7286415000000002E+000  1.8918589999999998E+001 M18 787
       P  8.7770605000000010E+000  7.4293202999999997E+000  1.9014622000000003E+001 M18 787
       S  8.7197309999999995E+000  6.3014880000000009E+000  1.7294428000000000E+001 M18 787
       S  9.0247900000000012E+000  6.3950570000000004E+000  2.0774708000000000E+001 M18 787
       S  6.8809740000000010E+000  8.2472700000000003E+000  2.7597027000000001E+001 M19 788
       P  8.7770605000000010E+000  7.4293202999999997E+000  2.7492521000000000E+001 M19 788
       S  8.7197309999999995E+000  6.3014880000000009E+000  2.5772327000000004E+001 M19 788
       S  9.0247900000000012E+000  6.3950570000000004E+000  2.9252607000000005E+001 M19 788
       S  1.0361471000000000E+001  8.7286415000000002E+000  2.7396490000000004E+001 M19 788
       S  6.8809740000000010E+000  1.7293470000000003E+001  2.1633266999999998E+000 M20 789
       S  9.0247900000000012E+000  1.5441257000000002E+001  3.8189075000000003E+000 M20 789
       S  1.0361471000000000E+001  1.7774840999999999E+001  1.9627905000000001E+000 M20 789
       P  8.7770605000000010E+000  1.6475521000000001E+001  2.0588220000000002E+000 M20 789
       S  8.7197309999999995E+000  1.5347688000000000E+001  3.3862743000000001E-001 M20 789
       S  6.8809740000000010E+000  1.7293470000000003E+001  1.0641227000000002E+001 M21 790
       S  1.0361471000000000E+001  1.7774840999999999E+001  1.0440691000000001E+001 M21 790
       P  8.7770605000000010E+000  1.6475521000000001E+001  1.0536722000000001E+001 M21 790
       S  8.7197309999999995E+000  1.5347688000000000E+001  8.8165270000000007E+000 M21 790
       S  9.0247900000000012E+000  1.5441257000000002E+001  1.2296806999999999E+001 M21 790
       S  6.8809740000000010E+000  1.7293470000000003E+001  1.9119127000000002E+001 M22 791
       S  8.7197309999999995E+000  1.5347688000000000E+001  1.7294428000000000E+001 M22 791
       S  9.0247900000000012E+000  1.5441257000000002E+001  2.0774708000000000E+001 M22 791
       S  1.0361471000000000E+001  1.7774840999999999E+001  1.8918589999999998E+001 M22 791
       P  8.7770605000000010E+000  1.6475521000000001E+001  1.9014622000000003E+001 M22 791
       S  1.0361471000000000E+001  1.7774840999999999E+001  2.7396490000000004E+001 M23 792
       S  8.7197309999999995E+000  1.5347688000000000E+001  2.5772327000000004E+001 M23 792
       S  6.8809740000000010E+000  1.7293470000000003E+001  2.7597027000000001E+001 M23 792
       P  8.7770605000000010E+000  1.6475521000000001E+001  2.7492521000000000E+001 M23 792
       S  9.0247900000000012E+000  1.5441257000000002E+001  2.9252607000000005E+001 M23 792
       S  1.0361471000000000E+001  2.6821041000000001E+001  1.9627905000000001E+000 M24 793
       S  6.8809740000000010E+000  2.6339670000000002E+001  2.1633266999999998E+000 M24 793
       S  8.7197309999999995E+000  2.4393888000000000E+001  3.3862743000000001E-001 M24 793
       S  9.0247900000000012E+000  2.4487457000000003E+001  3.8189075000000003E+000 M24 793
       P  8.7770605000000010E+000  2.5521720000000002E+001  2.0588220000000002E+000 M24 793
       S  6.8809740000000010E+000  2.6339670000000002E+001  1.0641227000000002E+001 M25 794
       S  1.0361471000000000E+001  2.6821041000000001E+001  1.0440691000000001E+001 M25 794
       S  9.0247900000000012E+000  2.4487457000000003E+001  1.2296806999999999E+001 M25 794
       P  8.7770605000000010E+000  2.5521720000000002E+001  1.0536722000000001E+001 M25 794
       S  8.7197309999999995E+000  2.4393888000000000E+001  8.8165270000000007E+000 M25 794
       S  6.8809740000000010E+000  2.6339670000000002E+001  1.9119127000000002E+001 M26 795
       S  8.7197309999999995E+000  2.4393888000000000E+001  1.7294428000000000E+001 M26 795
       S  9.0247900000000012E+000  2.4487457000000003E+001  2.0774708000000000E+001 M26 795
       S  1.0361471000000000E+001  2.6821041000000001E+001  1.8918589999999998E+001 M26 795
       P  8.7770605000000010E+000  2.5521720000000002E+001  1.9014622000000003E+001 M26 795
       S  6.8809740000000010E+000  2.6339670000000002E+001  2.7597027000000001E+001 M27 796
       S  1.0361471000000000E+001  2.6821041000000001E+001  2.7396490000000004E+001 M27 796
       S  8.7197309999999995E+000  2.4393888000000000E+001  2.5772327000000004E+001 M27 796
       P  8.7770605000000010E+000  2.5521720000000002E+001  2.7492521000000000E+001 M27 796
       S  9.0247900000000012E+000  2.4487457000000003E+001  2.9252607000000005E+001 M27 796
       P  8.7770605000000010E+000  3.4567920000000001E+001  2.0588220000000002E+000 M28 797
       S  6.8809740000000010E+000  3.5385868000000009E+001  2.1633266999999998E+000 M28 797
       S  1.0361471000000000E+001  3.5867240000000002E+001  1.9627905000000001E+000 M28 797
       S  9.0247900000000012E+000  3.3533656999999998E+001  3.8189075000000003E+000 M28 797
       S  8.7197309999999995E+000  3.3440086000000001E+001  3.3862743000000001E-001 M28 797
       S  8.7197309999999995E+000  3.3440086000000001E+001  8.8165270000000007E+000 M29 798
       S  9.0247900000000012E+000  3.3533656999999998E+001  1.2296806999999999E+001 M29 798
       P  8.7770605000000010E+000  3.4567920000000001E+001  1.0536722000000001E+001 M29 798
       S  6.8809740000000010E+000  3.5385868000000009E+001  1.0641227000000002E+001 M29 798
       S  1.0361471000000000E+001  3.5867240000000002E+001  1.0440691000000001E+001 M29 798
       S  1.0361471000000000E+001  3.5867240000000002E+001  1.8918589999999998E+001 M30 799
       S  9.0247900000000012E+000  3.3533656999999998E+001  2.0774708000000000E+001 M30 799
       S  6.8809740000000010E+000  3.5385868000000009E+001  1.9119127000000002E+001 M30 799
       P  8.7770605000000010E+000  3.4567920000000001E+001  1.9014622000000003E+001 M30 799
       S  8.7197309999999995E+000  3.3440086000000001E+001  1.7294428000000000E+001 M30 799
       S  1.0361471000000000E+001  3.5867240000000002E+001  2.7396490000000004E+001 M31 800
       S  8.7197309999999995E+000  3.3440086000000001E+001  2.5772327000000004E+001 M31 800
       S  6.8809740000000010E+000  3.5385868000000009E+001  2.7597027000000001E+001 M31 800
       P  8.7770605000000010E+000  3.4567920000000001E+001  2.7492521000000000E+001 M31 800
       S  9.0247900000000012E+000  3.3533656999999998E+001  2.9252607000000005E+001 M31 800
       P  1.7420559999999998E+001  7.4293202999999997E+000  2.0588220000000002E+000 M32 801
       S  1.9004970000000004E+001  8.7286415000000002E+000  1.9627905000000001E+000 M32 801
       S  1.7363232000000000E+001  6.3014880000000009E+000  3.3862743000000001E-001 M32 801
       S  1.7668290000000002E+001  6.3950570000000004E+000  3.8189075000000003E+000 M32 801
       S  1.5524473000000000E+001  8.2472700000000003E+000  2.1633266999999998E+000 M32 801
       S  1.7668290000000002E+001  6.3950570000000004E+000  1.2296806999999999E+001 M33 802
       S  1.7363232000000000E+001  6.3014880000000009E+000  8.8165270000000007E+000 M33 802
       S  1.9004970000000004E+001  8.7286415000000002E+000  1.0440691000000001E+001 M33 802
       P  1.7420559999999998E+001  7.4293202999999997E+000  1.0536722000000001E+001 M33 802
       S  1.5524473000000000E+001  8.2472700000000003E+000  1.0641227000000002E+001 M33 802
       S  1.7668290000000002E+001  6.3950570000000004E+000  2.0774708000000000E+001 M34 803
       P  1.7420559999999998E+001  7.4293202999999997E+000  1.9014622000000003E+001 M34 803
       S  1.9004970000000004E+001  8.7286415000000002E+000  1.8918589999999998E+001 M34 803
       S  1.7363232000000000E+001  6.3014880000000009E+000  1.7294428000000000E+001 M34 803
       S  1.5524473000000000E+001  8.2472700000000003E+000  1.9119127000000002E+001 M34 803
       P  1.7420559999999998E+001  7.4293202999999997E+000  2.7492521000000000E+001 M35 804
       S  1.7668290000000002E+001  6.3950570000000004E+000  2.9252607000000005E+001 M35 804
       S  1.7363232000000000E+001  6.3014880000000009E+000  2.5772327000000004E+001 M35 804
       S  1.9004970000000004E+001  8.7286415000000002E+000  2.7396490000000004E+001 M35 804
       S  1.5524473000000000E+001  8.2472700000000003E+000  2.7597027000000001E+001 M35 804
       S  1.7363232000000000E+001  1.5347688000000000E+001  3.3862743000000001E-001 M36 805
       S  1.7668290000000002E+001  1.5441257000000002E+001  3.8189075000000003E+000 M36 805
       P  1.7420559999999998E+001  1.6475521000000001E+001  2.0588220000000002E+000 M36 805
       S  1.9004970000000004E+001  1.7774840999999999E+001  1.9627905000000001E+000 M36 805
       S  1.5524473000000000E+001  1.7293470000000003E+001  2.1633266999999998E+000 M36 805
       S  1.7363232000000000E+001  1.5347688000000000E+001  8.8165270000000007E+000 M37 806
       S  1.9004970000000004E+001  1.7774840999999999E+001  1.0440691000000001E+001 M37 806
       P  1.7420559999999998E+001  1.6475521000000001E+001  1.0536722000000001E+001 M37 806
       S  1.7668290000000002E+001  1.5441257000000002E+001  1.2296806999999999E+001 M37 806
       S  1.5524473000000000E+001  1.7293470000000003E+001  1.0641227000000002E+001 M37 806
       P  1.7420559999999998E+001  1.6475521000000001E+001  1.9014622000000003E+001 M38 807
       S  1.9004970000000004E+001  1.7774840999999999E+001  1.8918589999999998E+001 M38 807
       S  1.7363232000000000E+001  1.5347688000000000E+001  1.7294428000000000E+001 M38 807
       S  1.7668290000000002E+001  1.5441257000000002E+001  2.0774708000000000E+001 M38 807
       S  1.5524473000000000E+001  1.7293470000000003E+001  1.9119127000000002E+001 M38 807
       S  1.7668290000000002E+001  1.5441257000000002E+001  2.9252607000000005E+001 M39 808
       S  1.7363232000000000E+001  1.5347688000000000E+001  2.5772327000000004E+001 M39 808
       S  1.9004970000000004E+001  1.7774840999999999E+001  2.7396490000000004E+001 M39 808
       P  1.7420559999999998E+001  1.6475521000000001E+001  2.7492521000000000E+001 M39 808
       S  1.5524473000000000E+001  1.7293470000000003E+001  2.7597027000000001E+001 M39 808
       P  1.7420559999999998E+001  2.5521720000000002E+001  2.0588220000000002E+000 M40 809
       S  1.9004970000000004E+001  2.6821041000000001E+001  1.9627905000000001E+000 M40 809
       S  1.7363232000000000E+001  2.4393888000000000E+001  3.3862743000000001E-001 M40 809
       S  1.7668290000000002E+001  2.4487457000000003E+001  3.8189075000000003E+000 M40 809
       S  1.5524473000000000E+001  2.6339670000000002E+001  2.1633266999999998E+000 M40 809
       S  1.7668290000000002E+001  2.4487457000000003E+001  1.2296806999999999E+001 M41 810
       S  1.7363232000000000E+001  2.4393888000000000E+001  8.8165270000000007E+000 M41 810
       S  1.9004970000000004E+001  2.6821041000000001E+001  1.0440691000000001E+001 M41 810
       P  1.7420559999999998E+001  2.5521720000000002E+001  1.0536722000000001E+001 M41 810
       S  1.5524473000000000E+001  2.6339670000000002E+001  1.0641227000000002E+001 M41 810
       S  1.7668290000000002E+001  2.4487457000000003E+001  2.0774708000000000E+001 M42 811
       P  1.7420559999999998E+001  2.5521720000000002E+001  1.9014622000000003E+001 M42 811
       S  1.9004970000000004E+001  2.6821041000000001E+001  1.8918589999999998E+001 M42 811
       S  1.7363232000000000E+001  2.4393888000000000E+001  1.7294428000000000E+001 M42 811
       S  1.5524473000000000E+001  2.6339670000000002E+001  1.9119127000000002E+001 M42 811
       P  1.7420559999999998E+001  2.5521720000000002E+001  2.7492521000000000E+001 M43 812
       S  1.7668290000000002E+001  2.4487457000000003E+001  2.9252607000000005E+001 M43 812
       S  1.7363232000000000E+001  2.4393888000000000E+001  2.5772327000000004E+001 M43 812
       S  1.9004970000000004E+001  2.6821041000000001E+001  2.7396490000000004E+001 M43 812
       S  1.5524473000000000E+001  2.6339670000000002E+001  2.7597027000000001E+001 M43 812
       S  1.7363232000000000E+001  3.3440086000000001E+001  3.3862743000000001E-001 M44 813
       S  1.7668290000000002E+001  3.3533656999999998E+001  3.8189075000000003E+000 M44 813
       P  1.7420559999999998E+001  3.4567920000000001E+001  2.0588220000000002E+000 M44 813
       S  1.9004970000000004E+001  3.5867240000000002E+001  1.9627905000000001E+000 M44 813
       S  1.5524473000000000E+001  3.5385868000000009E+001  2.1633266999999998E+000 M44 813
       S  1.7363232000000000E+001  3.3440086000000001E+001  8.8165270000000007E+000 M45 814
       S  1.9004970000000004E+001  3.5867240000000002E+001  1.0440691000000001E+001 M45 814
       P  1.7420559999999998E+001  3.4567920000000001E+001  1.0536722000000001E+001 M45 814
       S  1.7668290000000002E+001  3.3533656999999998E+001  1.2296806999999999E+001 M45 814
       S  1.5524473000000000E+001  3.5385868000000009E+001  1.0641227000000002E+001 M45 814
       P  1.7420559999999998E+001  3.4567920000000001E+001  1.9014622000000003E+001 M46 815
       S  1.9004970000000004E+001  3.5867240000000002E+001  1.8918589999999998E+001 M46 815
       S  1.7363232000000000E+001  3.3440086000000001E+001  1.7294428000000000E+001 M46 815
       S  1.7668290000000002E+001  3.3533656999999998E+001  2.0774708000000000E+001 M46 815
       S  1.5524473000000000E+001  3.5385868000000009E+001  1.9119127000000002E+001 M46 815
       S  1.7668290000000002E+001  3.3533656999999998E+001  2.9252607000000005E+001 M47 816
       S  1.7363232000000000E+001  3.3440086000000001E+001  2.5772327000000004E+001 M47 816
       S  1.9004970000000004E+001  3.5867240000000002E+001  2.7396490000000004E+001 M47 816
       P  1.7420559999999998E+001  3.4567920000000001E+001  2.7492521000000000E+001 M47 816
       S  1.5524473000000000E+001  3.5385868000000009E+001  2.7597027000000001E+001 M47 816
       S  2.4167974000000001E+001  8.2472700000000003E+000  2.1633266999999998E+000 M48 817
       P  2.6064060000000005E+001  7.4293202999999997E+000  2.0588220000000002E+000 M48 817
       S  2.7648472000000002E+001  8.7286415000000002E+000  1.9627905000000001E+000 M48 817
       S  2.6006730999999998E+001  6.3014880000000009E+000  3.3862743000000001E-001 M48 817
       S  2.6311790000000002E+001  6.3950570000000004E+000  3.8189075000000003E+000 M48 817
       S  2.4167974000000001E+001  8.2472700000000003E+000  1.0641227000000002E+001 M49 818
       S  2.6311790000000002E+001  6.3950570000000004E+000  1.2296806999999999E+001 M49 818
       S  2.6006730999999998E+001  6.3014880000000009E+000  8.8165270000000007E+000 M49 818
       S  2.7648472000000002E+001  8.7286415000000002E+000  1.0440691000000001E+001 M49 818
       P  2.6064060000000005E+001  7.4293202999999997E+000  1.0536722000000001E+001 M49 818
       S  2.4167974000000001E+001  8.2472700000000003E+000  1.9119127000000002E+001 M50 819
       S  2.6311790000000002E+001  6.3950570000000004E+000  2.0774708000000000E+001 M50 819
       P  2.6064060000000005E+001  7.4293202999999997E+000  1.9014622000000003E+001 M50 819
       S  2.7648472000000002E+001  8.7286415000000002E+000  1.8918589999999998E+001 M50 819
       S  2.6006730999999998E+001  6.3014880000000009E+000  1.7294428000000000E+001 M50 819
       S  2.4167974000000001E+001  8.2472700000000003E+000  2.7597027000000001E+001 M51 820
       P  2.6064060000000005E+001  7.4293202999999997E+000  2.7492521000000000E+001 M51 820
       S  2.6311790000000002E+001  6.3950570000000004E+000  2.9252607000000005E+001 M51 820
       S  2.6006730999999998E+001  6.3014880000000009E+000  2.5772327000000004E+001 M51 820
       S  2.7648472000000002E+001  8.7286415000000002E+000  2.7396490000000004E+001 M51 820
       S  2.4167974000000001E+001  1.7293470000000003E+001  2.1633266999999998E+000 M52 821
       S  2.6006730999999998E+001  1.5347688000000000E+001  3.3862743000000001E-001 M52 821
       S  2.6311790000000002E+001  1.5441257000000002E+001  3.8189075000000003E+000 M52 821
       P  2.6064060000000005E+001  1.6475521000000001E+001  2.0588220000000002E+000 M52 821
       S  2.7648472000000002E+001  1.7774840999999999E+001  1.9627905000000001E+000 M52 821
       S  2.4167974000000001E+001  1.7293470000000003E+001  1.0641227000000002E+001 M53 822
       S  2.6006730999999998E+001  1.5347688000000000E+001  8.8165270000000007E+000 M53 822
       S  2.7648472000000002E+001  1.7774840999999999E+001  1.0440691000000001E+001 M53 822
       P  2.6064060000000005E+001  1.6475521000000001E+001  1.0536722000000001E+001 M53 822
       S  2.6311790000000002E+001  1.5441257000000002E+001  1.2296806999999999E+001 M53 822
       S  2.4167974000000001E+001  1.7293470000000003E+001  1.9119127000000002E+001 M54 823
       P  2.6064060000000005E+001  1.6475521000000001E+001  1.9014622000000003E+001 M54 823
       S  2.7648472000000002E+001  1.7774840999999999E+001  1.8918589999999998E+001 M54 823
       S  2.6006730999999998E+001  1.5347688000000000E+001  1.7294428000000000E+001 M54 823
       S  2.6311790000000002E+001  1.5441257000000002E+001  2.0774708000000000E+001 M54 823
       S  2.7648472000000002E+001  1.7774840999999999E+001  2.7396490000000004E+001 M55 824
       S  2.6006730999999998E+001  1.5347688000000000E+001  2.5772327000000004E+001 M55 824
       S  2.4167974000000001E+001  1.7293470000000003E+001  2.7597027000000001E+001 M55 824
       P  2.6064060000000005E+001  1.6475521000000001E+001  2.7492521000000000E+001 M55 824
       S  2.6311790000000002E+001  1.5441257000000002E+001  2.9252607000000005E+001 M55 824
       S  2.4167974000000001E+001  2.6339670000000002E+001  2.1633266999999998E+000 M56 825
       S  2.7648472000000002E+001  2.6821041000000001E+001  1.9627905000000001E+000 M56 825
       S  2.6006730999999998E+001  2.4393888000000000E+001  3.3862743000000001E-001 M56 825
       S  2.6311790000000002E+001  2.4487457000000003E+001  3.8189075000000003E+000 M56 825
       P  2.6064060000000005E+001  2.5521720000000002E+001  2.0588220000000002E+000 M56 825
       S  2.4167974000000001E+001  2.6339670000000002E+001  1.0641227000000002E+001 M57 826
       S  2.7648472000000002E+001  2.6821041000000001E+001  1.0440691000000001E+001 M57 826
       S  2.6006730999999998E+001  2.4393888000000000E+001  8.8165270000000007E+000 M57 826
       P  2.6064060000000005E+001  2.5521720000000002E+001  1.0536722000000001E+001 M57 826
       S  2.6311790000000002E+001  2.4487457000000003E+001  1.2296806999999999E+001 M57 826
       S  2.4167974000000001E+001  2.6339670000000002E+001  1.9119127000000002E+001 M58 827
       S  2.7648472000000002E+001  2.6821041000000001E+001  1.8918589999999998E+001 M58 827
       S  2.6006730999999998E+001  2.4393888000000000E+001  1.7294428000000000E+001 M58 827
       S  2.6311790000000002E+001  2.4487457000000003E+001  2.0774708000000000E+001 M58 827
       P  2.6064060000000005E+001  2.5521720000000002E+001  1.9014622000000003E+001 M58 827
       S  2.6006730999999998E+001  2.4393888000000000E+001  2.5772327000000004E+001 M59 828
       S  2.4167974000000001E+001  2.6339670000000002E+001  2.7597027000000001E+001 M59 828
       S  2.7648472000000002E+001  2.6821041000000001E+001  2.7396490000000004E+001 M59 828
       P  2.6064060000000005E+001  2.5521720000000002E+001  2.7492521000000000E+001 M59 828
       S  2.6311790000000002E+001  2.4487457000000003E+001  2.9252607000000005E+001 M59 828
       S  2.6311790000000002E+001  3.3533656999999998E+001  3.8189075000000003E+000 M60 829
       P  2.6064060000000005E+001  3.4567920000000001E+001  2.0588220000000002E+000 M60 829
       S  2.4167974000000001E+001  3.5385868000000009E+001  2.1633266999999998E+000 M60 829
       S  2.7648472000000002E+001  3.5867240000000002E+001  1.9627905000000001E+000 M60 829
       S  2.6006730999999998E+001  3.3440086000000001E+001  3.3862743000000001E-001 M60 829
       S  2.7648472000000002E+001  3.5867240000000002E+001  1.0440691000000001E+001 M61 830
       S  2.6311790000000002E+001  3.3533656999999998E+001  1.2296806999999999E+001 M61 830
       P  2.6064060000000005E+001  3.4567920000000001E+001  1.0536722000000001E+001 M61 830
       S  2.4167974000000001E+001  3.5385868000000009E+001  1.0641227000000002E+001 M61 830
       S  2.6006730999999998E+001  3.3440086000000001E+001  8.8165270000000007E+000 M61 830
       S  2.7648472000000002E+001  3.5867240000000002E+001  1.8918589999999998E+001 M62 831
       S  2.6006730999999998E+001  3.3440086000000001E+001  1.7294428000000000E+001 M62 831
       S  2.6311790000000002E+001  3.3533656999999998E+001  2.0774708000000000E+001 M62 831
       S  2.4167974000000001E+001  3.5385868000000009E+001  1.9119127000000002E+001 M62 831
       P  2.6064060000000005E+001  3.4567920000000001E+001  1.9014622000000003E+001 M62 831
       S  2.7648472000000002E+001  3.5867240000000002E+001  2.7396490000000004E+001 M63 832
       S  2.6006730999999998E+001  3.3440086000000001E+001  2.5772327000000004E+001 M63 832
       S  2.4167974000000001E+001  3.5385868000000009E+001  2.7597027000000001E+001 M63 832
       P  2.6064060000000005E+001  3.4567920000000001E+001  2.7492521000000000E+001 M63 832
       S  2.6311790000000002E+001  3.3533656999999998E+001  2.9252607000000005E+001 M63 832
       S  8.5986820000000002E+000  2.5506225000000002E+000  4.5989943000000002E+000 M64 833
       P  8.6242599999999996E+000  1.4314275000000001E+000  6.3208469999999997E+000 M64 833
       S  7.0337505000000000E+000  1.2948570000000001E-001  6.2322407000000011E+000 M64 833
       S  8.5009430000000012E+000  2.5469387000000001E+000  8.0457929999999998E+000 M64 833
       S  1.0491578000000001E+001  5.3820163000000010E-001  6.3817744000000003E+000 M64 833
       P  8.6242599999999996E+000  1.4314275000000001E+000  1.4798747000000001E+001 M65 834
       S  7.0337505000000000E+000  1.2948570000000001E-001  1.4710140000000001E+001 M65 834
       S  8.5009430000000012E+000  2.5469387000000001E+000  1.6523693000000002E+001 M65 834
       S  8.5986820000000002E+000  2.5506225000000002E+000  1.3076895000000000E+001 M65 834
       S  1.0491578000000001E+001  5.3820163000000010E-001  1.4859674000000002E+001 M65 834
       S  8.5009430000000012E+000  2.5469387000000001E+000  2.5001593000000000E+001 M66 835
       S  8.5986820000000002E+000  2.5506225000000002E+000  2.1554794000000005E+001 M66 835
       P  8.6242599999999996E+000  1.4314275000000001E+000  2.3276648000000002E+001 M66 835
       S  7.0337505000000000E+000  1.2948570000000001E-001  2.3188040000000004E+001 M66 835
       S  1.0491578000000001E+001  5.3820163000000010E-001  2.3337574000000004E+001 M66 835
       S  8.5986820000000002E+000  2.5506225000000002E+000  3.0032693999999999E+001 M67 836
       P  8.6242599999999996E+000  1.4314275000000001E+000  3.1754547000000002E+001 M67 836
       S  7.0337505000000000E+000  1.2948570000000001E-001  3.1665941000000000E+001 M67 836
       S  8.5009430000000012E+000  2.5469387000000001E+000  3.3479492000000000E+001 M67 836
       S  1.0491578000000001E+001  5.3820163000000010E-001  3.1815473999999998E+001 M67 836
       S  7.0337505000000000E+000  9.1756860000000007E+000  6.2322407000000011E+000 M68 837
       S  8.5009430000000012E+000  1.1593139000000001E+001  8.0457929999999998E+000 M68 837
       S  8.5986820000000002E+000  1.1596823000000001E+001  4.5989943000000002E+000 M68 837
       P  8.6242599999999996E+000  1.0477627999999999E+001  6.3208469999999997E+000 M68 837
       S  1.0491578000000001E+001  9.5844020000000008E+000  6.3817744000000003E+000 M68 837
       S  8.5009430000000012E+000  1.1593139000000001E+001  1.6523693000000002E+001 M69 838
       S  8.5986820000000002E+000  1.1596823000000001E+001  1.3076895000000000E+001 M69 838
       P  8.6242599999999996E+000  1.0477627999999999E+001  1.4798747000000001E+001 M69 838
       S  7.0337505000000000E+000  9.1756860000000007E+000  1.4710140000000001E+001 M69 838
       S  1.0491578000000001E+001  9.5844020000000008E+000  1.4859674000000002E+001 M69 838
       P  8.6242599999999996E+000  1.0477627999999999E+001  2.3276648000000002E+001 M70 839
       S  7.0337505000000000E+000  9.1756860000000007E+000  2.3188040000000004E+001 M70 839
       S  8.5009430000000012E+000  1.1593139000000001E+001  2.5001593000000000E+001 M70 839
       S  8.5986820000000002E+000  1.1596823000000001E+001  2.1554794000000005E+001 M70 839
       S  1.0491578000000001E+001  9.5844020000000008E+000  2.3337574000000004E+001 M70 839
       S  7.0337505000000000E+000  9.1756860000000007E+000  3.1665941000000000E+001 M71 840
       S  8.5009430000000012E+000  1.1593139000000001E+001  3.3479492000000000E+001 M71 840
       S  8.5986820000000002E+000  1.1596823000000001E+001  3.0032693999999999E+001 M71 840
       P  8.6242599999999996E+000  1.0477627999999999E+001  3.1754547000000002E+001 M71 840
       S  1.0491578000000001E+001  9.5844020000000008E+000  3.1815473999999998E+001 M71 840
       S  8.5986820000000002E+000  2.0643023000000003E+001  4.5989943000000002E+000 M72 841
       P  8.6242599999999996E+000  1.9523827000000001E+001  6.3208469999999997E+000 M72 841
       S  7.0337505000000000E+000  1.8221886000000001E+001  6.2322407000000011E+000 M72 841
       S  8.5009430000000012E+000  2.0639340000000001E+001  8.0457929999999998E+000 M72 841
       S  1.0491578000000001E+001  1.8630602000000000E+001  6.3817744000000003E+000 M72 841
       P  8.6242599999999996E+000  1.9523827000000001E+001  1.4798747000000001E+001 M73 842
       S  7.0337505000000000E+000  1.8221886000000001E+001  1.4710140000000001E+001 M73 842
       S  8.5009430000000012E+000  2.0639340000000001E+001  1.6523693000000002E+001 M73 842
       S  8.5986820000000002E+000  2.0643023000000003E+001  1.3076895000000000E+001 M73 842
       S  1.0491578000000001E+001  1.8630602000000000E+001  1.4859674000000002E+001 M73 842
       S  8.5009430000000012E+000  2.0639340000000001E+001  2.5001593000000000E+001 M74 843
       S  8.5986820000000002E+000  2.0643023000000003E+001  2.1554794000000005E+001 M74 843
       P  8.6242599999999996E+000  1.9523827000000001E+001  2.3276648000000002E+001 M74 843
       S  7.0337505000000000E+000  1.8221886000000001E+001  2.3188040000000004E+001 M74 843
       S  1.0491578000000001E+001  1.8630602000000000E+001  2.3337574000000004E+001 M74 843
       S  8.5986820000000002E+000  2.0643023000000003E+001  3.0032693999999999E+001 M75 844
       P  8.6242599999999996E+000  1.9523827000000001E+001  3.1754547000000002E+001 M75 844
       S  7.0337505000000000E+000  1.8221886000000001E+001  3.1665941000000000E+001 M75 844
       S  8.5009430000000012E+000  2.0639340000000001E+001  3.3479492000000000E+001 M75 844
       S  1.0491578000000001E+001  1.8630602000000000E+001  3.1815473999999998E+001 M75 844
       S  7.0337505000000000E+000  2.7268084999999999E+001  6.2322407000000011E+000 M76 845
       S  8.5009430000000012E+000  2.9685540000000000E+001  8.0457929999999998E+000 M76 845
       S  8.5986820000000002E+000  2.9689222000000001E+001  4.5989943000000002E+000 M76 845
       P  8.6242599999999996E+000  2.8570028000000004E+001  6.3208469999999997E+000 M76 845
       S  1.0491578000000001E+001  2.7676802000000002E+001  6.3817744000000003E+000 M76 845
       S  8.5009430000000012E+000  2.9685540000000000E+001  1.6523693000000002E+001 M77 846
       S  8.5986820000000002E+000  2.9689222000000001E+001  1.3076895000000000E+001 M77 846
       P  8.6242599999999996E+000  2.8570028000000004E+001  1.4798747000000001E+001 M77 846
       S  7.0337505000000000E+000  2.7268084999999999E+001  1.4710140000000001E+001 M77 846
       S  1.0491578000000001E+001  2.7676802000000002E+001  1.4859674000000002E+001 M77 846
       P  8.6242599999999996E+000  2.8570028000000004E+001  2.3276648000000002E+001 M78 847
       S  7.0337505000000000E+000  2.7268084999999999E+001  2.3188040000000004E+001 M78 847
       S  8.5009430000000012E+000  2.9685540000000000E+001  2.5001593000000000E+001 M78 847
       S  8.5986820000000002E+000  2.9689222000000001E+001  2.1554794000000005E+001 M78 847
       S  1.0491578000000001E+001  2.7676802000000002E+001  2.3337574000000004E+001 M78 847
       S  7.0337505000000000E+000  2.7268084999999999E+001  3.1665941000000000E+001 M79 848
       S  8.5009430000000012E+000  2.9685540000000000E+001  3.3479492000000000E+001 M79 848
       S  8.5986820000000002E+000  2.9689222000000001E+001  3.0032693999999999E+001 M79 848
       P  8.6242599999999996E+000  2.8570028000000004E+001  3.1754547000000002E+001 M79 848
       S  1.0491578000000001E+001  2.7676802000000002E+001  3.1815473999999998E+001 M79 848
       S  1.9135078000000004E+001  5.3820163000000010E-001  6.3817744000000003E+000 M80 849
       S  1.7242182000000000E+001  2.5506225000000002E+000  4.5989943000000002E+000 M80 849
       P  1.7267759999999999E+001  1.4314275000000001E+000  6.3208469999999997E+000 M80 849
       S  1.5677251000000000E+001  1.2948570000000001E-001  6.2322407000000011E+000 M80 849
       S  1.7144444000000004E+001  2.5469387000000001E+000  8.0457929999999998E+000 M80 849
       S  1.9135078000000004E+001  5.3820163000000010E-001  1.4859674000000002E+001 M81 850
       P  1.7267759999999999E+001  1.4314275000000001E+000  1.4798747000000001E+001 M81 850
       S  1.5677251000000000E+001  1.2948570000000001E-001  1.4710140000000001E+001 M81 850
       S  1.7144444000000004E+001  2.5469387000000001E+000  1.6523693000000002E+001 M81 850
       S  1.7242182000000000E+001  2.5506225000000002E+000  1.3076895000000000E+001 M81 850
       S  1.9135078000000004E+001  5.3820163000000010E-001  2.3337574000000004E+001 M82 851
       S  1.7144444000000004E+001  2.5469387000000001E+000  2.5001593000000000E+001 M82 851
       S  1.7242182000000000E+001  2.5506225000000002E+000  2.1554794000000005E+001 M82 851
       P  1.7267759999999999E+001  1.4314275000000001E+000  2.3276648000000002E+001 M82 851
       S  1.5677251000000000E+001  1.2948570000000001E-001  2.3188040000000004E+001 M82 851
       S  1.9135078000000004E+001  5.3820163000000010E-001  3.1815473999999998E+001 M83 852
       S  1.7242182000000000E+001  2.5506225000000002E+000  3.0032693999999999E+001 M83 852
       P  1.7267759999999999E+001  1.4314275000000001E+000  3.1754547000000002E+001 M83 852
       S  1.5677251000000000E+001  1.2948570000000001E-001  3.1665941000000000E+001 M83 852
       S  1.7144444000000004E+001  2.5469387000000001E+000  3.3479492000000000E+001 M83 852
       S  1.9135078000000004E+001  9.5844020000000008E+000  6.3817744000000003E+000 M84 853
       S  1.5677251000000000E+001  9.1756860000000007E+000  6.2322407000000011E+000 M84 853
       S  1.7144444000000004E+001  1.1593139000000001E+001  8.0457929999999998E+000 M84 853
       S  1.7242182000000000E+001  1.1596823000000001E+001  4.5989943000000002E+000 M84 853
       P  1.7267759999999999E+001  1.0477627999999999E+001  6.3208469999999997E+000 M84 853
       S  1.9135078000000004E+001  9.5844020000000008E+000  1.4859674000000002E+001 M85 854
       S  1.7144444000000004E+001  1.1593139000000001E+001  1.6523693000000002E+001 M85 854
       S  1.7242182000000000E+001  1.1596823000000001E+001  1.3076895000000000E+001 M85 854
       P  1.7267759999999999E+001  1.0477627999999999E+001  1.4798747000000001E+001 M85 854
       S  1.5677251000000000E+001  9.1756860000000007E+000  1.4710140000000001E+001 M85 854
       S  1.9135078000000004E+001  9.5844020000000008E+000  2.3337574000000004E+001 M86 855
       P  1.7267759999999999E+001  1.0477627999999999E+001  2.3276648000000002E+001 M86 855
       S  1.5677251000000000E+001  9.1756860000000007E+000  2.3188040000000004E+001 M86 855
       S  1.7144444000000004E+001  1.1593139000000001E+001  2.5001593000000000E+001 M86 855
       S  1.7242182000000000E+001  1.1596823000000001E+001  2.1554794000000005E+001 M86 855
       S  1.7242182000000000E+001  1.1596823000000001E+001  3.0032693999999999E+001 M87 856
       S  1.9135078000000004E+001  9.5844020000000008E+000  3.1815473999999998E+001 M87 856
       S  1.7144444000000004E+001  1.1593139000000001E+001  3.3479492000000000E+001 M87 856
       P  1.7267759999999999E+001  1.0477627999999999E+001  3.1754547000000002E+001 M87 856
       S  1.5677251000000000E+001  9.1756860000000007E+000  3.1665941000000000E+001 M87 856
       S  1.5677251000000000E+001  1.8221886000000001E+001  6.2322407000000011E+000 M88 857
       S  1.9135078000000004E+001  1.8630602000000000E+001  6.3817744000000003E+000 M88 857
       S  1.7144444000000004E+001  2.0639340000000001E+001  8.0457929999999998E+000 M88 857
       P  1.7267759999999999E+001  1.9523827000000001E+001  6.3208469999999997E+000 M88 857
       S  1.7242182000000000E+001  2.0643023000000003E+001  4.5989943000000002E+000 M88 857
       S  1.9135078000000004E+001  1.8630602000000000E+001  1.4859674000000002E+001 M89 858
       S  1.5677251000000000E+001  1.8221886000000001E+001  1.4710140000000001E+001 M89 858
       S  1.7242182000000000E+001  2.0643023000000003E+001  1.3076895000000000E+001 M89 858
       S  1.7144444000000004E+001  2.0639340000000001E+001  1.6523693000000002E+001 M89 858
       P  1.7267759999999999E+001  1.9523827000000001E+001  1.4798747000000001E+001 M89 858
       S  1.9135078000000004E+001  1.8630602000000000E+001  2.3337574000000004E+001 M90 859
       S  1.5677251000000000E+001  1.8221886000000001E+001  2.3188040000000004E+001 M90 859
       S  1.7242182000000000E+001  2.0643023000000003E+001  2.1554794000000005E+001 M90 859
       S  1.7144444000000004E+001  2.0639340000000001E+001  2.5001593000000000E+001 M90 859
       P  1.7267759999999999E+001  1.9523827000000001E+001  2.3276648000000002E+001 M90 859
       P  1.7267759999999999E+001  1.9523827000000001E+001  3.1754547000000002E+001 M91 860
       S  1.9135078000000004E+001  1.8630602000000000E+001  3.1815473999999998E+001 M91 860
       S  1.5677251000000000E+001  1.8221886000000001E+001  3.1665941000000000E+001 M91 860
       S  1.7242182000000000E+001  2.0643023000000003E+001  3.0032693999999999E+001 M91 860
       S  1.7144444000000004E+001  2.0639340000000001E+001  3.3479492000000000E+001 M91 860
       S  1.7144444000000004E+001  2.9685540000000000E+001  8.0457929999999998E+000 M92 861
       P  1.7267759999999999E+001  2.8570028000000004E+001  6.3208469999999997E+000 M92 861
       S  1.9135078000000004E+001  2.7676802000000002E+001  6.3817744000000003E+000 M92 861
       S  1.5677251000000000E+001  2.7268084999999999E+001  6.2322407000000011E+000 M92 861
       S  1.7242182000000000E+001  2.9689222000000001E+001  4.5989943000000002E+000 M92 861
       S  1.7242182000000000E+001  2.9689222000000001E+001  1.3076895000000000E+001 M93 862
       P  1.7267759999999999E+001  2.8570028000000004E+001  1.4798747000000001E+001 M93 862
       S  1.9135078000000004E+001  2.7676802000000002E+001  1.4859674000000002E+001 M93 862
       S  1.7144444000000004E+001  2.9685540000000000E+001  1.6523693000000002E+001 M93 862
       S  1.5677251000000000E+001  2.7268084999999999E+001  1.4710140000000001E+001 M93 862
       S  1.5677251000000000E+001  2.7268084999999999E+001  2.3188040000000004E+001 M94 863
       S  1.7242182000000000E+001  2.9689222000000001E+001  2.1554794000000005E+001 M94 863
       S  1.7144444000000004E+001  2.9685540000000000E+001  2.5001593000000000E+001 M94 863
       S  1.9135078000000004E+001  2.7676802000000002E+001  2.3337574000000004E+001 M94 863
       P  1.7267759999999999E+001  2.8570028000000004E+001  2.3276648000000002E+001 M94 863
       S  1.7242182000000000E+001  2.9689222000000001E+001  3.0032693999999999E+001 M95 864
       S  1.9135078000000004E+001  2.7676802000000002E+001  3.1815473999999998E+001 M95 864
       S  1.7144444000000004E+001  2.9685540000000000E+001  3.3479492000000000E+001 M95 864
       P  1.7267759999999999E+001  2.8570028000000004E+001  3.1754547000000002E+001 M95 864
       S  1.5677251000000000E+001  2.7268084999999999E+001  3.1665941000000000E+001 M95 864
       S  2.5885683000000000E+001  2.5506225000000002E+000  4.5989943000000002E+000 M96 865
       S  2.5787943000000002E+001  2.5469387000000001E+000  8.0457929999999998E+000 M96 865
       P  2.5911259999999999E+001  1.4314275000000001E+000  6.3208469999999997E+000 M96 865
       S  2.4320751000000001E+001  1.2948570000000001E-001  6.2322407000000011E+000 M96 865
       S  2.7778578000000003E+001  5.3820163000000010E-001  6.3817744000000003E+000 M96 865
       S  2.4320751000000001E+001  1.2948570000000001E-001  1.4710140000000001E+001 M97 866
       S  2.5787943000000002E+001  2.5469387000000001E+000  1.6523693000000002E+001 M97 866
       P  2.5911259999999999E+001  1.4314275000000001E+000  1.4798747000000001E+001 M97 866
       S  2.5885683000000000E+001  2.5506225000000002E+000  1.3076895000000000E+001 M97 866
       S  2.7778578000000003E+001  5.3820163000000010E-001  1.4859674000000002E+001 M97 866
       S  2.4320751000000001E+001  1.2948570000000001E-001  2.3188040000000004E+001 M98 867
       S  2.5885683000000000E+001  2.5506225000000002E+000  2.1554794000000005E+001 M98 867
       S  2.5787943000000002E+001  2.5469387000000001E+000  2.5001593000000000E+001 M98 867
       P  2.5911259999999999E+001  1.4314275000000001E+000  2.3276648000000002E+001 M98 867
       S  2.7778578000000003E+001  5.3820163000000010E-001  2.3337574000000004E+001 M98 867
       P  2.5911259999999999E+001  1.4314275000000001E+000  3.1754547000000002E+001 M99 868
       S  2.5885683000000000E+001  2.5506225000000002E+000  3.0032693999999999E+001 M99 868
       S  2.4320751000000001E+001  1.2948570000000001E-001  3.1665941000000000E+001 M99 868
       S  2.5787943000000002E+001  2.5469387000000001E+000  3.3479492000000000E+001 M99 868
       S  2.7778578000000003E+001  5.3820163000000010E-001  3.1815473999999998E+001 M99 868
       P  2.5911259999999999E+001  1.0477627999999999E+001  6.3208469999999997E+000 M100 869
       S  2.4320751000000001E+001  9.1756860000000007E+000  6.2322407000000011E+000 M100 869
       S  2.5885683000000000E+001  1.1596823000000001E+001  4.5989943000000002E+000 M100 869
       S  2.5787943000000002E+001  1.1593139000000001E+001  8.0457929999999998E+000 M100 869
       S  2.7778578000000003E+001  9.5844020000000008E+000  6.3817744000000003E+000 M100 869
       S  2.5787943000000002E+001  1.1593139000000001E+001  1.6523693000000002E+001 M101 870
       P  2.5911259999999999E+001  1.0477627999999999E+001  1.4798747000000001E+001 M101 870
       S  2.5885683000000000E+001  1.1596823000000001E+001  1.3076895000000000E+001 M101 870
       S  2.4320751000000001E+001  9.1756860000000007E+000  1.4710140000000001E+001 M101 870
       S  2.7778578000000003E+001  9.5844020000000008E+000  1.4859674000000002E+001 M101 870
       S  2.5885683000000000E+001  1.1596823000000001E+001  2.1554794000000005E+001 M102 871
       S  2.5787943000000002E+001  1.1593139000000001E+001  2.5001593000000000E+001 M102 871
       P  2.5911259999999999E+001  1.0477627999999999E+001  2.3276648000000002E+001 M102 871
       S  2.4320751000000001E+001  9.1756860000000007E+000  2.3188040000000004E+001 M102 871
       S  2.7778578000000003E+001  9.5844020000000008E+000  2.3337574000000004E+001 M102 871
       S  2.4320751000000001E+001  9.1756860000000007E+000  3.1665941000000000E+001 M103 872
       S  2.5787943000000002E+001  1.1593139000000001E+001  3.3479492000000000E+001 M103 872
       P  2.5911259999999999E+001  1.0477627999999999E+001  3.1754547000000002E+001 M103 872
       S  2.5885683000000000E+001  1.1596823000000001E+001  3.0032693999999999E+001 M103 872
       S  2.7778578000000003E+001  9.5844020000000008E+000  3.1815473999999998E+001 M103 872
       S  2.5885683000000000E+001  2.0643023000000003E+001  4.5989943000000002E+000 M104 873
       S  2.5787943000000002E+001  2.0639340000000001E+001  8.0457929999999998E+000 M104 873
       P  2.5911259999999999E+001  1.9523827000000001E+001  6.3208469999999997E+000 M104 873
       S  2.4320751000000001E+001  1.8221886000000001E+001  6.2322407000000011E+000 M104 873
       S  2.7778578000000003E+001  1.8630602000000000E+001  6.3817744000000003E+000 M104 873
       S  2.4320751000000001E+001  1.8221886000000001E+001  1.4710140000000001E+001 M105 874
       S  2.5787943000000002E+001  2.0639340000000001E+001  1.6523693000000002E+001 M105 874
       P  2.5911259999999999E+001  1.9523827000000001E+001  1.4798747000000001E+001 M105 874
       S  2.5885683000000000E+001  2.0643023000000003E+001  1.3076895000000000E+001 M105 874
       S  2.7778578000000003E+001  1.8630602000000000E+001  1.4859674000000002E+001 M105 874
       S  2.4320751000000001E+001  1.8221886000000001E+001  2.3188040000000004E+001 M106 875
       S  2.5885683000000000E+001  2.0643023000000003E+001  2.1554794000000005E+001 M106 875
       S  2.5787943000000002E+001  2.0639340000000001E+001  2.5001593000000000E+001 M106 875
       P  2.5911259999999999E+001  1.9523827000000001E+001  2.3276648000000002E+001 M106 875
       S  2.7778578000000003E+001  1.8630602000000000E+001  2.3337574000000004E+001 M106 875
       P  2.5911259999999999E+001  1.9523827000000001E+001  3.1754547000000002E+001 M107 876
       S  2.5885683000000000E+001  2.0643023000000003E+001  3.0032693999999999E+001 M107 876
       S  2.4320751000000001E+001  1.8221886000000001E+001  3.1665941000000000E+001 M107 876
       S  2.5787943000000002E+001  2.0639340000000001E+001  3.3479492000000000E+001 M107 876
       S  2.7778578000000003E+001  1.8630602000000000E+001  3.1815473999999998E+001 M107 876
       P  2.5911259999999999E+001  2.8570028000000004E+001  6.3208469999999997E+000 M108 877
       S  2.4320751000000001E+001  2.7268084999999999E+001  6.2322407000000011E+000 M108 877
       S  2.5885683000000000E+001  2.9689222000000001E+001  4.5989943000000002E+000 M108 877
       S  2.5787943000000002E+001  2.9685540000000000E+001  8.0457929999999998E+000 M108 877
       S  2.7778578000000003E+001  2.7676802000000002E+001  6.3817744000000003E+000 M108 877
       S  2.5787943000000002E+001  2.9685540000000000E+001  1.6523693000000002E+001 M109 878
       P  2.5911259999999999E+001  2.8570028000000004E+001  1.4798747000000001E+001 M109 878
       S  2.5885683000000000E+001  2.9689222000000001E+001  1.3076895000000000E+001 M109 878
       S  2.4320751000000001E+001  2.7268084999999999E+001  1.4710140000000001E+001 M109 878
       S  2.7778578000000003E+001  2.7676802000000002E+001  1.4859674000000002E+001 M109 878
       S  2.5885683000000000E+001  2.9689222000000001E+001  2.1554794000000005E+001 M110 879
       S  2.5787943000000002E+001  2.9685540000000000E+001  2.5001593000000000E+001 M110 879
       P  2.5911259999999999E+001  2.8570028000000004E+001  2.3276648000000002E+001 M110 879
       S  2.4320751000000001E+001  2.7268084999999999E+001  2.3188040000000004E+001 M110 879
       S  2.7778578000000003E+001  2.7676802000000002E+001  2.3337574000000004E+001 M110 879
       S  2.4320751000000001E+001  2.7268084999999999E+001  3.1665941000000000E+001 M111 880
       S  2.5787943000000002E+001  2.9685540000000000E+001  3.3479492000000000E+001 M111 880
       P  2.5911259999999999E+001  2.8570028000000004E+001  3.1754547000000002E+001 M111 880
       S  2.5885683000000000E+001  2.9689222000000001E+001  3.0032693999999999E+001 M111 880
       S  2.7778578000000003E+001  2.7676802000000002E+001  3.1815473999999998E+001 M111 880
       S  1.8480781000000002E+000  5.3820163000000010E-001  6.3817744000000003E+000 M112 881
       S -4.4817570000000001E-002  2.5506225000000002E+000  4.5989943000000002E+000 M112 881
       S -1.4255773999999999E-001  2.5469387000000001E+000  8.0457929999999998E+000 M112 881
       P -1.9240020000000000E-002  1.4314275000000001E+000  6.3208469999999997E+000 M112 881
       S -1.6097513000000001E+000  1.2948570000000001E-001  6.2322407000000011E+000 M112 881
       S  1.8480781000000002E+000  5.3820163000000010E-001  1.4859674000000002E+001 M113 882
       S -1.6097513000000001E+000  1.2948570000000001E-001  1.4710140000000001E+001 M113 882
       S -1.4255773999999999E-001  2.5469387000000001E+000  1.6523693000000002E+001 M113 882
       P -1.9240020000000000E-002  1.4314275000000001E+000  1.4798747000000001E+001 M113 882
       S -4.4817570000000001E-002  2.5506225000000002E+000  1.3076895000000000E+001 M113 882
       S  1.8480781000000002E+000  5.3820163000000010E-001  2.3337574000000004E+001 M114 883
       S -1.6097513000000001E+000  1.2948570000000001E-001  2.3188040000000004E+001 M114 883
       S -4.4817570000000001E-002  2.5506225000000002E+000  2.1554794000000005E+001 M114 883
       S -1.4255773999999999E-001  2.5469387000000001E+000  2.5001593000000000E+001 M114 883
       P -1.9240020000000000E-002  1.4314275000000001E+000  2.3276648000000002E+001 M114 883
       S  1.8480781000000002E+000  5.3820163000000010E-001  3.1815473999999998E+001 M115 884
       P -1.9240020000000000E-002  1.4314275000000001E+000  3.1754547000000002E+001 M115 884
       S -4.4817570000000001E-002  2.5506225000000002E+000  3.0032693999999999E+001 M115 884
       S -1.6097513000000001E+000  1.2948570000000001E-001  3.1665941000000000E+001 M115 884
       S -1.4255773999999999E-001  2.5469387000000001E+000  3.3479492000000000E+001 M115 884
       S  1.8480781000000002E+000  9.5844020000000008E+000  6.3817744000000003E+000 M116 885
       P -1.9240020000000000E-002  1.0477627999999999E+001  6.3208469999999997E+000 M116 885
       S -1.6097513000000001E+000  9.1756860000000007E+000  6.2322407000000011E+000 M116 885
       S -4.4817570000000001E-002  1.1596823000000001E+001  4.5989943000000002E+000 M116 885
       S -1.4255773999999999E-001  1.1593139000000001E+001  8.0457929999999998E+000 M116 885
       S  1.8480781000000002E+000  9.5844020000000008E+000  1.4859674000000002E+001 M117 886
       S -1.4255773999999999E-001  1.1593139000000001E+001  1.6523693000000002E+001 M117 886
       P -1.9240020000000000E-002  1.0477627999999999E+001  1.4798747000000001E+001 M117 886
       S -4.4817570000000001E-002  1.1596823000000001E+001  1.3076895000000000E+001 M117 886
       S -1.6097513000000001E+000  9.1756860000000007E+000  1.4710140000000001E+001 M117 886
       S  1.8480781000000002E+000  9.5844020000000008E+000  2.3337574000000004E+001 M118 887
       S -4.4817570000000001E-002  1.1596823000000001E+001  2.1554794000000005E+001 M118 887
       S -1.4255773999999999E-001  1.1593139000000001E+001  2.5001593000000000E+001 M118 887
       P -1.9240020000000000E-002  1.0477627999999999E+001  2.3276648000000002E+001 M118 887
       S -1.6097513000000001E+000  9.1756860000000007E+000  2.3188040000000004E+001 M118 887
       S  3.4529181999999999E+001  1.1596823000000001E+001  3.0032693999999999E+001 M119 888
       S  3.6422077000000009E+001  9.5844020000000008E+000  3.1815473999999998E+001 M119 888
       S  3.4431441999999997E+001  1.1593139000000001E+001  3.3479492000000000E+001 M119 888
       P  3.4554760000000002E+001  1.0477627999999999E+001  3.1754547000000002E+001 M119 888
       S  3.2964250000000000E+001  9.1756860000000007E+000  3.1665941000000000E+001 M119 888
       S  3.2964250000000000E+001  1.8221886000000001E+001  6.2322407000000011E+000 M120 889
       S  3.6422077000000009E+001  1.8630602000000000E+001  6.3817744000000003E+000 M120 889
       S  3.4431441999999997E+001  2.0639340000000001E+001  8.0457929999999998E+000 M120 889
       P  3.4554760000000002E+001  1.9523827000000001E+001  6.3208469999999997E+000 M120 889
       S  3.4529181999999999E+001  2.0643023000000003E+001  4.5989943000000002E+000 M120 889
       S  1.8480781000000002E+000  1.8630602000000000E+001  1.4859674000000002E+001 M121 890
       S -4.4817570000000001E-002  2.0643023000000003E+001  1.3076895000000000E+001 M121 890
       S -1.4255773999999999E-001  2.0639340000000001E+001  1.6523693000000002E+001 M121 890
       S -1.6097513000000001E+000  1.8221886000000001E+001  1.4710140000000001E+001 M121 890
       P -1.9240020000000000E-002  1.9523827000000001E+001  1.4798747000000001E+001 M121 890
       S  3.4431441999999997E+001  2.0639340000000001E+001  2.5001593000000000E+001 M122 891
       S  3.6422077000000009E+001  1.8630602000000000E+001  2.3337574000000004E+001 M122 891
       S  3.4529181999999999E+001  2.0643023000000003E+001  2.1554794000000005E+001 M122 891
       S  3.2964250000000000E+001  1.8221886000000001E+001  2.3188040000000004E+001 M122 891
       P  3.4554760000000002E+001  1.9523827000000001E+001  2.3276648000000002E+001 M122 891
       S  1.8480781000000002E+000  1.8630602000000000E+001  3.1815473999999998E+001 M123 892
       S -1.6097513000000001E+000  1.8221886000000001E+001  3.1665941000000000E+001 M123 892
       S -4.4817570000000001E-002  2.0643023000000003E+001  3.0032693999999999E+001 M123 892
       P -1.9240020000000000E-002  1.9523827000000001E+001  3.1754547000000002E+001 M123 892
       S -1.4255773999999999E-001  2.0639340000000001E+001  3.3479492000000000E+001 M123 892
       S  3.4431441999999997E+001  2.9685540000000000E+001  8.0457929999999998E+000 M124 893
       S  3.6422077000000009E+001  2.7676802000000002E+001  6.3817744000000003E+000 M124 893
       S  3.2964250000000000E+001  2.7268084999999999E+001  6.2322407000000011E+000 M124 893
       P  3.4554760000000002E+001  2.8570028000000004E+001  6.3208469999999997E+000 M124 893
       S  3.4529181999999999E+001  2.9689222000000001E+001  4.5989943000000002E+000 M124 893
       S  3.4529181999999999E+001  2.9689222000000001E+001  1.3076895000000000E+001 M125 894
       P  3.4554760000000002E+001  2.8570028000000004E+001  1.4798747000000001E+001 M125 894
       S  3.6422077000000009E+001  2.7676802000000002E+001  1.4859674000000002E+001 M125 894
       S  3.4431441999999997E+001  2.9685540000000000E+001  1.6523693000000002E+001 M125 894
       S  3.2964250000000000E+001  2.7268084999999999E+001  1.4710140000000001E+001 M125 894
       S  3.2964250000000000E+001  2.7268084999999999E+001  2.3188040000000004E+001 M126 895
       S  3.4431441999999997E+001  2.9685540000000000E+001  2.5001593000000000E+001 M126 895
       S  3.6422077000000009E+001  2.7676802000000002E+001  2.3337574000000004E+001 M126 895
       P  3.4554760000000002E+001  2.8570028000000004E+001  2.3276648000000002E+001 M126 895
       S  3.4529181999999999E+001  2.9689222000000001E+001  2.1554794000000005E+001 M126 895
       S  3.4529181999999999E+001  2.9689222000000001E+001  3.0032693999999999E+001 M127 896
       S  3.6422077000000009E+001  2.7676802000000002E+001  3.1815473999999998E+001 M127 896
       S  3.4431441999999997E+001  2.9685540000000000E+001  3.3479492000000000E+001 M127 896
       P  3.4554760000000002E+001  2.8570028000000004E+001  3.1754547000000002E+001 M127 896
       S  3.2964250000000000E+001  2.7268084999999999E+001  3.1665941000000000E+001 M127 896
       S  2.5570788000000007E+000  3.7270249999999998E+000  2.1697052000000001E+000 M128 897
       S  4.6869097000000002E+000  1.8545104000000001E+000  3.8161597000000005E+000 M128 897
       S  4.4087633999999998E+000  1.7973218000000000E+000  3.3176981999999999E-001 M128 897
       P  4.4492810000000000E+000  2.9068520000000002E+000  2.0647755000000001E+000 M128 897
       S  6.0387793000000007E+000  4.2036709999999999E+000  1.9878273000000002E+000 M128 897
       S  4.4087633999999998E+000  1.7973218000000000E+000  8.8096695000000018E+000 M129 898
       S  2.5570788000000007E+000  3.7270249999999998E+000  1.0647605000000002E+001 M129 898
       P  4.4492810000000000E+000  2.9068520000000002E+000  1.0542674999999999E+001 M129 898
       S  6.0387793000000007E+000  4.2036709999999999E+000  1.0465726999999999E+001 M129 898
       S  4.6869097000000002E+000  1.8545104000000001E+000  1.2294060000000000E+001 M129 898
       S  6.0387793000000007E+000  4.2036709999999999E+000  1.8943625999999998E+001 M130 899
       S  2.5570788000000007E+000  3.7270249999999998E+000  1.9125505000000004E+001 M130 899
       S  4.6869097000000002E+000  1.8545104000000001E+000  2.0771960000000004E+001 M130 899
       S  4.4087633999999998E+000  1.7973218000000000E+000  1.7287569000000001E+001 M130 899
       P  4.4492810000000000E+000  2.9068520000000002E+000  1.9020575000000001E+001 M130 899
       S  4.4087633999999998E+000  1.7973218000000000E+000  2.5765470000000001E+001 M131 900
       S  2.5570788000000007E+000  3.7270249999999998E+000  2.7603404999999999E+001 M131 900
       P  4.4492810000000000E+000  2.9068520000000002E+000  2.7498476000000004E+001 M131 900
       S  6.0387793000000007E+000  4.2036709999999999E+000  2.7421528000000002E+001 M131 900
       S  4.6869097000000002E+000  1.8545104000000001E+000  2.9249859000000001E+001 M131 900
       P  4.4492810000000000E+000  1.1953052500000000E+001  2.0647755000000001E+000 M132 901
       S  6.0387793000000007E+000  1.3249871000000001E+001  1.9878273000000002E+000 M132 901
       S  2.5570788000000007E+000  1.2773225000000000E+001  2.1697052000000001E+000 M132 901
       S  4.6869097000000002E+000  1.0900710000000002E+001  3.8161597000000005E+000 M132 901
       S  4.4087633999999998E+000  1.0843522000000000E+001  3.3176981999999999E-001 M132 901
       S  6.0387793000000007E+000  1.3249871000000001E+001  1.0465726999999999E+001 M133 902
       S  4.6869097000000002E+000  1.0900710000000002E+001  1.2294060000000000E+001 M133 902
       S  4.4087633999999998E+000  1.0843522000000000E+001  8.8096695000000018E+000 M133 902
       S  2.5570788000000007E+000  1.2773225000000000E+001  1.0647605000000002E+001 M133 902
       P  4.4492810000000000E+000  1.1953052500000000E+001  1.0542674999999999E+001 M133 902
       S  4.4087633999999998E+000  1.0843522000000000E+001  1.7287569000000001E+001 M134 903
       P  4.4492810000000000E+000  1.1953052500000000E+001  1.9020575000000001E+001 M134 903
       S  6.0387793000000007E+000  1.3249871000000001E+001  1.8943625999999998E+001 M134 903
       S  2.5570788000000007E+000  1.2773225000000000E+001  1.9125505000000004E+001 M134 903
       S  4.6869097000000002E+000  1.0900710000000002E+001  2.0771960000000004E+001 M134 903
       P  4.4492810000000000E+000  1.1953052500000000E+001  2.7498476000000004E+001 M135 904
       S  6.0387793000000007E+000  1.3249871000000001E+001  2.7421528000000002E+001 M135 904
       S  4.6869097000000002E+000  1.0900710000000002E+001  2.9249859000000001E+001 M135 904
       S  4.4087633999999998E+000  1.0843522000000000E+001  2.5765470000000001E+001 M135 904
       S  2.5570788000000007E+000  1.2773225000000000E+001  2.7603404999999999E+001 M135 904
       S  2.5570788000000007E+000  2.1819426000000000E+001  2.1697052000000001E+000 M136 905
       S  4.6869097000000002E+000  1.9946910000000003E+001  3.8161597000000005E+000 M136 905
       S  4.4087633999999998E+000  1.9889720000000001E+001  3.3176981999999999E-001 M136 905
       P  4.4492810000000000E+000  2.0999251999999998E+001  2.0647755000000001E+000 M136 905
       S  6.0387793000000007E+000  2.2296071999999999E+001  1.9878273000000002E+000 M136 905
       S  4.4087633999999998E+000  1.9889720000000001E+001  8.8096695000000018E+000 M137 906
       S  2.5570788000000007E+000  2.1819426000000000E+001  1.0647605000000002E+001 M137 906
       P  4.4492810000000000E+000  2.0999251999999998E+001  1.0542674999999999E+001 M137 906
       S  6.0387793000000007E+000  2.2296071999999999E+001  1.0465726999999999E+001 M137 906
       S  4.6869097000000002E+000  1.9946910000000003E+001  1.2294060000000000E+001 M137 906
       S  6.0387793000000007E+000  2.2296071999999999E+001  1.8943625999999998E+001 M138 907
       S  2.5570788000000007E+000  2.1819426000000000E+001  1.9125505000000004E+001 M138 907
       S  4.6869097000000002E+000  1.9946910000000003E+001  2.0771960000000004E+001 M138 907
       S  4.4087633999999998E+000  1.9889720000000001E+001  1.7287569000000001E+001 M138 907
       P  4.4492810000000000E+000  2.0999251999999998E+001  1.9020575000000001E+001 M138 907
       S  4.4087633999999998E+000  1.9889720000000001E+001  2.5765470000000001E+001 M139 908
       S  2.5570788000000007E+000  2.1819426000000000E+001  2.7603404999999999E+001 M139 908
       P  4.4492810000000000E+000  2.0999251999999998E+001  2.7498476000000004E+001 M139 908
       S  6.0387793000000007E+000  2.2296071999999999E+001  2.7421528000000002E+001 M139 908
       S  4.6869097000000002E+000  1.9946910000000003E+001  2.9249859000000001E+001 M139 908
       P  4.4492810000000000E+000  3.0045452000000004E+001  2.0647755000000001E+000 M140 909
       S  6.0387793000000007E+000  3.1342272000000005E+001  1.9878273000000002E+000 M140 909
       S  2.5570788000000007E+000  3.0865625000000001E+001  2.1697052000000001E+000 M140 909
       S  4.6869097000000002E+000  2.8993110000000001E+001  3.8161597000000005E+000 M140 909
       S  4.4087633999999998E+000  2.8935922999999999E+001  3.3176981999999999E-001 M140 909
       S  6.0387793000000007E+000  3.1342272000000005E+001  1.0465726999999999E+001 M141 910
       S  4.6869097000000002E+000  2.8993110000000001E+001  1.2294060000000000E+001 M141 910
       S  4.4087633999999998E+000  2.8935922999999999E+001  8.8096695000000018E+000 M141 910
       S  2.5570788000000007E+000  3.0865625000000001E+001  1.0647605000000002E+001 M141 910
       P  4.4492810000000000E+000  3.0045452000000004E+001  1.0542674999999999E+001 M141 910
       S  4.4087633999999998E+000  2.8935922999999999E+001  1.7287569000000001E+001 M142 911
       P  4.4492810000000000E+000  3.0045452000000004E+001  1.9020575000000001E+001 M142 911
       S  6.0387793000000007E+000  3.1342272000000005E+001  1.8943625999999998E+001 M142 911
       S  2.5570788000000007E+000  3.0865625000000001E+001  1.9125505000000004E+001 M142 911
       S  4.6869097000000002E+000  2.8993110000000001E+001  2.0771960000000004E+001 M142 911
       P  4.4492810000000000E+000  3.0045452000000004E+001  2.7498476000000004E+001 M143 912
       S  6.0387793000000007E+000  3.1342272000000005E+001  2.7421528000000002E+001 M143 912
       S  4.6869097000000002E+000  2.8993110000000001E+001  2.9249859000000001E+001 M143 912
       S  4.4087633999999998E+000  2.8935922999999999E+001  2.5765470000000001E+001 M143 912
       S  2.5570788000000007E+000  3.0865625000000001E+001  2.7603404999999999E+001 M143 912
       S  1.1200579000000001E+001  3.7270249999999998E+000  2.1697052000000001E+000 M144 913
       S  1.3330410000000001E+001  1.8545104000000001E+000  3.8161597000000005E+000 M144 913
       S  1.3052263000000000E+001  1.7973218000000000E+000  3.3176981999999999E-001 M144 913
       P  1.3092781000000002E+001  2.9068520000000002E+000  2.0647755000000001E+000 M144 913
       S  1.4682280000000002E+001  4.2036709999999999E+000  1.9878273000000002E+000 M144 913
       S  1.3052263000000000E+001  1.7973218000000000E+000  8.8096695000000018E+000 M145 914
       S  1.1200579000000001E+001  3.7270249999999998E+000  1.0647605000000002E+001 M145 914
       P  1.3092781000000002E+001  2.9068520000000002E+000  1.0542674999999999E+001 M145 914
       S  1.4682280000000002E+001  4.2036709999999999E+000  1.0465726999999999E+001 M145 914
       S  1.3330410000000001E+001  1.8545104000000001E+000  1.2294060000000000E+001 M145 914
       S  1.4682280000000002E+001  4.2036709999999999E+000  1.8943625999999998E+001 M146 915
       S  1.1200579000000001E+001  3.7270249999999998E+000  1.9125505000000004E+001 M146 915
       S  1.3330410000000001E+001  1.8545104000000001E+000  2.0771960000000004E+001 M146 915
       S  1.3052263000000000E+001  1.7973218000000000E+000  1.7287569000000001E+001 M146 915
       P  1.3092781000000002E+001  2.9068520000000002E+000  1.9020575000000001E+001 M146 915
       S  1.3052263000000000E+001  1.7973218000000000E+000  2.5765470000000001E+001 M147 916
       S  1.1200579000000001E+001  3.7270249999999998E+000  2.7603404999999999E+001 M147 916
       P  1.3092781000000002E+001  2.9068520000000002E+000  2.7498476000000004E+001 M147 916
       S  1.4682280000000002E+001  4.2036709999999999E+000  2.7421528000000002E+001 M147 916
       S  1.3330410000000001E+001  1.8545104000000001E+000  2.9249859000000001E+001 M147 916
       P  1.3092781000000002E+001  1.1953052500000000E+001  2.0647755000000001E+000 M148 917
       S  1.4682280000000002E+001  1.3249871000000001E+001  1.9878273000000002E+000 M148 917
       S  1.1200579000000001E+001  1.2773225000000000E+001  2.1697052000000001E+000 M148 917
       S  1.3330410000000001E+001  1.0900710000000002E+001  3.8161597000000005E+000 M148 917
       S  1.3052263000000000E+001  1.0843522000000000E+001  3.3176981999999999E-001 M148 917
       S  1.4682280000000002E+001  1.3249871000000001E+001  1.0465726999999999E+001 M149 918
       S  1.3330410000000001E+001  1.0900710000000002E+001  1.2294060000000000E+001 M149 918
       S  1.3052263000000000E+001  1.0843522000000000E+001  8.8096695000000018E+000 M149 918
       S  1.1200579000000001E+001  1.2773225000000000E+001  1.0647605000000002E+001 M149 918
       P  1.3092781000000002E+001  1.1953052500000000E+001  1.0542674999999999E+001 M149 918
       S  1.3052263000000000E+001  1.0843522000000000E+001  1.7287569000000001E+001 M150 919
       P  1.3092781000000002E+001  1.1953052500000000E+001  1.9020575000000001E+001 M150 919
       S  1.4682280000000002E+001  1.3249871000000001E+001  1.8943625999999998E+001 M150 919
       S  1.1200579000000001E+001  1.2773225000000000E+001  1.9125505000000004E+001 M150 919
       S  1.3330410000000001E+001  1.0900710000000002E+001  2.0771960000000004E+001 M150 919
       S  1.3052263000000000E+001  1.0843522000000000E+001  2.5765470000000001E+001 M151 920
       S  1.3330410000000001E+001  1.0900710000000002E+001  2.9249859000000001E+001 M151 920
       S  1.1200579000000001E+001  1.2773225000000000E+001  2.7603404999999999E+001 M151 920
       P  1.3092781000000002E+001  1.1953052500000000E+001  2.7498476000000004E+001 M151 920
       S  1.4682280000000002E+001  1.3249871000000001E+001  2.7421528000000002E+001 M151 920
       S  1.3052263000000000E+001  1.9889720000000001E+001  3.3176981999999999E-001 M152 921
       S  1.3330410000000001E+001  1.9946910000000003E+001  3.8161597000000005E+000 M152 921
       P  1.3092781000000002E+001  2.0999251999999998E+001  2.0647755000000001E+000 M152 921
       S  1.1200579000000001E+001  2.1819426000000000E+001  2.1697052000000001E+000 M152 921
       S  1.4682280000000002E+001  2.2296071999999999E+001  1.9878273000000002E+000 M152 921
       S  1.4682280000000002E+001  2.2296071999999999E+001  1.0465726999999999E+001 M153 922
       S  1.3330410000000001E+001  1.9946910000000003E+001  1.2294060000000000E+001 M153 922
       S  1.3052263000000000E+001  1.9889720000000001E+001  8.8096695000000018E+000 M153 922
       P  1.3092781000000002E+001  2.0999251999999998E+001  1.0542674999999999E+001 M153 922
       S  1.1200579000000001E+001  2.1819426000000000E+001  1.0647605000000002E+001 M153 922
       S  1.1200579000000001E+001  2.1819426000000000E+001  1.9125505000000004E+001 M154 923
       S  1.4682280000000002E+001  2.2296071999999999E+001  1.8943625999999998E+001 M154 923
       P  1.3092781000000002E+001  2.0999251999999998E+001  1.9020575000000001E+001 M154 923
       S  1.3052263000000000E+001  1.9889720000000001E+001  1.7287569000000001E+001 M154 923
       S  1.3330410000000001E+001  1.9946910000000003E+001  2.0771960000000004E+001 M154 923
       P  1.3092781000000002E+001  2.0999251999999998E+001  2.7498476000000004E+001 M155 924
       S  1.3330410000000001E+001  1.9946910000000003E+001  2.9249859000000001E+001 M155 924
       S  1.1200579000000001E+001  2.1819426000000000E+001  2.7603404999999999E+001 M155 924
       S  1.4682280000000002E+001  2.2296071999999999E+001  2.7421528000000002E+001 M155 924
       S  1.3052263000000000E+001  1.9889720000000001E+001  2.5765470000000001E+001 M155 924
       S  1.3052263000000000E+001  2.8935922999999999E+001  3.3176981999999999E-001 M156 925
       S  1.3330410000000001E+001  2.8993110000000001E+001  3.8161597000000005E+000 M156 925
       S  1.1200579000000001E+001  3.0865625000000001E+001  2.1697052000000001E+000 M156 925
       S  1.4682280000000002E+001  3.1342272000000005E+001  1.9878273000000002E+000 M156 925
       P  1.3092781000000002E+001  3.0045452000000004E+001  2.0647755000000001E+000 M156 925
       S  1.3052263000000000E+001  2.8935922999999999E+001  8.8096695000000018E+000 M157 926
       S  1.3330410000000001E+001  2.8993110000000001E+001  1.2294060000000000E+001 M157 926
       P  1.3092781000000002E+001  3.0045452000000004E+001  1.0542674999999999E+001 M157 926
       S  1.1200579000000001E+001  3.0865625000000001E+001  1.0647605000000002E+001 M157 926
       S  1.4682280000000002E+001  3.1342272000000005E+001  1.0465726999999999E+001 M157 926
       P  1.3092781000000002E+001  3.0045452000000004E+001  1.9020575000000001E+001 M158 927
       S  1.3330410000000001E+001  2.8993110000000001E+001  2.0771960000000004E+001 M158 927
       S  1.1200579000000001E+001  3.0865625000000001E+001  1.9125505000000004E+001 M158 927
       S  1.4682280000000002E+001  3.1342272000000005E+001  1.8943625999999998E+001 M158 927
       S  1.3052263000000000E+001  2.8935922999999999E+001  1.7287569000000001E+001 M158 927
       S  1.4682280000000002E+001  3.1342272000000005E+001  2.7421528000000002E+001 M159 928
       S  1.3052263000000000E+001  2.8935922999999999E+001  2.5765470000000001E+001 M159 928
       S  1.3330410000000001E+001  2.8993110000000001E+001  2.9249859000000001E+001 M159 928
       S  1.1200579000000001E+001  3.0865625000000001E+001  2.7603404999999999E+001 M159 928
       P  1.3092781000000002E+001  3.0045452000000004E+001  2.7498476000000004E+001 M159 928
       S  1.9844078000000000E+001  3.7270249999999998E+000  2.1697052000000001E+000 M160 929
       S  2.1973910000000004E+001  1.8545104000000001E+000  3.8161597000000005E+000 M160 929
       S  2.3325779000000001E+001  4.2036709999999999E+000  1.9878273000000002E+000 M160 929
       S  2.1695762999999999E+001  1.7973218000000000E+000  3.3176981999999999E-001 M160 929
       P  2.1736280000000001E+001  2.9068520000000002E+000  2.0647755000000001E+000 M160 929
       S  1.9844078000000000E+001  3.7270249999999998E+000  1.0647605000000002E+001 M161 930
       P  2.1736280000000001E+001  2.9068520000000002E+000  1.0542674999999999E+001 M161 930
       S  2.3325779000000001E+001  4.2036709999999999E+000  1.0465726999999999E+001 M161 930
       S  2.1973910000000004E+001  1.8545104000000001E+000  1.2294060000000000E+001 M161 930
       S  2.1695762999999999E+001  1.7973218000000000E+000  8.8096695000000018E+000 M161 930
       P  2.1736280000000001E+001  2.9068520000000002E+000  1.9020575000000001E+001 M162 931
       S  1.9844078000000000E+001  3.7270249999999998E+000  1.9125505000000004E+001 M162 931
       S  2.1973910000000004E+001  1.8545104000000001E+000  2.0771960000000004E+001 M162 931
       S  2.3325779000000001E+001  4.2036709999999999E+000  1.8943625999999998E+001 M162 931
       S  2.1695762999999999E+001  1.7973218000000000E+000  1.7287569000000001E+001 M162 931
       S  2.1973910000000004E+001  1.8545104000000001E+000  2.9249859000000001E+001 M163 932
       S  2.1695762999999999E+001  1.7973218000000000E+000  2.5765470000000001E+001 M163 932
       S  1.9844078000000000E+001  3.7270249999999998E+000  2.7603404999999999E+001 M163 932
       P  2.1736280000000001E+001  2.9068520000000002E+000  2.7498476000000004E+001 M163 932
       S  2.3325779000000001E+001  4.2036709999999999E+000  2.7421528000000002E+001 M163 932
       S  2.1695762999999999E+001  1.0843522000000000E+001  3.3176981999999999E-001 M164 933
       P  2.1736280000000001E+001  1.1953052500000000E+001  2.0647755000000001E+000 M164 933
       S  1.9844078000000000E+001  1.2773225000000000E+001  2.1697052000000001E+000 M164 933
       S  2.1973910000000004E+001  1.0900710000000002E+001  3.8161597000000005E+000 M164 933
       S  2.3325779000000001E+001  1.3249871000000001E+001  1.9878273000000002E+000 M164 933
       S  2.3325779000000001E+001  1.3249871000000001E+001  1.0465726999999999E+001 M165 934
       S  2.1973910000000004E+001  1.0900710000000002E+001  1.2294060000000000E+001 M165 934
       S  2.1695762999999999E+001  1.0843522000000000E+001  8.8096695000000018E+000 M165 934
       S  1.9844078000000000E+001  1.2773225000000000E+001  1.0647605000000002E+001 M165 934
       P  2.1736280000000001E+001  1.1953052500000000E+001  1.0542674999999999E+001 M165 934
       S  2.3325779000000001E+001  1.3249871000000001E+001  1.8943625999999998E+001 M166 935
       S  2.1695762999999999E+001  1.0843522000000000E+001  1.7287569000000001E+001 M166 935
       P  2.1736280000000001E+001  1.1953052500000000E+001  1.9020575000000001E+001 M166 935
       S  1.9844078000000000E+001  1.2773225000000000E+001  1.9125505000000004E+001 M166 935
       S  2.1973910000000004E+001  1.0900710000000002E+001  2.0771960000000004E+001 M166 935
       P  2.1736280000000001E+001  1.1953052500000000E+001  2.7498476000000004E+001 M167 936
       S  2.3325779000000001E+001  1.3249871000000001E+001  2.7421528000000002E+001 M167 936
       S  2.1973910000000004E+001  1.0900710000000002E+001  2.9249859000000001E+001 M167 936
       S  2.1695762999999999E+001  1.0843522000000000E+001  2.5765470000000001E+001 M167 936
       S  1.9844078000000000E+001  1.2773225000000000E+001  2.7603404999999999E+001 M167 936
       S  1.9844078000000000E+001  2.1819426000000000E+001  2.1697052000000001E+000 M168 937
       S  2.1973910000000004E+001  1.9946910000000003E+001  3.8161597000000005E+000 M168 937
       S  2.3325779000000001E+001  2.2296071999999999E+001  1.9878273000000002E+000 M168 937
       S  2.1695762999999999E+001  1.9889720000000001E+001  3.3176981999999999E-001 M168 937
       P  2.1736280000000001E+001  2.0999251999999998E+001  2.0647755000000001E+000 M168 937
       S  1.9844078000000000E+001  2.1819426000000000E+001  1.0647605000000002E+001 M169 938
       P  2.1736280000000001E+001  2.0999251999999998E+001  1.0542674999999999E+001 M169 938
       S  2.3325779000000001E+001  2.2296071999999999E+001  1.0465726999999999E+001 M169 938
       S  2.1973910000000004E+001  1.9946910000000003E+001  1.2294060000000000E+001 M169 938
       S  2.1695762999999999E+001  1.9889720000000001E+001  8.8096695000000018E+000 M169 938
       P  2.1736280000000001E+001  2.0999251999999998E+001  1.9020575000000001E+001 M170 939
       S  1.9844078000000000E+001  2.1819426000000000E+001  1.9125505000000004E+001 M170 939
       S  2.1973910000000004E+001  1.9946910000000003E+001  2.0771960000000004E+001 M170 939
       S  2.3325779000000001E+001  2.2296071999999999E+001  1.8943625999999998E+001 M170 939
       S  2.1695762999999999E+001  1.9889720000000001E+001  1.7287569000000001E+001 M170 939
       S  2.1973910000000004E+001  1.9946910000000003E+001  2.9249859000000001E+001 M171 940
       S  2.1695762999999999E+001  1.9889720000000001E+001  2.5765470000000001E+001 M171 940
       S  1.9844078000000000E+001  2.1819426000000000E+001  2.7603404999999999E+001 M171 940
       P  2.1736280000000001E+001  2.0999251999999998E+001  2.7498476000000004E+001 M171 940
       S  2.3325779000000001E+001  2.2296071999999999E+001  2.7421528000000002E+001 M171 940
       S  2.1695762999999999E+001  2.8935922999999999E+001  3.3176981999999999E-001 M172 941
       P  2.1736280000000001E+001  3.0045452000000004E+001  2.0647755000000001E+000 M172 941
       S  1.9844078000000000E+001  3.0865625000000001E+001  2.1697052000000001E+000 M172 941
       S  2.1973910000000004E+001  2.8993110000000001E+001  3.8161597000000005E+000 M172 941
       S  2.3325779000000001E+001  3.1342272000000005E+001  1.9878273000000002E+000 M172 941
       S  2.3325779000000001E+001  3.1342272000000005E+001  1.0465726999999999E+001 M173 942
       S  2.1973910000000004E+001  2.8993110000000001E+001  1.2294060000000000E+001 M173 942
       S  2.1695762999999999E+001  2.8935922999999999E+001  8.8096695000000018E+000 M173 942
       S  1.9844078000000000E+001  3.0865625000000001E+001  1.0647605000000002E+001 M173 942
       P  2.1736280000000001E+001  3.0045452000000004E+001  1.0542674999999999E+001 M173 942
       S  2.3325779000000001E+001  3.1342272000000005E+001  1.8943625999999998E+001 M174 943
       S  2.1695762999999999E+001  2.8935922999999999E+001  1.7287569000000001E+001 M174 943
       P  2.1736280000000001E+001  3.0045452000000004E+001  1.9020575000000001E+001 M174 943
       S  1.9844078000000000E+001  3.0865625000000001E+001  1.9125505000000004E+001 M174 943
       S  2.1973910000000004E+001  2.8993110000000001E+001  2.0771960000000004E+001 M174 943
       P  2.1736280000000001E+001  3.0045452000000004E+001  2.7498476000000004E+001 M175 944
       S  2.3325779000000001E+001  3.1342272000000005E+001  2.7421528000000002E+001 M175 944
       S  2.1973910000000004E+001  2.8993110000000001E+001  2.9249859000000001E+001 M175 944
       S  2.1695762999999999E+001  2.8935922999999999E+001  2.5765470000000001E+001 M175 944
       S  1.9844078000000000E+001  3.0865625000000001E+001  2.7603404999999999E+001 M175 944
       S  2.8487580000000005E+001  3.7270249999999998E+000  2.1697052000000001E+000 M176 945
       S  3.0617409000000002E+001  1.8545104000000001E+000  3.8161597000000005E+000 M176 945
       S  3.1969277999999999E+001  4.2036709999999999E+000  1.9878273000000002E+000 M176 945
       S  3.0339264000000004E+001  1.7973218000000000E+000  3.3176981999999999E-001 M176 945
       P  3.0379782000000002E+001  2.9068520000000002E+000  2.0647755000000001E+000 M176 945
       S  2.8487580000000005E+001  3.7270249999999998E+000  1.0647605000000002E+001 M177 946
       P  3.0379782000000002E+001  2.9068520000000002E+000  1.0542674999999999E+001 M177 946
       S  3.1969277999999999E+001  4.2036709999999999E+000  1.0465726999999999E+001 M177 946
       S  3.0617409000000002E+001  1.8545104000000001E+000  1.2294060000000000E+001 M177 946
       S  3.0339264000000004E+001  1.7973218000000000E+000  8.8096695000000018E+000 M177 946
       P  3.0379782000000002E+001  2.9068520000000002E+000  1.9020575000000001E+001 M178 947
       S  2.8487580000000005E+001  3.7270249999999998E+000  1.9125505000000004E+001 M178 947
       S  3.0617409000000002E+001  1.8545104000000001E+000  2.0771960000000004E+001 M178 947
       S  3.1969277999999999E+001  4.2036709999999999E+000  1.8943625999999998E+001 M178 947
       S  3.0339264000000004E+001  1.7973218000000000E+000  1.7287569000000001E+001 M178 947
       S  3.0617409000000002E+001  1.8545104000000001E+000  2.9249859000000001E+001 M179 948
       S  3.0339264000000004E+001  1.7973218000000000E+000  2.5765470000000001E+001 M179 948
       S  2.8487580000000005E+001  3.7270249999999998E+000  2.7603404999999999E+001 M179 948
       P  3.0379782000000002E+001  2.9068520000000002E+000  2.7498476000000004E+001 M179 948
       S  3.1969277999999999E+001  4.2036709999999999E+000  2.7421528000000002E+001 M179 948
       S  3.0339264000000004E+001  1.0843522000000000E+001  3.3176981999999999E-001 M180 949
       P  3.0379782000000002E+001  1.1953052500000000E+001  2.0647755000000001E+000 M180 949
       S  2.8487580000000005E+001  1.2773225000000000E+001  2.1697052000000001E+000 M180 949
       S  3.0617409000000002E+001  1.0900710000000002E+001  3.8161597000000005E+000 M180 949
       S  3.1969277999999999E+001  1.3249871000000001E+001  1.9878273000000002E+000 M180 949
       S  3.1969277999999999E+001  1.3249871000000001E+001  1.0465726999999999E+001 M181 950
       S  3.0617409000000002E+001  1.0900710000000002E+001  1.2294060000000000E+001 M181 950
       S  3.0339264000000004E+001  1.0843522000000000E+001  8.8096695000000018E+000 M181 950
       S  2.8487580000000005E+001  1.2773225000000000E+001  1.0647605000000002E+001 M181 950
       P  3.0379782000000002E+001  1.1953052500000000E+001  1.0542674999999999E+001 M181 950
       S  3.1969277999999999E+001  1.3249871000000001E+001  1.8943625999999998E+001 M182 951
       S  3.0339264000000004E+001  1.0843522000000000E+001  1.7287569000000001E+001 M182 951
       P  3.0379782000000002E+001  1.1953052500000000E+001  1.9020575000000001E+001 M182 951
       S  2.8487580000000005E+001  1.2773225000000000E+001  1.9125505000000004E+001 M182 951
       S  3.0617409000000002E+001  1.0900710000000002E+001  2.0771960000000004E+001 M182 951
       S  3.0339264000000004E+001  1.0843522000000000E+001  2.5765470000000001E+001 M183 952
       S  3.0617409000000002E+001  1.0900710000000002E+001  2.9249859000000001E+001 M183 952
       S  2.8487580000000005E+001  1.2773225000000000E+001  2.7603404999999999E+001 M183 952
       P  3.0379782000000002E+001  1.1953052500000000E+001  2.7498476000000004E+001 M183 952
       S  3.1969277999999999E+001  1.3249871000000001E+001  2.7421528000000002E+001 M183 952
       S  3.1969277999999999E+001  2.2296071999999999E+001  1.9878273000000002E+000 M184 953
       S  3.0339264000000004E+001  1.9889720000000001E+001  3.3176981999999999E-001 M184 953
       S  3.0617409000000002E+001  1.9946910000000003E+001  3.8161597000000005E+000 M184 953
       P  3.0379782000000002E+001  2.0999251999999998E+001  2.0647755000000001E+000 M184 953
       S  2.8487580000000005E+001  2.1819426000000000E+001  2.1697052000000001E+000 M184 953
       S  3.1969277999999999E+001  2.2296071999999999E+001  1.0465726999999999E+001 M185 954
       S  3.0617409000000002E+001  1.9946910000000003E+001  1.2294060000000000E+001 M185 954
       S  2.8487580000000005E+001  2.1819426000000000E+001  1.0647605000000002E+001 M185 954
       P  3.0379782000000002E+001  2.0999251999999998E+001  1.0542674999999999E+001 M185 954
       S  3.0339264000000004E+001  1.9889720000000001E+001  8.8096695000000018E+000 M185 954
       S  3.0617409000000002E+001  1.9946910000000003E+001  2.0771960000000004E+001 M186 955
       S  2.8487580000000005E+001  2.1819426000000000E+001  1.9125505000000004E+001 M186 955
       S  3.1969277999999999E+001  2.2296071999999999E+001  1.8943625999999998E+001 M186 955
       P  3.0379782000000002E+001  2.0999251999999998E+001  1.9020575000000001E+001 M186 955
       S  3.0339264000000004E+001  1.9889720000000001E+001  1.7287569000000001E+001 M186 955
       S  3.0339264000000004E+001  1.9889720000000001E+001  2.5765470000000001E+001 M187 956
       P  3.0379782000000002E+001  2.0999251999999998E+001  2.7498476000000004E+001 M187 956
       S  2.8487580000000005E+001  2.1819426000000000E+001  2.7603404999999999E+001 M187 956
       S  3.1969277999999999E+001  2.2296071999999999E+001  2.7421528000000002E+001 M187 956
       S  3.0617409000000002E+001  1.9946910000000003E+001  2.9249859000000001E+001 M187 956
       P  3.0379782000000002E+001  3.0045452000000004E+001  2.0647755000000001E+000 M188 957
       S  3.0617409000000002E+001  2.8993110000000001E+001  3.8161597000000005E+000 M188 957
       S  2.8487580000000005E+001  3.0865625000000001E+001  2.1697052000000001E+000 M188 957
       S  3.1969277999999999E+001  3.1342272000000005E+001  1.9878273000000002E+000 M188 957
       S  3.0339264000000004E+001  2.8935922999999999E+001  3.3176981999999999E-001 M188 957
       S  3.0339264000000004E+001  2.8935922999999999E+001  8.8096695000000018E+000 M189 958
       S  3.0617409000000002E+001  2.8993110000000001E+001  1.2294060000000000E+001 M189 958
       P  3.0379782000000002E+001  3.0045452000000004E+001  1.0542674999999999E+001 M189 958
       S  2.8487580000000005E+001  3.0865625000000001E+001  1.0647605000000002E+001 M189 958
       S  3.1969277999999999E+001  3.1342272000000005E+001  1.0465726999999999E+001 M189 958
       S  3.0339264000000004E+001  2.8935922999999999E+001  1.7287569000000001E+001 M190 959
       P  3.0379782000000002E+001  3.0045452000000004E+001  1.9020575000000001E+001 M190 959
       S  3.0617409000000002E+001  2.8993110000000001E+001  2.0771960000000004E+001 M190 959
       S  2.8487580000000005E+001  3.0865625000000001E+001  1.9125505000000004E+001 M190 959
       S  3.1969277999999999E+001  3.1342272000000005E+001  1.8943625999999998E+001 M190 959
       S  3.1969277999999999E+001  3.1342272000000005E+001  2.7421528000000002E+001 M191 960
       S  3.0339264000000004E+001  2.8935922999999999E+001  2.5765470000000001E+001 M191 960
       S  3.0617409000000002E+001  2.8993110000000001E+001  2.9249859000000001E+001 M191 960
       S  2.8487580000000005E+001  3.0865625000000001E+001  2.7603404999999999E+001 M191 960
       P  3.0379782000000002E+001  3.0045452000000004E+001  2.7498476000000004E+001 M191 960
       S  6.1699640000000011E+000  5.0601726000000005E+000  6.3829929999999999E+000 M192 961
       S  4.2900239999999998E+000  7.0819625999999998E+000  4.6033324999999996E+000 M192 961
       S  4.1779169999999999E+000  7.0762530000000003E+000  8.0472079999999995E+000 M192 961
       S  2.7098632000000000E+000  4.6640319999999997E+000  6.2305454999999998E+000 M192 961
       P  4.3068300000000006E+000  5.9586690000000004E+000  6.3236556000000013E+000 M192 961
       S  6.1699640000000011E+000  5.0601726000000005E+000  1.4860893000000003E+001 M193 962
       S  2.7098632000000000E+000  4.6640319999999997E+000  1.4708446000000000E+001 M193 962
       P  4.3068300000000006E+000  5.9586690000000004E+000  1.4801556000000000E+001 M193 962
       S  4.2900239999999998E+000  7.0819625999999998E+000  1.3081232000000000E+001 M193 962
       S  4.1779169999999999E+000  7.0762530000000003E+000  1.6525107999999999E+001 M193 962
       P  4.3068300000000006E+000  5.9586690000000004E+000  2.3279455000000002E+001 M194 963
       S  6.1699640000000011E+000  5.0601726000000005E+000  2.3338792999999999E+001 M194 963
       S  4.2900239999999998E+000  7.0819625999999998E+000  2.1559132000000002E+001 M194 963
       S  4.1779169999999999E+000  7.0762530000000003E+000  2.5003008000000001E+001 M194 963
       S  2.7098632000000000E+000  4.6640319999999997E+000  2.3186346000000000E+001 M194 963
       S  4.2900239999999998E+000  7.0819625999999998E+000  3.0037033000000001E+001 M195 964
       S  4.1779169999999999E+000  7.0762530000000003E+000  3.3480907000000002E+001 M195 964
       S  6.1699640000000011E+000  5.0601726000000005E+000  3.1816694000000002E+001 M195 964
       S  2.7098632000000000E+000  4.6640319999999997E+000  3.1664246000000002E+001 M195 964
       P  4.3068300000000006E+000  5.9586690000000004E+000  3.1757355000000000E+001 M195 964
       S  2.7098632000000000E+000  1.3710232000000000E+001  6.2305454999999998E+000 M196 965
       P  4.3068300000000006E+000  1.5004869000000001E+001  6.3236556000000013E+000 M196 965
       S  6.1699640000000011E+000  1.4106373000000000E+001  6.3829929999999999E+000 M196 965
       S  4.2900239999999998E+000  1.6128162000000000E+001  4.6033324999999996E+000 M196 965
       S  4.1779169999999999E+000  1.6122454000000001E+001  8.0472079999999995E+000 M196 965
       P  4.3068300000000006E+000  1.5004869000000001E+001  1.4801556000000000E+001 M197 966
       S  4.2900239999999998E+000  1.6128162000000000E+001  1.3081232000000000E+001 M197 966
       S  4.1779169999999999E+000  1.6122454000000001E+001  1.6525107999999999E+001 M197 966
       S  6.1699640000000011E+000  1.4106373000000000E+001  1.4860893000000003E+001 M197 966
       S  2.7098632000000000E+000  1.3710232000000000E+001  1.4708446000000000E+001 M197 966
       S  4.1779169999999999E+000  1.6122454000000001E+001  2.5003008000000001E+001 M198 967
       S  2.7098632000000000E+000  1.3710232000000000E+001  2.3186346000000000E+001 M198 967
       P  4.3068300000000006E+000  1.5004869000000001E+001  2.3279455000000002E+001 M198 967
       S  6.1699640000000011E+000  1.4106373000000000E+001  2.3338792999999999E+001 M198 967
       S  4.2900239999999998E+000  1.6128162000000000E+001  2.1559132000000002E+001 M198 967
       S  2.7098632000000000E+000  1.3710232000000000E+001  3.1664246000000002E+001 M199 968
       P  4.3068300000000006E+000  1.5004869000000001E+001  3.1757355000000000E+001 M199 968
       S  4.2900239999999998E+000  1.6128162000000000E+001  3.0037033000000001E+001 M199 968
       S  4.1779169999999999E+000  1.6122454000000001E+001  3.3480907000000002E+001 M199 968
       S  6.1699640000000011E+000  1.4106373000000000E+001  3.1816694000000002E+001 M199 968
       S  6.1699640000000011E+000  2.3152573000000000E+001  6.3829929999999999E+000 M200 969
       S  4.2900239999999998E+000  2.5174361999999999E+001  4.6033324999999996E+000 M200 969
       S  4.1779169999999999E+000  2.5168653000000003E+001  8.0472079999999995E+000 M200 969
       S  2.7098632000000000E+000  2.2756432000000000E+001  6.2305454999999998E+000 M200 969
       P  4.3068300000000006E+000  2.4051069999999999E+001  6.3236556000000013E+000 M200 969
       S  6.1699640000000011E+000  2.3152573000000000E+001  1.4860893000000003E+001 M201 970
       S  2.7098632000000000E+000  2.2756432000000000E+001  1.4708446000000000E+001 M201 970
       P  4.3068300000000006E+000  2.4051069999999999E+001  1.4801556000000000E+001 M201 970
       S  4.2900239999999998E+000  2.5174361999999999E+001  1.3081232000000000E+001 M201 970
       S  4.1779169999999999E+000  2.5168653000000003E+001  1.6525107999999999E+001 M201 970
       P  4.3068300000000006E+000  2.4051069999999999E+001  2.3279455000000002E+001 M202 971
       S  6.1699640000000011E+000  2.3152573000000000E+001  2.3338792999999999E+001 M202 971
       S  4.2900239999999998E+000  2.5174361999999999E+001  2.1559132000000002E+001 M202 971
       S  4.1779169999999999E+000  2.5168653000000003E+001  2.5003008000000001E+001 M202 971
       S  2.7098632000000000E+000  2.2756432000000000E+001  2.3186346000000000E+001 M202 971
       S  4.2900239999999998E+000  2.5174361999999999E+001  3.0037033000000001E+001 M203 972
       S  4.1779169999999999E+000  2.5168653000000003E+001  3.3480907000000002E+001 M203 972
       S  6.1699640000000011E+000  2.3152573000000000E+001  3.1816694000000002E+001 M203 972
       S  2.7098632000000000E+000  2.2756432000000000E+001  3.1664246000000002E+001 M203 972
       P  4.3068300000000006E+000  2.4051069999999999E+001  3.1757355000000000E+001 M203 972
       S  2.7098632000000000E+000  3.1802631000000005E+001  6.2305454999999998E+000 M204 973
       P  4.3068300000000006E+000  3.3097267000000002E+001  6.3236556000000013E+000 M204 973
       S  6.1699640000000011E+000  3.2198771999999998E+001  6.3829929999999999E+000 M204 973
       S  4.2900239999999998E+000  3.4220562000000001E+001  4.6033324999999996E+000 M204 973
       S  4.1779169999999999E+000  3.4214850000000006E+001  8.0472079999999995E+000 M204 973
       P  4.3068300000000006E+000  3.3097267000000002E+001  1.4801556000000000E+001 M205 974
       S  4.2900239999999998E+000  3.4220562000000001E+001  1.3081232000000000E+001 M205 974
       S  4.1779169999999999E+000  3.4214850000000006E+001  1.6525107999999999E+001 M205 974
       S  6.1699640000000011E+000  3.2198771999999998E+001  1.4860893000000003E+001 M205 974
       S  2.7098632000000000E+000  3.1802631000000005E+001  1.4708446000000000E+001 M205 974
       S  4.1779169999999999E+000  3.4214850000000006E+001  2.5003008000000001E+001 M206 975
       S  2.7098632000000000E+000  3.1802631000000005E+001  2.3186346000000000E+001 M206 975
       P  4.3068300000000006E+000  3.3097267000000002E+001  2.3279455000000002E+001 M206 975
       S  6.1699640000000011E+000  3.2198771999999998E+001  2.3338792999999999E+001 M206 975
       S  4.2900239999999998E+000  3.4220562000000001E+001  2.1559132000000002E+001 M206 975
       S  2.7098632000000000E+000  3.1802631000000005E+001  3.1664246000000002E+001 M207 976
       P  4.3068300000000006E+000  3.3097267000000002E+001  3.1757355000000000E+001 M207 976
       S  4.2900239999999998E+000  3.4220562000000001E+001  3.0037033000000001E+001 M207 976
       S  4.1779169999999999E+000  3.4214850000000006E+001  3.3480907000000002E+001 M207 976
       S  6.1699640000000011E+000  3.2198771999999998E+001  3.1816694000000002E+001 M207 976
       S  1.4813464000000000E+001  5.0601726000000005E+000  6.3829929999999999E+000 M208 977
       S  1.2933522999999999E+001  7.0819625999999998E+000  4.6033324999999996E+000 M208 977
       S  1.2821417000000000E+001  7.0762530000000003E+000  8.0472079999999995E+000 M208 977
       S  1.1353363000000000E+001  4.6640319999999997E+000  6.2305454999999998E+000 M208 977
       P  1.2950330000000001E+001  5.9586690000000004E+000  6.3236556000000013E+000 M208 977
       S  1.4813464000000000E+001  5.0601726000000005E+000  1.4860893000000003E+001 M209 978
       S  1.1353363000000000E+001  4.6640319999999997E+000  1.4708446000000000E+001 M209 978
       P  1.2950330000000001E+001  5.9586690000000004E+000  1.4801556000000000E+001 M209 978
       S  1.2933522999999999E+001  7.0819625999999998E+000  1.3081232000000000E+001 M209 978
       S  1.2821417000000000E+001  7.0762530000000003E+000  1.6525107999999999E+001 M209 978
       P  1.2950330000000001E+001  5.9586690000000004E+000  2.3279455000000002E+001 M210 979
       S  1.4813464000000000E+001  5.0601726000000005E+000  2.3338792999999999E+001 M210 979
       S  1.2933522999999999E+001  7.0819625999999998E+000  2.1559132000000002E+001 M210 979
       S  1.2821417000000000E+001  7.0762530000000003E+000  2.5003008000000001E+001 M210 979
       S  1.1353363000000000E+001  4.6640319999999997E+000  2.3186346000000000E+001 M210 979
       S  1.2933522999999999E+001  7.0819625999999998E+000  3.0037033000000001E+001 M211 980
       S  1.2821417000000000E+001  7.0762530000000003E+000  3.3480907000000002E+001 M211 980
       S  1.4813464000000000E+001  5.0601726000000005E+000  3.1816694000000002E+001 M211 980
       S  1.1353363000000000E+001  4.6640319999999997E+000  3.1664246000000002E+001 M211 980
       P  1.2950330000000001E+001  5.9586690000000004E+000  3.1757355000000000E+001 M211 980
       S  1.1353363000000000E+001  1.3710232000000000E+001  6.2305454999999998E+000 M212 981
       P  1.2950330000000001E+001  1.5004869000000001E+001  6.3236556000000013E+000 M212 981
       S  1.4813464000000000E+001  1.4106373000000000E+001  6.3829929999999999E+000 M212 981
       S  1.2933522999999999E+001  1.6128162000000000E+001  4.6033324999999996E+000 M212 981
       S  1.2821417000000000E+001  1.6122454000000001E+001  8.0472079999999995E+000 M212 981
       P  1.2950330000000001E+001  1.5004869000000001E+001  1.4801556000000000E+001 M213 982
       S  1.2933522999999999E+001  1.6128162000000000E+001  1.3081232000000000E+001 M213 982
       S  1.2821417000000000E+001  1.6122454000000001E+001  1.6525107999999999E+001 M213 982
       S  1.4813464000000000E+001  1.4106373000000000E+001  1.4860893000000003E+001 M213 982
       S  1.1353363000000000E+001  1.3710232000000000E+001  1.4708446000000000E+001 M213 982
       S  1.2821417000000000E+001  1.6122454000000001E+001  2.5003008000000001E+001 M214 983
       S  1.1353363000000000E+001  1.3710232000000000E+001  2.3186346000000000E+001 M214 983
       P  1.2950330000000001E+001  1.5004869000000001E+001  2.3279455000000002E+001 M214 983
       S  1.4813464000000000E+001  1.4106373000000000E+001  2.3338792999999999E+001 M214 983
       S  1.2933522999999999E+001  1.6128162000000000E+001  2.1559132000000002E+001 M214 983
       S  1.2933522999999999E+001  1.6128162000000000E+001  3.0037033000000001E+001 M215 984
       P  1.2950330000000001E+001  1.5004869000000001E+001  3.1757355000000000E+001 M215 984
       S  1.2821417000000000E+001  1.6122454000000001E+001  3.3480907000000002E+001 M215 984
       S  1.4813464000000000E+001  1.4106373000000000E+001  3.1816694000000002E+001 M215 984
       S  1.1353363000000000E+001  1.3710232000000000E+001  3.1664246000000002E+001 M215 984
       S  1.2933522999999999E+001  2.5174361999999999E+001  4.6033324999999996E+000 M216 985
       P  1.2950330000000001E+001  2.4051069999999999E+001  6.3236556000000013E+000 M216 985
       S  1.2821417000000000E+001  2.5168653000000003E+001  8.0472079999999995E+000 M216 985
       S  1.4813464000000000E+001  2.3152573000000000E+001  6.3829929999999999E+000 M216 985
       S  1.1353363000000000E+001  2.2756432000000000E+001  6.2305454999999998E+000 M216 985
       S  1.1353363000000000E+001  2.2756432000000000E+001  1.4708446000000000E+001 M217 986
       S  1.2821417000000000E+001  2.5168653000000003E+001  1.6525107999999999E+001 M217 986
       S  1.2933522999999999E+001  2.5174361999999999E+001  1.3081232000000000E+001 M217 986
       S  1.4813464000000000E+001  2.3152573000000000E+001  1.4860893000000003E+001 M217 986
       P  1.2950330000000001E+001  2.4051069999999999E+001  1.4801556000000000E+001 M217 986
       S  1.2821417000000000E+001  2.5168653000000003E+001  2.5003008000000001E+001 M218 987
       S  1.4813464000000000E+001  2.3152573000000000E+001  2.3338792999999999E+001 M218 987
       S  1.1353363000000000E+001  2.2756432000000000E+001  2.3186346000000000E+001 M218 987
       P  1.2950330000000001E+001  2.4051069999999999E+001  2.3279455000000002E+001 M218 987
       S  1.2933522999999999E+001  2.5174361999999999E+001  2.1559132000000002E+001 M218 987
       S  1.2821417000000000E+001  2.5168653000000003E+001  3.3480907000000002E+001 M219 988
       P  1.2950330000000001E+001  2.4051069999999999E+001  3.1757355000000000E+001 M219 988
       S  1.4813464000000000E+001  2.3152573000000000E+001  3.1816694000000002E+001 M219 988
       S  1.1353363000000000E+001  2.2756432000000000E+001  3.1664246000000002E+001 M219 988
       S  1.2933522999999999E+001  2.5174361999999999E+001  3.0037033000000001E+001 M219 988
       S  1.2933522999999999E+001  3.4220562000000001E+001  4.6033324999999996E+000 M220 989
       P  1.2950330000000001E+001  3.3097267000000002E+001  6.3236556000000013E+000 M220 989
       S  1.2821417000000000E+001  3.4214850000000006E+001  8.0472079999999995E+000 M220 989
       S  1.4813464000000000E+001  3.2198771999999998E+001  6.3829929999999999E+000 M220 989
       S  1.1353363000000000E+001  3.1802631000000005E+001  6.2305454999999998E+000 M220 989
       S  1.2933522999999999E+001  3.4220562000000001E+001  1.3081232000000000E+001 M221 990
       S  1.2821417000000000E+001  3.4214850000000006E+001  1.6525107999999999E+001 M221 990
       S  1.4813464000000000E+001  3.2198771999999998E+001  1.4860893000000003E+001 M221 990
       S  1.1353363000000000E+001  3.1802631000000005E+001  1.4708446000000000E+001 M221 990
       P  1.2950330000000001E+001  3.3097267000000002E+001  1.4801556000000000E+001 M221 990
       S  1.2933522999999999E+001  3.4220562000000001E+001  2.1559132000000002E+001 M222 991
       P  1.2950330000000001E+001  3.3097267000000002E+001  2.3279455000000002E+001 M222 991
       S  1.4813464000000000E+001  3.2198771999999998E+001  2.3338792999999999E+001 M222 991
       S  1.1353363000000000E+001  3.1802631000000005E+001  2.3186346000000000E+001 M222 991
       S  1.2821417000000000E+001  3.4214850000000006E+001  2.5003008000000001E+001 M222 991
       S  1.2821417000000000E+001  3.4214850000000006E+001  3.3480907000000002E+001 M223 992
       S  1.2933522999999999E+001  3.4220562000000001E+001  3.0037033000000001E+001 M223 992
       P  1.2950330000000001E+001  3.3097267000000002E+001  3.1757355000000000E+001 M223 992
       S  1.4813464000000000E+001  3.2198771999999998E+001  3.1816694000000002E+001 M223 992
       S  1.1353363000000000E+001  3.1802631000000005E+001  3.1664246000000002E+001 M223 992
       S  2.3456963999999999E+001  5.0601726000000005E+000  6.3829929999999999E+000 M224 993
       P  2.1593830000000001E+001  5.9586690000000004E+000  6.3236556000000013E+000 M224 993
       S  2.1577024000000002E+001  7.0819625999999998E+000  4.6033324999999996E+000 M224 993
       S  2.1464915999999999E+001  7.0762530000000003E+000  8.0472079999999995E+000 M224 993
       S  1.9996862000000004E+001  4.6640319999999997E+000  6.2305454999999998E+000 M224 993
       S  2.1464915999999999E+001  7.0762530000000003E+000  1.6525107999999999E+001 M225 994
       S  2.3456963999999999E+001  5.0601726000000005E+000  1.4860893000000003E+001 M225 994
       S  1.9996862000000004E+001  4.6640319999999997E+000  1.4708446000000000E+001 M225 994
       P  2.1593830000000001E+001  5.9586690000000004E+000  1.4801556000000000E+001 M225 994
       S  2.1577024000000002E+001  7.0819625999999998E+000  1.3081232000000000E+001 M225 994
       S  1.9996862000000004E+001  4.6640319999999997E+000  2.3186346000000000E+001 M226 995
       S  2.3456963999999999E+001  5.0601726000000005E+000  2.3338792999999999E+001 M226 995
       P  2.1593830000000001E+001  5.9586690000000004E+000  2.3279455000000002E+001 M226 995
       S  2.1577024000000002E+001  7.0819625999999998E+000  2.1559132000000002E+001 M226 995
       S  2.1464915999999999E+001  7.0762530000000003E+000  2.5003008000000001E+001 M226 995
       S  2.1577024000000002E+001  7.0819625999999998E+000  3.0037033000000001E+001 M227 996
       S  2.1464915999999999E+001  7.0762530000000003E+000  3.3480907000000002E+001 M227 996
       S  2.3456963999999999E+001  5.0601726000000005E+000  3.1816694000000002E+001 M227 996
       S  1.9996862000000004E+001  4.6640319999999997E+000  3.1664246000000002E+001 M227 996
       P  2.1593830000000001E+001  5.9586690000000004E+000  3.1757355000000000E+001 M227 996
       S  1.9996862000000004E+001  1.3710232000000000E+001  6.2305454999999998E+000 M228 997
       S  2.3456963999999999E+001  1.4106373000000000E+001  6.3829929999999999E+000 M228 997
       P  2.1593830000000001E+001  1.5004869000000001E+001  6.3236556000000013E+000 M228 997
       S  2.1577024000000002E+001  1.6128162000000000E+001  4.6033324999999996E+000 M228 997
       S  2.1464915999999999E+001  1.6122454000000001E+001  8.0472079999999995E+000 M228 997
       P  2.1593830000000001E+001  1.5004869000000001E+001  1.4801556000000000E+001 M229 998
       S  2.1577024000000002E+001  1.6128162000000000E+001  1.3081232000000000E+001 M229 998
       S  2.1464915999999999E+001  1.6122454000000001E+001  1.6525107999999999E+001 M229 998
       S  2.3456963999999999E+001  1.4106373000000000E+001  1.4860893000000003E+001 M229 998
       S  1.9996862000000004E+001  1.3710232000000000E+001  1.4708446000000000E+001 M229 998
       S  2.1577024000000002E+001  1.6128162000000000E+001  2.1559132000000002E+001 M230 999
       S  2.1464915999999999E+001  1.6122454000000001E+001  2.5003008000000001E+001 M230 999
       S  1.9996862000000004E+001  1.3710232000000000E+001  2.3186346000000000E+001 M230 999
       S  2.3456963999999999E+001  1.4106373000000000E+001  2.3338792999999999E+001 M230 999
       P  2.1593830000000001E+001  1.5004869000000001E+001  2.3279455000000002E+001 M230 999
       S  1.9996862000000004E+001  1.3710232000000000E+001  3.1664246000000002E+001 M231 1000
       P  2.1593830000000001E+001  1.5004869000000001E+001  3.1757355000000000E+001 M231 1000
       S  2.1577024000000002E+001  1.6128162000000000E+001  3.0037033000000001E+001 M231 1000
       S  2.1464915999999999E+001  1.6122454000000001E+001  3.3480907000000002E+001 M231 1000
       S  2.3456963999999999E+001  1.4106373000000000E+001  3.1816694000000002E+001 M231 1000
       S  2.3456963999999999E+001  2.3152573000000000E+001  6.3829929999999999E+000 M232 1001
       P  2.1593830000000001E+001  2.4051069999999999E+001  6.3236556000000013E+000 M232 1001
       S  2.1577024000000002E+001  2.5174361999999999E+001  4.6033324999999996E+000 M232 1001
       S  2.1464915999999999E+001  2.5168653000000003E+001  8.0472079999999995E+000 M232 1001
       S  1.9996862000000004E+001  2.2756432000000000E+001  6.2305454999999998E+000 M232 1001
       S  2.1464915999999999E+001  2.5168653000000003E+001  1.6525107999999999E+001 M233 1002
       S  2.3456963999999999E+001  2.3152573000000000E+001  1.4860893000000003E+001 M233 1002
       S  1.9996862000000004E+001  2.2756432000000000E+001  1.4708446000000000E+001 M233 1002
       P  2.1593830000000001E+001  2.4051069999999999E+001  1.4801556000000000E+001 M233 1002
       S  2.1577024000000002E+001  2.5174361999999999E+001  1.3081232000000000E+001 M233 1002
       S  1.9996862000000004E+001  2.2756432000000000E+001  2.3186346000000000E+001 M234 1003
       S  2.3456963999999999E+001  2.3152573000000000E+001  2.3338792999999999E+001 M234 1003
       P  2.1593830000000001E+001  2.4051069999999999E+001  2.3279455000000002E+001 M234 1003
       S  2.1577024000000002E+001  2.5174361999999999E+001  2.1559132000000002E+001 M234 1003
       S  2.1464915999999999E+001  2.5168653000000003E+001  2.5003008000000001E+001 M234 1003
       S  2.1577024000000002E+001  2.5174361999999999E+001  3.0037033000000001E+001 M235 1004
       S  2.1464915999999999E+001  2.5168653000000003E+001  3.3480907000000002E+001 M235 1004
       S  2.3456963999999999E+001  2.3152573000000000E+001  3.1816694000000002E+001 M235 1004
       S  1.9996862000000004E+001  2.2756432000000000E+001  3.1664246000000002E+001 M235 1004
       P  2.1593830000000001E+001  2.4051069999999999E+001  3.1757355000000000E+001 M235 1004
       S  1.9996862000000004E+001  3.1802631000000005E+001  6.2305454999999998E+000 M236 1005
       S  2.3456963999999999E+001  3.2198771999999998E+001  6.3829929999999999E+000 M236 1005
       P  2.1593830000000001E+001  3.3097267000000002E+001  6.3236556000000013E+000 M236 1005
       S  2.1577024000000002E+001  3.4220562000000001E+001  4.6033324999999996E+000 M236 1005
       S  2.1464915999999999E+001  3.4214850000000006E+001  8.0472079999999995E+000 M236 1005
       P  2.1593830000000001E+001  3.3097267000000002E+001  1.4801556000000000E+001 M237 1006
       S  2.1577024000000002E+001  3.4220562000000001E+001  1.3081232000000000E+001 M237 1006
       S  2.1464915999999999E+001  3.4214850000000006E+001  1.6525107999999999E+001 M237 1006
       S  2.3456963999999999E+001  3.2198771999999998E+001  1.4860893000000003E+001 M237 1006
       S  1.9996862000000004E+001  3.1802631000000005E+001  1.4708446000000000E+001 M237 1006
       S  2.1577024000000002E+001  3.4220562000000001E+001  2.1559132000000002E+001 M238 1007
       S  2.1464915999999999E+001  3.4214850000000006E+001  2.5003008000000001E+001 M238 1007
       S  1.9996862000000004E+001  3.1802631000000005E+001  2.3186346000000000E+001 M238 1007
       S  2.3456963999999999E+001  3.2198771999999998E+001  2.3338792999999999E+001 M238 1007
       P  2.1593830000000001E+001  3.3097267000000002E+001  2.3279455000000002E+001 M238 1007
       S  1.9996862000000004E+001  3.1802631000000005E+001  3.1664246000000002E+001 M239 1008
       P  2.1593830000000001E+001  3.3097267000000002E+001  3.1757355000000000E+001 M239 1008
       S  2.1577024000000002E+001  3.4220562000000001E+001  3.0037033000000001E+001 M239 1008
       S  2.1464915999999999E+001  3.4214850000000006E+001  3.3480907000000002E+001 M239 1008
       S  2.3456963999999999E+001  3.2198771999999998E+001  3.1816694000000002E+001 M239 1008
       S  3.2100464000000002E+001  5.0601726000000005E+000  6.3829929999999999E+000 M240 1009
       P  3.0237330000000000E+001  5.9586690000000004E+000  6.3236556000000013E+000 M240 1009
       S  3.0220524000000001E+001  7.0819625999999998E+000  4.6033324999999996E+000 M240 1009
       S  3.0108418000000004E+001  7.0762530000000003E+000  8.0472079999999995E+000 M240 1009
       S  2.8640364000000002E+001  4.6640319999999997E+000  6.2305454999999998E+000 M240 1009
       S  3.0108418000000004E+001  7.0762530000000003E+000  1.6525107999999999E+001 M241 1010
       S  3.2100464000000002E+001  5.0601726000000005E+000  1.4860893000000003E+001 M241 1010
       S  2.8640364000000002E+001  4.6640319999999997E+000  1.4708446000000000E+001 M241 1010
       P  3.0237330000000000E+001  5.9586690000000004E+000  1.4801556000000000E+001 M241 1010
       S  3.0220524000000001E+001  7.0819625999999998E+000  1.3081232000000000E+001 M241 1010
       S  2.8640364000000002E+001  4.6640319999999997E+000  2.3186346000000000E+001 M242 1011
       S  3.2100464000000002E+001  5.0601726000000005E+000  2.3338792999999999E+001 M242 1011
       P  3.0237330000000000E+001  5.9586690000000004E+000  2.3279455000000002E+001 M242 1011
       S  3.0220524000000001E+001  7.0819625999999998E+000  2.1559132000000002E+001 M242 1011
       S  3.0108418000000004E+001  7.0762530000000003E+000  2.5003008000000001E+001 M242 1011
       S  3.0220524000000001E+001  7.0819625999999998E+000  3.0037033000000001E+001 M243 1012
       S  3.0108418000000004E+001  7.0762530000000003E+000  3.3480907000000002E+001 M243 1012
       S  3.2100464000000002E+001  5.0601726000000005E+000  3.1816694000000002E+001 M243 1012
       S  2.8640364000000002E+001  4.6640319999999997E+000  3.1664246000000002E+001 M243 1012
       P  3.0237330000000000E+001  5.9586690000000004E+000  3.1757355000000000E+001 M243 1012
       S  2.8640364000000002E+001  1.3710232000000000E+001  6.2305454999999998E+000 M244 1013
       S  3.2100464000000002E+001  1.4106373000000000E+001  6.3829929999999999E+000 M244 1013
       P  3.0237330000000000E+001  1.5004869000000001E+001  6.3236556000000013E+000 M244 1013
       S  3.0220524000000001E+001  1.6128162000000000E+001  4.6033324999999996E+000 M244 1013
       S  3.0108418000000004E+001  1.6122454000000001E+001  8.0472079999999995E+000 M244 1013
       P  3.0237330000000000E+001  1.5004869000000001E+001  1.4801556000000000E+001 M245 1014
       S  3.0220524000000001E+001  1.6128162000000000E+001  1.3081232000000000E+001 M245 1014
       S  3.0108418000000004E+001  1.6122454000000001E+001  1.6525107999999999E+001 M245 1014
       S  3.2100464000000002E+001  1.4106373000000000E+001  1.4860893000000003E+001 M245 1014
       S  2.8640364000000002E+001  1.3710232000000000E+001  1.4708446000000000E+001 M245 1014
       S  3.0220524000000001E+001  1.6128162000000000E+001  2.1559132000000002E+001 M246 1015
       S  3.0108418000000004E+001  1.6122454000000001E+001  2.5003008000000001E+001 M246 1015
       S  2.8640364000000002E+001  1.3710232000000000E+001  2.3186346000000000E+001 M246 1015
       S  3.2100464000000002E+001  1.4106373000000000E+001  2.3338792999999999E+001 M246 1015
       P  3.0237330000000000E+001  1.5004869000000001E+001  2.3279455000000002E+001 M246 1015
       S  3.0220524000000001E+001  1.6128162000000000E+001  3.0037033000000001E+001 M247 1016
       P  3.0237330000000000E+001  1.5004869000000001E+001  3.1757355000000000E+001 M247 1016
       S  3.0108418000000004E+001  1.6122454000000001E+001  3.3480907000000002E+001 M247 1016
       S  3.2100464000000002E+001  1.4106373000000000E+001  3.1816694000000002E+001 M247 1016
       S  2.8640364000000002E+001  1.3710232000000000E+001  3.1664246000000002E+001 M247 1016
       S  3.0220524000000001E+001  2.5174361999999999E+001  4.6033324999999996E+000 M248 1017
       S  3.2100464000000002E+001  2.3152573000000000E+001  6.3829929999999999E+000 M248 1017
       P  3.0237330000000000E+001  2.4051069999999999E+001  6.3236556000000013E+000 M248 1017
       S  3.0108418000000004E+001  2.5168653000000003E+001  8.0472079999999995E+000 M248 1017
       S  2.8640364000000002E+001  2.2756432000000000E+001  6.2305454999999998E+000 M248 1017
       S  3.2100464000000002E+001  2.3152573000000000E+001  1.4860893000000003E+001 M249 1018
       S  2.8640364000000002E+001  2.2756432000000000E+001  1.4708446000000000E+001 M249 1018
       S  3.0220524000000001E+001  2.5174361999999999E+001  1.3081232000000000E+001 M249 1018
       S  3.0108418000000004E+001  2.5168653000000003E+001  1.6525107999999999E+001 M249 1018
       P  3.0237330000000000E+001  2.4051069999999999E+001  1.4801556000000000E+001 M249 1018
       P  3.0237330000000000E+001  2.4051069999999999E+001  2.3279455000000002E+001 M250 1019
       S  3.0108418000000004E+001  2.5168653000000003E+001  2.5003008000000001E+001 M250 1019
       S  3.2100464000000002E+001  2.3152573000000000E+001  2.3338792999999999E+001 M250 1019
       S  2.8640364000000002E+001  2.2756432000000000E+001  2.3186346000000000E+001 M250 1019
       S  3.0220524000000001E+001  2.5174361999999999E+001  2.1559132000000002E+001 M250 1019
       S  3.0108418000000004E+001  2.5168653000000003E+001  3.3480907000000002E+001 M251 1020
       P  3.0237330000000000E+001  2.4051069999999999E+001  3.1757355000000000E+001 M251 1020
       S  3.2100464000000002E+001  2.3152573000000000E+001  3.1816694000000002E+001 M251 1020
       S  2.8640364000000002E+001  2.2756432000000000E+001  3.1664246000000002E+001 M251 1020
       S  3.0220524000000001E+001  2.5174361999999999E+001  3.0037033000000001E+001 M251 1020
       S  3.0220524000000001E+001  3.4220562000000001E+001  4.6033324999999996E+000 M252 1021
       P  3.0237330000000000E+001  3.3097267000000002E+001  6.3236556000000013E+000 M252 1021
       S  3.0108418000000004E+001  3.4214850000000006E+001  8.0472079999999995E+000 M252 1021
       S  3.2100464000000002E+001  3.2198771999999998E+001  6.3829929999999999E+000 M252 1021
       S  2.8640364000000002E+001  3.1802631000000005E+001  6.2305454999999998E+000 M252 1021
       S  3.0220524000000001E+001  3.4220562000000001E+001  1.3081232000000000E+001 M253 1022
       S  3.0108418000000004E+001  3.4214850000000006E+001  1.6525107999999999E+001 M253 1022
       S  3.2100464000000002E+001  3.2198771999999998E+001  1.4860893000000003E+001 M253 1022
       S  2.8640364000000002E+001  3.1802631000000005E+001  1.4708446000000000E+001 M253 1022
       P  3.0237330000000000E+001  3.3097267000000002E+001  1.4801556000000000E+001 M253 1022
       S  3.0108418000000004E+001  3.4214850000000006E+001  2.5003008000000001E+001 M254 1023
       P  3.0237330000000000E+001  3.3097267000000002E+001  2.3279455000000002E+001 M254 1023
       S  3.2100464000000002E+001  3.2198771999999998E+001  2.3338792999999999E+001 M254 1023
       S  2.8640364000000002E+001  3.1802631000000005E+001  2.3186346000000000E+001 M254 1023
       S  3.0220524000000001E+001  3.4220562000000001E+001  2.1559132000000002E+001 M254 1023
       S  3.0108418000000004E+001  3.4214850000000006E+001  3.3480907000000002E+001 M255 1024
       S  3.0220524000000001E+001  3.4220562000000001E+001  3.0037033000000001E+001 M255 1024
       P  3.0237330000000000E+001  3.3097267000000002E+001  3.1757355000000000E+001 M255 1024
       S  3.2100464000000002E+001  3.2198771999999998E+001  3.1816694000000002E+001 M255 1024
       S  2.8640364000000002E+001  3.1802631000000005E+001  3.1664246000000002E+001 M255 1024
