2048

       Li  2.0759038569822654E+000  1.9419284339992635E+000  1.7148911776600588E+001 Li1 1
       Li  6.6019691980419779E+000  7.2863246006645692E+000  2.1449573611100888E+001 Li2 2
       Li  1.5308057429001293E+001 -1.1240204904096514E+001  3.8291191951909020E+001 Li3 3
       Li  2.1099230388710617E+000 -1.1637991673057850E+000  3.3381850573903307E+001 Li4 4
       Li  1.0867032365696824E+001  8.5308993145252039E+000  1.2900522555787301E+001 Li5 5
       Li -1.0415610467452751E+001 -8.0699617819157243E+000  3.7653474564032223E+001 Li6 6
       Li -1.0883174751126875E+001  9.1096314032654373E+000  1.7033991740351635E+001 Li7 7
       Li  1.1110393307923898E+001  3.2319808349613936E+001  8.7838571485879502E+000 Li8 8
       Li  1.4962432647319526E+001  3.0573124166829256E+001  7.8555653827685763E+000 Li9 9
       Li  2.4292054458483921E+001  2.8048999793503892E+001  2.0821711982718480E+001 Li10 10
       Li  3.2332315915221827E+001  3.9790599551410523E+001  1.6847672717600403E+001 Li11 11
       Li  6.3955705228529869E+000  2.3982604993896697E+001  5.0822750280698450E+001 Li12 12
       Li -1.8007743326066670E+000  1.6717383347031166E+001  1.2896377306461833E+001 Li13 13
       Li  2.3378425757420427E+001  4.8478718691154661E+001  4.1773425991026222E+001 Li14 14
       Li  2.0178264738305270E+001  3.6030740420077151E+001  2.9609191676932426E+001 Li15 15
       Li  6.3738267233292056E+000  3.9792536525087179E+001  5.5190859729822513E+001 Li16 16
       Li  1.4471752786511873E+001  1.4632422546221809E+001  1.7021415521080254E+001 Li17 17
       Li -2.3356302984409192E+000 -1.5049302726814828E+001  2.5058585058223187E+001 Li18 18
       Li  1.5330645790981547E+001 -2.1848134139903861E+000  4.6858124169884917E+001 Li19 19
       Li  7.1470595697087633E+000  1.5879476198951435E+001  2.2042060485758558E+001 Li20 20
       Li  2.3430272664782038E+001  1.8082817242622703E+001 -8.6846579822127605E+000 Li21 21
       Li  2.3550863736307885E+001  1.2875270969026575E+001  4.2997399381641932E+000 Li22 22
       Li  1.9821509909064925E+001 -3.5927713427346415E+000  2.5743817120099369E+001 Li23 23
       Li  2.3746612997246725E+001 -1.4171721866051103E+001  4.1597600215114614E+000 Li24 24
       Li  1.5641556712074141E+001  1.0058324970432999E+000  3.4819235636653008E+000 Li25 25
       Li  1.9828416458831899E+001  1.1651141050251425E+001 -3.8317831653726002E+000 Li26 26
       Li  2.3409371847124678E+001  2.3993991484250252E+001 -8.2538765338075084E+000 Li27 27
       Li  1.5331420171969880E+001  1.5837286571115133E+001  1.2867234784352917E+001 Li28 28
       Li  4.1117105078097694E+001  3.4371148055543649E+001  5.5445675048674651E+001 Li29 29
       Li -1.6427179011645783E+000  1.9117699092964443E+001  2.0923856458747949E+001 Li30 30
       Li  2.8516417100415087E+001  3.2329004906816969E+001  5.0920446643547670E+001 Li31 31
       Li  1.0793341071777212E+001  2.8658755071978497E+001 -8.1921828507354082E+000 Li32 32
       Li  1.9090501280335015E+001  8.0422792377262855E+000  8.0517417402271256E+000 Li33 33
       Li  1.5139821441085257E+001 -1.4756389058603379E+001  3.3689795884071472E+001 Li34 34
       Li  1.9329912887229785E+001 -1.0026286986848968E+001  2.5010344391963852E+001 Li35 35
       Li  2.3376157967070039E+001 -5.6778807138160534E+000  4.2173335136800659E+001 Li36 36
       Li  3.6418160748280066E+001  1.9943817314086385E+001  1.7515268180965933E+001 Li37 37
       Li  6.8159487012041255E+000 -2.5974596746592159E+001  2.0924149101172095E+001 Li38 38
       Li  2.7935607833561725E+001  1.6626238738771058E+001  1.6823063166723543E+001 Li39 39
       Li  3.2085966454976720E+001  1.2050789037212144E+001  7.9159338686043670E+000 Li40 40
       Li  1.5327887438764321E+001  3.6916460805837183E+001  2.0948012100272475E+001 Li41 41
       Li  1.0400117824848911E+001  2.0099228825480338E+001  3.4532076665669749E+001 Li42 42
       Li  1.9128007993795595E+001  1.6733197434766033E+001  5.0336606850284575E+001 Li43 43
       Li  1.0291072285026148E+001 -4.6862210409994356E+000  5.9711569205632308E+001 Li44 44
       Li  1.9153022133776002E+001  2.6228280949839721E+001  1.6821614871288464E+001 Li45 45
       Li  1.0919194644116136E+001  4.7944623863433712E+001 -3.8570560305553436E+000 Li46 46
       Li  1.9237295481295487E+001  3.7849397580564457E+001  6.8777822919095129E+001 Li47 47
       Li  1.1350247354478336E+001  1.4499144835754883E+001  2.9018772425964389E+001 Li48 48
       Li  1.5151711487376504E+001 -3.8879248774637233E+001  3.9442392074302772E-002 Li49 49
       Li  4.9656094995516511E+001 -2.7450949731318079E+000  1.7545833815821826E+001 Li50 50
       Li  2.8031824335782751E+001 -2.5251423233816386E+001  5.1122206279486051E+001 Li51 51
       Li  3.6195393287788697E+001 -7.0373610696464706E-001  4.6518098534174477E+001 Li52 52
       Li  2.8261671981534008E+001  7.9715800680214457E+000  1.2503101391510574E+001 Li53 53
       Li  2.7772221920391797E+001  1.7132293983955044E+001  4.4727282298570685E+000 Li54 54
       Li  3.2265881867757464E+001  2.4242752544179563E+001  1.7747110523106816E+001 Li55 55
       Li  3.9056756709836399E+001 -1.5045760852901781E+001  4.0397707239707948E+001 Li56 56
       Li  1.9095698348957860E+001 -1.1034779533059453E+000  2.4882742482099168E+001 Li57 57
       Li  2.4056031770452350E+001  1.6007800526826504E+001  3.8267810778361202E+001 Li58 58
       Li  1.5121278722522515E+001  1.5304084361555340E+001  2.0338476192987365E+001 Li59 59
       Li  3.2295097938449523E+001  3.2202321922928356E+000  3.3819127732558769E+001 Li60 60
       Li  2.8578349403464557E+001  3.2657264371496730E+001  2.0745617604012910E+001 Li61 61
       Li  2.8364930410541938E+001  3.5755122077810825E+001  2.5363787668880335E+001 Li62 62
       Li  2.3481822128937932E+001  4.2531239472841179E+001  4.2645329630812917E+001 Li63 63
       Li  4.9623099459587287E+001  6.0675706706591392E+001  4.2147653624510092E+001 Li64 64
       Li  1.5792633029240397E+001  1.0056836017551333E+001  3.8345073744387599E+000 Li65 65
       Li  6.5288008160627466E+000 -1.3659032393348534E+000  2.4971555745422467E+001 Li66 66
       Li -6.8465571145780704E+000  8.3704309730495563E+000  4.3497302386275054E+000 Li67 67
       Li -6.0187030776826367E+000 -3.7737195530143772E+000  1.2397158950799373E+001 Li68 68
       Li -1.4697657445746767E+001  1.4512288471459570E+001  2.0600564791560934E+001 Li69 69
       Li  2.8147598134525595E+001  1.9564591820570680E+001  8.5898946887150842E+000 Li70 70
       Li -1.5177697202456597E+001 -7.0981972957254236E-001 -1.2651094709138142E+001 Li71 71
       Li -1.9663241376232086E+000  6.9398683340900247E-001  1.7268150960071807E+001 Li72 72
       Li  1.0528176479231456E+001  4.4201626915376558E+001 -3.9992845741694931E+000 Li73 73
       Li -7.3621148453396428E+000  1.3365306489192788E+001  1.6736335704998886E+001 Li74 74
       Li -9.4052335182698226E+000  1.0082517838268307E+001  2.8702155308758620E+001 Li75 75
       Li -2.2435019317334528E+000  3.3017085905769115E+001  4.3127789780652130E+001 Li76 76
       Li  1.5179744141838329E+001  3.0867340324867676E+001 -4.1356719557282391E+000 Li77 77
       Li  6.3487593072743840E+000  4.5856969410121906E+001  4.3530944893335077E-001 Li78 78
       Li  6.8198052269728509E+000  2.5105810253044041E+001  3.8503982901411213E+001 Li79 79
       Li  6.1458560870460790E+000  3.8953242902835164E+001  5.8252222418858771E+001 Li80 80
       Li  1.5659021972318568E+001  2.7741777943014025E+001 -4.4333356998230711E+000 Li81 81
       Li  1.5481913279201454E+001  2.4994552619212882E+001  1.3564697770798903E+001 Li82 82
       Li  1.1583098862464807E+001 -3.8690019789453731E+000  1.2394132023280802E+001 Li83 83
       Li  1.5705240204779633E+001  8.1444712481104080E+000  1.6844196845894125E+001 Li84 84
       Li  2.4771864199880143E+000  2.6253010356879174E+000  4.5073675912090030E+000 Li85 85
       Li  1.5734763178945091E+001  9.4038949183145970E-001  1.2339164066303802E+001 Li86 86
       Li -6.7439986118541198E+000  2.2655404348500252E+001  4.2508193972206492E+001 Li87 87
       Li -1.2453043384454980E+000  1.5836713151277513E+001  3.9259257531467711E+001 Li88 88
       Li  1.5424571279594888E+001  2.4910009553412184E+001  3.0129927579167802E+001 Li89 89
       Li -1.8934750230501092E+000  1.0059909148981873E+001  3.8221622077653659E+000 Li90 90
       Li  1.4789061113477693E+001  2.1087244271515534E+001  2.5153393838722060E+001 Li91 91
       Li  1.9311937383607429E+001  1.6752208699146937E+001  7.9054147587391750E+000 Li92 92
       Li -1.5589702793220457E+000  2.7946031411103299E+001 -1.2852613119304619E+001 Li93 93
       Li  1.8858191206891391E+001  3.1545053585224920E+001  8.5014342248062409E+000 Li94 94
       Li -6.6394717068034224E+000  2.6255885191354924E+001  2.9755505500226885E+001 Li95 95
       Li  2.9760087050565147E+001  3.8629264059946856E+001  4.8536724319436964E+001 Li96 96
       Li  1.5369824513836310E+001 -1.7452515471509940E+001 -8.2600995536023465E+000 Li97 97
       Li  1.1263988193762859E+001  2.2435031145248194E+000  3.0277117912020216E+001 Li98 98
       Li  2.7711034209091061E+001  1.7393400033649176E+001  2.1337069956479098E+001 Li99 99
       Li  2.4223832447872272E+001  7.2480519451550105E+000  3.8829858763377182E+001 Li100 100
       Li  1.5157978868904355E+001  1.2778930261335367E+001 -4.0807765790339197E+000 Li101 101
       Li  1.9189888095752352E+001  7.5436468053542800E+000  1.6030904256337585E+001 Li102 102
       Li  3.2271451458960428E+001  3.0464105863740723E+001 -8.8845881036344725E+000 Li103 103
       Li  1.0342893856337932E+001  1.0861850417703845E+001  9.1873460192862471E+000 Li104 104
       Li  1.0411405414084708E+001  1.7565152896762797E+001  2.9497468816891473E+001 Li105 105
       Li  2.1787119148499992E+000  1.9966165557245969E+001  2.9476763851373896E+001 Li106 106
       Li  2.3963080926728239E+001  2.5577615561963402E+001  1.2871076639878066E+001 Li107 107
       Li  1.5661874394872966E+001  3.4237482532687743E+001  3.8474284122571881E+001 Li108 108
       Li  1.9186203930639341E+001  3.5621832670589527E+001  1.2780231316572994E+001 Li109 109
       Li  2.4372481993769135E+001  2.5064303532680999E+001 -3.6405671688495014E+000 Li110 110
       Li  2.4135311991407487E+001  4.6222246475965505E+001  2.0662548316108097E+001 Li111 111
       Li  2.3575719944309409E+001  3.0565271235731398E+001  2.5199458325951731E+001 Li112 112
       Li  3.1729227271732555E+001  1.1886107242942520E+001  1.5768069083889765E+001 Li113 113
       Li  2.3809224602086125E+001 -3.3395447100665221E+000  4.1141467709741936E-001 Li114 114
       Li  2.7664874886178804E+001  1.6744517264826381E+001  7.8137825212815937E+000 Li115 115
       Li  2.7942926864728996E+001  2.5832840345285600E+001  8.2477626758919005E+000 Li116 116
       Li  4.5142435775236869E+001  2.5835272092258752E+001  2.4920072445472616E+001 Li117 117
       Li  2.8052413478404073E+001 -9.5924856991483765E+000  1.2708872784294675E+001 Li118 118
       Li  2.4429812281090168E+001  1.0053621757612289E+001 -2.1538916215364836E+001 Li119 119
       Li  2.8501313417699269E+001  2.7868555791089222E+000  5.5779779595676544E+001 Li120 120
       Li  2.1838256957173545E+000  2.9056727561136819E+000 -2.0740245307841512E+001 Li121 121
       Li  3.3039012269536151E+001  3.6915857924524694E+001  2.9376588451916280E+001 Li122 122
       Li  3.6860670338474229E+001  1.4208067868157064E+001  2.5673107058030865E+001 Li123 123
       Li  2.3693862897594226E+001  2.4017677654124974E+001  4.2809329309366575E+001 Li124 124
       Li  4.1735643597667760E+001  2.8278191045668081E+001  1.1811189044274434E+001 Li125 125
       Li  1.1172529923824740E+001  2.9928167449780464E+001  1.3477315467530628E+001 Li126 126
       Li  4.0782281339128559E+001  4.9074333097562487E+001  3.8187405026066216E+001 Li127 127
       Li  3.2139882998513677E+001  5.0867165358910796E+001  1.5997127995465474E-001 Li128 128
       Li -2.4662232216203179E+000  6.1861899440620052E+000  9.1873149226083530E+000 Li129 129
       Li -1.8768584108434114E+000 -2.0641309827826935E+000  2.1645331697500211E+001 Li130 130
       Li -6.1639202329834930E+000  1.3991403653261456E+001  3.4063937845085853E+001 Li131 131
       Li  1.9173275528665692E+000  1.6159555598929116E+000  3.4275684428894181E+001 Li132 132
       Li  4.4922978007611299E+001  4.4176009586093684E+001  8.2092838561566239E+000 Li133 133
       Li  2.4087803615197392E+000  1.9897726352303277E+001  3.7894726602988626E+001 Li134 134
       Li -2.5335458194362981E+000  1.5059598930393458E+001  2.5812651102698887E+001 Li135 135
       Li -5.6345949946247043E+000  5.1814721213714900E+000  3.7567170345373846E+001 Li136 136
       Li  6.8286070220802024E+000  2.5343718818622669E+001  1.3036355414935478E+001 Li137 137
       Li -5.9650622275881044E+000  1.1900300794170311E+001  5.0565517621419236E+000 Li138 138
       Li -2.7778250936952564E+000  1.5637467546803620E+001  1.7854337875901731E+001 Li139 139
       Li -2.4635542333913065E+001  1.3342521451739520E+001  1.6945733801822765E+001 Li140 140
       Li  5.7873475274779524E+000  3.9169331539701879E+001  7.8643430827547940E+000 Li141 141
       Li  2.7164446700679004E+000  4.7718182461370873E+001  5.1386804944406936E+000 Li142 142
       Li  1.0311284140324103E+001  5.3121557715553493E+001  2.5082656484017740E+001 Li143 143
       Li -1.8907794599162912E+001  1.8733481762614517E+001  2.9319937756589187E+001 Li144 144
       Li  2.4534258238828057E+000  2.6168189433063951E+000 -4.2063120168882460E+000 Li145 145
       Li  1.5482732244883842E+001  1.8958722922480241E+001  1.2550641461958735E+001 Li146 146
       Li  2.4045035798581392E+001  3.0605770969107944E+001  2.1296651220009267E+001 Li147 147
       Li  6.2477291744110888E+000  1.2614582843302026E+001  1.6638896241492752E+001 Li148 148
       Li  1.5721630181467603E+001  1.9405343398490274E+001  2.9610277878346327E+000 Li149 149
       Li  1.9729322434811007E+001  2.9736347861501837E+001 -3.5228284072069087E+000 Li150 150
       Li  1.0628748388043748E+001  2.6212942206747318E+001  3.8342765085914117E+001 Li151 151
       Li  2.2918385060648198E+001  3.5984632783932177E+001  3.3989027953526389E+001 Li152 152
       Li  1.9049398753488913E+000  7.9741663584039824E+000  8.0295752954041237E+000 Li153 153
       Li  2.2507806690780972E+000  3.5204712885924593E+001 -4.0512121424273966E+000 Li154 154
       Li -6.7352395888360093E+000  8.1715245802425898E+000  2.1089038115722708E+001 Li155 155
       Li  1.4910623538900557E+001  3.1116713966071085E+001  2.1389293516389536E+001 Li156 156
       Li  1.5705628292790554E+000  2.8673784704475707E+001  8.8758263037478269E+000 Li157 157
       Li -6.3456849170036183E+000  4.1468373599330256E+001  2.3681383606681466E-001 Li158 158
       Li  1.5056515259734072E+001  3.9905865366418077E+001  2.9933169766721459E+001 Li159 159
       Li  5.8886647984295575E+000  3.6223549079463709E+001  3.3732753505926929E+001 Li160 160
       Li  2.3848668163503788E+001  6.9107410669300124E+000  1.3008747927211246E+001 Li161 161
       Li  1.4800508361157448E+001  6.2402717492604394E+000  9.4464314359218200E+000 Li162 162
       Li  1.5478350540044207E+001 -8.0401866934731938E+000  4.6162192244629345E+001 Li163 163
       Li  4.1160550607716615E+001  2.1828400938544885E+001  2.9726478745899040E+001 Li164 164
       Li  2.3194523857296723E+001  9.1605836966062810E+000 -8.2500614777900001E+000 Li165 165
       Li  3.6633271686077364E+001  4.7126268703231389E+001  3.4201384184855691E+001 Li166 166
       Li  2.4004505900578692E+001  2.1797338095582266E+001  1.2786722017677830E+001 Li167 167
       Li  6.3657708035102960E+000  1.2133714991509249E+001  3.3720756679200250E+001 Li168 168
       Li  4.9914419594255449E+001  4.3225050809908900E+001  2.1820642610740347E+001 Li169 169
       Li  1.9414223886647083E+001  3.5222961083002005E+001  3.3663632187910061E+001 Li170 170
       Li  1.9025129499011683E+001  1.9293272959694132E+001  2.5600174757177758E+001 Li171 171
       Li  2.0064542942788798E+001  3.2769392382801570E+001  2.9260050160019595E+001 Li172 172
       Li  1.9842573753970399E+001  4.1826161967786675E+001  2.8838847852221509E+001 Li173 173
       Li  1.9610675321071884E+001  2.6637564759522274E+001  1.2689754839417988E+001 Li174 174
       Li  1.1000518291228868E+001  3.2767609820838786E+001  2.9369406541903793E+001 Li175 175
       Li  2.3492581537159715E+001  3.3150857939917046E+001  1.7433867874070248E+001 Li176 176
       Li  1.2524194423465099E+001  5.4410851475708526E+000  1.8345699535112374E+001 Li177 177
       Li  4.4613703482583183E+001  4.2851230028361540E+000  1.6789032932530318E+001 Li178 178
       Li  4.0594350448722494E+001  1.8500197004166395E+001  3.3748042865556862E+001 Li179 179
       Li  2.8457718327124471E+001  5.5986502891770273E+000  6.2607635915608441E+001 Li180 180
       Li  1.4780580854041311E+001  3.7646325833737406E+000  4.3483876973639228E+000 Li181 181
       Li  3.2425348762537880E+001  1.5880321307263417E+001  2.9739781865661296E+001 Li182 182
       Li  3.1745266181766834E+001  3.5432819594621598E+000  2.4911300177292652E+001 Li183 183
       Li  3.2436112476731388E+001  2.4467704190834404E+001  4.2896117501495510E+001 Li184 184
       Li  2.7845262978541285E+001  1.7285042665275959E+001 -2.5578531104333196E-001 Li185 185
       Li  2.7685077451497225E+001  4.0549568158470720E+001  8.5087753013949623E+000 Li186 186
       Li  3.6649503989275956E+001  4.1075400415775633E+001 -8.0839591683184544E+000 Li187 187
       Li  2.7832294899406172E+001  2.8917610495508850E+001  4.2548180185350127E+001 Li188 188
       Li  2.4445641304815361E+001  4.3646532991521084E+001 -1.2115895650596114E+001 Li189 189
       Li  2.3595906305643151E+001  2.1558832925606207E+001 -3.8669560769881608E+000 Li190 190
       Li  1.5628054989311597E+001  3.4400825005073294E+001 -3.7771019216455137E+000 Li191 191
       Li  2.8173231024827306E+001  1.1279288976333270E+001  3.3425015080256969E+001 Li192 192
       Li  6.3581281180164506E+000  1.5212586843086196E+001 -3.5663000695774112E-002 Li193 193
       Li  6.4020507471843304E+000  9.3289742585572260E+000  1.7020866701298125E+001 Li194 194
       Li  2.3745909034674590E+001  1.5050944840852162E+001  3.4482700509974016E+001 Li195 195
       Li -1.5127976621948932E+001 -9.7650375311557713E+000  2.1419208040812716E+001 Li196 196
       Li  6.4759357517015390E+000  3.0703482486760226E+001  1.3126765026332265E+001 Li197 197
       Li  5.6012077874105675E+000  4.1573198651826440E+000  3.3784770901272182E+001 Li198 198
       Li  2.3983190441819765E+001  1.6157438431616590E+001  1.2811663359457812E+001 Li199 199
       Li  2.5846549412986559E+000 -1.2856606476671367E+001  4.6452840516434208E+001 Li200 200
       Li  6.0933594558370388E+000  1.2293599367722942E+001 -8.7099825451843174E+000 Li201 201
       Li  2.4559969038931841E+000  2.3472829038775163E+001  2.9579977489252180E+001 Li202 202
       Li -1.5730076698170741E+001  3.9921093163865575E+000  2.5307036241581141E+001 Li203 203
       Li -1.0637136774086157E+001 -5.1042058377356803E+000  4.4271772412064907E+000 Li204 204
       Li -6.8345008266961003E+000  2.5671841403214131E+001 -1.1048291796448827E-001 Li205 205
       Li -1.1124493073112447E+001  2.4569050014573989E+001  8.8135615155583868E-001 Li206 206
       Li  5.9955389176693785E+000  1.7918483983182835E+001  2.5583563208471102E+001 Li207 207
       Li -2.5986193515249769E+000  3.0503919261189910E+001  4.2011573132474027E+001 Li208 208
       Li  7.1411530788696584E+000  9.0646135573421693E-001  2.9367988555765539E+001 Li209 209
       Li  1.0504405998181014E+001 -7.6031088083156853E+000  8.7536930008000535E+000 Li210 210
       Li  1.1277384290800427E+001 -6.5479021487534332E+000  2.9976344675350436E+001 Li211 211
       Li  1.0004556102192458E+001 -6.6536626089850226E-001  2.9964845662308143E+001 Li212 212
       Li  1.4953575745934627E+001  1.5337801812444361E+001  5.4900395547037550E-001 Li213 213
       Li  2.4301787772353118E+000  1.4487312525190013E+001  2.9280167431347870E+001 Li214 214
       Li  2.4915641939543387E+000  8.7651857503990289E+000  2.1238310734602415E+001 Li215 215
       Li  1.5020855361729343E+001  1.2797421435951836E+001  4.6642497124298153E+001 Li216 216
       Li  1.0277911818291438E+001  1.3798897565190424E+001  2.5529544298349261E+001 Li217 217
       Li  1.0851077651285381E+001  2.6585031519465694E+001  1.2691574468411439E+001 Li218 218
       Li  1.9181980283084986E+001  2.2481133413613776E+001  2.5524674928888757E+001 Li219 219
       Li  2.5257547451675681E+000  2.0434854548327642E+001  5.5468880900644990E+001 Li220 220
       Li  1.5399799562620540E+001  4.8724394551216516E-001  1.6935881885632888E+001 Li221 221
       Li  1.8204986078629912E+000  2.2993563062231011E+001  1.6919406353014576E+001 Li222 222
       Li  1.0265097442737432E+001  2.6026317679337588E+001  3.3314837223041422E+001 Li223 223
       Li  2.1004822147260604E+000  1.1082263598376045E+001  2.5737190867756052E+001 Li224 224
       Li  2.8716524616324616E+001 -6.5196916306106463E+000  2.1781982929310949E+001 Li225 225
       Li  3.2246967484487712E+001  2.1414231206332332E+001  1.2909372212744024E+001 Li226 226
       Li  1.5157596648113655E+001 -1.4594852604912536E+001  2.1265985620673096E+001 Li227 227
       Li  2.8063226697928023E+001  2.8871688011153903E+001  5.0817293975237199E+001 Li228 228
       Li  2.8370100310478435E+001  2.9153280434917100E+001 -4.1182224544938926E+000 Li229 229
       Li  6.4743243118487221E+000 -5.3037015004447854E+000  3.8258110268857543E+001 Li230 230
       Li  6.7303316065584990E+000  1.8827546660969357E+001  8.9406507942213604E+000 Li231 231
       Li  2.3514517286860944E+001  2.1874369071305637E+001  2.1534750479489318E+001 Li232 232
       Li  1.0488821059625394E+001  1.6709006818959129E+001  8.0321189553907342E+000 Li233 233
       Li  1.9872531780553359E+001  1.4759972520974834E+001 -4.9440545678358712E+000 Li234 234
       Li -2.3918385625793306E+000  6.4404741303747697E+000  2.5836292093524811E+001 Li235 235
       Li  2.4157124229124882E+001  2.5149888328149608E+001  2.1611624854664552E+001 Li236 236
       Li  3.2433283186116313E+001  3.9800270492976054E+001  2.9705696315571831E+001 Li237 237
       Li  6.1248935011581471E+000  3.3283368250623035E+001  3.4310497777876215E+001 Li238 238
       Li  1.9756217303291535E+001  8.4102958696412085E+000  3.8321902764947595E+001 Li239 239
       Li  1.4843535756959158E+001  2.4122541843962392E+001  3.4463864027454555E+001 Li240 240
       Li  2.7897232560941159E+001  7.9571104635573882E+000  1.6560250820442619E+001 Li241 241
       Li  1.5173366083593583E+001 -5.2953519696990154E+000  4.3466097242418913E+000 Li242 242
       Li  1.9780169359185756E+001 -3.9251644180014433E+000  2.0843268669908344E+001 Li243 243
       Li  3.6410777581099460E+001 -1.3901128143947967E+000  5.0226370665580738E+001 Li244 244
       Li  3.7152154216428208E+001  4.1573328919779705E+001  3.9369729989840665E+000 Li245 245
       Li  2.8540320482111969E+001  2.0286125769034964E+001  1.2809271889184338E+001 Li246 246
       Li  1.4872180501499836E+001  2.7220469738810031E+001 -2.4336735890550785E-003 Li247 247
       Li  3.6781753809262206E+001  2.0534797657216824E+001  3.3898440785195589E+001 Li248 248
       Li  5.8041956495774812E+001  3.3561629611340209E+001  2.5929436930623854E+001 Li249 249
       Li  2.4075556396110166E+001  1.5877769834217519E+001 -1.2382095710340767E+001 Li250 250
       Li  2.3461870461232980E+001  1.8021685546432554E+001  4.2302189841758867E+001 Li251 251
       Li  4.1541876433074371E+001  3.7302796871641512E+001  3.7522149941584516E+001 Li252 252
       Li  2.1146679716381826E+001  2.9669390183131405E+001 -1.0838111079466959E+001 Li253 253
       Li  1.9528647119867973E+001  3.2036134588092999E+001  3.3951060953332757E+001 Li254 254
       Li  3.2144393131102149E+001  3.5869171735587003E+001 -5.4084553420646116E-002 Li255 255
       Li  1.9577316786769096E+001  4.7525432890315571E+001  2.1339661578003373E+001 Li256 256
       Li  2.0657275817574732E+000  1.7220698606565513E+001  2.1234068012685754E+001 Li257 257
       Li  1.7651737732264445E+000 -9.9398659411464880E+000  1.2929339569406920E+001 Li258 258
       Li -1.4992378315636728E+001 -1.5768895109844632E+001 -3.7949781508096034E+000 Li259 259
       Li -6.5993815194536118E+000 -9.6601439981788195E-001  2.9836516573701200E+001 Li260 260
       Li  2.6883955767405290E+000  5.4779211513621657E+000 -4.4899853952234317E+000 Li261 261
       Li  6.4398296318854111E+000 -2.9321887954251480E+000  4.5906211006666183E+001 Li262 262
       Li  5.9838533238433342E+000  3.3544213258131585E+001  1.7944441038528822E+001 Li263 263
       Li  6.8784623634399207E+000  1.6037322443703133E+001  2.9906086890269609E+001 Li264 264
       Li -1.0209034683706935E+001  1.9131850045519837E+001  2.0732337277000092E+001 Li265 265
       Li  2.1718468173284586E+000  2.6463126477610491E+001  2.9782884988189284E+001 Li266 266
       Li  6.0154025074678268E+000  2.1347510192990910E+001  2.4823125014629124E+001 Li267 267
       Li -2.4781744165041180E+000  1.2457305989938360E+001 -2.8854225786208076E-001 Li268 268
       Li  2.6170915532584642E+000  1.4680020393748292E+001  1.2002601242792270E+001 Li269 269
       Li  1.1327626349114796E+001  1.4056948511601307E+001  4.2373593685259443E+001 Li270 270
       Li  1.6662217975405542E+000  3.1948057910492285E+001  2.5397672214218098E+001 Li271 271
       Li  6.2470419150434919E+000  3.0622045963235333E+001  2.5003973856262590E+001 Li272 272
       Li  1.0681012389330494E+001 -1.0240633933246407E+001  8.2348767352694914E+000 Li273 273
       Li  2.3800874643469637E+001  2.4391422006657699E+001  1.7089155747480962E+001 Li274 274
       Li  1.6888887780700710E+001  1.0556019681954695E+001  1.9148586124540696E+001 Li275 275
       Li  2.3721086942154461E+001  3.8513357639953216E-001  4.2359636643033326E+001 Li276 276
       Li  1.5217057601717109E+001  2.4698820491377994E+001 -1.2742383071477482E+001 Li277 277
       Li -2.3824345499891186E+000  8.8556809017271920E+000 -2.5406953171574738E+001 Li278 278
       Li -1.1004908047106351E+001  9.3035935359799797E+000 -7.7397456298893386E-002 Li279 279
       Li  1.9917517992603536E+001  2.3538465050063454E+001  4.6413343595108934E+001 Li280 280
       Li  5.9318163063614548E+000  1.2886336679002705E+001 -1.2470188120403675E+001 Li281 281
       Li  6.3292644882926892E+000  1.2547225660580573E+001  8.2297524460376739E+000 Li282 282
       Li  1.5120597318607249E+001  3.3509088873951043E+001  8.6847050649521922E+000 Li283 283
       Li  1.1290764450796724E+001  2.0573471033426937E+001  3.0156899437791111E+001 Li284 284
       Li  1.0848537678239630E+001  3.5541067832363865E+001  1.2793143734584623E+001 Li285 285
       Li  1.5357767136911583E+001  1.5868715112105804E+001  4.7133119264686938E+000 Li286 286
       Li  1.9417472110179983E+001  4.7794632465911079E+001  4.5936614681392181E+000 Li287 287
       Li  2.8872205974072189E+000  1.4882575829962089E+001  3.3004142953268736E+000 Li288 288
       Li  2.0206829614967244E+001 -1.2650395172196880E+001  3.7428016280400101E+001 Li289 289
       Li  1.0979388795824510E+001  1.1872405619032747E+001  2.1632525313679391E+001 Li290 290
       Li  1.1650981974124338E+001  1.4354171918696039E+001  1.2469506331895216E+001 Li291 291
       Li  2.0249635106431160E+001 -3.4902435892584713E+000  4.5863289137398283E+001 Li292 292
       Li  3.3248181018254513E+001  2.7967525625677229E+001  3.6810887036221671E+000 Li293 293
       Li  2.3634090236427060E+001  4.3979114916000067E-002  1.7145517348132543E+001 Li294 294
       Li  1.1354552726799385E+001  1.4702954674810103E+001  2.0867199296197242E+001 Li295 295
       Li  2.3315899971709161E+001  6.2799855098100794E+000  3.4719592143134172E+001 Li296 296
       Li  1.9584125570653285E+001  1.7441723672008198E+001 -4.2296664988323078E+000 Li297 297
       Li  1.9560865070281995E+001  2.0745503652649578E+001  4.7752040077853950E+000 Li298 298
       Li  2.4260099913937715E+001  1.8945155591516748E+001  4.6431683720250376E+001 Li299 299
       Li  1.4837939783586826E+001  1.2770139673960328E+001  3.8392373225957186E+001 Li300 300
       Li  1.5685863037266538E+001  4.3428808179018361E+001  5.2157121340036543E+000 Li301 301
       Li  2.3387236803819363E+001  4.8669008058555526E+001  3.3580235421327259E+001 Li302 302
       Li  2.5844810155237612E+000  3.2882986940053911E+001  2.0653930931593003E+001 Li303 303
       Li  1.5398461602778292E+001  3.7093943004009169E+001  2.9320232760185476E+001 Li304 304
       Li  3.1985183127648241E+001  3.4655299558939934E+000  8.1721833882400681E+000 Li305 305
       Li  3.6525900225478033E+001  1.9224458127173381E+000  2.6035755874460708E+001 Li306 306
       Li  4.1496077297188158E+001 -1.7653302548724177E+000  4.9479116498571090E+000 Li307 307
       Li  1.4839657510285480E+001 -2.6826140746004654E+001  3.3839968768840208E+001 Li308 308
       Li  1.9759721083650771E+001  5.5384220918242706E+000 -2.1850058414927322E+001 Li309 309
       Li  3.2092082903630363E+001  2.1437189628766468E+001 -1.5757073734321050E-001 Li310 310
       Li  2.8287305185398910E+001  2.0271594347940304E+001  2.1615599216324668E+001 Li311 311
       Li  3.2893895225597639E+001  2.8221135777831226E+001  1.2267146035315442E+001 Li312 312
       Li  2.7897652119303849E+001  2.8508842474578106E+001  4.0704688627708752E-001 Li313 313
       Li  3.9695538917927401E+001  3.3671999634472705E+001  2.7256102801785758E+001 Li314 314
       Li  3.2319489403249733E+001  1.2761156977100958E+001  3.8289955363774602E+001 Li315 315
       Li  4.9569748828084677E+001  2.1752224045283310E+001  2.9545001335149433E+001 Li316 316
       Li  1.8834203691558770E+001  4.5049613008222833E+000 -2.1072519631561627E-002 Li317 317
       Li  4.0848069022081361E+001  3.9515670639131940E+001 -4.3351727987742610E+000 Li318 318
       Li  2.7607051414857299E+001  3.1816787168392079E+001  2.5356414326116045E+001 Li319 319
       Li  2.4089472961958069E+001  2.8257829664899155E+001  2.9178303076258324E+001 Li320 320
       Li  1.1573249038292234E+001  5.3701360283102089E+000  3.7926328784275380E+000 Li321 321
       Li  6.8817615752849131E+000  7.2111309935816896E+000  1.2932365522478548E+001 Li322 322
       Li  1.1044273713853721E+001  2.3372084039867950E+001  1.2346648738671202E+001 Li323 323
       Li  1.0493781707124818E+001  1.4366706179896762E+000  1.7694648771434714E+001 Li324 324
       Li  1.5229143717936108E+001  2.7868542058102598E+001  1.7143668403247190E+001 Li325 325
       Li  1.0364797652826022E+001  1.7052959747901209E+001  4.5232782724351965E+000 Li326 326
       Li  1.0627024709965632E+001  2.3204850155391973E+001  2.5602605257054208E+001 Li327 327
       Li -2.3557697176672998E+000  1.4908616745274031E+001  4.2957567671107782E+001 Li328 328
       Li -1.0218305967186936E+001  1.8899978010783112E+001 -4.5968477057822437E+000 Li329 329
       Li  1.0368717011913544E+001  1.9928744240229882E+001  1.7955332739322923E+001 Li330 330
       Li  5.8616746337214272E+000  6.1961656103762426E+000  4.3140041920849050E+001 Li331 331
       Li  1.0517647384904368E+001  1.6745945437818467E+001  3.3916545698247219E+001 Li332 332
       Li -6.7948123240918594E+000  4.6955159866270833E+001 -7.7207055956002595E+000 Li333 333
       Li  2.1494194561512132E+000  2.9538390047556135E+001  1.2383420763358815E+001 Li334 334
       Li  1.4807675239985183E+001  3.0656279477261695E+001  5.8797418788203238E+001 Li335 335
       Li  2.0043532209687687E+001  4.1459897971723557E+001  2.0863469154401347E+001 Li336 336
       Li  1.9142487490483351E+001  7.7234147041735657E+000 -4.9411674986361870E-001 Li337 337
       Li  2.3590074272531822E+001  1.5056396208053783E+001  4.2476715784142279E+001 Li338 338
       Li  2.4378330313134619E+001 -8.5551910918321248E+000  3.4189751071007557E+001 Li339 339
       Li  2.9720787841342297E+001  2.6160052353829126E+000  3.2122690056620606E+001 Li340 340
       Li  1.5228721212462554E+001  3.7674195392555148E+000  2.1306537620420105E+001 Li341 341
       Li  1.5030826595162123E+001  6.3481953499357680E+000  2.5716583016515013E+001 Li342 342
       Li  1.0477798703804245E+001  1.0743637810171139E+001  1.7903464947588340E+001 Li343 343
       Li -1.7525533345734807E+000  1.9382669476970751E+001  3.7841661449011092E+001 Li344 344
       Li  2.1087625788423408E+000  1.4236482630058438E+001  1.2659588704069935E-001 Li345 345
       Li  2.3852055273214745E+001  1.8596453013610073E+001  1.7145036672723020E+001 Li346 346
       Li  6.2192067847677652E+000  2.1784618202163507E+001  4.6757056172295947E+001 Li347 347
       Li  2.3392604045025401E+001  3.9626398703498403E+001  4.6819014651306667E+001 Li348 348
       Li  1.0467736577714124E+001  7.9561041141841677E+000  2.1484425836480970E+001 Li349 349
       Li  1.1470862503913743E+001  3.8770104896754589E+001  5.0781669528140725E+000 Li350 350
       Li  1.0801764790911612E+001  2.9033858894536408E+001  1.6921225424979575E+001 Li351 351
       Li  1.9631259872902934E+001  3.8766034194053688E+001  2.9958983409780949E+001 Li352 352
       Li  1.5510574991139876E+001  9.8286980255425700E+000  2.5929371555542783E+001 Li353 353
       Li  3.1966374514285533E+001  9.2480049237653059E+000  2.5434443334071599E+001 Li354 354
       Li  2.4010426938274584E+001  7.2939069642615992E+000  3.0463451238029236E+001 Li355 355
       Li  1.0936874515824305E+001 -6.2064923946146744E-001  4.4662203891979253E+000 Li356 356
       Li  1.9419030458278929E+001  1.3239772492860504E+000 -8.1381976825188289E+000 Li357 357
       Li  2.3490148756792014E+001  2.6898274628836838E+001  2.5622486385385695E+001 Li358 358
       Li  1.9910686760627424E+001  2.5165770061535548E+000  3.8782103720733076E+001 Li359 359
       Li  2.3492761317458225E+001  1.2510716636562195E+001  1.2836651868299851E+001 Li360 360
       Li  1.9170583378526430E+001  1.0749949996997946E+001 -8.1695780079124010E+000 Li361 361
       Li  2.3461967931095256E+001  2.7170780875468633E+001  8.3582315590635314E+000 Li362 362
       Li  6.4854324022122611E+000  2.5288223545137296E+001  2.1231048023289212E+001 Li363 363
       Li  1.5080809112064269E+001  1.5449399613024163E+001  2.6156931557046647E+001 Li364 364
       Li  1.9393291664703742E+001  2.5968754665409303E+001 -2.9049788174208485E-001 Li365 365
       Li  1.0990070546989656E+001  5.4056532516692704E+000  2.5743022486539960E+001 Li366 366
       Li  2.6496607344933388E+001  5.3148274567374372E+001  2.3943149931921461E+001 Li367 367
       Li  3.7476325727304427E+001  4.1237582740309499E+001  3.4084624112960121E+001 Li368 368
       Li  2.8464594786159136E+001  2.3563439534159944E+001  2.0848492893958820E+001 Li369 369
       Li  1.7774459885838706E+001  1.6868040103088973E+001  2.4052897564185773E+001 Li370 370
       Li  3.6417320787552100E+001  1.0637845899000448E+001  4.2792633087350580E+001 Li371 371
       Li  1.4765369249271128E+001 -1.8004104757107847E+001 -1.1348047878533113E-001 Li372 372
       Li  3.6454310556737241E+001 -1.0045982579948584E+001 -8.7414091030984515E+000 Li373 373
       Li  3.2256439436813871E+001  4.5715513636949680E+001  1.7053471013573297E+001 Li374 374
       Li  4.5745089920992392E+001  1.1735570378885434E+001  1.3239570691503481E+001 Li375 375
       Li  2.8281225874370797E+001  3.2413976992684660E+001  2.9592235032552896E+001 Li376 376
       Li  3.2844862689955129E+001  3.7064700419020738E+001  5.4904227877662684E+001 Li377 377
       Li  3.7482609525285319E+001  2.0507008076090838E+001  1.3677342063454432E+001 Li378 378
       Li  2.0204116441276295E+001  2.0802609703095005E+001 -1.2095652086798280E+001 Li379 379
       Li  3.2122334892597728E+001  3.0078272593333303E+001  1.6811644664687773E+001 Li380 380
       Li  2.7689715637116191E+001  3.7991267241573887E+001  1.7698596122950370E+001 Li381 381
       Li  4.1835213590473039E+001  5.2183536708962784E+001  1.3452086016421378E+001 Li382 382
       Li  1.9655022197198715E+001  2.8052735363486789E+000  4.6872531255791515E+001 Li383 383
       Li  3.7177814069614719E+001  3.2953011274598033E+001  4.5992948343455332E+001 Li384 384
       Li -7.4583142415337669E+000  2.0014678608075389E+000  1.0033425271312186E+001 Li385 385
       Li -1.9610591572250726E+000 -5.3605598866723270E+000 -4.0506722302730340E+000 Li386 386
       Li  1.0174166053911719E+001  3.4923621133325014E+001  7.8577138221502807E+000 Li387 387
       Li  1.0343715399588492E+001  2.8914482352855504E+001  3.4912272743149998E+001 Li388 388
       Li -2.7820569032171335E+001  9.9014128950645084E+000  3.8572944383053738E+000 Li389 389
       Li -5.8705415973555883E+000  1.4382808652159127E+001  3.7819611802799869E+001 Li390 390
       Li -1.5441555080330927E+001  1.0572937911304694E+001  3.4801894564089366E+001 Li391 391
       Li -6.1346048217658646E+000 -3.6334452898884662E+000  3.7666282662535600E+001 Li392 392
       Li  2.5085787749592625E+000  3.8751095623149169E+001 -1.2670773496591940E+001 Li393 393
       Li  2.0469655774358149E+000  2.8663500584313319E+001  2.5795454151914861E+001 Li394 394
       Li  2.3937425757829818E+000  2.3507700349690868E+001  2.7960816445897002E-001 Li395 395
       Li  1.5601312025926591E+001  1.8992462347374982E+001  2.0732259638269916E+001 Li396 396
       Li -1.5202582594845511E+000  3.7438200918539700E+001  3.2446194978841594E+000 Li397 397
       Li  1.0788741050011515E+001  3.4995981778998093E+001  1.6352965202542670E+001 Li398 398
       Li  6.6404563401603971E+000  2.5148357066369329E+001  3.0333487434733783E+001 Li399 399
       Li -1.5069244232948494E+001  3.8383587677890212E+001  5.0397475590102765E+001 Li400 400
       Li  1.0841982801992172E+001  3.0072668602303899E+001  3.8380892845998780E+001 Li401 401
       Li  1.0666287478830657E+001  2.0236491110920756E+001 -8.1512632079305298E+000 Li402 402
       Li  6.1041600088462742E+000  8.8713535898106972E+000  8.3242057398566853E+000 Li403 403
       Li -1.0634978598627535E+001 -2.0358758132199104E+000  2.1673025070147350E+001 Li404 404
       Li  6.0352650642516013E+000  8.8845249163795490E+000 -8.7869728470108832E+000 Li405 405
       Li  1.5083653721806842E+001  3.3903374936385113E+001  2.0934048902714068E+001 Li406 406
       Li -2.4925764793593146E+000  2.1685760385936398E+001  2.1504553897231304E+001 Li407 407
       Li  1.9281765982349935E+001  1.9680315394860248E+001  3.4509946033526660E+001 Li408 408
       Li  7.2205939871938591E+000  1.9102374236236034E+001  1.2212892077816772E+001 Li409 409
       Li  6.4963478865617521E+000  2.1656945289319950E+001 -1.2720235713543479E+001 Li410 410
       Li -1.9680770428699670E+000  2.5382078448205007E+001  4.5303277170742415E+000 Li411 411
       Li  2.3596185118388986E+000  3.5285884596433753E+001  4.2134322381743825E+000 Li412 412
       Li  1.5320758477002652E+001  5.5029229479683451E+001  8.6973116822470367E+000 Li413 413
       Li  7.0340134898232733E+000  2.8089246694692438E+001 -4.9575449506031593E+000 Li414 414
       Li  3.2540198112063969E+001  6.7241565230373581E+001  2.1321149166029606E+001 Li415 415
       Li  1.0518010179508959E+001  2.5977437171989024E+001  1.6567531940939286E+001 Li416 416
       Li  2.3607281834008013E+001  2.1482183516165630E+001  2.5068561316284875E+001 Li417 417
       Li  2.3457956734535692E+001  1.7917947115661363E+001 -6.6522047085958824E-002 Li418 418
       Li  4.1265435980020591E+001  2.1779819584934351E+001  3.8164986356915321E+001 Li419 419
       Li  2.8180429724639339E+001  1.7277358857108855E+001  3.0041479996379941E+001 Li420 420
       Li  1.9105803016264932E+001  1.7273561819463684E+001  1.2853439654909010E+001 Li421 421
       Li  2.8426831453056309E+001  1.1535071012482797E+001  2.1630035439963304E+001 Li422 422
       Li  2.7902367247613089E+001  2.0009183600593889E+001  1.7274232727078552E+001 Li423 423
       Li  3.2837069905961947E+001  3.7228129260723961E+001  1.2132468178190175E+001 Li424 424
       Li  2.8390555123339041E+001  2.1569487227257472E+001 -3.5437184353795737E-001 Li425 425
       Li  1.0486768117238373E+001  2.6225823519463884E+001 -3.9455076214671028E+000 Li426 426
       Li  1.0724611843751116E+001  1.3756605492129609E+001  4.2256586519522278E-002 Li427 427
       Li  1.1022222603130826E+001  2.0703482864896266E+001  3.8238525473449052E+001 Li428 428
       Li  2.8754121181300455E+001  5.0627562601829155E+001  2.0783343882996331E+001 Li429 429
       Li  2.7900266292528038E+001  3.5415823984549633E+001  1.2955222353662435E+001 Li430 430
       Li  1.1200129651642850E+001  5.0741867838259026E+001  3.7429029788201525E+001 Li431 431
       Li  6.3106289327533363E+000  2.9916984832463410E+001  3.2800208343245998E+001 Li432 432
       Li  5.3299983616136871E+001  1.3592391800999808E+001  8.3557141369877677E+000 Li433 433
       Li  2.4485903176439404E+001  4.4259958174519083E+000 -4.3559969596707608E+000 Li434 434
       Li  2.8613209340050730E+001  2.3421835702378878E+001  2.5428828094212282E+001 Li435 435
       Li  2.3269989481563698E+001  9.1513834333028043E+000  4.2348860377358633E+001 Li436 436
       Li  1.9451325756603119E+001  1.9972450551660419E+001 -2.5003018885584989E+001 Li437 437
       Li  2.8110998616503995E+001  3.2055819764191575E+001  8.6478626516390307E+000 Li438 438
       Li  3.1610732537373465E+001  2.7049582701224310E+001  3.3845815327965632E+001 Li439 439
       Li  4.1814013425453744E+001  1.8733958532724216E+001  2.0704943378143117E+001 Li440 440
       Li  3.6514723533798055E+001  8.0554988210028959E+000  2.5003469163022807E+001 Li441 441
       Li  4.5199025689891968E+001  3.7865850349358951E+001 -8.3185279530912535E+000 Li442 442
       Li  3.2133761512282234E+001  3.3759215371772783E+001  2.6005610038015060E+001 Li443 443
       Li  2.8100782473054750E+001  1.7400812160457253E+001  1.2763528184967100E+001 Li444 444
       Li  3.2212056195967307E+001  3.9873237585330266E+001  1.2778243678953471E+001 Li445 445
       Li  4.0868658884532664E+001  5.1675783401415345E+001  2.5766938443045749E+001 Li446 446
       Li  3.2803853173659775E+001  6.1398654589246462E+001 -4.1278612025161596E+000 Li447 447
       Li  4.1276534669825544E+001  4.0004388885753428E+001  3.8363352369732937E+001 Li448 448
       Li  1.5643973328514098E+001  1.0182544653214686E+001 -4.5129290501344519E+000 Li449 449
       Li -2.1968655263851029E+000 -8.6112316920690617E+000  2.5743789987047531E+001 Li450 450
       Li -6.5479264609101460E+000 -1.1947243426731315E+000  8.2142817728158573E+000 Li451 451
       Li  6.4371792227522082E+000 -6.1294426495105370E+000  4.2012985853946958E+001 Li452 452
       Li  6.3689814958744773E+000  5.5971837747372737E+000 -8.1377486434903794E+000 Li453 453
       Li  6.0457946923155870E+000  6.1689398229286239E+000  1.7490325163526062E+001 Li454 454
       Li -1.8164262771144426E+000 -1.1404229957922219E+001  2.1663964584498565E+001 Li455 455
       Li -1.0969810100568724E+001 -5.2676968909209023E+000  2.9670661076713650E+001 Li456 456
       Li  1.5450861119672325E+001  2.8603096469824123E+001 -1.3460276316973323E+001 Li457 457
       Li  1.9234334494673853E+001  1.6865318471330884E+001 -5.3552909846063557E-001 Li458 458
       Li  1.5095780826984113E+001  3.3405183759716413E+000  2.5380076834387843E+001 Li459 459
       Li  1.0498633412638270E+001  2.2871051302395145E+001  4.2459689656689136E+001 Li460 460
       Li  2.7694303238374147E+001  3.4977910657257070E+001 -3.3896969352346362E-001 Li461 461
       Li -1.1011629180891681E+001  1.5351350524639230E+001 -1.6467613795957956E+001 Li462 462
       Li  5.9633243031843985E+000  3.9751597395586003E+001  1.2877261306309560E+001 Li463 463
       Li  1.0862879344771294E+001  2.9165092724119290E+001  2.1311228770519804E+001 Li464 464
       Li  1.9729730611008467E+001 -3.7556085212622530E+000  3.8471352409216357E+000 Li465 465
       Li  2.2754253788339277E+001  1.2567047999154044E+001  1.6427843347506588E+001 Li466 466
       Li  1.4806052789101470E+001 -5.9152362871928661E+000  1.6385939465452445E+001 Li467 467
       Li  1.0782668242894143E+001  1.1178853142617543E+001  2.5037333373258079E+001 Li468 468
       Li  1.0193874171381546E+001  7.7178532333776406E+000 -1.7540764128005772E+001 Li469 469
       Li  2.7522955548062775E+001  7.2425861313726765E+000  7.3212418608537577E+000 Li470 470
       Li  2.3686201776746259E+001  3.6856771408913737E+001  1.2445236601072486E+001 Li471 471
       Li  6.8073728036774312E+000  1.1090861921838560E+000  2.0693149739441502E+001 Li472 472
       Li  2.4374645777550004E+001  3.6907299117758882E+001  3.7033598251832300E+000 Li473 473
       Li  3.2885208685369733E+001  3.4183377542614195E+001  4.8295274750376951E+000 Li474 474
       Li  3.2735007766921683E+001  1.8784039421120656E+001  1.7019858922239866E+001 Li475 475
       Li  1.9550342010682677E+001  5.1059751805579214E+000  8.6681441918261335E+000 Li476 476
       Li  1.4409958960314194E+001  2.1653074874494713E+001  8.0391668048311580E+000 Li477 477
       Li  1.9673680357528450E+001  1.3696100073505656E+001  1.6918883190226548E+001 Li478 478
       Li  4.1462912645808395E+001  4.2696396679829064E+001  2.9712947656180162E+001 Li479 479
       Li  1.5123043697352756E+001  2.4539374504132205E+001  5.9050887268633510E+001 Li480 480
       Li  1.9086132901987376E+001  7.6323628331254838E+000  2.4952813217236020E+001 Li481 481
       Li  7.2231547151709163E+000 -4.9177429213322483E+000 -4.4934986974185378E+000 Li482 482
       Li  1.9482594542325394E+001 -2.5541458817411979E+001  9.2019247857200313E+000 Li483 483
       Li  2.7691069234153524E+001  7.5875105329824937E+000  3.3184004565906243E+001 Li484 484
       Li  3.2268569601276326E+001  6.4999390062485300E+000 -1.6373498278259451E+001 Li485 485
       Li  2.8542830662048598E+001  1.5184824559057271E+001  2.8374366212459432E+001 Li486 486
       Li  2.3719975527165708E+001  5.9703771042945988E+000  1.7220999380916872E+001 Li487 487
       Li  3.2485510796781810E+001 -5.2828001864008298E+000  7.2230623465843223E+001 Li488 488
       Li  3.1870808152243654E+001  3.6191139553766959E+001  8.4089108182587466E+000 Li489 489
       Li  2.7718014363549912E+001  2.6355866760921224E+001  4.2286235258705602E+000 Li490 490
       Li  1.9215258611395814E+001  2.9108426389172038E+001  2.0632467008060136E+001 Li491 491
       Li  3.6538317077601128E+001  1.6664827034319647E+001  5.0404298080603581E+001 Li492 492
       Li  4.0973281263425427E+001  2.7529924358434325E+001  3.3981540725012373E+001 Li493 493
       Li  3.2696052281773021E+001  3.6997735317478714E+001 -8.4959800993096799E+000 Li494 494
       Li  2.3474384772591566E+001  1.2365243086949635E+001  2.5099028325447613E+001 Li495 495
       Li  3.2618875782826443E+001  4.3070873595966283E+001  3.0023099879991289E+001 Li496 496
       Li  3.6523252820024361E+001 -9.9057632248180401E+000  4.3525587105454040E+000 Li497 497
       Li  4.5836742646825719E+001  5.5870005792988557E+000  1.2362129286905835E+001 Li498 498
       Li  4.9518653392059569E+001  3.1790205116649353E+000  3.3644999059034610E+001 Li499 499
       Li  1.8607914292358501E+001 -7.2728198458963140E+000  2.6711834644932541E+001 Li500 500
       Li  4.6583792946862538E+001  2.4904282507200382E+000  2.2959019988323405E+001 Li501 501
       Li  2.6582104653841569E+001  2.0335099875133832E+001  2.0856973814452222E+000 Li502 502
       Li  3.2151387828365891E+001 -1.4691284839216953E+001  8.1681647385370937E+000 Li503 503
       Li  2.8096966225710975E+001  1.9008233348811823E+000  2.9044908903538438E+001 Li504 504
       Li  2.8531133060958489E+001  2.3674320298567959E+001  3.7837571379899400E+000 Li505 505
       Li  2.4194581419011364E+001  1.9001136251968894E+001  4.0403107877052840E+000 Li506 506
       Li  3.2315080013976015E+001  1.2733765720098122E+001  2.9794710614037285E+001 Li507 507
       Li  1.9901538281120104E+001  2.9476335619713478E+001  1.3200124419147585E+001 Li508 508
       Li  1.5469869100698375E+001  7.1208623175361181E+000  2.9898588087561027E+001 Li509 509
       Li  2.8030535901455796E+001  1.3291903721265363E+001  8.5113595187052358E+000 Li510 510
       Li  4.5647934402935178E+001  2.3389897854175011E+001  2.9346397386357239E+001 Li511 511
       Li  3.6079021254231989E+001  1.3535523773374559E+001  4.2132422355092402E+001 Li512 512
       Li  6.2974863023541694E+000  3.0438068794772257E+000 -1.7773770856533652E+001 Li513 513
       Li -1.1046812681529353E+001 -5.1781137106326707E+000  1.2888983671537835E+001 Li514 514
       Li  1.4730263130338583E+001  1.2449956360423007E+001 -3.8852962883925113E-001 Li515 515
       Li  6.0713952523714170E+000 -1.2047800921452554E+001  2.2069031498119696E-001 Li516 516
       Li  6.7405634388259443E+000  2.8118634036218104E+001  3.8079999574939789E+000 Li517 517
       Li -5.9994062347885819E+000  1.4679471844924173E+001  1.2666096253419626E+001 Li518 518
       Li -1.8908437030891765E+000  9.9791869874655816E+000  1.2604255645740229E+001 Li519 519
       Li -6.2238673836413296E+000  1.2115536339287072E+001 -3.8911965796469525E+000 Li520 520
       Li  6.2860434234885432E+000  2.7262265129136864E+001  8.4813746535284835E+000 Li521 521
       Li  6.5717881184779365E+000  3.4273846569595392E+001 -3.3851805974259528E+000 Li522 522
       Li -2.2082790214309327E+000  3.8141337454073616E+000  3.8381925017004022E+001 Li523 523
       Li  1.4460209602622230E+001  2.7167177158468412E+001  4.2543343112937677E+001 Li524 524
       Li  1.8300117701315730E+000  3.5044380424632195E+001 -8.9672072134308287E+000 Li525 525
       Li -1.4714673481795182E+000  2.8020655361987366E+001 -4.6460853745012054E+000 Li526 526
       Li -6.1085231528292372E+000  1.1442306012669530E+001  1.2770436783746186E+001 Li527 527
       Li  2.3518720914271807E+000  1.4515049593993972E+001  2.0756031728919055E+001 Li528 528
       Li  2.8278409112347685E+001  3.1918355306609062E+001  1.1544804360395827E-001 Li529 529
       Li  2.4242363369068944E+001  1.5989071197308338E+001 -3.4156219318455330E+000 Li530 530
       Li  1.5722917223134107E+001  2.7866191594297401E+001  3.7885320634906641E+001 Li531 531
       Li -6.1919344890684931E+000  2.5622518280041375E+000  3.8988595552591228E+001 Li532 532
       Li  2.6949881356535905E+000 -3.7517601596898582E+000  2.9285913426611479E+001 Li533 533
       Li  2.4169936533401333E+000  1.1635912651948916E+001  2.1521505816026671E+001 Li534 534
       Li  1.4721586309074469E+001  2.8242342289082631E+000  1.5494694045198031E+001 Li535 535
       Li  1.9915996421539397E+001  1.4816503557786408E+001  1.2170104046957398E+001 Li536 536
       Li  2.4193719559467262E+001  1.0087709516474384E+001  3.7742274858058096E+001 Li537 537
       Li  1.0503972083518562E+001  1.6564768627526089E+001  1.5972656486538613E+001 Li538 538
       Li  6.6492957315920842E+000  1.6137603450571664E+001  8.3445902780067840E+000 Li539 539
       Li  1.4535383646647071E+001  1.7888523345470212E+001  1.7160954195360549E+001 Li540 540
       Li  1.9093985795346395E+001  2.2476108462888295E+001 -1.7201237385925840E+001 Li541 541
       Li  3.0869579983607625E+000  1.8192891998524800E+001  8.5457870827792970E+000 Li542 542
       Li  5.9237061886830462E+000  1.7889609985026443E+001  1.6977331620515471E+001 Li543 543
       Li  1.9892542691113551E+001  2.9510655843238236E+001  3.8772824902503629E+001 Li544 544
       Li  4.0840127002255564E+001  2.4026109582387580E+001 -7.9527830606743928E+000 Li545 545
       Li  1.1066953963381092E+001 -1.8547275683781720E+001  2.1246972075353774E+001 Li546 546
       Li  2.8133390226161378E+001  2.3178861084538330E+001  1.7383575703834442E+001 Li547 547
       Li  2.2443629936063512E+000 -1.3312909658920095E+001  2.5564859622306045E+001 Li548 548
       Li  1.9042070755959195E+001 -9.3485108684203211E-001  1.6593556560865682E+001 Li549 549
       Li  1.0646890201642780E+001  2.3048264025947290E+001  1.3048892863363012E-002 Li550 550
       Li  6.2909401166703649E+000  1.5318966981972956E+001  1.7777765466723181E+001 Li551 551
       Li  2.4560436140464493E+001  2.7546921605583375E+001  1.7189478822978494E+001 Li552 552
       Li  7.5787863793235051E+000  2.8178401325668272E+001 -1.3726787596764318E+001 Li553 553
       Li  1.4377444548916845E+001  8.9463982293329050E+000  8.2365829655479228E+000 Li554 554
       Li  2.1381633479771356E+000  2.6301271290081104E+001 -1.2343469446094652E+001 Li555 555
       Li  4.5646173092755340E+001  5.7164428700658483E+001  1.3017958661950821E+001 Li556 556
       Li  2.3499979000091788E+001  2.1202520693262731E+001  7.8018358386472455E+000 Li557 557
       Li  6.2692218308449350E+000  3.1098616882536049E+001 -1.2750765374816121E+001 Li558 558
       Li  1.1366432388022679E+001  1.1608841393508857E+001  4.6109499494777930E+000 Li559 559
       Li  2.3076288316509473E+001  3.0333190194980183E+001  5.0372841706000465E+001 Li560 560
       Li  1.1616544683277564E+001  4.0769447550292395E-002 -1.2545411811370272E+001 Li561 561
       Li  1.9031562192611553E+001 -7.4094176751056278E+000  4.4459498768872702E-001 Li562 562
       Li  3.2501433582538866E+001  6.0553340911363183E+000  3.4200759862747987E+001 Li563 563
       Li  3.6395483423420941E+001  7.8734567726232250E+000 -3.5783799067960104E-001 Li564 564
       Li  3.2080260803783439E+001  1.7766059245313624E+001  8.4486574069467153E+000 Li565 565
       Li  2.4076650794452565E+001  8.0990731867909749E-001  2.1040859496294917E+001 Li566 566
       Li  1.9801261602740695E+001  2.3448287684793904E+001  2.9368779841422775E+001 Li567 567
       Li  2.8669949770845278E+001 -9.2983377016971680E+000  2.0785937531308797E+001 Li568 568
       Li  3.1918023250194896E+001  2.4497079984081775E+001 -7.6223699987013322E+000 Li569 569
       Li  1.5342259458599081E+001  5.2204062181303406E+001  7.8331662073015824E+000 Li570 570
       Li  4.5787505606675566E+001  3.2123850144133662E+001  1.7010353558921732E+001 Li571 571
       Li  1.9242625626608056E+001  2.2276855717477421E+001  3.3920470590090744E+001 Li572 572
       Li  1.5243552451196345E+001  6.7006946167367296E+000  1.2892327871078553E+001 Li573 573
       Li  2.7674990872464750E+001  2.5968887031630125E+001 -1.7282871522079546E+001 Li574 574
       Li  2.3807257357202861E+001  3.7017279954040333E+001 -8.1770609569802311E+000 Li575 575
       Li  3.6578936098108485E+001  2.5808369532672447E+001  1.6574729703474432E+001 Li576 576
       Li  6.5634549759015641E+000 -1.9488292689090013E+001  4.5278685372127061E+000 Li577 577
       Li -1.9617756403978057E+000 -1.1374233147483782E+001  1.3304795933299189E+001 Li578 578
       Li  1.4659358066428668E+001  1.1440117111590610E+001  1.5973566962652750E+001 Li579 579
       Li  6.2912079932183156E+000  1.2568300285092535E+001  1.2915460785824322E+001 Li580 580
       Li  1.9448001382932929E+000  8.0998003964165406E+000 -2.9248900614634547E+001 Li581 581
       Li  2.1333920572233751E+000 -7.4730570997998749E+000  1.7071719187783401E+001 Li582 582
       Li  6.3615809709625388E+000  3.3084045147203007E+001  4.2620328112104112E+001 Li583 583
       Li  1.9461828152022253E+001  1.7302213442690380E+001  4.3157677421321496E+000 Li584 584
       Li -2.4539109614877503E+000  3.1077443173079413E+001 -2.1117592658753686E+001 Li585 585
       Li  1.0948621336712128E+001  4.1166726663942406E+001  2.8626814163222481E-002 Li586 586
       Li -5.9736681968601157E+000  2.0741224188153740E+001  3.0287154966679829E+001 Li587 587
       Li  2.3613086126753437E+001  4.8687692851296354E+001 -1.2164434765845339E+001 Li588 588
       Li  1.9224985543067660E+001  3.5062960455646270E+001  8.1722512263501983E+000 Li589 589
       Li  1.8612225909626341E+000  3.1984103693897154E+001  8.6039249413959720E+000 Li590 590
       Li -1.0717420632952667E+001  3.3832577924401306E+001  1.2212463666708871E+001 Li591 591
       Li -2.7189229661956937E+000  5.3915549190721570E+001  2.5231175960676840E+001 Li592 592
       Li  2.7408250764883039E+001  7.7741008447117235E+000  2.4922520988664306E+001 Li593 593
       Li  7.0125218527372244E+000  1.9246352402314031E+001  3.6386594026479671E+000 Li594 594
       Li  2.8479446341237036E+001 -5.1445835346503621E-001  2.1300610535664077E+001 Li595 595
       Li  1.8034424990617577E+000 -9.5581031758621193E-001  4.2084131249117000E+001 Li596 596
       Li  1.8725026300923631E+001  1.9899677487714889E+001  1.8218656129244696E+001 Li597 597
       Li  1.4722313421115736E+001 -2.7155295196027618E-001  5.9269506143544589E+001 Li598 598
       Li  3.6686210700728545E+001  3.1669926785714747E+001 -1.6867044934659308E+001 Li599 599
       Li  2.8633634229932749E+001  2.0931206829710906E+001  4.9062257979602535E+000 Li600 600
       Li  2.7952367769267141E+001  2.8519960439679991E+001 -8.1865107258136156E+000 Li601 601
       Li  2.9227062892362565E+000  2.9623461141931674E+001  5.3863021529022426E+000 Li602 602
       Li  2.3401905052275268E+001  3.1111625941815637E+000 -6.0247462404309871E-001 Li603 603
       Li  1.4540621664842833E+001  2.0737723440047265E+001  1.5861740266834435E+001 Li604 604
       Li  3.2689931470556466E+001  3.4072405908905800E+001  1.3787953835131091E+001 Li605 605
       Li  2.7933111596615824E+001  4.6468433250515837E+001  8.7603023981371866E+000 Li606 606
       Li  1.3865291214691581E+001  3.3607045378753924E+001  2.7175702705020623E+001 Li607 607
       Li  3.1971743028404390E+001  6.0624543797338646E+001  3.4579843050477109E+001 Li608 608
       Li  2.3586042270929383E+001 -5.7972507397207824E+000 -6.2067731346990562E-001 Li609 609
       Li  1.9120566222181203E+001 -7.6876306859403725E+000  8.9978738103941200E+000 Li610 610
       Li  1.0554228281977801E+001  3.4646136438728810E+001  2.4483518780643873E+001 Li611 611
       Li  3.7327969252160941E+001  2.3495153169412699E+001  2.0896253516102789E+001 Li612 612
       Li  1.9818610728356610E+001  1.4100327919163734E+001 -8.3129927048375301E+000 Li613 613
       Li  1.4990372330260637E+001  3.6186406800710293E+000 -2.1206906698571999E+001 Li614 614
       Li  1.9556968856957706E+001  1.7206618872786905E+001 -1.2679528898371307E+001 Li615 615
       Li  1.9748399421249992E+001  1.3928337654133937E+001  3.3902572846621865E+001 Li616 616
       Li  2.3555308257197922E+001  3.9515258253133673E+001 -9.0280788980482942E+000 Li617 617
       Li  4.0741681193539883E+001  2.1072401858500303E+001  5.0235019023822289E+001 Li618 618
       Li  1.4435371288002035E+001  4.8505006741844362E+001  2.4663247639607938E+001 Li619 619
       Li  2.7720772287568479E+001  2.0134999557411113E+001  2.6228874335776272E+001 Li620 620
       Li  1.7295878309194124E+000  1.3570918123098075E+001 -1.7062793231468351E+001 Li621 621
       Li  2.0313660528095756E+001  4.1505907490397469E+001  3.9344844462779012E+000 Li622 622
       Li  1.8691921572660224E+001  3.1757073707287990E+001  1.6942982551156419E+001 Li623 623
       Li  1.9252740270701711E+001  2.6018978047235102E+001  3.8559199220945963E+001 Li624 624
       Li  3.6224329123439453E+001 -1.0329695894206766E+001 -5.4266569681337551E-001 Li625 625
       Li  1.1180975316635013E+001 -2.9943726052550805E+000  2.9689003310567039E+000 Li626 626
       Li  4.5589718670952024E+001  2.0804055388228967E+001  2.1582882772420515E+001 Li627 627
       Li  4.5151314930668150E+001  7.9636775967242324E+000  2.5186512170796494E+001 Li628 628
       Li  2.3430253231711710E+001  3.4164982194074178E+000  8.0773553138452243E+000 Li629 629
       Li  2.7832397690197844E+001  1.3559356941593562E+001 -8.6334756503324392E+000 Li630 630
       Li  3.6559854025733749E+001  1.7332568838539785E+001 -3.7718375357489786E-001 Li631 631
       Li  3.6422180459681776E+001  2.8975017376365713E+001  3.4834985175640902E+001 Li632 632
       Li  3.2677719434511594E+001  2.2537136085155421E+001  4.0419172470589810E+000 Li633 633
       Li  3.7265118171720005E+001  2.3466900176392389E+001  3.8067464577796546E+000 Li634 634
       Li  2.8384764530282627E+001 -9.9710983883654597E-002  4.1449395705548948E+000 Li635 635
       Li  2.7349020615682047E+001  4.2761224820611581E+000  4.6681228084280164E+001 Li636 636
       Li  3.2012287947668682E+001  2.7091803601684347E+001  1.7197674479561257E+001 Li637 637
       Li  4.5080828272479266E+001  3.4775606135540038E+001 -7.7140375300392722E-002 Li638 638
       Li  2.8277116103116938E+001  2.9853078133563663E+001  1.3127531998234916E+001 Li639 639
       Li  3.2222913684311038E+001  3.3596423247886634E+001  2.9611090569363302E+001 Li640 640
       Li -6.6631296542631961E+000  4.6089153690850022E+000  1.6859136758742508E+001 Li641 641
       Li  2.7630392328154397E+001  3.4660996004923312E+001  1.6242784902642999E+001 Li642 642
       Li  7.4429207486585804E+000 -1.8153745587484857E+000  4.9460863503204529E+001 Li643 643
       Li  2.4538076221767815E+000  5.1119714105821776E+000  1.7209022666148115E+001 Li644 644
       Li  1.0710458202604583E+001  1.9498869123612643E+001  8.5539892833717754E+000 Li645 645
       Li  1.1154639227726085E+001  5.5904338257186863E+000  2.9235315723891471E+001 Li646 646
       Li -2.5132072987530609E+000  1.2727775749477084E+001  2.1436958117766157E+001 Li647 647
       Li  1.9766003710214941E+000  1.7423374471096785E+001  1.3037271895693722E+001 Li648 648
       Li  1.9951331906259853E+001  2.0364870375593370E+001  1.3176690082738972E+001 Li649 649
       Li  6.8989531907009543E+000  8.2137452574305680E-001  1.7115068694266089E+001 Li650 650
       Li  2.4011498248046973E+001  2.4981685673389610E+001  5.1741603689604956E+000 Li651 651
       Li -1.7212332925696756E+000  1.0147565189172138E+001  2.9221860960535935E+001 Li652 652
       Li  6.8982030169010509E+000  3.7440569213223149E+001  1.1785207770244577E+001 Li653 653
       Li  2.8280683246343910E+000  4.1849341760157728E+001  1.2176328519057696E+001 Li654 654
       Li  1.1160044233551437E+001  3.9014171028164284E+001  1.3498602473018417E+001 Li655 655
       Li  1.1166068827193140E+001  3.2752883276576696E+001  2.0738006496086747E+001 Li656 656
       Li  1.0323665495633112E+001  2.2770403200993325E+001  1.6773858417835328E+001 Li657 657
       Li  2.3698904477547579E+001  3.9006370964713874E+001  1.5880658340855641E+001 Li658 658
       Li -2.2149091231961293E+000 -9.1724629202552759E+000  8.5369737315857943E+000 Li659 659
       Li -1.5882140310166624E+000 -1.7083801378735725E+001  2.9459428150796754E+001 Li660 660
       Li  1.5472778270397447E+001  1.6242031601081884E+001 -3.7639095725717686E+000 Li661 661
       Li  7.0873373712336507E+000  9.6917515193860559E+000  2.9275863879423195E+001 Li662 662
       Li  2.7136854645794042E+000 -3.7567016107117364E+000  3.7922000416551960E+001 Li663 663
       Li  2.3788058927416785E+001  1.2582764295664845E+001  2.9545635955484322E+001 Li664 664
       Li  1.5672797907835283E+000  1.7049003461255335E+001 -9.0843817568872307E+000 Li665 665
       Li  1.9489929078337628E+001  8.2177178693303787E+000  2.1421846303296800E+001 Li666 666
       Li  1.9270660502719863E+001  4.1320140713452112E+001  1.7090674971472097E+001 Li667 667
       Li  2.4369163025521125E+001  4.2147976900761703E+000  3.8108349571519234E+001 Li668 668
       Li  1.0652637961156360E+001  4.6698588341738301E+001  4.9098866341022945E-001 Li669 669
       Li  3.6948971568538695E+001  4.7612776640965663E+001  1.2650129962242740E+001 Li670 670
       Li  6.4554642978561709E+000  2.7394383094604773E+001  1.7110741963222615E+001 Li671 671
       Li  1.4902939979894079E+001  2.4281426610708277E+001  5.1255895665519709E+001 Li672 672
       Li  3.6522439842124975E+001  1.7380058225178313E+001  3.8256177860092350E+001 Li673 673
       Li  1.0631784228973617E+001  4.8343399411231065E+000 -1.2982974214617480E+001 Li674 674
       Li  2.7456651288709985E+001  3.9984512033338326E+000  2.5474640384555805E+001 Li675 675
       Li  2.6764481140401317E+000 -6.0252409781543079E+000  5.5415513398320549E+001 Li676 676
       Li  3.1984639199753605E+001  3.0091801286422669E+001 -9.2401111380442802E-001 Li677 677
       Li  4.6797338307764960E+001  2.4306883610298598E+001  1.9305321175904151E+001 Li678 678
       Li  3.2365816955913388E+001  2.1995492252607477E+001 -4.2315412003219910E+000 Li679 679
       Li  1.9376266334883031E+001  2.9352848131159043E+001  1.6753570186907421E+001 Li680 680
       Li  3.6979431601027180E+001  4.7702222874506738E+001  3.0050701632482344E+001 Li681 681
       Li  4.5016409881626217E+001  3.7731416594562418E+001  9.0169966114977420E+000 Li682 682
       Li  6.8031796709815042E+000  1.1039681430321565E+001  1.0838075701797903E+001 Li683 683
       Li  2.3327601927515158E+001  2.1751764237916429E+001  3.3599449909839997E+001 Li684 684
       Li  2.7854900781957593E+001  3.7654033972708575E+001  5.5681942687684982E-001 Li685 685
       Li  2.4448822109019446E+001  2.8222362189730191E+001 -2.1765003640669477E+001 Li686 686
       Li  5.8583809231557673E+000  2.3880895105085511E+001  4.2514757728118845E+001 Li687 687
       Li  2.3560172220178341E+001  2.1438888270254505E+001  5.0239605774195176E+001 Li688 688
       Li  1.0792779833775285E+001 -4.2068542228794739E+000  7.3046676570750979E-002 Li689 689
       Li  5.9562229221126124E+000  3.8771941755488398E-002  8.1916947962457431E+000 Li690 690
       Li  2.8349502442322684E+001 -6.7455820377614044E+000  3.8314086184226355E+001 Li691 691
       Li  1.9642875119866353E+001  2.2263220196499600E+000  2.1533107529192762E+001 Li692 692
       Li  3.2418989508495343E+001 -2.8180356672554057E+000  1.7393943704910733E+001 Li693 693
       Li  3.6365675727270954E+001  1.7292941280445957E+000  9.2897881219577627E+000 Li694 694
       Li  3.7053823133410638E+001  4.1743557817505319E+001  2.0968535804493552E+001 Li695 695
       Li  2.3828386248549037E+001  3.6980282137548675E+000  2.1247151570312681E+001 Li696 696
       Li  4.4987252686590331E+001  4.4067193646974324E+001 -3.7892832397911591E-001 Li697 697
       Li  4.8943196399534642E+001  3.6386658881791384E+001  8.1833034692979592E+000 Li698 698
       Li  1.5334936576175426E+001  1.2452582894383221E+001  2.1430839719113621E+001 Li699 699
       Li  4.0655397413507359E+001  2.1324672981353331E+001  3.3410121658078040E+001 Li700 700
       Li  3.6531012059776998E+001  3.5474834411527326E+001 -1.2625618174410203E+001 Li701 701
       Li  3.6322749382974699E+001  4.3353684410862869E+001  1.4501761271466293E+001 Li702 702
       Li  2.8570893259959007E+001  4.5446899623859764E+001  2.9573493587174024E+001 Li703 703
       Li  4.5476592804803587E+001  4.4484740817379510E+001  3.8119043688289693E+001 Li704 704
       Li -1.4893515393434974E+001 -9.4836596436359848E+000 -4.2568813375742005E+000 Li705 705
       Li  1.0952406326838535E+001  5.1248678576876934E+000  8.4788033616234042E+000 Li706 706
       Li  6.5965974912602281E+000  6.7228397619895235E+000  3.3621409459177670E+001 Li707 707
       Li  1.0911965235954199E+001 -9.9814570600294594E+000  2.1231106803391601E+001 Li708 708
       Li  2.1452085170829323E+000  8.6299312834778927E+000 -4.3474184134304901E+000 Li709 709
       Li -1.5559471596264780E+000  1.3018402617583174E+001  1.2787141970224781E+001 Li710 710
       Li -2.7436392805801990E-001  1.9167357175628425E+001  1.0684148158667560E+001 Li711 711
       Li -1.6662041904439777E+000  7.0922705096347265E+000  5.5974529544440735E+001 Li712 712
       Li  2.0174382777835827E+001  2.3652255444847395E+001  2.0423119493469081E+001 Li713 713
       Li -1.8390544030727465E+000  3.9031558448836301E+000  2.1170600752535652E+001 Li714 714
       Li  1.4916899868401922E+001  2.2033311836817600E+001  4.6622882249374904E+001 Li715 715
       Li  1.9808246584915878E+001  4.5124913199067393E+001  2.9606316343101618E+001 Li716 716
       Li  1.9173225657498286E+001  2.2872767280141414E+001  8.6150256447743185E+000 Li717 717
       Li  1.9905267161933378E+000  2.6030263497719350E+001  8.1879390321006085E+000 Li718 718
       Li  1.9187405432097041E+001  3.5282604160270033E+001  4.3738937378444103E+000 Li719 719
       Li  1.7047047158747166E+000  3.1890951068516099E+001 -7.6069545875265890E-002 Li720 720
       Li  2.8151206623529564E+001  5.4308741771867926E+000  2.1075360422292018E+001 Li721 721
       Li  1.1153607986956414E+001  2.3617738049136538E+001  4.2393956670637012E+000 Li722 722
       Li  2.8248303157929232E+001  2.3350605498946379E+001  1.2400890972858788E+001 Li723 723
       Li  2.4113984598268061E+001  1.1791435621215463E+000  2.9266912849219363E+001 Li724 724
       Li  6.2869527189038568E+000  1.2626922593450679E+001 -4.1618467912679868E+000 Li725 725
       Li  3.2577003672467242E+001  6.8357097623985821E+000  3.8240282306576724E+001 Li726 726
       Li  1.4739475000025319E+001  3.9886339546191731E-002  3.3822748317060849E+001 Li727 727
       Li  1.5227568463171130E+001  2.1567205857674274E+001  3.8410689451853600E+001 Li728 728
       Li  1.4810105267401166E+001  2.7310614227676876E+001 -8.2629793332290671E+000 Li729 729
       Li  1.9720779457130725E+001  4.4466148003798217E+001  1.2876209530280155E+001 Li730 730
       Li  6.9113214867976547E+000  1.9065604051378450E+001 -4.6835496298135677E+000 Li731 731
       Li  2.3431473881382185E+001  1.5465691046852811E+001  2.6267940836939424E+001 Li732 732
       Li  3.2199205415053058E+001  3.3402225194656651E+001  4.1638215722362543E-001 Li733 733
       Li  1.5043862499147917E+001  1.2642526974681900E+001  8.2256194308306139E+000 Li734 734
       Li -2.1027209198322447E+000  9.9122447248757855E+000  2.0652024691663958E-003 Li735 735
       Li  1.6750701498813512E+000  4.9427847094008088E+000  8.5388568964533871E+000 Li736 736
       Li  3.2359876307364935E+001 -1.8003050940130063E+001  1.9399574408994014E-001 Li737 737
       Li  3.2144485340868364E+001  1.2384304534582011E+001  2.5304710893373333E+001 Li738 738
       Li  4.0935862494286802E+001  3.0270264316833760E+001  5.0546194797185180E+001 Li739 739
       Li  1.9930728637589326E+001  1.4558575801578616E+001  3.7656235330279657E+001 Li740 740
       Li  2.3550287897801770E+001  5.9901430736487011E+000 -8.0296957687206127E+000 Li741 741
       Li  1.0467724516995480E+001  1.9459990426000664E+000  6.7981906534256398E-001 Li742 742
       Li  1.9194127017837641E+001  2.5754593856482181E+001  8.1234318289532563E+000 Li743 743
       Li  2.0093672644319376E+001  1.1825500932737018E+001  1.3208520089084971E+001 Li744 744
       Li  1.4718419695835491E+001  3.0453335841416333E+001  3.3578186742470798E+001 Li745 745
       Li  1.5067096730618657E+001  3.0610626151240325E+001  1.2820222227749738E+001 Li746 746
       Li  1.0806493794467501E+001  1.7837323914467941E+001  4.6577217652605732E+001 Li747 747
       Li  1.9376629092739456E+001  1.0594048470797629E+001  1.7279020451329632E+001 Li748 748
       Li  1.9215021421018488E+001  3.7973487787799186E+001 -2.4859356372334194E+001 Li749 749
       Li  1.4305640178213098E+001  3.9590456217241133E+001  8.2608595032712167E+000 Li750 750
       Li  3.3018448318058240E+001  4.6144444881672975E+001  2.0793854227577338E+001 Li751 751
       Li  1.5656627729644635E+001  4.6273221968780483E+001  1.2599491209417733E+001 Li752 752
       Li  6.2466092922349450E+000 -8.6997672117847653E+000 -8.5492851836218744E+000 Li753 753
       Li  3.6236152877255435E+001  9.9414727799004634E+000  1.7191995766246283E+001 Li754 754
       Li  3.2455377291208016E+001  6.9033749410629834E+000  1.3169154737786137E+001 Li755 755
       Li  2.4059306618219864E+001 -1.8366038153055280E+000  3.0044545243991227E+001 Li756 756
       Li  3.2764270644978311E+001  1.5953394742603743E+001  2.1836353757549173E+001 Li757 757
       Li  3.6360564271454045E+001  2.2179745304547488E+001  8.3413800960949178E+000 Li758 758
       Li  3.6683258856491925E+001  2.0276277226075841E+001  2.5392357543556390E+001 Li759 759
       Li  2.4293159792078654E+001 -1.9309417019927175E+000  3.9208458652491963E+001 Li760 760
       Li  2.8692261232968360E+001  2.3604420193890508E+001  2.9411862860272620E+001 Li761 761
       Li  3.1837358538567063E+001  2.1475265930254515E+001  1.6436305048569146E+001 Li762 762
       Li  3.7193516858483044E+001  2.9662043139245959E+001  3.0206162119241860E+001 Li763 763
       Li  3.6345937549244418E+001  1.7009127510068854E+001  3.0238199372855892E+001 Li764 764
       Li  2.3585268881621118E+001  3.3475254559536985E+001  8.8717258104197452E+000 Li765 765
       Li  4.9188566849714682E+001  4.2062380804391175E+001  3.3943035150330751E+001 Li766 766
       Li  4.1660401801839278E+001  4.3068631259878622E+001  3.8928933301022667E+001 Li767 767
       Li  2.7796338815895471E+001  2.6045396678049222E+001  2.5158007286542173E+001 Li768 768
       P  1.3356039000000000E-001  7.4293202999999997E+000  2.0588220000000002E+000 M0 769
       S  7.6231070000000012E-002  6.3014880000000009E+000  3.3862743000000001E-001 M0 769
       S  3.8128957000000008E-001  6.3950570000000004E+000  3.8189075000000003E+000 M0 769
       S  1.7179713999999999E+000  8.7286415000000002E+000  1.9627905000000001E+000 M0 769
       S -1.7625262000000002E+000  8.2472700000000003E+000  2.1633266999999998E+000 M0 769
       S  7.6231070000000012E-002  6.3014880000000009E+000  8.8165270000000007E+000 M1 770
       S  3.8128957000000008E-001  6.3950570000000004E+000  1.2296806999999999E+001 M1 770
       S  1.7179713999999999E+000  8.7286415000000002E+000  1.0440691000000001E+001 M1 770
       P  1.3356039000000000E-001  7.4293202999999997E+000  1.0536722000000001E+001 M1 770
       S -1.7625262000000002E+000  8.2472700000000003E+000  1.0641227000000002E+001 M1 770
       S  1.7179713999999999E+000  8.7286415000000002E+000  1.8918589999999998E+001 M2 771
       P  1.3356039000000000E-001  7.4293202999999997E+000  1.9014622000000003E+001 M2 771
       S  7.6231070000000012E-002  6.3014880000000009E+000  1.7294428000000000E+001 M2 771
       S  3.8128957000000008E-001  6.3950570000000004E+000  2.0774708000000000E+001 M2 771
       S -1.7625262000000002E+000  8.2472700000000003E+000  1.9119127000000002E+001 M2 771
       P  1.3356039000000000E-001  7.4293202999999997E+000  2.7492521000000000E+001 M3 772
       S  7.6231070000000012E-002  6.3014880000000009E+000  2.5772327000000004E+001 M3 772
       S  3.8128957000000008E-001  6.3950570000000004E+000  2.9252607000000005E+001 M3 772
       S  1.7179713999999999E+000  8.7286415000000002E+000  2.7396490000000004E+001 M3 772
       S -1.7625262000000002E+000  8.2472700000000003E+000  2.7597027000000001E+001 M3 772
       S  3.8128957000000008E-001  1.5441257000000002E+001  3.8189075000000003E+000 M4 773
       S  1.7179713999999999E+000  1.7774840999999999E+001  1.9627905000000001E+000 M4 773
       P  1.3356039000000000E-001  1.6475521000000001E+001  2.0588220000000002E+000 M4 773
       S  7.6231070000000012E-002  1.5347688000000000E+001  3.3862743000000001E-001 M4 773
       S -1.7625262000000002E+000  1.7293470000000003E+001  2.1633266999999998E+000 M4 773
       S  1.7179713999999999E+000  1.7774840999999999E+001  1.0440691000000001E+001 M5 774
       P  1.3356039000000000E-001  1.6475521000000001E+001  1.0536722000000001E+001 M5 774
       S  7.6231070000000012E-002  1.5347688000000000E+001  8.8165270000000007E+000 M5 774
       S  3.8128957000000008E-001  1.5441257000000002E+001  1.2296806999999999E+001 M5 774
       S -1.7625262000000002E+000  1.7293470000000003E+001  1.0641227000000002E+001 M5 774
       S  7.6231070000000012E-002  1.5347688000000000E+001  1.7294428000000000E+001 M6 775
       S  3.8128957000000008E-001  1.5441257000000002E+001  2.0774708000000000E+001 M6 775
       S  1.7179713999999999E+000  1.7774840999999999E+001  1.8918589999999998E+001 M6 775
       P  1.3356039000000000E-001  1.6475521000000001E+001  1.9014622000000003E+001 M6 775
       S -1.7625262000000002E+000  1.7293470000000003E+001  1.9119127000000002E+001 M6 775
       S  3.8128957000000008E-001  1.5441257000000002E+001  2.9252607000000005E+001 M7 776
       S  1.7179713999999999E+000  1.7774840999999999E+001  2.7396490000000004E+001 M7 776
       P  1.3356039000000000E-001  1.6475521000000001E+001  2.7492521000000000E+001 M7 776
       S  7.6231070000000012E-002  1.5347688000000000E+001  2.5772327000000004E+001 M7 776
       S -1.7625262000000002E+000  1.7293470000000003E+001  2.7597027000000001E+001 M7 776
       P  1.3356039000000000E-001  2.5521720000000002E+001  2.0588220000000002E+000 M8 777
       S  7.6231070000000012E-002  2.4393888000000000E+001  3.3862743000000001E-001 M8 777
       S  3.8128957000000008E-001  2.4487457000000003E+001  3.8189075000000003E+000 M8 777
       S  1.7179713999999999E+000  2.6821041000000001E+001  1.9627905000000001E+000 M8 777
       S -1.7625262000000002E+000  2.6339670000000002E+001  2.1633266999999998E+000 M8 777
       S  7.6231070000000012E-002  2.4393888000000000E+001  8.8165270000000007E+000 M9 778
       S  3.8128957000000008E-001  2.4487457000000003E+001  1.2296806999999999E+001 M9 778
       S  1.7179713999999999E+000  2.6821041000000001E+001  1.0440691000000001E+001 M9 778
       P  1.3356039000000000E-001  2.5521720000000002E+001  1.0536722000000001E+001 M9 778
       S -1.7625262000000002E+000  2.6339670000000002E+001  1.0641227000000002E+001 M9 778
       S  1.7179713999999999E+000  2.6821041000000001E+001  1.8918589999999998E+001 M10 779
       P  1.3356039000000000E-001  2.5521720000000002E+001  1.9014622000000003E+001 M10 779
       S  7.6231070000000012E-002  2.4393888000000000E+001  1.7294428000000000E+001 M10 779
       S  3.8128957000000008E-001  2.4487457000000003E+001  2.0774708000000000E+001 M10 779
       S -1.7625262000000002E+000  2.6339670000000002E+001  1.9119127000000002E+001 M10 779
       P  1.3356039000000000E-001  2.5521720000000002E+001  2.7492521000000000E+001 M11 780
       S  7.6231070000000012E-002  2.4393888000000000E+001  2.5772327000000004E+001 M11 780
       S  3.8128957000000008E-001  2.4487457000000003E+001  2.9252607000000005E+001 M11 780
       S  1.7179713999999999E+000  2.6821041000000001E+001  2.7396490000000004E+001 M11 780
       S -1.7625262000000002E+000  2.6339670000000002E+001  2.7597027000000001E+001 M11 780
       S  3.8128957000000008E-001  3.3533656999999998E+001  3.8189075000000003E+000 M12 781
       S  1.7179713999999999E+000  3.5867240000000002E+001  1.9627905000000001E+000 M12 781
       P  1.3356039000000000E-001  3.4567920000000001E+001  2.0588220000000002E+000 M12 781
       S  7.6231070000000012E-002  3.3440086000000001E+001  3.3862743000000001E-001 M12 781
       S -1.7625262000000002E+000  3.5385868000000009E+001  2.1633266999999998E+000 M12 781
       S  1.7179713999999999E+000  3.5867240000000002E+001  1.0440691000000001E+001 M13 782
       P  1.3356039000000000E-001  3.4567920000000001E+001  1.0536722000000001E+001 M13 782
       S  7.6231070000000012E-002  3.3440086000000001E+001  8.8165270000000007E+000 M13 782
       S  3.8128957000000008E-001  3.3533656999999998E+001  1.2296806999999999E+001 M13 782
       S -1.7625262000000002E+000  3.5385868000000009E+001  1.0641227000000002E+001 M13 782
       S  7.6231070000000012E-002  3.3440086000000001E+001  1.7294428000000000E+001 M14 783
       S  3.8128957000000008E-001  3.3533656999999998E+001  2.0774708000000000E+001 M14 783
       S  1.7179713999999999E+000  3.5867240000000002E+001  1.8918589999999998E+001 M14 783
       P  1.3356039000000000E-001  3.4567920000000001E+001  1.9014622000000003E+001 M14 783
       S -1.7625262000000002E+000  3.5385868000000009E+001  1.9119127000000002E+001 M14 783
       S  3.8128957000000008E-001  3.3533656999999998E+001  2.9252607000000005E+001 M15 784
       S  1.7179713999999999E+000  3.5867240000000002E+001  2.7396490000000004E+001 M15 784
       P  1.3356039000000000E-001  3.4567920000000001E+001  2.7492521000000000E+001 M15 784
       S  7.6231070000000012E-002  3.3440086000000001E+001  2.5772327000000004E+001 M15 784
       S -1.7625262000000002E+000  3.5385868000000009E+001  2.7597027000000001E+001 M15 784
       S  6.8809740000000010E+000  8.2472700000000003E+000  2.1633266999999998E+000 M16 785
       P  8.7770605000000010E+000  7.4293202999999997E+000  2.0588220000000002E+000 M16 785
       S  8.7197309999999995E+000  6.3014880000000009E+000  3.3862743000000001E-001 M16 785
       S  9.0247900000000012E+000  6.3950570000000004E+000  3.8189075000000003E+000 M16 785
       S  1.0361471000000000E+001  8.7286415000000002E+000  1.9627905000000001E+000 M16 785
       S  6.8809740000000010E+000  8.2472700000000003E+000  1.0641227000000002E+001 M17 786
       S  8.7197309999999995E+000  6.3014880000000009E+000  8.8165270000000007E+000 M17 786
       S  9.0247900000000012E+000  6.3950570000000004E+000  1.2296806999999999E+001 M17 786
       S  1.0361471000000000E+001  8.7286415000000002E+000  1.0440691000000001E+001 M17 786
       P  8.7770605000000010E+000  7.4293202999999997E+000  1.0536722000000001E+001 M17 786
       S  6.8809740000000010E+000  8.2472700000000003E+000  1.9119127000000002E+001 M18 787
       S  1.0361471000000000E+001  8.7286415000000002E+000  1.8918589999999998E+001 M18 787
       P  8.7770605000000010E+000  7.4293202999999997E+000  1.9014622000000003E+001 M18 787
       S  8.7197309999999995E+000  6.3014880000000009E+000  1.7294428000000000E+001 M18 787
       S  9.0247900000000012E+000  6.3950570000000004E+000  2.0774708000000000E+001 M18 787
       S  6.8809740000000010E+000  8.2472700000000003E+000  2.7597027000000001E+001 M19 788
       P  8.7770605000000010E+000  7.4293202999999997E+000  2.7492521000000000E+001 M19 788
       S  8.7197309999999995E+000  6.3014880000000009E+000  2.5772327000000004E+001 M19 788
       S  9.0247900000000012E+000  6.3950570000000004E+000  2.9252607000000005E+001 M19 788
       S  1.0361471000000000E+001  8.7286415000000002E+000  2.7396490000000004E+001 M19 788
       S  6.8809740000000010E+000  1.7293470000000003E+001  2.1633266999999998E+000 M20 789
       S  9.0247900000000012E+000  1.5441257000000002E+001  3.8189075000000003E+000 M20 789
       S  1.0361471000000000E+001  1.7774840999999999E+001  1.9627905000000001E+000 M20 789
       P  8.7770605000000010E+000  1.6475521000000001E+001  2.0588220000000002E+000 M20 789
       S  8.7197309999999995E+000  1.5347688000000000E+001  3.3862743000000001E-001 M20 789
       S  6.8809740000000010E+000  1.7293470000000003E+001  1.0641227000000002E+001 M21 790
       S  1.0361471000000000E+001  1.7774840999999999E+001  1.0440691000000001E+001 M21 790
       P  8.7770605000000010E+000  1.6475521000000001E+001  1.0536722000000001E+001 M21 790
       S  8.7197309999999995E+000  1.5347688000000000E+001  8.8165270000000007E+000 M21 790
       S  9.0247900000000012E+000  1.5441257000000002E+001  1.2296806999999999E+001 M21 790
       S  6.8809740000000010E+000  1.7293470000000003E+001  1.9119127000000002E+001 M22 791
       S  8.7197309999999995E+000  1.5347688000000000E+001  1.7294428000000000E+001 M22 791
       S  9.0247900000000012E+000  1.5441257000000002E+001  2.0774708000000000E+001 M22 791
       S  1.0361471000000000E+001  1.7774840999999999E+001  1.8918589999999998E+001 M22 791
       P  8.7770605000000010E+000  1.6475521000000001E+001  1.9014622000000003E+001 M22 791
       S  1.0361471000000000E+001  1.7774840999999999E+001  2.7396490000000004E+001 M23 792
       S  8.7197309999999995E+000  1.5347688000000000E+001  2.5772327000000004E+001 M23 792
       S  6.8809740000000010E+000  1.7293470000000003E+001  2.7597027000000001E+001 M23 792
       P  8.7770605000000010E+000  1.6475521000000001E+001  2.7492521000000000E+001 M23 792
       S  9.0247900000000012E+000  1.5441257000000002E+001  2.9252607000000005E+001 M23 792
       S  1.0361471000000000E+001  2.6821041000000001E+001  1.9627905000000001E+000 M24 793
       S  6.8809740000000010E+000  2.6339670000000002E+001  2.1633266999999998E+000 M24 793
       S  8.7197309999999995E+000  2.4393888000000000E+001  3.3862743000000001E-001 M24 793
       S  9.0247900000000012E+000  2.4487457000000003E+001  3.8189075000000003E+000 M24 793
       P  8.7770605000000010E+000  2.5521720000000002E+001  2.0588220000000002E+000 M24 793
       S  6.8809740000000010E+000  2.6339670000000002E+001  1.0641227000000002E+001 M25 794
       S  1.0361471000000000E+001  2.6821041000000001E+001  1.0440691000000001E+001 M25 794
       S  9.0247900000000012E+000  2.4487457000000003E+001  1.2296806999999999E+001 M25 794
       P  8.7770605000000010E+000  2.5521720000000002E+001  1.0536722000000001E+001 M25 794
       S  8.7197309999999995E+000  2.4393888000000000E+001  8.8165270000000007E+000 M25 794
       S  6.8809740000000010E+000  2.6339670000000002E+001  1.9119127000000002E+001 M26 795
       S  8.7197309999999995E+000  2.4393888000000000E+001  1.7294428000000000E+001 M26 795
       S  9.0247900000000012E+000  2.4487457000000003E+001  2.0774708000000000E+001 M26 795
       S  1.0361471000000000E+001  2.6821041000000001E+001  1.8918589999999998E+001 M26 795
       P  8.7770605000000010E+000  2.5521720000000002E+001  1.9014622000000003E+001 M26 795
       S  6.8809740000000010E+000  2.6339670000000002E+001  2.7597027000000001E+001 M27 796
       S  1.0361471000000000E+001  2.6821041000000001E+001  2.7396490000000004E+001 M27 796
       S  8.7197309999999995E+000  2.4393888000000000E+001  2.5772327000000004E+001 M27 796
       P  8.7770605000000010E+000  2.5521720000000002E+001  2.7492521000000000E+001 M27 796
       S  9.0247900000000012E+000  2.4487457000000003E+001  2.9252607000000005E+001 M27 796
       P  8.7770605000000010E+000  3.4567920000000001E+001  2.0588220000000002E+000 M28 797
       S  6.8809740000000010E+000  3.5385868000000009E+001  2.1633266999999998E+000 M28 797
       S  1.0361471000000000E+001  3.5867240000000002E+001  1.9627905000000001E+000 M28 797
       S  9.0247900000000012E+000  3.3533656999999998E+001  3.8189075000000003E+000 M28 797
       S  8.7197309999999995E+000  3.3440086000000001E+001  3.3862743000000001E-001 M28 797
       S  8.7197309999999995E+000  3.3440086000000001E+001  8.8165270000000007E+000 M29 798
       S  9.0247900000000012E+000  3.3533656999999998E+001  1.2296806999999999E+001 M29 798
       P  8.7770605000000010E+000  3.4567920000000001E+001  1.0536722000000001E+001 M29 798
       S  6.8809740000000010E+000  3.5385868000000009E+001  1.0641227000000002E+001 M29 798
       S  1.0361471000000000E+001  3.5867240000000002E+001  1.0440691000000001E+001 M29 798
       S  1.0361471000000000E+001  3.5867240000000002E+001  1.8918589999999998E+001 M30 799
       S  9.0247900000000012E+000  3.3533656999999998E+001  2.0774708000000000E+001 M30 799
       S  6.8809740000000010E+000  3.5385868000000009E+001  1.9119127000000002E+001 M30 799
       P  8.7770605000000010E+000  3.4567920000000001E+001  1.9014622000000003E+001 M30 799
       S  8.7197309999999995E+000  3.3440086000000001E+001  1.7294428000000000E+001 M30 799
       S  1.0361471000000000E+001  3.5867240000000002E+001  2.7396490000000004E+001 M31 800
       S  8.7197309999999995E+000  3.3440086000000001E+001  2.5772327000000004E+001 M31 800
       S  6.8809740000000010E+000  3.5385868000000009E+001  2.7597027000000001E+001 M31 800
       P  8.7770605000000010E+000  3.4567920000000001E+001  2.7492521000000000E+001 M31 800
       S  9.0247900000000012E+000  3.3533656999999998E+001  2.9252607000000005E+001 M31 800
       P  1.7420559999999998E+001  7.4293202999999997E+000  2.0588220000000002E+000 M32 801
       S  1.9004970000000004E+001  8.7286415000000002E+000  1.9627905000000001E+000 M32 801
       S  1.7363232000000000E+001  6.3014880000000009E+000  3.3862743000000001E-001 M32 801
       S  1.7668290000000002E+001  6.3950570000000004E+000  3.8189075000000003E+000 M32 801
       S  1.5524473000000000E+001  8.2472700000000003E+000  2.1633266999999998E+000 M32 801
       S  1.7668290000000002E+001  6.3950570000000004E+000  1.2296806999999999E+001 M33 802
       S  1.7363232000000000E+001  6.3014880000000009E+000  8.8165270000000007E+000 M33 802
       S  1.9004970000000004E+001  8.7286415000000002E+000  1.0440691000000001E+001 M33 802
       P  1.7420559999999998E+001  7.4293202999999997E+000  1.0536722000000001E+001 M33 802
       S  1.5524473000000000E+001  8.2472700000000003E+000  1.0641227000000002E+001 M33 802
       S  1.7668290000000002E+001  6.3950570000000004E+000  2.0774708000000000E+001 M34 803
       P  1.7420559999999998E+001  7.4293202999999997E+000  1.9014622000000003E+001 M34 803
       S  1.9004970000000004E+001  8.7286415000000002E+000  1.8918589999999998E+001 M34 803
       S  1.7363232000000000E+001  6.3014880000000009E+000  1.7294428000000000E+001 M34 803
       S  1.5524473000000000E+001  8.2472700000000003E+000  1.9119127000000002E+001 M34 803
       P  1.7420559999999998E+001  7.4293202999999997E+000  2.7492521000000000E+001 M35 804
       S  1.7668290000000002E+001  6.3950570000000004E+000  2.9252607000000005E+001 M35 804
       S  1.7363232000000000E+001  6.3014880000000009E+000  2.5772327000000004E+001 M35 804
       S  1.9004970000000004E+001  8.7286415000000002E+000  2.7396490000000004E+001 M35 804
       S  1.5524473000000000E+001  8.2472700000000003E+000  2.7597027000000001E+001 M35 804
       S  1.7363232000000000E+001  1.5347688000000000E+001  3.3862743000000001E-001 M36 805
       S  1.7668290000000002E+001  1.5441257000000002E+001  3.8189075000000003E+000 M36 805
       P  1.7420559999999998E+001  1.6475521000000001E+001  2.0588220000000002E+000 M36 805
       S  1.9004970000000004E+001  1.7774840999999999E+001  1.9627905000000001E+000 M36 805
       S  1.5524473000000000E+001  1.7293470000000003E+001  2.1633266999999998E+000 M36 805
       S  1.7363232000000000E+001  1.5347688000000000E+001  8.8165270000000007E+000 M37 806
       S  1.9004970000000004E+001  1.7774840999999999E+001  1.0440691000000001E+001 M37 806
       P  1.7420559999999998E+001  1.6475521000000001E+001  1.0536722000000001E+001 M37 806
       S  1.7668290000000002E+001  1.5441257000000002E+001  1.2296806999999999E+001 M37 806
       S  1.5524473000000000E+001  1.7293470000000003E+001  1.0641227000000002E+001 M37 806
       P  1.7420559999999998E+001  1.6475521000000001E+001  1.9014622000000003E+001 M38 807
       S  1.9004970000000004E+001  1.7774840999999999E+001  1.8918589999999998E+001 M38 807
       S  1.7363232000000000E+001  1.5347688000000000E+001  1.7294428000000000E+001 M38 807
       S  1.7668290000000002E+001  1.5441257000000002E+001  2.0774708000000000E+001 M38 807
       S  1.5524473000000000E+001  1.7293470000000003E+001  1.9119127000000002E+001 M38 807
       S  1.7668290000000002E+001  1.5441257000000002E+001  2.9252607000000005E+001 M39 808
       S  1.7363232000000000E+001  1.5347688000000000E+001  2.5772327000000004E+001 M39 808
       S  1.9004970000000004E+001  1.7774840999999999E+001  2.7396490000000004E+001 M39 808
       P  1.7420559999999998E+001  1.6475521000000001E+001  2.7492521000000000E+001 M39 808
       S  1.5524473000000000E+001  1.7293470000000003E+001  2.7597027000000001E+001 M39 808
       P  1.7420559999999998E+001  2.5521720000000002E+001  2.0588220000000002E+000 M40 809
       S  1.9004970000000004E+001  2.6821041000000001E+001  1.9627905000000001E+000 M40 809
       S  1.7363232000000000E+001  2.4393888000000000E+001  3.3862743000000001E-001 M40 809
       S  1.7668290000000002E+001  2.4487457000000003E+001  3.8189075000000003E+000 M40 809
       S  1.5524473000000000E+001  2.6339670000000002E+001  2.1633266999999998E+000 M40 809
       S  1.7668290000000002E+001  2.4487457000000003E+001  1.2296806999999999E+001 M41 810
       S  1.7363232000000000E+001  2.4393888000000000E+001  8.8165270000000007E+000 M41 810
       S  1.9004970000000004E+001  2.6821041000000001E+001  1.0440691000000001E+001 M41 810
       P  1.7420559999999998E+001  2.5521720000000002E+001  1.0536722000000001E+001 M41 810
       S  1.5524473000000000E+001  2.6339670000000002E+001  1.0641227000000002E+001 M41 810
       S  1.7668290000000002E+001  2.4487457000000003E+001  2.0774708000000000E+001 M42 811
       P  1.7420559999999998E+001  2.5521720000000002E+001  1.9014622000000003E+001 M42 811
       S  1.9004970000000004E+001  2.6821041000000001E+001  1.8918589999999998E+001 M42 811
       S  1.7363232000000000E+001  2.4393888000000000E+001  1.7294428000000000E+001 M42 811
       S  1.5524473000000000E+001  2.6339670000000002E+001  1.9119127000000002E+001 M42 811
       P  1.7420559999999998E+001  2.5521720000000002E+001  2.7492521000000000E+001 M43 812
       S  1.7668290000000002E+001  2.4487457000000003E+001  2.9252607000000005E+001 M43 812
       S  1.7363232000000000E+001  2.4393888000000000E+001  2.5772327000000004E+001 M43 812
       S  1.9004970000000004E+001  2.6821041000000001E+001  2.7396490000000004E+001 M43 812
       S  1.5524473000000000E+001  2.6339670000000002E+001  2.7597027000000001E+001 M43 812
       S  1.7363232000000000E+001  3.3440086000000001E+001  3.3862743000000001E-001 M44 813
       S  1.7668290000000002E+001  3.3533656999999998E+001  3.8189075000000003E+000 M44 813
       P  1.7420559999999998E+001  3.4567920000000001E+001  2.0588220000000002E+000 M44 813
       S  1.9004970000000004E+001  3.5867240000000002E+001  1.9627905000000001E+000 M44 813
       S  1.5524473000000000E+001  3.5385868000000009E+001  2.1633266999999998E+000 M44 813
       S  1.7363232000000000E+001  3.3440086000000001E+001  8.8165270000000007E+000 M45 814
       S  1.9004970000000004E+001  3.5867240000000002E+001  1.0440691000000001E+001 M45 814
       P  1.7420559999999998E+001  3.4567920000000001E+001  1.0536722000000001E+001 M45 814
       S  1.7668290000000002E+001  3.3533656999999998E+001  1.2296806999999999E+001 M45 814
       S  1.5524473000000000E+001  3.5385868000000009E+001  1.0641227000000002E+001 M45 814
       P  1.7420559999999998E+001  3.4567920000000001E+001  1.9014622000000003E+001 M46 815
       S  1.9004970000000004E+001  3.5867240000000002E+001  1.8918589999999998E+001 M46 815
       S  1.7363232000000000E+001  3.3440086000000001E+001  1.7294428000000000E+001 M46 815
       S  1.7668290000000002E+001  3.3533656999999998E+001  2.0774708000000000E+001 M46 815
       S  1.5524473000000000E+001  3.5385868000000009E+001  1.9119127000000002E+001 M46 815
       S  1.7668290000000002E+001  3.3533656999999998E+001  2.9252607000000005E+001 M47 816
       S  1.7363232000000000E+001  3.3440086000000001E+001  2.5772327000000004E+001 M47 816
       S  1.9004970000000004E+001  3.5867240000000002E+001  2.7396490000000004E+001 M47 816
       P  1.7420559999999998E+001  3.4567920000000001E+001  2.7492521000000000E+001 M47 816
       S  1.5524473000000000E+001  3.5385868000000009E+001  2.7597027000000001E+001 M47 816
       S  2.4167974000000001E+001  8.2472700000000003E+000  2.1633266999999998E+000 M48 817
       P  2.6064060000000005E+001  7.4293202999999997E+000  2.0588220000000002E+000 M48 817
       S  2.7648472000000002E+001  8.7286415000000002E+000  1.9627905000000001E+000 M48 817
       S  2.6006730999999998E+001  6.3014880000000009E+000  3.3862743000000001E-001 M48 817
       S  2.6311790000000002E+001  6.3950570000000004E+000  3.8189075000000003E+000 M48 817
       S  2.4167974000000001E+001  8.2472700000000003E+000  1.0641227000000002E+001 M49 818
       S  2.6311790000000002E+001  6.3950570000000004E+000  1.2296806999999999E+001 M49 818
       S  2.6006730999999998E+001  6.3014880000000009E+000  8.8165270000000007E+000 M49 818
       S  2.7648472000000002E+001  8.7286415000000002E+000  1.0440691000000001E+001 M49 818
       P  2.6064060000000005E+001  7.4293202999999997E+000  1.0536722000000001E+001 M49 818
       S  2.4167974000000001E+001  8.2472700000000003E+000  1.9119127000000002E+001 M50 819
       S  2.6311790000000002E+001  6.3950570000000004E+000  2.0774708000000000E+001 M50 819
       P  2.6064060000000005E+001  7.4293202999999997E+000  1.9014622000000003E+001 M50 819
       S  2.7648472000000002E+001  8.7286415000000002E+000  1.8918589999999998E+001 M50 819
       S  2.6006730999999998E+001  6.3014880000000009E+000  1.7294428000000000E+001 M50 819
       S  2.4167974000000001E+001  8.2472700000000003E+000  2.7597027000000001E+001 M51 820
       P  2.6064060000000005E+001  7.4293202999999997E+000  2.7492521000000000E+001 M51 820
       S  2.6311790000000002E+001  6.3950570000000004E+000  2.9252607000000005E+001 M51 820
       S  2.6006730999999998E+001  6.3014880000000009E+000  2.5772327000000004E+001 M51 820
       S  2.7648472000000002E+001  8.7286415000000002E+000  2.7396490000000004E+001 M51 820
       S  2.4167974000000001E+001  1.7293470000000003E+001  2.1633266999999998E+000 M52 821
       S  2.6006730999999998E+001  1.5347688000000000E+001  3.3862743000000001E-001 M52 821
       S  2.6311790000000002E+001  1.5441257000000002E+001  3.8189075000000003E+000 M52 821
       P  2.6064060000000005E+001  1.6475521000000001E+001  2.0588220000000002E+000 M52 821
       S  2.7648472000000002E+001  1.7774840999999999E+001  1.9627905000000001E+000 M52 821
       S  2.4167974000000001E+001  1.7293470000000003E+001  1.0641227000000002E+001 M53 822
       S  2.6006730999999998E+001  1.5347688000000000E+001  8.8165270000000007E+000 M53 822
       S  2.7648472000000002E+001  1.7774840999999999E+001  1.0440691000000001E+001 M53 822
       P  2.6064060000000005E+001  1.6475521000000001E+001  1.0536722000000001E+001 M53 822
       S  2.6311790000000002E+001  1.5441257000000002E+001  1.2296806999999999E+001 M53 822
       S  2.4167974000000001E+001  1.7293470000000003E+001  1.9119127000000002E+001 M54 823
       P  2.6064060000000005E+001  1.6475521000000001E+001  1.9014622000000003E+001 M54 823
       S  2.7648472000000002E+001  1.7774840999999999E+001  1.8918589999999998E+001 M54 823
       S  2.6006730999999998E+001  1.5347688000000000E+001  1.7294428000000000E+001 M54 823
       S  2.6311790000000002E+001  1.5441257000000002E+001  2.0774708000000000E+001 M54 823
       S  2.7648472000000002E+001  1.7774840999999999E+001  2.7396490000000004E+001 M55 824
       S  2.6006730999999998E+001  1.5347688000000000E+001  2.5772327000000004E+001 M55 824
       S  2.4167974000000001E+001  1.7293470000000003E+001  2.7597027000000001E+001 M55 824
       P  2.6064060000000005E+001  1.6475521000000001E+001  2.7492521000000000E+001 M55 824
       S  2.6311790000000002E+001  1.5441257000000002E+001  2.9252607000000005E+001 M55 824
       S  2.4167974000000001E+001  2.6339670000000002E+001  2.1633266999999998E+000 M56 825
       S  2.7648472000000002E+001  2.6821041000000001E+001  1.9627905000000001E+000 M56 825
       S  2.6006730999999998E+001  2.4393888000000000E+001  3.3862743000000001E-001 M56 825
       S  2.6311790000000002E+001  2.4487457000000003E+001  3.8189075000000003E+000 M56 825
       P  2.6064060000000005E+001  2.5521720000000002E+001  2.0588220000000002E+000 M56 825
       S  2.4167974000000001E+001  2.6339670000000002E+001  1.0641227000000002E+001 M57 826
       S  2.7648472000000002E+001  2.6821041000000001E+001  1.0440691000000001E+001 M57 826
       S  2.6006730999999998E+001  2.4393888000000000E+001  8.8165270000000007E+000 M57 826
       P  2.6064060000000005E+001  2.5521720000000002E+001  1.0536722000000001E+001 M57 826
       S  2.6311790000000002E+001  2.4487457000000003E+001  1.2296806999999999E+001 M57 826
       S  2.4167974000000001E+001  2.6339670000000002E+001  1.9119127000000002E+001 M58 827
       S  2.7648472000000002E+001  2.6821041000000001E+001  1.8918589999999998E+001 M58 827
       S  2.6006730999999998E+001  2.4393888000000000E+001  1.7294428000000000E+001 M58 827
       S  2.6311790000000002E+001  2.4487457000000003E+001  2.0774708000000000E+001 M58 827
       P  2.6064060000000005E+001  2.5521720000000002E+001  1.9014622000000003E+001 M58 827
       S  2.6006730999999998E+001  2.4393888000000000E+001  2.5772327000000004E+001 M59 828
       S  2.4167974000000001E+001  2.6339670000000002E+001  2.7597027000000001E+001 M59 828
       S  2.7648472000000002E+001  2.6821041000000001E+001  2.7396490000000004E+001 M59 828
       P  2.6064060000000005E+001  2.5521720000000002E+001  2.7492521000000000E+001 M59 828
       S  2.6311790000000002E+001  2.4487457000000003E+001  2.9252607000000005E+001 M59 828
       S  2.6311790000000002E+001  3.3533656999999998E+001  3.8189075000000003E+000 M60 829
       P  2.6064060000000005E+001  3.4567920000000001E+001  2.0588220000000002E+000 M60 829
       S  2.4167974000000001E+001  3.5385868000000009E+001  2.1633266999999998E+000 M60 829
       S  2.7648472000000002E+001  3.5867240000000002E+001  1.9627905000000001E+000 M60 829
       S  2.6006730999999998E+001  3.3440086000000001E+001  3.3862743000000001E-001 M60 829
       S  2.7648472000000002E+001  3.5867240000000002E+001  1.0440691000000001E+001 M61 830
       S  2.6311790000000002E+001  3.3533656999999998E+001  1.2296806999999999E+001 M61 830
       P  2.6064060000000005E+001  3.4567920000000001E+001  1.0536722000000001E+001 M61 830
       S  2.4167974000000001E+001  3.5385868000000009E+001  1.0641227000000002E+001 M61 830
       S  2.6006730999999998E+001  3.3440086000000001E+001  8.8165270000000007E+000 M61 830
       S  2.7648472000000002E+001  3.5867240000000002E+001  1.8918589999999998E+001 M62 831
       S  2.6006730999999998E+001  3.3440086000000001E+001  1.7294428000000000E+001 M62 831
       S  2.6311790000000002E+001  3.3533656999999998E+001  2.0774708000000000E+001 M62 831
       S  2.4167974000000001E+001  3.5385868000000009E+001  1.9119127000000002E+001 M62 831
       P  2.6064060000000005E+001  3.4567920000000001E+001  1.9014622000000003E+001 M62 831
       S  2.7648472000000002E+001  3.5867240000000002E+001  2.7396490000000004E+001 M63 832
       S  2.6006730999999998E+001  3.3440086000000001E+001  2.5772327000000004E+001 M63 832
       S  2.4167974000000001E+001  3.5385868000000009E+001  2.7597027000000001E+001 M63 832
       P  2.6064060000000005E+001  3.4567920000000001E+001  2.7492521000000000E+001 M63 832
       S  2.6311790000000002E+001  3.3533656999999998E+001  2.9252607000000005E+001 M63 832
       S  8.5986820000000002E+000  2.5506225000000002E+000  4.5989943000000002E+000 M64 833
       P  8.6242599999999996E+000  1.4314275000000001E+000  6.3208469999999997E+000 M64 833
       S  7.0337505000000000E+000  1.2948570000000001E-001  6.2322407000000011E+000 M64 833
       S  8.5009430000000012E+000  2.5469387000000001E+000  8.0457929999999998E+000 M64 833
       S  1.0491578000000001E+001  5.3820163000000010E-001  6.3817744000000003E+000 M64 833
       P  8.6242599999999996E+000  1.4314275000000001E+000  1.4798747000000001E+001 M65 834
       S  7.0337505000000000E+000  1.2948570000000001E-001  1.4710140000000001E+001 M65 834
       S  8.5009430000000012E+000  2.5469387000000001E+000  1.6523693000000002E+001 M65 834
       S  8.5986820000000002E+000  2.5506225000000002E+000  1.3076895000000000E+001 M65 834
       S  1.0491578000000001E+001  5.3820163000000010E-001  1.4859674000000002E+001 M65 834
       S  8.5009430000000012E+000  2.5469387000000001E+000  2.5001593000000000E+001 M66 835
       S  8.5986820000000002E+000  2.5506225000000002E+000  2.1554794000000005E+001 M66 835
       P  8.6242599999999996E+000  1.4314275000000001E+000  2.3276648000000002E+001 M66 835
       S  7.0337505000000000E+000  1.2948570000000001E-001  2.3188040000000004E+001 M66 835
       S  1.0491578000000001E+001  5.3820163000000010E-001  2.3337574000000004E+001 M66 835
       S  8.5986820000000002E+000  2.5506225000000002E+000  3.0032693999999999E+001 M67 836
       P  8.6242599999999996E+000  1.4314275000000001E+000  3.1754547000000002E+001 M67 836
       S  7.0337505000000000E+000  1.2948570000000001E-001  3.1665941000000000E+001 M67 836
       S  8.5009430000000012E+000  2.5469387000000001E+000  3.3479492000000000E+001 M67 836
       S  1.0491578000000001E+001  5.3820163000000010E-001  3.1815473999999998E+001 M67 836
       S  7.0337505000000000E+000  9.1756860000000007E+000  6.2322407000000011E+000 M68 837
       S  8.5009430000000012E+000  1.1593139000000001E+001  8.0457929999999998E+000 M68 837
       S  8.5986820000000002E+000  1.1596823000000001E+001  4.5989943000000002E+000 M68 837
       P  8.6242599999999996E+000  1.0477627999999999E+001  6.3208469999999997E+000 M68 837
       S  1.0491578000000001E+001  9.5844020000000008E+000  6.3817744000000003E+000 M68 837
       S  8.5009430000000012E+000  1.1593139000000001E+001  1.6523693000000002E+001 M69 838
       S  8.5986820000000002E+000  1.1596823000000001E+001  1.3076895000000000E+001 M69 838
       P  8.6242599999999996E+000  1.0477627999999999E+001  1.4798747000000001E+001 M69 838
       S  7.0337505000000000E+000  9.1756860000000007E+000  1.4710140000000001E+001 M69 838
       S  1.0491578000000001E+001  9.5844020000000008E+000  1.4859674000000002E+001 M69 838
       P  8.6242599999999996E+000  1.0477627999999999E+001  2.3276648000000002E+001 M70 839
       S  7.0337505000000000E+000  9.1756860000000007E+000  2.3188040000000004E+001 M70 839
       S  8.5009430000000012E+000  1.1593139000000001E+001  2.5001593000000000E+001 M70 839
       S  8.5986820000000002E+000  1.1596823000000001E+001  2.1554794000000005E+001 M70 839
       S  1.0491578000000001E+001  9.5844020000000008E+000  2.3337574000000004E+001 M70 839
       S  7.0337505000000000E+000  9.1756860000000007E+000  3.1665941000000000E+001 M71 840
       S  8.5009430000000012E+000  1.1593139000000001E+001  3.3479492000000000E+001 M71 840
       S  8.5986820000000002E+000  1.1596823000000001E+001  3.0032693999999999E+001 M71 840
       P  8.6242599999999996E+000  1.0477627999999999E+001  3.1754547000000002E+001 M71 840
       S  1.0491578000000001E+001  9.5844020000000008E+000  3.1815473999999998E+001 M71 840
       S  8.5986820000000002E+000  2.0643023000000003E+001  4.5989943000000002E+000 M72 841
       P  8.6242599999999996E+000  1.9523827000000001E+001  6.3208469999999997E+000 M72 841
       S  7.0337505000000000E+000  1.8221886000000001E+001  6.2322407000000011E+000 M72 841
       S  8.5009430000000012E+000  2.0639340000000001E+001  8.0457929999999998E+000 M72 841
       S  1.0491578000000001E+001  1.8630602000000000E+001  6.3817744000000003E+000 M72 841
       P  8.6242599999999996E+000  1.9523827000000001E+001  1.4798747000000001E+001 M73 842
       S  7.0337505000000000E+000  1.8221886000000001E+001  1.4710140000000001E+001 M73 842
       S  8.5009430000000012E+000  2.0639340000000001E+001  1.6523693000000002E+001 M73 842
       S  8.5986820000000002E+000  2.0643023000000003E+001  1.3076895000000000E+001 M73 842
       S  1.0491578000000001E+001  1.8630602000000000E+001  1.4859674000000002E+001 M73 842
       S  8.5009430000000012E+000  2.0639340000000001E+001  2.5001593000000000E+001 M74 843
       S  8.5986820000000002E+000  2.0643023000000003E+001  2.1554794000000005E+001 M74 843
       P  8.6242599999999996E+000  1.9523827000000001E+001  2.3276648000000002E+001 M74 843
       S  7.0337505000000000E+000  1.8221886000000001E+001  2.3188040000000004E+001 M74 843
       S  1.0491578000000001E+001  1.8630602000000000E+001  2.3337574000000004E+001 M74 843
       S  8.5986820000000002E+000  2.0643023000000003E+001  3.0032693999999999E+001 M75 844
       P  8.6242599999999996E+000  1.9523827000000001E+001  3.1754547000000002E+001 M75 844
       S  7.0337505000000000E+000  1.8221886000000001E+001  3.1665941000000000E+001 M75 844
       S  8.5009430000000012E+000  2.0639340000000001E+001  3.3479492000000000E+001 M75 844
       S  1.0491578000000001E+001  1.8630602000000000E+001  3.1815473999999998E+001 M75 844
       S  7.0337505000000000E+000  2.7268084999999999E+001  6.2322407000000011E+000 M76 845
       S  8.5009430000000012E+000  2.9685540000000000E+001  8.0457929999999998E+000 M76 845
       S  8.5986820000000002E+000  2.9689222000000001E+001  4.5989943000000002E+000 M76 845
       P  8.6242599999999996E+000  2.8570028000000004E+001  6.3208469999999997E+000 M76 845
       S  1.0491578000000001E+001  2.7676802000000002E+001  6.3817744000000003E+000 M76 845
       S  8.5009430000000012E+000  2.9685540000000000E+001  1.6523693000000002E+001 M77 846
       S  8.5986820000000002E+000  2.9689222000000001E+001  1.3076895000000000E+001 M77 846
       P  8.6242599999999996E+000  2.8570028000000004E+001  1.4798747000000001E+001 M77 846
       S  7.0337505000000000E+000  2.7268084999999999E+001  1.4710140000000001E+001 M77 846
       S  1.0491578000000001E+001  2.7676802000000002E+001  1.4859674000000002E+001 M77 846
       P  8.6242599999999996E+000  2.8570028000000004E+001  2.3276648000000002E+001 M78 847
       S  7.0337505000000000E+000  2.7268084999999999E+001  2.3188040000000004E+001 M78 847
       S  8.5009430000000012E+000  2.9685540000000000E+001  2.5001593000000000E+001 M78 847
       S  8.5986820000000002E+000  2.9689222000000001E+001  2.1554794000000005E+001 M78 847
       S  1.0491578000000001E+001  2.7676802000000002E+001  2.3337574000000004E+001 M78 847
       S  7.0337505000000000E+000  2.7268084999999999E+001  3.1665941000000000E+001 M79 848
       S  8.5009430000000012E+000  2.9685540000000000E+001  3.3479492000000000E+001 M79 848
       S  8.5986820000000002E+000  2.9689222000000001E+001  3.0032693999999999E+001 M79 848
       P  8.6242599999999996E+000  2.8570028000000004E+001  3.1754547000000002E+001 M79 848
       S  1.0491578000000001E+001  2.7676802000000002E+001  3.1815473999999998E+001 M79 848
       S  1.9135078000000004E+001  5.3820163000000010E-001  6.3817744000000003E+000 M80 849
       S  1.7242182000000000E+001  2.5506225000000002E+000  4.5989943000000002E+000 M80 849
       P  1.7267759999999999E+001  1.4314275000000001E+000  6.3208469999999997E+000 M80 849
       S  1.5677251000000000E+001  1.2948570000000001E-001  6.2322407000000011E+000 M80 849
       S  1.7144444000000004E+001  2.5469387000000001E+000  8.0457929999999998E+000 M80 849
       S  1.9135078000000004E+001  5.3820163000000010E-001  1.4859674000000002E+001 M81 850
       P  1.7267759999999999E+001  1.4314275000000001E+000  1.4798747000000001E+001 M81 850
       S  1.5677251000000000E+001  1.2948570000000001E-001  1.4710140000000001E+001 M81 850
       S  1.7144444000000004E+001  2.5469387000000001E+000  1.6523693000000002E+001 M81 850
       S  1.7242182000000000E+001  2.5506225000000002E+000  1.3076895000000000E+001 M81 850
       S  1.9135078000000004E+001  5.3820163000000010E-001  2.3337574000000004E+001 M82 851
       S  1.7144444000000004E+001  2.5469387000000001E+000  2.5001593000000000E+001 M82 851
       S  1.7242182000000000E+001  2.5506225000000002E+000  2.1554794000000005E+001 M82 851
       P  1.7267759999999999E+001  1.4314275000000001E+000  2.3276648000000002E+001 M82 851
       S  1.5677251000000000E+001  1.2948570000000001E-001  2.3188040000000004E+001 M82 851
       S  1.9135078000000004E+001  5.3820163000000010E-001  3.1815473999999998E+001 M83 852
       S  1.7242182000000000E+001  2.5506225000000002E+000  3.0032693999999999E+001 M83 852
       P  1.7267759999999999E+001  1.4314275000000001E+000  3.1754547000000002E+001 M83 852
       S  1.5677251000000000E+001  1.2948570000000001E-001  3.1665941000000000E+001 M83 852
       S  1.7144444000000004E+001  2.5469387000000001E+000  3.3479492000000000E+001 M83 852
       S  1.9135078000000004E+001  9.5844020000000008E+000  6.3817744000000003E+000 M84 853
       S  1.5677251000000000E+001  9.1756860000000007E+000  6.2322407000000011E+000 M84 853
       S  1.7144444000000004E+001  1.1593139000000001E+001  8.0457929999999998E+000 M84 853
       S  1.7242182000000000E+001  1.1596823000000001E+001  4.5989943000000002E+000 M84 853
       P  1.7267759999999999E+001  1.0477627999999999E+001  6.3208469999999997E+000 M84 853
       S  1.9135078000000004E+001  9.5844020000000008E+000  1.4859674000000002E+001 M85 854
       S  1.7144444000000004E+001  1.1593139000000001E+001  1.6523693000000002E+001 M85 854
       S  1.7242182000000000E+001  1.1596823000000001E+001  1.3076895000000000E+001 M85 854
       P  1.7267759999999999E+001  1.0477627999999999E+001  1.4798747000000001E+001 M85 854
       S  1.5677251000000000E+001  9.1756860000000007E+000  1.4710140000000001E+001 M85 854
       S  1.9135078000000004E+001  9.5844020000000008E+000  2.3337574000000004E+001 M86 855
       P  1.7267759999999999E+001  1.0477627999999999E+001  2.3276648000000002E+001 M86 855
       S  1.5677251000000000E+001  9.1756860000000007E+000  2.3188040000000004E+001 M86 855
       S  1.7144444000000004E+001  1.1593139000000001E+001  2.5001593000000000E+001 M86 855
       S  1.7242182000000000E+001  1.1596823000000001E+001  2.1554794000000005E+001 M86 855
       S  1.7242182000000000E+001  1.1596823000000001E+001  3.0032693999999999E+001 M87 856
       S  1.9135078000000004E+001  9.5844020000000008E+000  3.1815473999999998E+001 M87 856
       S  1.7144444000000004E+001  1.1593139000000001E+001  3.3479492000000000E+001 M87 856
       P  1.7267759999999999E+001  1.0477627999999999E+001  3.1754547000000002E+001 M87 856
       S  1.5677251000000000E+001  9.1756860000000007E+000  3.1665941000000000E+001 M87 856
       S  1.5677251000000000E+001  1.8221886000000001E+001  6.2322407000000011E+000 M88 857
       S  1.9135078000000004E+001  1.8630602000000000E+001  6.3817744000000003E+000 M88 857
       S  1.7144444000000004E+001  2.0639340000000001E+001  8.0457929999999998E+000 M88 857
       P  1.7267759999999999E+001  1.9523827000000001E+001  6.3208469999999997E+000 M88 857
       S  1.7242182000000000E+001  2.0643023000000003E+001  4.5989943000000002E+000 M88 857
       S  1.9135078000000004E+001  1.8630602000000000E+001  1.4859674000000002E+001 M89 858
       S  1.5677251000000000E+001  1.8221886000000001E+001  1.4710140000000001E+001 M89 858
       S  1.7242182000000000E+001  2.0643023000000003E+001  1.3076895000000000E+001 M89 858
       S  1.7144444000000004E+001  2.0639340000000001E+001  1.6523693000000002E+001 M89 858
       P  1.7267759999999999E+001  1.9523827000000001E+001  1.4798747000000001E+001 M89 858
       S  1.9135078000000004E+001  1.8630602000000000E+001  2.3337574000000004E+001 M90 859
       S  1.5677251000000000E+001  1.8221886000000001E+001  2.3188040000000004E+001 M90 859
       S  1.7242182000000000E+001  2.0643023000000003E+001  2.1554794000000005E+001 M90 859
       S  1.7144444000000004E+001  2.0639340000000001E+001  2.5001593000000000E+001 M90 859
       P  1.7267759999999999E+001  1.9523827000000001E+001  2.3276648000000002E+001 M90 859
       P  1.7267759999999999E+001  1.9523827000000001E+001  3.1754547000000002E+001 M91 860
       S  1.9135078000000004E+001  1.8630602000000000E+001  3.1815473999999998E+001 M91 860
       S  1.5677251000000000E+001  1.8221886000000001E+001  3.1665941000000000E+001 M91 860
       S  1.7242182000000000E+001  2.0643023000000003E+001  3.0032693999999999E+001 M91 860
       S  1.7144444000000004E+001  2.0639340000000001E+001  3.3479492000000000E+001 M91 860
       S  1.7144444000000004E+001  2.9685540000000000E+001  8.0457929999999998E+000 M92 861
       P  1.7267759999999999E+001  2.8570028000000004E+001  6.3208469999999997E+000 M92 861
       S  1.9135078000000004E+001  2.7676802000000002E+001  6.3817744000000003E+000 M92 861
       S  1.5677251000000000E+001  2.7268084999999999E+001  6.2322407000000011E+000 M92 861
       S  1.7242182000000000E+001  2.9689222000000001E+001  4.5989943000000002E+000 M92 861
       S  1.7242182000000000E+001  2.9689222000000001E+001  1.3076895000000000E+001 M93 862
       P  1.7267759999999999E+001  2.8570028000000004E+001  1.4798747000000001E+001 M93 862
       S  1.9135078000000004E+001  2.7676802000000002E+001  1.4859674000000002E+001 M93 862
       S  1.7144444000000004E+001  2.9685540000000000E+001  1.6523693000000002E+001 M93 862
       S  1.5677251000000000E+001  2.7268084999999999E+001  1.4710140000000001E+001 M93 862
       S  1.5677251000000000E+001  2.7268084999999999E+001  2.3188040000000004E+001 M94 863
       S  1.7242182000000000E+001  2.9689222000000001E+001  2.1554794000000005E+001 M94 863
       S  1.7144444000000004E+001  2.9685540000000000E+001  2.5001593000000000E+001 M94 863
       S  1.9135078000000004E+001  2.7676802000000002E+001  2.3337574000000004E+001 M94 863
       P  1.7267759999999999E+001  2.8570028000000004E+001  2.3276648000000002E+001 M94 863
       S  1.7242182000000000E+001  2.9689222000000001E+001  3.0032693999999999E+001 M95 864
       S  1.9135078000000004E+001  2.7676802000000002E+001  3.1815473999999998E+001 M95 864
       S  1.7144444000000004E+001  2.9685540000000000E+001  3.3479492000000000E+001 M95 864
       P  1.7267759999999999E+001  2.8570028000000004E+001  3.1754547000000002E+001 M95 864
       S  1.5677251000000000E+001  2.7268084999999999E+001  3.1665941000000000E+001 M95 864
       S  2.5885683000000000E+001  2.5506225000000002E+000  4.5989943000000002E+000 M96 865
       S  2.5787943000000002E+001  2.5469387000000001E+000  8.0457929999999998E+000 M96 865
       P  2.5911259999999999E+001  1.4314275000000001E+000  6.3208469999999997E+000 M96 865
       S  2.4320751000000001E+001  1.2948570000000001E-001  6.2322407000000011E+000 M96 865
       S  2.7778578000000003E+001  5.3820163000000010E-001  6.3817744000000003E+000 M96 865
       S  2.4320751000000001E+001  1.2948570000000001E-001  1.4710140000000001E+001 M97 866
       S  2.5787943000000002E+001  2.5469387000000001E+000  1.6523693000000002E+001 M97 866
       P  2.5911259999999999E+001  1.4314275000000001E+000  1.4798747000000001E+001 M97 866
       S  2.5885683000000000E+001  2.5506225000000002E+000  1.3076895000000000E+001 M97 866
       S  2.7778578000000003E+001  5.3820163000000010E-001  1.4859674000000002E+001 M97 866
       S  2.4320751000000001E+001  1.2948570000000001E-001  2.3188040000000004E+001 M98 867
       S  2.5885683000000000E+001  2.5506225000000002E+000  2.1554794000000005E+001 M98 867
       S  2.5787943000000002E+001  2.5469387000000001E+000  2.5001593000000000E+001 M98 867
       P  2.5911259999999999E+001  1.4314275000000001E+000  2.3276648000000002E+001 M98 867
       S  2.7778578000000003E+001  5.3820163000000010E-001  2.3337574000000004E+001 M98 867
       P  2.5911259999999999E+001  1.4314275000000001E+000  3.1754547000000002E+001 M99 868
       S  2.5885683000000000E+001  2.5506225000000002E+000  3.0032693999999999E+001 M99 868
       S  2.4320751000000001E+001  1.2948570000000001E-001  3.1665941000000000E+001 M99 868
       S  2.5787943000000002E+001  2.5469387000000001E+000  3.3479492000000000E+001 M99 868
       S  2.7778578000000003E+001  5.3820163000000010E-001  3.1815473999999998E+001 M99 868
       P  2.5911259999999999E+001  1.0477627999999999E+001  6.3208469999999997E+000 M100 869
       S  2.4320751000000001E+001  9.1756860000000007E+000  6.2322407000000011E+000 M100 869
       S  2.5885683000000000E+001  1.1596823000000001E+001  4.5989943000000002E+000 M100 869
       S  2.5787943000000002E+001  1.1593139000000001E+001  8.0457929999999998E+000 M100 869
       S  2.7778578000000003E+001  9.5844020000000008E+000  6.3817744000000003E+000 M100 869
       S  2.5787943000000002E+001  1.1593139000000001E+001  1.6523693000000002E+001 M101 870
       P  2.5911259999999999E+001  1.0477627999999999E+001  1.4798747000000001E+001 M101 870
       S  2.5885683000000000E+001  1.1596823000000001E+001  1.3076895000000000E+001 M101 870
       S  2.4320751000000001E+001  9.1756860000000007E+000  1.4710140000000001E+001 M101 870
       S  2.7778578000000003E+001  9.5844020000000008E+000  1.4859674000000002E+001 M101 870
       S  2.5885683000000000E+001  1.1596823000000001E+001  2.1554794000000005E+001 M102 871
       S  2.5787943000000002E+001  1.1593139000000001E+001  2.5001593000000000E+001 M102 871
       P  2.5911259999999999E+001  1.0477627999999999E+001  2.3276648000000002E+001 M102 871
       S  2.4320751000000001E+001  9.1756860000000007E+000  2.3188040000000004E+001 M102 871
       S  2.7778578000000003E+001  9.5844020000000008E+000  2.3337574000000004E+001 M102 871
       S  2.4320751000000001E+001  9.1756860000000007E+000  3.1665941000000000E+001 M103 872
       S  2.5787943000000002E+001  1.1593139000000001E+001  3.3479492000000000E+001 M103 872
       P  2.5911259999999999E+001  1.0477627999999999E+001  3.1754547000000002E+001 M103 872
       S  2.5885683000000000E+001  1.1596823000000001E+001  3.0032693999999999E+001 M103 872
       S  2.7778578000000003E+001  9.5844020000000008E+000  3.1815473999999998E+001 M103 872
       S  2.5885683000000000E+001  2.0643023000000003E+001  4.5989943000000002E+000 M104 873
       S  2.5787943000000002E+001  2.0639340000000001E+001  8.0457929999999998E+000 M104 873
       P  2.5911259999999999E+001  1.9523827000000001E+001  6.3208469999999997E+000 M104 873
       S  2.4320751000000001E+001  1.8221886000000001E+001  6.2322407000000011E+000 M104 873
       S  2.7778578000000003E+001  1.8630602000000000E+001  6.3817744000000003E+000 M104 873
       S  2.4320751000000001E+001  1.8221886000000001E+001  1.4710140000000001E+001 M105 874
       S  2.5787943000000002E+001  2.0639340000000001E+001  1.6523693000000002E+001 M105 874
       P  2.5911259999999999E+001  1.9523827000000001E+001  1.4798747000000001E+001 M105 874
       S  2.5885683000000000E+001  2.0643023000000003E+001  1.3076895000000000E+001 M105 874
       S  2.7778578000000003E+001  1.8630602000000000E+001  1.4859674000000002E+001 M105 874
       S  2.4320751000000001E+001  1.8221886000000001E+001  2.3188040000000004E+001 M106 875
       S  2.5885683000000000E+001  2.0643023000000003E+001  2.1554794000000005E+001 M106 875
       S  2.5787943000000002E+001  2.0639340000000001E+001  2.5001593000000000E+001 M106 875
       P  2.5911259999999999E+001  1.9523827000000001E+001  2.3276648000000002E+001 M106 875
       S  2.7778578000000003E+001  1.8630602000000000E+001  2.3337574000000004E+001 M106 875
       P  2.5911259999999999E+001  1.9523827000000001E+001  3.1754547000000002E+001 M107 876
       S  2.5885683000000000E+001  2.0643023000000003E+001  3.0032693999999999E+001 M107 876
       S  2.4320751000000001E+001  1.8221886000000001E+001  3.1665941000000000E+001 M107 876
       S  2.5787943000000002E+001  2.0639340000000001E+001  3.3479492000000000E+001 M107 876
       S  2.7778578000000003E+001  1.8630602000000000E+001  3.1815473999999998E+001 M107 876
       P  2.5911259999999999E+001  2.8570028000000004E+001  6.3208469999999997E+000 M108 877
       S  2.4320751000000001E+001  2.7268084999999999E+001  6.2322407000000011E+000 M108 877
       S  2.5885683000000000E+001  2.9689222000000001E+001  4.5989943000000002E+000 M108 877
       S  2.5787943000000002E+001  2.9685540000000000E+001  8.0457929999999998E+000 M108 877
       S  2.7778578000000003E+001  2.7676802000000002E+001  6.3817744000000003E+000 M108 877
       S  2.5787943000000002E+001  2.9685540000000000E+001  1.6523693000000002E+001 M109 878
       P  2.5911259999999999E+001  2.8570028000000004E+001  1.4798747000000001E+001 M109 878
       S  2.5885683000000000E+001  2.9689222000000001E+001  1.3076895000000000E+001 M109 878
       S  2.4320751000000001E+001  2.7268084999999999E+001  1.4710140000000001E+001 M109 878
       S  2.7778578000000003E+001  2.7676802000000002E+001  1.4859674000000002E+001 M109 878
       S  2.5885683000000000E+001  2.9689222000000001E+001  2.1554794000000005E+001 M110 879
       S  2.5787943000000002E+001  2.9685540000000000E+001  2.5001593000000000E+001 M110 879
       P  2.5911259999999999E+001  2.8570028000000004E+001  2.3276648000000002E+001 M110 879
       S  2.4320751000000001E+001  2.7268084999999999E+001  2.3188040000000004E+001 M110 879
       S  2.7778578000000003E+001  2.7676802000000002E+001  2.3337574000000004E+001 M110 879
       S  2.4320751000000001E+001  2.7268084999999999E+001  3.1665941000000000E+001 M111 880
       S  2.5787943000000002E+001  2.9685540000000000E+001  3.3479492000000000E+001 M111 880
       P  2.5911259999999999E+001  2.8570028000000004E+001  3.1754547000000002E+001 M111 880
       S  2.5885683000000000E+001  2.9689222000000001E+001  3.0032693999999999E+001 M111 880
       S  2.7778578000000003E+001  2.7676802000000002E+001  3.1815473999999998E+001 M111 880
       S  1.8480781000000002E+000  5.3820163000000010E-001  6.3817744000000003E+000 M112 881
       S -4.4817570000000001E-002  2.5506225000000002E+000  4.5989943000000002E+000 M112 881
       S -1.4255773999999999E-001  2.5469387000000001E+000  8.0457929999999998E+000 M112 881
       P -1.9240020000000000E-002  1.4314275000000001E+000  6.3208469999999997E+000 M112 881
       S -1.6097513000000001E+000  1.2948570000000001E-001  6.2322407000000011E+000 M112 881
       S  1.8480781000000002E+000  5.3820163000000010E-001  1.4859674000000002E+001 M113 882
       S -1.6097513000000001E+000  1.2948570000000001E-001  1.4710140000000001E+001 M113 882
       S -1.4255773999999999E-001  2.5469387000000001E+000  1.6523693000000002E+001 M113 882
       P -1.9240020000000000E-002  1.4314275000000001E+000  1.4798747000000001E+001 M113 882
       S -4.4817570000000001E-002  2.5506225000000002E+000  1.3076895000000000E+001 M113 882
       S  1.8480781000000002E+000  5.3820163000000010E-001  2.3337574000000004E+001 M114 883
       S -1.6097513000000001E+000  1.2948570000000001E-001  2.3188040000000004E+001 M114 883
       S -4.4817570000000001E-002  2.5506225000000002E+000  2.1554794000000005E+001 M114 883
       S -1.4255773999999999E-001  2.5469387000000001E+000  2.5001593000000000E+001 M114 883
       P -1.9240020000000000E-002  1.4314275000000001E+000  2.3276648000000002E+001 M114 883
       S  1.8480781000000002E+000  5.3820163000000010E-001  3.1815473999999998E+001 M115 884
       P -1.9240020000000000E-002  1.4314275000000001E+000  3.1754547000000002E+001 M115 884
       S -4.4817570000000001E-002  2.5506225000000002E+000  3.0032693999999999E+001 M115 884
       S -1.6097513000000001E+000  1.2948570000000001E-001  3.1665941000000000E+001 M115 884
       S -1.4255773999999999E-001  2.5469387000000001E+000  3.3479492000000000E+001 M115 884
       S  1.8480781000000002E+000  9.5844020000000008E+000  6.3817744000000003E+000 M116 885
       P -1.9240020000000000E-002  1.0477627999999999E+001  6.3208469999999997E+000 M116 885
       S -1.6097513000000001E+000  9.1756860000000007E+000  6.2322407000000011E+000 M116 885
       S -4.4817570000000001E-002  1.1596823000000001E+001  4.5989943000000002E+000 M116 885
       S -1.4255773999999999E-001  1.1593139000000001E+001  8.0457929999999998E+000 M116 885
       S  1.8480781000000002E+000  9.5844020000000008E+000  1.4859674000000002E+001 M117 886
       S -1.4255773999999999E-001  1.1593139000000001E+001  1.6523693000000002E+001 M117 886
       P -1.9240020000000000E-002  1.0477627999999999E+001  1.4798747000000001E+001 M117 886
       S -4.4817570000000001E-002  1.1596823000000001E+001  1.3076895000000000E+001 M117 886
       S -1.6097513000000001E+000  9.1756860000000007E+000  1.4710140000000001E+001 M117 886
       S  1.8480781000000002E+000  9.5844020000000008E+000  2.3337574000000004E+001 M118 887
       S -4.4817570000000001E-002  1.1596823000000001E+001  2.1554794000000005E+001 M118 887
       S -1.4255773999999999E-001  1.1593139000000001E+001  2.5001593000000000E+001 M118 887
       P -1.9240020000000000E-002  1.0477627999999999E+001  2.3276648000000002E+001 M118 887
       S -1.6097513000000001E+000  9.1756860000000007E+000  2.3188040000000004E+001 M118 887
       S  3.4529181999999999E+001  1.1596823000000001E+001  3.0032693999999999E+001 M119 888
       S  3.6422077000000009E+001  9.5844020000000008E+000  3.1815473999999998E+001 M119 888
       S  3.4431441999999997E+001  1.1593139000000001E+001  3.3479492000000000E+001 M119 888
       P  3.4554760000000002E+001  1.0477627999999999E+001  3.1754547000000002E+001 M119 888
       S  3.2964250000000000E+001  9.1756860000000007E+000  3.1665941000000000E+001 M119 888
       S  3.2964250000000000E+001  1.8221886000000001E+001  6.2322407000000011E+000 M120 889
       S  3.6422077000000009E+001  1.8630602000000000E+001  6.3817744000000003E+000 M120 889
       S  3.4431441999999997E+001  2.0639340000000001E+001  8.0457929999999998E+000 M120 889
       P  3.4554760000000002E+001  1.9523827000000001E+001  6.3208469999999997E+000 M120 889
       S  3.4529181999999999E+001  2.0643023000000003E+001  4.5989943000000002E+000 M120 889
       S  1.8480781000000002E+000  1.8630602000000000E+001  1.4859674000000002E+001 M121 890
       S -4.4817570000000001E-002  2.0643023000000003E+001  1.3076895000000000E+001 M121 890
       S -1.4255773999999999E-001  2.0639340000000001E+001  1.6523693000000002E+001 M121 890
       S -1.6097513000000001E+000  1.8221886000000001E+001  1.4710140000000001E+001 M121 890
       P -1.9240020000000000E-002  1.9523827000000001E+001  1.4798747000000001E+001 M121 890
       S  3.4431441999999997E+001  2.0639340000000001E+001  2.5001593000000000E+001 M122 891
       S  3.6422077000000009E+001  1.8630602000000000E+001  2.3337574000000004E+001 M122 891
       S  3.4529181999999999E+001  2.0643023000000003E+001  2.1554794000000005E+001 M122 891
       S  3.2964250000000000E+001  1.8221886000000001E+001  2.3188040000000004E+001 M122 891
       P  3.4554760000000002E+001  1.9523827000000001E+001  2.3276648000000002E+001 M122 891
       S  1.8480781000000002E+000  1.8630602000000000E+001  3.1815473999999998E+001 M123 892
       S -1.6097513000000001E+000  1.8221886000000001E+001  3.1665941000000000E+001 M123 892
       S -4.4817570000000001E-002  2.0643023000000003E+001  3.0032693999999999E+001 M123 892
       P -1.9240020000000000E-002  1.9523827000000001E+001  3.1754547000000002E+001 M123 892
       S -1.4255773999999999E-001  2.0639340000000001E+001  3.3479492000000000E+001 M123 892
       S  3.4431441999999997E+001  2.9685540000000000E+001  8.0457929999999998E+000 M124 893
       S  3.6422077000000009E+001  2.7676802000000002E+001  6.3817744000000003E+000 M124 893
       S  3.2964250000000000E+001  2.7268084999999999E+001  6.2322407000000011E+000 M124 893
       P  3.4554760000000002E+001  2.8570028000000004E+001  6.3208469999999997E+000 M124 893
       S  3.4529181999999999E+001  2.9689222000000001E+001  4.5989943000000002E+000 M124 893
       S  3.4529181999999999E+001  2.9689222000000001E+001  1.3076895000000000E+001 M125 894
       P  3.4554760000000002E+001  2.8570028000000004E+001  1.4798747000000001E+001 M125 894
       S  3.6422077000000009E+001  2.7676802000000002E+001  1.4859674000000002E+001 M125 894
       S  3.4431441999999997E+001  2.9685540000000000E+001  1.6523693000000002E+001 M125 894
       S  3.2964250000000000E+001  2.7268084999999999E+001  1.4710140000000001E+001 M125 894
       S  3.2964250000000000E+001  2.7268084999999999E+001  2.3188040000000004E+001 M126 895
       S  3.4431441999999997E+001  2.9685540000000000E+001  2.5001593000000000E+001 M126 895
       S  3.6422077000000009E+001  2.7676802000000002E+001  2.3337574000000004E+001 M126 895
       P  3.4554760000000002E+001  2.8570028000000004E+001  2.3276648000000002E+001 M126 895
       S  3.4529181999999999E+001  2.9689222000000001E+001  2.1554794000000005E+001 M126 895
       S  3.4529181999999999E+001  2.9689222000000001E+001  3.0032693999999999E+001 M127 896
       S  3.6422077000000009E+001  2.7676802000000002E+001  3.1815473999999998E+001 M127 896
       S  3.4431441999999997E+001  2.9685540000000000E+001  3.3479492000000000E+001 M127 896
       P  3.4554760000000002E+001  2.8570028000000004E+001  3.1754547000000002E+001 M127 896
       S  3.2964250000000000E+001  2.7268084999999999E+001  3.1665941000000000E+001 M127 896
       S  2.5570788000000007E+000  3.7270249999999998E+000  2.1697052000000001E+000 M128 897
       S  4.6869097000000002E+000  1.8545104000000001E+000  3.8161597000000005E+000 M128 897
       S  4.4087633999999998E+000  1.7973218000000000E+000  3.3176981999999999E-001 M128 897
       P  4.4492810000000000E+000  2.9068520000000002E+000  2.0647755000000001E+000 M128 897
       S  6.0387793000000007E+000  4.2036709999999999E+000  1.9878273000000002E+000 M128 897
       S  4.4087633999999998E+000  1.7973218000000000E+000  8.8096695000000018E+000 M129 898
       S  2.5570788000000007E+000  3.7270249999999998E+000  1.0647605000000002E+001 M129 898
       P  4.4492810000000000E+000  2.9068520000000002E+000  1.0542674999999999E+001 M129 898
       S  6.0387793000000007E+000  4.2036709999999999E+000  1.0465726999999999E+001 M129 898
       S  4.6869097000000002E+000  1.8545104000000001E+000  1.2294060000000000E+001 M129 898
       S  6.0387793000000007E+000  4.2036709999999999E+000  1.8943625999999998E+001 M130 899
       S  2.5570788000000007E+000  3.7270249999999998E+000  1.9125505000000004E+001 M130 899
       S  4.6869097000000002E+000  1.8545104000000001E+000  2.0771960000000004E+001 M130 899
       S  4.4087633999999998E+000  1.7973218000000000E+000  1.7287569000000001E+001 M130 899
       P  4.4492810000000000E+000  2.9068520000000002E+000  1.9020575000000001E+001 M130 899
       S  4.4087633999999998E+000  1.7973218000000000E+000  2.5765470000000001E+001 M131 900
       S  2.5570788000000007E+000  3.7270249999999998E+000  2.7603404999999999E+001 M131 900
       P  4.4492810000000000E+000  2.9068520000000002E+000  2.7498476000000004E+001 M131 900
       S  6.0387793000000007E+000  4.2036709999999999E+000  2.7421528000000002E+001 M131 900
       S  4.6869097000000002E+000  1.8545104000000001E+000  2.9249859000000001E+001 M131 900
       P  4.4492810000000000E+000  1.1953052500000000E+001  2.0647755000000001E+000 M132 901
       S  6.0387793000000007E+000  1.3249871000000001E+001  1.9878273000000002E+000 M132 901
       S  2.5570788000000007E+000  1.2773225000000000E+001  2.1697052000000001E+000 M132 901
       S  4.6869097000000002E+000  1.0900710000000002E+001  3.8161597000000005E+000 M132 901
       S  4.4087633999999998E+000  1.0843522000000000E+001  3.3176981999999999E-001 M132 901
       S  6.0387793000000007E+000  1.3249871000000001E+001  1.0465726999999999E+001 M133 902
       S  4.6869097000000002E+000  1.0900710000000002E+001  1.2294060000000000E+001 M133 902
       S  4.4087633999999998E+000  1.0843522000000000E+001  8.8096695000000018E+000 M133 902
       S  2.5570788000000007E+000  1.2773225000000000E+001  1.0647605000000002E+001 M133 902
       P  4.4492810000000000E+000  1.1953052500000000E+001  1.0542674999999999E+001 M133 902
       S  4.4087633999999998E+000  1.0843522000000000E+001  1.7287569000000001E+001 M134 903
       P  4.4492810000000000E+000  1.1953052500000000E+001  1.9020575000000001E+001 M134 903
       S  6.0387793000000007E+000  1.3249871000000001E+001  1.8943625999999998E+001 M134 903
       S  2.5570788000000007E+000  1.2773225000000000E+001  1.9125505000000004E+001 M134 903
       S  4.6869097000000002E+000  1.0900710000000002E+001  2.0771960000000004E+001 M134 903
       P  4.4492810000000000E+000  1.1953052500000000E+001  2.7498476000000004E+001 M135 904
       S  6.0387793000000007E+000  1.3249871000000001E+001  2.7421528000000002E+001 M135 904
       S  4.6869097000000002E+000  1.0900710000000002E+001  2.9249859000000001E+001 M135 904
       S  4.4087633999999998E+000  1.0843522000000000E+001  2.5765470000000001E+001 M135 904
       S  2.5570788000000007E+000  1.2773225000000000E+001  2.7603404999999999E+001 M135 904
       S  2.5570788000000007E+000  2.1819426000000000E+001  2.1697052000000001E+000 M136 905
       S  4.6869097000000002E+000  1.9946910000000003E+001  3.8161597000000005E+000 M136 905
       S  4.4087633999999998E+000  1.9889720000000001E+001  3.3176981999999999E-001 M136 905
       P  4.4492810000000000E+000  2.0999251999999998E+001  2.0647755000000001E+000 M136 905
       S  6.0387793000000007E+000  2.2296071999999999E+001  1.9878273000000002E+000 M136 905
       S  4.4087633999999998E+000  1.9889720000000001E+001  8.8096695000000018E+000 M137 906
       S  2.5570788000000007E+000  2.1819426000000000E+001  1.0647605000000002E+001 M137 906
       P  4.4492810000000000E+000  2.0999251999999998E+001  1.0542674999999999E+001 M137 906
       S  6.0387793000000007E+000  2.2296071999999999E+001  1.0465726999999999E+001 M137 906
       S  4.6869097000000002E+000  1.9946910000000003E+001  1.2294060000000000E+001 M137 906
       S  6.0387793000000007E+000  2.2296071999999999E+001  1.8943625999999998E+001 M138 907
       S  2.5570788000000007E+000  2.1819426000000000E+001  1.9125505000000004E+001 M138 907
       S  4.6869097000000002E+000  1.9946910000000003E+001  2.0771960000000004E+001 M138 907
       S  4.4087633999999998E+000  1.9889720000000001E+001  1.7287569000000001E+001 M138 907
       P  4.4492810000000000E+000  2.0999251999999998E+001  1.9020575000000001E+001 M138 907
       S  4.4087633999999998E+000  1.9889720000000001E+001  2.5765470000000001E+001 M139 908
       S  2.5570788000000007E+000  2.1819426000000000E+001  2.7603404999999999E+001 M139 908
       P  4.4492810000000000E+000  2.0999251999999998E+001  2.7498476000000004E+001 M139 908
       S  6.0387793000000007E+000  2.2296071999999999E+001  2.7421528000000002E+001 M139 908
       S  4.6869097000000002E+000  1.9946910000000003E+001  2.9249859000000001E+001 M139 908
       P  4.4492810000000000E+000  3.0045452000000004E+001  2.0647755000000001E+000 M140 909
       S  6.0387793000000007E+000  3.1342272000000005E+001  1.9878273000000002E+000 M140 909
       S  2.5570788000000007E+000  3.0865625000000001E+001  2.1697052000000001E+000 M140 909
       S  4.6869097000000002E+000  2.8993110000000001E+001  3.8161597000000005E+000 M140 909
       S  4.4087633999999998E+000  2.8935922999999999E+001  3.3176981999999999E-001 M140 909
       S  6.0387793000000007E+000  3.1342272000000005E+001  1.0465726999999999E+001 M141 910
       S  4.6869097000000002E+000  2.8993110000000001E+001  1.2294060000000000E+001 M141 910
       S  4.4087633999999998E+000  2.8935922999999999E+001  8.8096695000000018E+000 M141 910
       S  2.5570788000000007E+000  3.0865625000000001E+001  1.0647605000000002E+001 M141 910
       P  4.4492810000000000E+000  3.0045452000000004E+001  1.0542674999999999E+001 M141 910
       S  4.4087633999999998E+000  2.8935922999999999E+001  1.7287569000000001E+001 M142 911
       P  4.4492810000000000E+000  3.0045452000000004E+001  1.9020575000000001E+001 M142 911
       S  6.0387793000000007E+000  3.1342272000000005E+001  1.8943625999999998E+001 M142 911
       S  2.5570788000000007E+000  3.0865625000000001E+001  1.9125505000000004E+001 M142 911
       S  4.6869097000000002E+000  2.8993110000000001E+001  2.0771960000000004E+001 M142 911
       P  4.4492810000000000E+000  3.0045452000000004E+001  2.7498476000000004E+001 M143 912
       S  6.0387793000000007E+000  3.1342272000000005E+001  2.7421528000000002E+001 M143 912
       S  4.6869097000000002E+000  2.8993110000000001E+001  2.9249859000000001E+001 M143 912
       S  4.4087633999999998E+000  2.8935922999999999E+001  2.5765470000000001E+001 M143 912
       S  2.5570788000000007E+000  3.0865625000000001E+001  2.7603404999999999E+001 M143 912
       S  1.1200579000000001E+001  3.7270249999999998E+000  2.1697052000000001E+000 M144 913
       S  1.3330410000000001E+001  1.8545104000000001E+000  3.8161597000000005E+000 M144 913
       S  1.3052263000000000E+001  1.7973218000000000E+000  3.3176981999999999E-001 M144 913
       P  1.3092781000000002E+001  2.9068520000000002E+000  2.0647755000000001E+000 M144 913
       S  1.4682280000000002E+001  4.2036709999999999E+000  1.9878273000000002E+000 M144 913
       S  1.3052263000000000E+001  1.7973218000000000E+000  8.8096695000000018E+000 M145 914
       S  1.1200579000000001E+001  3.7270249999999998E+000  1.0647605000000002E+001 M145 914
       P  1.3092781000000002E+001  2.9068520000000002E+000  1.0542674999999999E+001 M145 914
       S  1.4682280000000002E+001  4.2036709999999999E+000  1.0465726999999999E+001 M145 914
       S  1.3330410000000001E+001  1.8545104000000001E+000  1.2294060000000000E+001 M145 914
       S  1.4682280000000002E+001  4.2036709999999999E+000  1.8943625999999998E+001 M146 915
       S  1.1200579000000001E+001  3.7270249999999998E+000  1.9125505000000004E+001 M146 915
       S  1.3330410000000001E+001  1.8545104000000001E+000  2.0771960000000004E+001 M146 915
       S  1.3052263000000000E+001  1.7973218000000000E+000  1.7287569000000001E+001 M146 915
       P  1.3092781000000002E+001  2.9068520000000002E+000  1.9020575000000001E+001 M146 915
       S  1.3052263000000000E+001  1.7973218000000000E+000  2.5765470000000001E+001 M147 916
       S  1.1200579000000001E+001  3.7270249999999998E+000  2.7603404999999999E+001 M147 916
       P  1.3092781000000002E+001  2.9068520000000002E+000  2.7498476000000004E+001 M147 916
       S  1.4682280000000002E+001  4.2036709999999999E+000  2.7421528000000002E+001 M147 916
       S  1.3330410000000001E+001  1.8545104000000001E+000  2.9249859000000001E+001 M147 916
       P  1.3092781000000002E+001  1.1953052500000000E+001  2.0647755000000001E+000 M148 917
       S  1.4682280000000002E+001  1.3249871000000001E+001  1.9878273000000002E+000 M148 917
       S  1.1200579000000001E+001  1.2773225000000000E+001  2.1697052000000001E+000 M148 917
       S  1.3330410000000001E+001  1.0900710000000002E+001  3.8161597000000005E+000 M148 917
       S  1.3052263000000000E+001  1.0843522000000000E+001  3.3176981999999999E-001 M148 917
       S  1.4682280000000002E+001  1.3249871000000001E+001  1.0465726999999999E+001 M149 918
       S  1.3330410000000001E+001  1.0900710000000002E+001  1.2294060000000000E+001 M149 918
       S  1.3052263000000000E+001  1.0843522000000000E+001  8.8096695000000018E+000 M149 918
       S  1.1200579000000001E+001  1.2773225000000000E+001  1.0647605000000002E+001 M149 918
       P  1.3092781000000002E+001  1.1953052500000000E+001  1.0542674999999999E+001 M149 918
       S  1.3052263000000000E+001  1.0843522000000000E+001  1.7287569000000001E+001 M150 919
       P  1.3092781000000002E+001  1.1953052500000000E+001  1.9020575000000001E+001 M150 919
       S  1.4682280000000002E+001  1.3249871000000001E+001  1.8943625999999998E+001 M150 919
       S  1.1200579000000001E+001  1.2773225000000000E+001  1.9125505000000004E+001 M150 919
       S  1.3330410000000001E+001  1.0900710000000002E+001  2.0771960000000004E+001 M150 919
       S  1.3052263000000000E+001  1.0843522000000000E+001  2.5765470000000001E+001 M151 920
       S  1.3330410000000001E+001  1.0900710000000002E+001  2.9249859000000001E+001 M151 920
       S  1.1200579000000001E+001  1.2773225000000000E+001  2.7603404999999999E+001 M151 920
       P  1.3092781000000002E+001  1.1953052500000000E+001  2.7498476000000004E+001 M151 920
       S  1.4682280000000002E+001  1.3249871000000001E+001  2.7421528000000002E+001 M151 920
       S  1.3052263000000000E+001  1.9889720000000001E+001  3.3176981999999999E-001 M152 921
       S  1.3330410000000001E+001  1.9946910000000003E+001  3.8161597000000005E+000 M152 921
       P  1.3092781000000002E+001  2.0999251999999998E+001  2.0647755000000001E+000 M152 921
       S  1.1200579000000001E+001  2.1819426000000000E+001  2.1697052000000001E+000 M152 921
       S  1.4682280000000002E+001  2.2296071999999999E+001  1.9878273000000002E+000 M152 921
       S  1.4682280000000002E+001  2.2296071999999999E+001  1.0465726999999999E+001 M153 922
       S  1.3330410000000001E+001  1.9946910000000003E+001  1.2294060000000000E+001 M153 922
       S  1.3052263000000000E+001  1.9889720000000001E+001  8.8096695000000018E+000 M153 922
       P  1.3092781000000002E+001  2.0999251999999998E+001  1.0542674999999999E+001 M153 922
       S  1.1200579000000001E+001  2.1819426000000000E+001  1.0647605000000002E+001 M153 922
       S  1.1200579000000001E+001  2.1819426000000000E+001  1.9125505000000004E+001 M154 923
       S  1.4682280000000002E+001  2.2296071999999999E+001  1.8943625999999998E+001 M154 923
       P  1.3092781000000002E+001  2.0999251999999998E+001  1.9020575000000001E+001 M154 923
       S  1.3052263000000000E+001  1.9889720000000001E+001  1.7287569000000001E+001 M154 923
       S  1.3330410000000001E+001  1.9946910000000003E+001  2.0771960000000004E+001 M154 923
       P  1.3092781000000002E+001  2.0999251999999998E+001  2.7498476000000004E+001 M155 924
       S  1.3330410000000001E+001  1.9946910000000003E+001  2.9249859000000001E+001 M155 924
       S  1.1200579000000001E+001  2.1819426000000000E+001  2.7603404999999999E+001 M155 924
       S  1.4682280000000002E+001  2.2296071999999999E+001  2.7421528000000002E+001 M155 924
       S  1.3052263000000000E+001  1.9889720000000001E+001  2.5765470000000001E+001 M155 924
       S  1.3052263000000000E+001  2.8935922999999999E+001  3.3176981999999999E-001 M156 925
       S  1.3330410000000001E+001  2.8993110000000001E+001  3.8161597000000005E+000 M156 925
       S  1.1200579000000001E+001  3.0865625000000001E+001  2.1697052000000001E+000 M156 925
       S  1.4682280000000002E+001  3.1342272000000005E+001  1.9878273000000002E+000 M156 925
       P  1.3092781000000002E+001  3.0045452000000004E+001  2.0647755000000001E+000 M156 925
       S  1.3052263000000000E+001  2.8935922999999999E+001  8.8096695000000018E+000 M157 926
       S  1.3330410000000001E+001  2.8993110000000001E+001  1.2294060000000000E+001 M157 926
       P  1.3092781000000002E+001  3.0045452000000004E+001  1.0542674999999999E+001 M157 926
       S  1.1200579000000001E+001  3.0865625000000001E+001  1.0647605000000002E+001 M157 926
       S  1.4682280000000002E+001  3.1342272000000005E+001  1.0465726999999999E+001 M157 926
       P  1.3092781000000002E+001  3.0045452000000004E+001  1.9020575000000001E+001 M158 927
       S  1.3330410000000001E+001  2.8993110000000001E+001  2.0771960000000004E+001 M158 927
       S  1.1200579000000001E+001  3.0865625000000001E+001  1.9125505000000004E+001 M158 927
       S  1.4682280000000002E+001  3.1342272000000005E+001  1.8943625999999998E+001 M158 927
       S  1.3052263000000000E+001  2.8935922999999999E+001  1.7287569000000001E+001 M158 927
       S  1.4682280000000002E+001  3.1342272000000005E+001  2.7421528000000002E+001 M159 928
       S  1.3052263000000000E+001  2.8935922999999999E+001  2.5765470000000001E+001 M159 928
       S  1.3330410000000001E+001  2.8993110000000001E+001  2.9249859000000001E+001 M159 928
       S  1.1200579000000001E+001  3.0865625000000001E+001  2.7603404999999999E+001 M159 928
       P  1.3092781000000002E+001  3.0045452000000004E+001  2.7498476000000004E+001 M159 928
       S  1.9844078000000000E+001  3.7270249999999998E+000  2.1697052000000001E+000 M160 929
       S  2.1973910000000004E+001  1.8545104000000001E+000  3.8161597000000005E+000 M160 929
       S  2.3325779000000001E+001  4.2036709999999999E+000  1.9878273000000002E+000 M160 929
       S  2.1695762999999999E+001  1.7973218000000000E+000  3.3176981999999999E-001 M160 929
       P  2.1736280000000001E+001  2.9068520000000002E+000  2.0647755000000001E+000 M160 929
       S  1.9844078000000000E+001  3.7270249999999998E+000  1.0647605000000002E+001 M161 930
       P  2.1736280000000001E+001  2.9068520000000002E+000  1.0542674999999999E+001 M161 930
       S  2.3325779000000001E+001  4.2036709999999999E+000  1.0465726999999999E+001 M161 930
       S  2.1973910000000004E+001  1.8545104000000001E+000  1.2294060000000000E+001 M161 930
       S  2.1695762999999999E+001  1.7973218000000000E+000  8.8096695000000018E+000 M161 930
       P  2.1736280000000001E+001  2.9068520000000002E+000  1.9020575000000001E+001 M162 931
       S  1.9844078000000000E+001  3.7270249999999998E+000  1.9125505000000004E+001 M162 931
       S  2.1973910000000004E+001  1.8545104000000001E+000  2.0771960000000004E+001 M162 931
       S  2.3325779000000001E+001  4.2036709999999999E+000  1.8943625999999998E+001 M162 931
       S  2.1695762999999999E+001  1.7973218000000000E+000  1.7287569000000001E+001 M162 931
       S  2.1973910000000004E+001  1.8545104000000001E+000  2.9249859000000001E+001 M163 932
       S  2.1695762999999999E+001  1.7973218000000000E+000  2.5765470000000001E+001 M163 932
       S  1.9844078000000000E+001  3.7270249999999998E+000  2.7603404999999999E+001 M163 932
       P  2.1736280000000001E+001  2.9068520000000002E+000  2.7498476000000004E+001 M163 932
       S  2.3325779000000001E+001  4.2036709999999999E+000  2.7421528000000002E+001 M163 932
       S  2.1695762999999999E+001  1.0843522000000000E+001  3.3176981999999999E-001 M164 933
       P  2.1736280000000001E+001  1.1953052500000000E+001  2.0647755000000001E+000 M164 933
       S  1.9844078000000000E+001  1.2773225000000000E+001  2.1697052000000001E+000 M164 933
       S  2.1973910000000004E+001  1.0900710000000002E+001  3.8161597000000005E+000 M164 933
       S  2.3325779000000001E+001  1.3249871000000001E+001  1.9878273000000002E+000 M164 933
       S  2.3325779000000001E+001  1.3249871000000001E+001  1.0465726999999999E+001 M165 934
       S  2.1973910000000004E+001  1.0900710000000002E+001  1.2294060000000000E+001 M165 934
       S  2.1695762999999999E+001  1.0843522000000000E+001  8.8096695000000018E+000 M165 934
       S  1.9844078000000000E+001  1.2773225000000000E+001  1.0647605000000002E+001 M165 934
       P  2.1736280000000001E+001  1.1953052500000000E+001  1.0542674999999999E+001 M165 934
       S  2.3325779000000001E+001  1.3249871000000001E+001  1.8943625999999998E+001 M166 935
       S  2.1695762999999999E+001  1.0843522000000000E+001  1.7287569000000001E+001 M166 935
       P  2.1736280000000001E+001  1.1953052500000000E+001  1.9020575000000001E+001 M166 935
       S  1.9844078000000000E+001  1.2773225000000000E+001  1.9125505000000004E+001 M166 935
       S  2.1973910000000004E+001  1.0900710000000002E+001  2.0771960000000004E+001 M166 935
       P  2.1736280000000001E+001  1.1953052500000000E+001  2.7498476000000004E+001 M167 936
       S  2.3325779000000001E+001  1.3249871000000001E+001  2.7421528000000002E+001 M167 936
       S  2.1973910000000004E+001  1.0900710000000002E+001  2.9249859000000001E+001 M167 936
       S  2.1695762999999999E+001  1.0843522000000000E+001  2.5765470000000001E+001 M167 936
       S  1.9844078000000000E+001  1.2773225000000000E+001  2.7603404999999999E+001 M167 936
       S  1.9844078000000000E+001  2.1819426000000000E+001  2.1697052000000001E+000 M168 937
       S  2.1973910000000004E+001  1.9946910000000003E+001  3.8161597000000005E+000 M168 937
       S  2.3325779000000001E+001  2.2296071999999999E+001  1.9878273000000002E+000 M168 937
       S  2.1695762999999999E+001  1.9889720000000001E+001  3.3176981999999999E-001 M168 937
       P  2.1736280000000001E+001  2.0999251999999998E+001  2.0647755000000001E+000 M168 937
       S  1.9844078000000000E+001  2.1819426000000000E+001  1.0647605000000002E+001 M169 938
       P  2.1736280000000001E+001  2.0999251999999998E+001  1.0542674999999999E+001 M169 938
       S  2.3325779000000001E+001  2.2296071999999999E+001  1.0465726999999999E+001 M169 938
       S  2.1973910000000004E+001  1.9946910000000003E+001  1.2294060000000000E+001 M169 938
       S  2.1695762999999999E+001  1.9889720000000001E+001  8.8096695000000018E+000 M169 938
       P  2.1736280000000001E+001  2.0999251999999998E+001  1.9020575000000001E+001 M170 939
       S  1.9844078000000000E+001  2.1819426000000000E+001  1.9125505000000004E+001 M170 939
       S  2.1973910000000004E+001  1.9946910000000003E+001  2.0771960000000004E+001 M170 939
       S  2.3325779000000001E+001  2.2296071999999999E+001  1.8943625999999998E+001 M170 939
       S  2.1695762999999999E+001  1.9889720000000001E+001  1.7287569000000001E+001 M170 939
       S  2.1973910000000004E+001  1.9946910000000003E+001  2.9249859000000001E+001 M171 940
       S  2.1695762999999999E+001  1.9889720000000001E+001  2.5765470000000001E+001 M171 940
       S  1.9844078000000000E+001  2.1819426000000000E+001  2.7603404999999999E+001 M171 940
       P  2.1736280000000001E+001  2.0999251999999998E+001  2.7498476000000004E+001 M171 940
       S  2.3325779000000001E+001  2.2296071999999999E+001  2.7421528000000002E+001 M171 940
       S  2.1695762999999999E+001  2.8935922999999999E+001  3.3176981999999999E-001 M172 941
       P  2.1736280000000001E+001  3.0045452000000004E+001  2.0647755000000001E+000 M172 941
       S  1.9844078000000000E+001  3.0865625000000001E+001  2.1697052000000001E+000 M172 941
       S  2.1973910000000004E+001  2.8993110000000001E+001  3.8161597000000005E+000 M172 941
       S  2.3325779000000001E+001  3.1342272000000005E+001  1.9878273000000002E+000 M172 941
       S  2.3325779000000001E+001  3.1342272000000005E+001  1.0465726999999999E+001 M173 942
       S  2.1973910000000004E+001  2.8993110000000001E+001  1.2294060000000000E+001 M173 942
       S  2.1695762999999999E+001  2.8935922999999999E+001  8.8096695000000018E+000 M173 942
       S  1.9844078000000000E+001  3.0865625000000001E+001  1.0647605000000002E+001 M173 942
       P  2.1736280000000001E+001  3.0045452000000004E+001  1.0542674999999999E+001 M173 942
       S  2.3325779000000001E+001  3.1342272000000005E+001  1.8943625999999998E+001 M174 943
       S  2.1695762999999999E+001  2.8935922999999999E+001  1.7287569000000001E+001 M174 943
       P  2.1736280000000001E+001  3.0045452000000004E+001  1.9020575000000001E+001 M174 943
       S  1.9844078000000000E+001  3.0865625000000001E+001  1.9125505000000004E+001 M174 943
       S  2.1973910000000004E+001  2.8993110000000001E+001  2.0771960000000004E+001 M174 943
       P  2.1736280000000001E+001  3.0045452000000004E+001  2.7498476000000004E+001 M175 944
       S  2.3325779000000001E+001  3.1342272000000005E+001  2.7421528000000002E+001 M175 944
       S  2.1973910000000004E+001  2.8993110000000001E+001  2.9249859000000001E+001 M175 944
       S  2.1695762999999999E+001  2.8935922999999999E+001  2.5765470000000001E+001 M175 944
       S  1.9844078000000000E+001  3.0865625000000001E+001  2.7603404999999999E+001 M175 944
       S  2.8487580000000005E+001  3.7270249999999998E+000  2.1697052000000001E+000 M176 945
       S  3.0617409000000002E+001  1.8545104000000001E+000  3.8161597000000005E+000 M176 945
       S  3.1969277999999999E+001  4.2036709999999999E+000  1.9878273000000002E+000 M176 945
       S  3.0339264000000004E+001  1.7973218000000000E+000  3.3176981999999999E-001 M176 945
       P  3.0379782000000002E+001  2.9068520000000002E+000  2.0647755000000001E+000 M176 945
       S  2.8487580000000005E+001  3.7270249999999998E+000  1.0647605000000002E+001 M177 946
       P  3.0379782000000002E+001  2.9068520000000002E+000  1.0542674999999999E+001 M177 946
       S  3.1969277999999999E+001  4.2036709999999999E+000  1.0465726999999999E+001 M177 946
       S  3.0617409000000002E+001  1.8545104000000001E+000  1.2294060000000000E+001 M177 946
       S  3.0339264000000004E+001  1.7973218000000000E+000  8.8096695000000018E+000 M177 946
       P  3.0379782000000002E+001  2.9068520000000002E+000  1.9020575000000001E+001 M178 947
       S  2.8487580000000005E+001  3.7270249999999998E+000  1.9125505000000004E+001 M178 947
       S  3.0617409000000002E+001  1.8545104000000001E+000  2.0771960000000004E+001 M178 947
       S  3.1969277999999999E+001  4.2036709999999999E+000  1.8943625999999998E+001 M178 947
       S  3.0339264000000004E+001  1.7973218000000000E+000  1.7287569000000001E+001 M178 947
       S  3.0617409000000002E+001  1.8545104000000001E+000  2.9249859000000001E+001 M179 948
       S  3.0339264000000004E+001  1.7973218000000000E+000  2.5765470000000001E+001 M179 948
       S  2.8487580000000005E+001  3.7270249999999998E+000  2.7603404999999999E+001 M179 948
       P  3.0379782000000002E+001  2.9068520000000002E+000  2.7498476000000004E+001 M179 948
       S  3.1969277999999999E+001  4.2036709999999999E+000  2.7421528000000002E+001 M179 948
       S  3.0339264000000004E+001  1.0843522000000000E+001  3.3176981999999999E-001 M180 949
       P  3.0379782000000002E+001  1.1953052500000000E+001  2.0647755000000001E+000 M180 949
       S  2.8487580000000005E+001  1.2773225000000000E+001  2.1697052000000001E+000 M180 949
       S  3.0617409000000002E+001  1.0900710000000002E+001  3.8161597000000005E+000 M180 949
       S  3.1969277999999999E+001  1.3249871000000001E+001  1.9878273000000002E+000 M180 949
       S  3.1969277999999999E+001  1.3249871000000001E+001  1.0465726999999999E+001 M181 950
       S  3.0617409000000002E+001  1.0900710000000002E+001  1.2294060000000000E+001 M181 950
       S  3.0339264000000004E+001  1.0843522000000000E+001  8.8096695000000018E+000 M181 950
       S  2.8487580000000005E+001  1.2773225000000000E+001  1.0647605000000002E+001 M181 950
       P  3.0379782000000002E+001  1.1953052500000000E+001  1.0542674999999999E+001 M181 950
       S  3.1969277999999999E+001  1.3249871000000001E+001  1.8943625999999998E+001 M182 951
       S  3.0339264000000004E+001  1.0843522000000000E+001  1.7287569000000001E+001 M182 951
       P  3.0379782000000002E+001  1.1953052500000000E+001  1.9020575000000001E+001 M182 951
       S  2.8487580000000005E+001  1.2773225000000000E+001  1.9125505000000004E+001 M182 951
       S  3.0617409000000002E+001  1.0900710000000002E+001  2.0771960000000004E+001 M182 951
       S  3.0339264000000004E+001  1.0843522000000000E+001  2.5765470000000001E+001 M183 952
       S  3.0617409000000002E+001  1.0900710000000002E+001  2.9249859000000001E+001 M183 952
       S  2.8487580000000005E+001  1.2773225000000000E+001  2.7603404999999999E+001 M183 952
       P  3.0379782000000002E+001  1.1953052500000000E+001  2.7498476000000004E+001 M183 952
       S  3.1969277999999999E+001  1.3249871000000001E+001  2.7421528000000002E+001 M183 952
       S  3.1969277999999999E+001  2.2296071999999999E+001  1.9878273000000002E+000 M184 953
       S  3.0339264000000004E+001  1.9889720000000001E+001  3.3176981999999999E-001 M184 953
       S  3.0617409000000002E+001  1.9946910000000003E+001  3.8161597000000005E+000 M184 953
       P  3.0379782000000002E+001  2.0999251999999998E+001  2.0647755000000001E+000 M184 953
       S  2.8487580000000005E+001  2.1819426000000000E+001  2.1697052000000001E+000 M184 953
       S  3.1969277999999999E+001  2.2296071999999999E+001  1.0465726999999999E+001 M185 954
       S  3.0617409000000002E+001  1.9946910000000003E+001  1.2294060000000000E+001 M185 954
       S  2.8487580000000005E+001  2.1819426000000000E+001  1.0647605000000002E+001 M185 954
       P  3.0379782000000002E+001  2.0999251999999998E+001  1.0542674999999999E+001 M185 954
       S  3.0339264000000004E+001  1.9889720000000001E+001  8.8096695000000018E+000 M185 954
       S  3.0617409000000002E+001  1.9946910000000003E+001  2.0771960000000004E+001 M186 955
       S  2.8487580000000005E+001  2.1819426000000000E+001  1.9125505000000004E+001 M186 955
       S  3.1969277999999999E+001  2.2296071999999999E+001  1.8943625999999998E+001 M186 955
       P  3.0379782000000002E+001  2.0999251999999998E+001  1.9020575000000001E+001 M186 955
       S  3.0339264000000004E+001  1.9889720000000001E+001  1.7287569000000001E+001 M186 955
       S  3.0339264000000004E+001  1.9889720000000001E+001  2.5765470000000001E+001 M187 956
       P  3.0379782000000002E+001  2.0999251999999998E+001  2.7498476000000004E+001 M187 956
       S  2.8487580000000005E+001  2.1819426000000000E+001  2.7603404999999999E+001 M187 956
       S  3.1969277999999999E+001  2.2296071999999999E+001  2.7421528000000002E+001 M187 956
       S  3.0617409000000002E+001  1.9946910000000003E+001  2.9249859000000001E+001 M187 956
       P  3.0379782000000002E+001  3.0045452000000004E+001  2.0647755000000001E+000 M188 957
       S  3.0617409000000002E+001  2.8993110000000001E+001  3.8161597000000005E+000 M188 957
       S  2.8487580000000005E+001  3.0865625000000001E+001  2.1697052000000001E+000 M188 957
       S  3.1969277999999999E+001  3.1342272000000005E+001  1.9878273000000002E+000 M188 957
       S  3.0339264000000004E+001  2.8935922999999999E+001  3.3176981999999999E-001 M188 957
       S  3.0339264000000004E+001  2.8935922999999999E+001  8.8096695000000018E+000 M189 958
       S  3.0617409000000002E+001  2.8993110000000001E+001  1.2294060000000000E+001 M189 958
       P  3.0379782000000002E+001  3.0045452000000004E+001  1.0542674999999999E+001 M189 958
       S  2.8487580000000005E+001  3.0865625000000001E+001  1.0647605000000002E+001 M189 958
       S  3.1969277999999999E+001  3.1342272000000005E+001  1.0465726999999999E+001 M189 958
       S  3.0339264000000004E+001  2.8935922999999999E+001  1.7287569000000001E+001 M190 959
       P  3.0379782000000002E+001  3.0045452000000004E+001  1.9020575000000001E+001 M190 959
       S  3.0617409000000002E+001  2.8993110000000001E+001  2.0771960000000004E+001 M190 959
       S  2.8487580000000005E+001  3.0865625000000001E+001  1.9125505000000004E+001 M190 959
       S  3.1969277999999999E+001  3.1342272000000005E+001  1.8943625999999998E+001 M190 959
       S  3.1969277999999999E+001  3.1342272000000005E+001  2.7421528000000002E+001 M191 960
       S  3.0339264000000004E+001  2.8935922999999999E+001  2.5765470000000001E+001 M191 960
       S  3.0617409000000002E+001  2.8993110000000001E+001  2.9249859000000001E+001 M191 960
       S  2.8487580000000005E+001  3.0865625000000001E+001  2.7603404999999999E+001 M191 960
       P  3.0379782000000002E+001  3.0045452000000004E+001  2.7498476000000004E+001 M191 960
       S  6.1699640000000011E+000  5.0601726000000005E+000  6.3829929999999999E+000 M192 961
       S  4.2900239999999998E+000  7.0819625999999998E+000  4.6033324999999996E+000 M192 961
       S  4.1779169999999999E+000  7.0762530000000003E+000  8.0472079999999995E+000 M192 961
       S  2.7098632000000000E+000  4.6640319999999997E+000  6.2305454999999998E+000 M192 961
       P  4.3068300000000006E+000  5.9586690000000004E+000  6.3236556000000013E+000 M192 961
       S  6.1699640000000011E+000  5.0601726000000005E+000  1.4860893000000003E+001 M193 962
       S  2.7098632000000000E+000  4.6640319999999997E+000  1.4708446000000000E+001 M193 962
       P  4.3068300000000006E+000  5.9586690000000004E+000  1.4801556000000000E+001 M193 962
       S  4.2900239999999998E+000  7.0819625999999998E+000  1.3081232000000000E+001 M193 962
       S  4.1779169999999999E+000  7.0762530000000003E+000  1.6525107999999999E+001 M193 962
       P  4.3068300000000006E+000  5.9586690000000004E+000  2.3279455000000002E+001 M194 963
       S  6.1699640000000011E+000  5.0601726000000005E+000  2.3338792999999999E+001 M194 963
       S  4.2900239999999998E+000  7.0819625999999998E+000  2.1559132000000002E+001 M194 963
       S  4.1779169999999999E+000  7.0762530000000003E+000  2.5003008000000001E+001 M194 963
       S  2.7098632000000000E+000  4.6640319999999997E+000  2.3186346000000000E+001 M194 963
       S  4.2900239999999998E+000  7.0819625999999998E+000  3.0037033000000001E+001 M195 964
       S  4.1779169999999999E+000  7.0762530000000003E+000  3.3480907000000002E+001 M195 964
       S  6.1699640000000011E+000  5.0601726000000005E+000  3.1816694000000002E+001 M195 964
       S  2.7098632000000000E+000  4.6640319999999997E+000  3.1664246000000002E+001 M195 964
       P  4.3068300000000006E+000  5.9586690000000004E+000  3.1757355000000000E+001 M195 964
       S  2.7098632000000000E+000  1.3710232000000000E+001  6.2305454999999998E+000 M196 965
       P  4.3068300000000006E+000  1.5004869000000001E+001  6.3236556000000013E+000 M196 965
       S  6.1699640000000011E+000  1.4106373000000000E+001  6.3829929999999999E+000 M196 965
       S  4.2900239999999998E+000  1.6128162000000000E+001  4.6033324999999996E+000 M196 965
       S  4.1779169999999999E+000  1.6122454000000001E+001  8.0472079999999995E+000 M196 965
       P  4.3068300000000006E+000  1.5004869000000001E+001  1.4801556000000000E+001 M197 966
       S  4.2900239999999998E+000  1.6128162000000000E+001  1.3081232000000000E+001 M197 966
       S  4.1779169999999999E+000  1.6122454000000001E+001  1.6525107999999999E+001 M197 966
       S  6.1699640000000011E+000  1.4106373000000000E+001  1.4860893000000003E+001 M197 966
       S  2.7098632000000000E+000  1.3710232000000000E+001  1.4708446000000000E+001 M197 966
       S  4.1779169999999999E+000  1.6122454000000001E+001  2.5003008000000001E+001 M198 967
       S  2.7098632000000000E+000  1.3710232000000000E+001  2.3186346000000000E+001 M198 967
       P  4.3068300000000006E+000  1.5004869000000001E+001  2.3279455000000002E+001 M198 967
       S  6.1699640000000011E+000  1.4106373000000000E+001  2.3338792999999999E+001 M198 967
       S  4.2900239999999998E+000  1.6128162000000000E+001  2.1559132000000002E+001 M198 967
       S  2.7098632000000000E+000  1.3710232000000000E+001  3.1664246000000002E+001 M199 968
       P  4.3068300000000006E+000  1.5004869000000001E+001  3.1757355000000000E+001 M199 968
       S  4.2900239999999998E+000  1.6128162000000000E+001  3.0037033000000001E+001 M199 968
       S  4.1779169999999999E+000  1.6122454000000001E+001  3.3480907000000002E+001 M199 968
       S  6.1699640000000011E+000  1.4106373000000000E+001  3.1816694000000002E+001 M199 968
       S  6.1699640000000011E+000  2.3152573000000000E+001  6.3829929999999999E+000 M200 969
       S  4.2900239999999998E+000  2.5174361999999999E+001  4.6033324999999996E+000 M200 969
       S  4.1779169999999999E+000  2.5168653000000003E+001  8.0472079999999995E+000 M200 969
       S  2.7098632000000000E+000  2.2756432000000000E+001  6.2305454999999998E+000 M200 969
       P  4.3068300000000006E+000  2.4051069999999999E+001  6.3236556000000013E+000 M200 969
       S  6.1699640000000011E+000  2.3152573000000000E+001  1.4860893000000003E+001 M201 970
       S  2.7098632000000000E+000  2.2756432000000000E+001  1.4708446000000000E+001 M201 970
       P  4.3068300000000006E+000  2.4051069999999999E+001  1.4801556000000000E+001 M201 970
       S  4.2900239999999998E+000  2.5174361999999999E+001  1.3081232000000000E+001 M201 970
       S  4.1779169999999999E+000  2.5168653000000003E+001  1.6525107999999999E+001 M201 970
       P  4.3068300000000006E+000  2.4051069999999999E+001  2.3279455000000002E+001 M202 971
       S  6.1699640000000011E+000  2.3152573000000000E+001  2.3338792999999999E+001 M202 971
       S  4.2900239999999998E+000  2.5174361999999999E+001  2.1559132000000002E+001 M202 971
       S  4.1779169999999999E+000  2.5168653000000003E+001  2.5003008000000001E+001 M202 971
       S  2.7098632000000000E+000  2.2756432000000000E+001  2.3186346000000000E+001 M202 971
       S  4.2900239999999998E+000  2.5174361999999999E+001  3.0037033000000001E+001 M203 972
       S  4.1779169999999999E+000  2.5168653000000003E+001  3.3480907000000002E+001 M203 972
       S  6.1699640000000011E+000  2.3152573000000000E+001  3.1816694000000002E+001 M203 972
       S  2.7098632000000000E+000  2.2756432000000000E+001  3.1664246000000002E+001 M203 972
       P  4.3068300000000006E+000  2.4051069999999999E+001  3.1757355000000000E+001 M203 972
       S  2.7098632000000000E+000  3.1802631000000005E+001  6.2305454999999998E+000 M204 973
       P  4.3068300000000006E+000  3.3097267000000002E+001  6.3236556000000013E+000 M204 973
       S  6.1699640000000011E+000  3.2198771999999998E+001  6.3829929999999999E+000 M204 973
       S  4.2900239999999998E+000  3.4220562000000001E+001  4.6033324999999996E+000 M204 973
       S  4.1779169999999999E+000  3.4214850000000006E+001  8.0472079999999995E+000 M204 973
       P  4.3068300000000006E+000  3.3097267000000002E+001  1.4801556000000000E+001 M205 974
       S  4.2900239999999998E+000  3.4220562000000001E+001  1.3081232000000000E+001 M205 974
       S  4.1779169999999999E+000  3.4214850000000006E+001  1.6525107999999999E+001 M205 974
       S  6.1699640000000011E+000  3.2198771999999998E+001  1.4860893000000003E+001 M205 974
       S  2.7098632000000000E+000  3.1802631000000005E+001  1.4708446000000000E+001 M205 974
       S  4.1779169999999999E+000  3.4214850000000006E+001  2.5003008000000001E+001 M206 975
       S  2.7098632000000000E+000  3.1802631000000005E+001  2.3186346000000000E+001 M206 975
       P  4.3068300000000006E+000  3.3097267000000002E+001  2.3279455000000002E+001 M206 975
       S  6.1699640000000011E+000  3.2198771999999998E+001  2.3338792999999999E+001 M206 975
       S  4.2900239999999998E+000  3.4220562000000001E+001  2.1559132000000002E+001 M206 975
       S  2.7098632000000000E+000  3.1802631000000005E+001  3.1664246000000002E+001 M207 976
       P  4.3068300000000006E+000  3.3097267000000002E+001  3.1757355000000000E+001 M207 976
       S  4.2900239999999998E+000  3.4220562000000001E+001  3.0037033000000001E+001 M207 976
       S  4.1779169999999999E+000  3.4214850000000006E+001  3.3480907000000002E+001 M207 976
       S  6.1699640000000011E+000  3.2198771999999998E+001  3.1816694000000002E+001 M207 976
       S  1.4813464000000000E+001  5.0601726000000005E+000  6.3829929999999999E+000 M208 977
       S  1.2933522999999999E+001  7.0819625999999998E+000  4.6033324999999996E+000 M208 977
       S  1.2821417000000000E+001  7.0762530000000003E+000  8.0472079999999995E+000 M208 977
       S  1.1353363000000000E+001  4.6640319999999997E+000  6.2305454999999998E+000 M208 977
       P  1.2950330000000001E+001  5.9586690000000004E+000  6.3236556000000013E+000 M208 977
       S  1.4813464000000000E+001  5.0601726000000005E+000  1.4860893000000003E+001 M209 978
       S  1.1353363000000000E+001  4.6640319999999997E+000  1.4708446000000000E+001 M209 978
       P  1.2950330000000001E+001  5.9586690000000004E+000  1.4801556000000000E+001 M209 978
       S  1.2933522999999999E+001  7.0819625999999998E+000  1.3081232000000000E+001 M209 978
       S  1.2821417000000000E+001  7.0762530000000003E+000  1.6525107999999999E+001 M209 978
       P  1.2950330000000001E+001  5.9586690000000004E+000  2.3279455000000002E+001 M210 979
       S  1.4813464000000000E+001  5.0601726000000005E+000  2.3338792999999999E+001 M210 979
       S  1.2933522999999999E+001  7.0819625999999998E+000  2.1559132000000002E+001 M210 979
       S  1.2821417000000000E+001  7.0762530000000003E+000  2.5003008000000001E+001 M210 979
       S  1.1353363000000000E+001  4.6640319999999997E+000  2.3186346000000000E+001 M210 979
       S  1.2933522999999999E+001  7.0819625999999998E+000  3.0037033000000001E+001 M211 980
       S  1.2821417000000000E+001  7.0762530000000003E+000  3.3480907000000002E+001 M211 980
       S  1.4813464000000000E+001  5.0601726000000005E+000  3.1816694000000002E+001 M211 980
       S  1.1353363000000000E+001  4.6640319999999997E+000  3.1664246000000002E+001 M211 980
       P  1.2950330000000001E+001  5.9586690000000004E+000  3.1757355000000000E+001 M211 980
       S  1.1353363000000000E+001  1.3710232000000000E+001  6.2305454999999998E+000 M212 981
       P  1.2950330000000001E+001  1.5004869000000001E+001  6.3236556000000013E+000 M212 981
       S  1.4813464000000000E+001  1.4106373000000000E+001  6.3829929999999999E+000 M212 981
       S  1.2933522999999999E+001  1.6128162000000000E+001  4.6033324999999996E+000 M212 981
       S  1.2821417000000000E+001  1.6122454000000001E+001  8.0472079999999995E+000 M212 981
       P  1.2950330000000001E+001  1.5004869000000001E+001  1.4801556000000000E+001 M213 982
       S  1.2933522999999999E+001  1.6128162000000000E+001  1.3081232000000000E+001 M213 982
       S  1.2821417000000000E+001  1.6122454000000001E+001  1.6525107999999999E+001 M213 982
       S  1.4813464000000000E+001  1.4106373000000000E+001  1.4860893000000003E+001 M213 982
       S  1.1353363000000000E+001  1.3710232000000000E+001  1.4708446000000000E+001 M213 982
       S  1.2821417000000000E+001  1.6122454000000001E+001  2.5003008000000001E+001 M214 983
       S  1.1353363000000000E+001  1.3710232000000000E+001  2.3186346000000000E+001 M214 983
       P  1.2950330000000001E+001  1.5004869000000001E+001  2.3279455000000002E+001 M214 983
       S  1.4813464000000000E+001  1.4106373000000000E+001  2.3338792999999999E+001 M214 983
       S  1.2933522999999999E+001  1.6128162000000000E+001  2.1559132000000002E+001 M214 983
       S  1.2933522999999999E+001  1.6128162000000000E+001  3.0037033000000001E+001 M215 984
       P  1.2950330000000001E+001  1.5004869000000001E+001  3.1757355000000000E+001 M215 984
       S  1.2821417000000000E+001  1.6122454000000001E+001  3.3480907000000002E+001 M215 984
       S  1.4813464000000000E+001  1.4106373000000000E+001  3.1816694000000002E+001 M215 984
       S  1.1353363000000000E+001  1.3710232000000000E+001  3.1664246000000002E+001 M215 984
       S  1.2933522999999999E+001  2.5174361999999999E+001  4.6033324999999996E+000 M216 985
       P  1.2950330000000001E+001  2.4051069999999999E+001  6.3236556000000013E+000 M216 985
       S  1.2821417000000000E+001  2.5168653000000003E+001  8.0472079999999995E+000 M216 985
       S  1.4813464000000000E+001  2.3152573000000000E+001  6.3829929999999999E+000 M216 985
       S  1.1353363000000000E+001  2.2756432000000000E+001  6.2305454999999998E+000 M216 985
       S  1.1353363000000000E+001  2.2756432000000000E+001  1.4708446000000000E+001 M217 986
       S  1.2821417000000000E+001  2.5168653000000003E+001  1.6525107999999999E+001 M217 986
       S  1.2933522999999999E+001  2.5174361999999999E+001  1.3081232000000000E+001 M217 986
       S  1.4813464000000000E+001  2.3152573000000000E+001  1.4860893000000003E+001 M217 986
       P  1.2950330000000001E+001  2.4051069999999999E+001  1.4801556000000000E+001 M217 986
       S  1.2821417000000000E+001  2.5168653000000003E+001  2.5003008000000001E+001 M218 987
       S  1.4813464000000000E+001  2.3152573000000000E+001  2.3338792999999999E+001 M218 987
       S  1.1353363000000000E+001  2.2756432000000000E+001  2.3186346000000000E+001 M218 987
       P  1.2950330000000001E+001  2.4051069999999999E+001  2.3279455000000002E+001 M218 987
       S  1.2933522999999999E+001  2.5174361999999999E+001  2.1559132000000002E+001 M218 987
       S  1.2821417000000000E+001  2.5168653000000003E+001  3.3480907000000002E+001 M219 988
       P  1.2950330000000001E+001  2.4051069999999999E+001  3.1757355000000000E+001 M219 988
       S  1.4813464000000000E+001  2.3152573000000000E+001  3.1816694000000002E+001 M219 988
       S  1.1353363000000000E+001  2.2756432000000000E+001  3.1664246000000002E+001 M219 988
       S  1.2933522999999999E+001  2.5174361999999999E+001  3.0037033000000001E+001 M219 988
       S  1.2933522999999999E+001  3.4220562000000001E+001  4.6033324999999996E+000 M220 989
       P  1.2950330000000001E+001  3.3097267000000002E+001  6.3236556000000013E+000 M220 989
       S  1.2821417000000000E+001  3.4214850000000006E+001  8.0472079999999995E+000 M220 989
       S  1.4813464000000000E+001  3.2198771999999998E+001  6.3829929999999999E+000 M220 989
       S  1.1353363000000000E+001  3.1802631000000005E+001  6.2305454999999998E+000 M220 989
       S  1.2933522999999999E+001  3.4220562000000001E+001  1.3081232000000000E+001 M221 990
       S  1.2821417000000000E+001  3.4214850000000006E+001  1.6525107999999999E+001 M221 990
       S  1.4813464000000000E+001  3.2198771999999998E+001  1.4860893000000003E+001 M221 990
       S  1.1353363000000000E+001  3.1802631000000005E+001  1.4708446000000000E+001 M221 990
       P  1.2950330000000001E+001  3.3097267000000002E+001  1.4801556000000000E+001 M221 990
       S  1.2933522999999999E+001  3.4220562000000001E+001  2.1559132000000002E+001 M222 991
       P  1.2950330000000001E+001  3.3097267000000002E+001  2.3279455000000002E+001 M222 991
       S  1.4813464000000000E+001  3.2198771999999998E+001  2.3338792999999999E+001 M222 991
       S  1.1353363000000000E+001  3.1802631000000005E+001  2.3186346000000000E+001 M222 991
       S  1.2821417000000000E+001  3.4214850000000006E+001  2.5003008000000001E+001 M222 991
       S  1.2821417000000000E+001  3.4214850000000006E+001  3.3480907000000002E+001 M223 992
       S  1.2933522999999999E+001  3.4220562000000001E+001  3.0037033000000001E+001 M223 992
       P  1.2950330000000001E+001  3.3097267000000002E+001  3.1757355000000000E+001 M223 992
       S  1.4813464000000000E+001  3.2198771999999998E+001  3.1816694000000002E+001 M223 992
       S  1.1353363000000000E+001  3.1802631000000005E+001  3.1664246000000002E+001 M223 992
       S  2.3456963999999999E+001  5.0601726000000005E+000  6.3829929999999999E+000 M224 993
       P  2.1593830000000001E+001  5.9586690000000004E+000  6.3236556000000013E+000 M224 993
       S  2.1577024000000002E+001  7.0819625999999998E+000  4.6033324999999996E+000 M224 993
       S  2.1464915999999999E+001  7.0762530000000003E+000  8.0472079999999995E+000 M224 993
       S  1.9996862000000004E+001  4.6640319999999997E+000  6.2305454999999998E+000 M224 993
       S  2.1464915999999999E+001  7.0762530000000003E+000  1.6525107999999999E+001 M225 994
       S  2.3456963999999999E+001  5.0601726000000005E+000  1.4860893000000003E+001 M225 994
       S  1.9996862000000004E+001  4.6640319999999997E+000  1.4708446000000000E+001 M225 994
       P  2.1593830000000001E+001  5.9586690000000004E+000  1.4801556000000000E+001 M225 994
       S  2.1577024000000002E+001  7.0819625999999998E+000  1.3081232000000000E+001 M225 994
       S  1.9996862000000004E+001  4.6640319999999997E+000  2.3186346000000000E+001 M226 995
       S  2.3456963999999999E+001  5.0601726000000005E+000  2.3338792999999999E+001 M226 995
       P  2.1593830000000001E+001  5.9586690000000004E+000  2.3279455000000002E+001 M226 995
       S  2.1577024000000002E+001  7.0819625999999998E+000  2.1559132000000002E+001 M226 995
       S  2.1464915999999999E+001  7.0762530000000003E+000  2.5003008000000001E+001 M226 995
       S  2.1577024000000002E+001  7.0819625999999998E+000  3.0037033000000001E+001 M227 996
       S  2.1464915999999999E+001  7.0762530000000003E+000  3.3480907000000002E+001 M227 996
       S  2.3456963999999999E+001  5.0601726000000005E+000  3.1816694000000002E+001 M227 996
       S  1.9996862000000004E+001  4.6640319999999997E+000  3.1664246000000002E+001 M227 996
       P  2.1593830000000001E+001  5.9586690000000004E+000  3.1757355000000000E+001 M227 996
       S  1.9996862000000004E+001  1.3710232000000000E+001  6.2305454999999998E+000 M228 997
       S  2.3456963999999999E+001  1.4106373000000000E+001  6.3829929999999999E+000 M228 997
       P  2.1593830000000001E+001  1.5004869000000001E+001  6.3236556000000013E+000 M228 997
       S  2.1577024000000002E+001  1.6128162000000000E+001  4.6033324999999996E+000 M228 997
       S  2.1464915999999999E+001  1.6122454000000001E+001  8.0472079999999995E+000 M228 997
       P  2.1593830000000001E+001  1.5004869000000001E+001  1.4801556000000000E+001 M229 998
       S  2.1577024000000002E+001  1.6128162000000000E+001  1.3081232000000000E+001 M229 998
       S  2.1464915999999999E+001  1.6122454000000001E+001  1.6525107999999999E+001 M229 998
       S  2.3456963999999999E+001  1.4106373000000000E+001  1.4860893000000003E+001 M229 998
       S  1.9996862000000004E+001  1.3710232000000000E+001  1.4708446000000000E+001 M229 998
       S  2.1577024000000002E+001  1.6128162000000000E+001  2.1559132000000002E+001 M230 999
       S  2.1464915999999999E+001  1.6122454000000001E+001  2.5003008000000001E+001 M230 999
       S  1.9996862000000004E+001  1.3710232000000000E+001  2.3186346000000000E+001 M230 999
       S  2.3456963999999999E+001  1.4106373000000000E+001  2.3338792999999999E+001 M230 999
       P  2.1593830000000001E+001  1.5004869000000001E+001  2.3279455000000002E+001 M230 999
       S  1.9996862000000004E+001  1.3710232000000000E+001  3.1664246000000002E+001 M231 1000
       P  2.1593830000000001E+001  1.5004869000000001E+001  3.1757355000000000E+001 M231 1000
       S  2.1577024000000002E+001  1.6128162000000000E+001  3.0037033000000001E+001 M231 1000
       S  2.1464915999999999E+001  1.6122454000000001E+001  3.3480907000000002E+001 M231 1000
       S  2.3456963999999999E+001  1.4106373000000000E+001  3.1816694000000002E+001 M231 1000
       S  2.3456963999999999E+001  2.3152573000000000E+001  6.3829929999999999E+000 M232 1001
       P  2.1593830000000001E+001  2.4051069999999999E+001  6.3236556000000013E+000 M232 1001
       S  2.1577024000000002E+001  2.5174361999999999E+001  4.6033324999999996E+000 M232 1001
       S  2.1464915999999999E+001  2.5168653000000003E+001  8.0472079999999995E+000 M232 1001
       S  1.9996862000000004E+001  2.2756432000000000E+001  6.2305454999999998E+000 M232 1001
       S  2.1464915999999999E+001  2.5168653000000003E+001  1.6525107999999999E+001 M233 1002
       S  2.3456963999999999E+001  2.3152573000000000E+001  1.4860893000000003E+001 M233 1002
       S  1.9996862000000004E+001  2.2756432000000000E+001  1.4708446000000000E+001 M233 1002
       P  2.1593830000000001E+001  2.4051069999999999E+001  1.4801556000000000E+001 M233 1002
       S  2.1577024000000002E+001  2.5174361999999999E+001  1.3081232000000000E+001 M233 1002
       S  1.9996862000000004E+001  2.2756432000000000E+001  2.3186346000000000E+001 M234 1003
       S  2.3456963999999999E+001  2.3152573000000000E+001  2.3338792999999999E+001 M234 1003
       P  2.1593830000000001E+001  2.4051069999999999E+001  2.3279455000000002E+001 M234 1003
       S  2.1577024000000002E+001  2.5174361999999999E+001  2.1559132000000002E+001 M234 1003
       S  2.1464915999999999E+001  2.5168653000000003E+001  2.5003008000000001E+001 M234 1003
       S  2.1577024000000002E+001  2.5174361999999999E+001  3.0037033000000001E+001 M235 1004
       S  2.1464915999999999E+001  2.5168653000000003E+001  3.3480907000000002E+001 M235 1004
       S  2.3456963999999999E+001  2.3152573000000000E+001  3.1816694000000002E+001 M235 1004
       S  1.9996862000000004E+001  2.2756432000000000E+001  3.1664246000000002E+001 M235 1004
       P  2.1593830000000001E+001  2.4051069999999999E+001  3.1757355000000000E+001 M235 1004
       S  1.9996862000000004E+001  3.1802631000000005E+001  6.2305454999999998E+000 M236 1005
       S  2.3456963999999999E+001  3.2198771999999998E+001  6.3829929999999999E+000 M236 1005
       P  2.1593830000000001E+001  3.3097267000000002E+001  6.3236556000000013E+000 M236 1005
       S  2.1577024000000002E+001  3.4220562000000001E+001  4.6033324999999996E+000 M236 1005
       S  2.1464915999999999E+001  3.4214850000000006E+001  8.0472079999999995E+000 M236 1005
       P  2.1593830000000001E+001  3.3097267000000002E+001  1.4801556000000000E+001 M237 1006
       S  2.1577024000000002E+001  3.4220562000000001E+001  1.3081232000000000E+001 M237 1006
       S  2.1464915999999999E+001  3.4214850000000006E+001  1.6525107999999999E+001 M237 1006
       S  2.3456963999999999E+001  3.2198771999999998E+001  1.4860893000000003E+001 M237 1006
       S  1.9996862000000004E+001  3.1802631000000005E+001  1.4708446000000000E+001 M237 1006
       S  2.1577024000000002E+001  3.4220562000000001E+001  2.1559132000000002E+001 M238 1007
       S  2.1464915999999999E+001  3.4214850000000006E+001  2.5003008000000001E+001 M238 1007
       S  1.9996862000000004E+001  3.1802631000000005E+001  2.3186346000000000E+001 M238 1007
       S  2.3456963999999999E+001  3.2198771999999998E+001  2.3338792999999999E+001 M238 1007
       P  2.1593830000000001E+001  3.3097267000000002E+001  2.3279455000000002E+001 M238 1007
       S  1.9996862000000004E+001  3.1802631000000005E+001  3.1664246000000002E+001 M239 1008
       P  2.1593830000000001E+001  3.3097267000000002E+001  3.1757355000000000E+001 M239 1008
       S  2.1577024000000002E+001  3.4220562000000001E+001  3.0037033000000001E+001 M239 1008
       S  2.1464915999999999E+001  3.4214850000000006E+001  3.3480907000000002E+001 M239 1008
       S  2.3456963999999999E+001  3.2198771999999998E+001  3.1816694000000002E+001 M239 1008
       S  3.2100464000000002E+001  5.0601726000000005E+000  6.3829929999999999E+000 M240 1009
       P  3.0237330000000000E+001  5.9586690000000004E+000  6.3236556000000013E+000 M240 1009
       S  3.0220524000000001E+001  7.0819625999999998E+000  4.6033324999999996E+000 M240 1009
       S  3.0108418000000004E+001  7.0762530000000003E+000  8.0472079999999995E+000 M240 1009
       S  2.8640364000000002E+001  4.6640319999999997E+000  6.2305454999999998E+000 M240 1009
       S  3.0108418000000004E+001  7.0762530000000003E+000  1.6525107999999999E+001 M241 1010
       S  3.2100464000000002E+001  5.0601726000000005E+000  1.4860893000000003E+001 M241 1010
       S  2.8640364000000002E+001  4.6640319999999997E+000  1.4708446000000000E+001 M241 1010
       P  3.0237330000000000E+001  5.9586690000000004E+000  1.4801556000000000E+001 M241 1010
       S  3.0220524000000001E+001  7.0819625999999998E+000  1.3081232000000000E+001 M241 1010
       S  2.8640364000000002E+001  4.6640319999999997E+000  2.3186346000000000E+001 M242 1011
       S  3.2100464000000002E+001  5.0601726000000005E+000  2.3338792999999999E+001 M242 1011
       P  3.0237330000000000E+001  5.9586690000000004E+000  2.3279455000000002E+001 M242 1011
       S  3.0220524000000001E+001  7.0819625999999998E+000  2.1559132000000002E+001 M242 1011
       S  3.0108418000000004E+001  7.0762530000000003E+000  2.5003008000000001E+001 M242 1011
       S  3.0220524000000001E+001  7.0819625999999998E+000  3.0037033000000001E+001 M243 1012
       S  3.0108418000000004E+001  7.0762530000000003E+000  3.3480907000000002E+001 M243 1012
       S  3.2100464000000002E+001  5.0601726000000005E+000  3.1816694000000002E+001 M243 1012
       S  2.8640364000000002E+001  4.6640319999999997E+000  3.1664246000000002E+001 M243 1012
       P  3.0237330000000000E+001  5.9586690000000004E+000  3.1757355000000000E+001 M243 1012
       S  2.8640364000000002E+001  1.3710232000000000E+001  6.2305454999999998E+000 M244 1013
       S  3.2100464000000002E+001  1.4106373000000000E+001  6.3829929999999999E+000 M244 1013
       P  3.0237330000000000E+001  1.5004869000000001E+001  6.3236556000000013E+000 M244 1013
       S  3.0220524000000001E+001  1.6128162000000000E+001  4.6033324999999996E+000 M244 1013
       S  3.0108418000000004E+001  1.6122454000000001E+001  8.0472079999999995E+000 M244 1013
       P  3.0237330000000000E+001  1.5004869000000001E+001  1.4801556000000000E+001 M245 1014
       S  3.0220524000000001E+001  1.6128162000000000E+001  1.3081232000000000E+001 M245 1014
       S  3.0108418000000004E+001  1.6122454000000001E+001  1.6525107999999999E+001 M245 1014
       S  3.2100464000000002E+001  1.4106373000000000E+001  1.4860893000000003E+001 M245 1014
       S  2.8640364000000002E+001  1.3710232000000000E+001  1.4708446000000000E+001 M245 1014
       S  3.0220524000000001E+001  1.6128162000000000E+001  2.1559132000000002E+001 M246 1015
       S  3.0108418000000004E+001  1.6122454000000001E+001  2.5003008000000001E+001 M246 1015
       S  2.8640364000000002E+001  1.3710232000000000E+001  2.3186346000000000E+001 M246 1015
       S  3.2100464000000002E+001  1.4106373000000000E+001  2.3338792999999999E+001 M246 1015
       P  3.0237330000000000E+001  1.5004869000000001E+001  2.3279455000000002E+001 M246 1015
       S  3.0220524000000001E+001  1.6128162000000000E+001  3.0037033000000001E+001 M247 1016
       P  3.0237330000000000E+001  1.5004869000000001E+001  3.1757355000000000E+001 M247 1016
       S  3.0108418000000004E+001  1.6122454000000001E+001  3.3480907000000002E+001 M247 1016
       S  3.2100464000000002E+001  1.4106373000000000E+001  3.1816694000000002E+001 M247 1016
       S  2.8640364000000002E+001  1.3710232000000000E+001  3.1664246000000002E+001 M247 1016
       S  3.0220524000000001E+001  2.5174361999999999E+001  4.6033324999999996E+000 M248 1017
       S  3.2100464000000002E+001  2.3152573000000000E+001  6.3829929999999999E+000 M248 1017
       P  3.0237330000000000E+001  2.4051069999999999E+001  6.3236556000000013E+000 M248 1017
       S  3.0108418000000004E+001  2.5168653000000003E+001  8.0472079999999995E+000 M248 1017
       S  2.8640364000000002E+001  2.2756432000000000E+001  6.2305454999999998E+000 M248 1017
       S  3.2100464000000002E+001  2.3152573000000000E+001  1.4860893000000003E+001 M249 1018
       S  2.8640364000000002E+001  2.2756432000000000E+001  1.4708446000000000E+001 M249 1018
       S  3.0220524000000001E+001  2.5174361999999999E+001  1.3081232000000000E+001 M249 1018
       S  3.0108418000000004E+001  2.5168653000000003E+001  1.6525107999999999E+001 M249 1018
       P  3.0237330000000000E+001  2.4051069999999999E+001  1.4801556000000000E+001 M249 1018
       P  3.0237330000000000E+001  2.4051069999999999E+001  2.3279455000000002E+001 M250 1019
       S  3.0108418000000004E+001  2.5168653000000003E+001  2.5003008000000001E+001 M250 1019
       S  3.2100464000000002E+001  2.3152573000000000E+001  2.3338792999999999E+001 M250 1019
       S  2.8640364000000002E+001  2.2756432000000000E+001  2.3186346000000000E+001 M250 1019
       S  3.0220524000000001E+001  2.5174361999999999E+001  2.1559132000000002E+001 M250 1019
       S  3.0108418000000004E+001  2.5168653000000003E+001  3.3480907000000002E+001 M251 1020
       P  3.0237330000000000E+001  2.4051069999999999E+001  3.1757355000000000E+001 M251 1020
       S  3.2100464000000002E+001  2.3152573000000000E+001  3.1816694000000002E+001 M251 1020
       S  2.8640364000000002E+001  2.2756432000000000E+001  3.1664246000000002E+001 M251 1020
       S  3.0220524000000001E+001  2.5174361999999999E+001  3.0037033000000001E+001 M251 1020
       S  3.0220524000000001E+001  3.4220562000000001E+001  4.6033324999999996E+000 M252 1021
       P  3.0237330000000000E+001  3.3097267000000002E+001  6.3236556000000013E+000 M252 1021
       S  3.0108418000000004E+001  3.4214850000000006E+001  8.0472079999999995E+000 M252 1021
       S  3.2100464000000002E+001  3.2198771999999998E+001  6.3829929999999999E+000 M252 1021
       S  2.8640364000000002E+001  3.1802631000000005E+001  6.2305454999999998E+000 M252 1021
       S  3.0220524000000001E+001  3.4220562000000001E+001  1.3081232000000000E+001 M253 1022
       S  3.0108418000000004E+001  3.4214850000000006E+001  1.6525107999999999E+001 M253 1022
       S  3.2100464000000002E+001  3.2198771999999998E+001  1.4860893000000003E+001 M253 1022
       S  2.8640364000000002E+001  3.1802631000000005E+001  1.4708446000000000E+001 M253 1022
       P  3.0237330000000000E+001  3.3097267000000002E+001  1.4801556000000000E+001 M253 1022
       S  3.0108418000000004E+001  3.4214850000000006E+001  2.5003008000000001E+001 M254 1023
       P  3.0237330000000000E+001  3.3097267000000002E+001  2.3279455000000002E+001 M254 1023
       S  3.2100464000000002E+001  3.2198771999999998E+001  2.3338792999999999E+001 M254 1023
       S  2.8640364000000002E+001  3.1802631000000005E+001  2.3186346000000000E+001 M254 1023
       S  3.0220524000000001E+001  3.4220562000000001E+001  2.1559132000000002E+001 M254 1023
       S  3.0108418000000004E+001  3.4214850000000006E+001  3.3480907000000002E+001 M255 1024
       S  3.0220524000000001E+001  3.4220562000000001E+001  3.0037033000000001E+001 M255 1024
       P  3.0237330000000000E+001  3.3097267000000002E+001  3.1757355000000000E+001 M255 1024
       S  3.2100464000000002E+001  3.2198771999999998E+001  3.1816694000000002E+001 M255 1024
       S  2.8640364000000002E+001  3.1802631000000005E+001  3.1664246000000002E+001 M255 1024
