2048

Li      -58.64455032     16.86774063     -0.42055336
Li      -23.05058098    -18.27476501     38.14882278
Li       36.37295914     -1.59797072    -34.64911652
Li      -19.78788757    -41.85377502     33.58972549
Li        2.85529017    -51.63137817     38.57105255
Li       37.10156631     29.66006470     30.49647713
Li      -28.24143791     15.22919464     68.04434967
Li       19.71080780      8.36498356     38.16664124
Li      -11.33936310     41.96037292     25.52462387
Li       -1.76121950     16.07081604    -37.44459152
Li       -6.89862251    -25.39965248     34.85970306
Li        2.08307338      6.89326286     59.01216125
Li      -41.31522751     -3.96440530     17.11095238
Li      -35.78165054      4.71448660      4.28546190
Li      -10.19852066      0.81987232     46.29932022
Li        2.81576467     41.51307678     29.24991989
Li       19.51857376      1.85784256    -21.40369797
Li        2.15853262     16.97254944    -34.42255783
Li       28.52002525    -33.70283127      4.75911760
Li        6.11006069    -14.55722618     55.18815613
Li        2.57436657    -15.10219669     29.85499954
Li       27.49101639     -7.48773623      9.23595905
Li       14.96807861      6.22933435     76.73231506
Li       -2.70819926     -2.75753498    -24.46685982
Li       19.34892654    -16.22036171      9.22249699
Li        2.18944836    -35.29878998     51.10308456
Li      -11.23463917    -27.06037712     67.93251038
Li      -14.61477470    -30.88860893     88.95916748
Li       32.58148193     16.23841286     47.03802490
Li      -28.50301552    -18.32753181      0.00622190
Li       53.67285156     37.65786743     42.48715973
Li        6.17462540     60.37739944    102.36919403
Li       31.81056976     12.46034527      7.94699144
Li       15.07476044    -10.59059334     55.61265945
Li       49.95994186    -14.15136623     63.83579254
Li       24.12212944    -29.12288857     46.69494247
Li      102.01947021     13.28654671     38.10820389
Li       89.17108154     77.83829498     97.03649139
Li       67.69095612     64.41143799     12.18243313
Li       24.83645439     -7.80717421     62.02493668
Li       62.60279846     16.99985886     -8.83078957
Li      -28.22603607    -14.58351517    -20.77916527
Li        6.98157692     52.31396866     30.13856506
Li      -14.68825245    -12.56416512     63.06958389
Li        2.52185869     14.35627365     -4.62859535
Li        5.44230270    -11.59661102     86.49410248
Li        1.97251511     28.59142113     34.06806564
Li      -27.85129929      9.36600018     -8.48342609
Li      -19.77437973    -14.69907570    -25.68752480
Li      -15.54245567    -16.35370636     18.01352692
Li       45.67602539    -12.86362267     12.41569710
Li       -1.81714165    -28.97798347     58.77019882
Li       50.00975418     -1.59952879     21.71232033
Li       57.75462723      3.64231586     -4.01837730
Li       49.59884262      5.82773638    -16.55531502
Li       10.25793934     37.56256104     68.39603424
Li       19.16455841    -19.30862617     -0.32787973
Li       45.26450348     71.66545105     -4.35846376
Li       67.50058746     43.38121033    106.62943268
Li       54.41859818     23.82018280     46.04753494
Li       14.52153778     21.53279686     -8.86679649
Li       49.76266098      0.70139289     29.52837372
Li       41.61420441     54.66917038     93.34515381
Li       26.97225761     65.34855652      2.67796230
Li       -6.46083975      8.28718472     -4.02938175
Li       -1.95592260    -23.05099297    -21.11531067
Li      -19.73826981      3.07362318     84.07373810
Li        6.36447048    -15.11370754     -0.58541697
Li      -23.30501747    -36.24050903     13.05648422
Li      -14.81441689     11.69492340     89.11227417
Li      -28.40717125     -3.08535504    -33.50756836
Li      -24.07348824     -4.61579227     33.80362701
Li        1.66935217     46.88277435     -7.70028782
Li       11.40915680     20.27733421     55.87350845
Li      -10.37531853     25.50304604     72.38016510
Li       28.07584763     13.28835964      8.55130291
Li       23.63677025     30.75572586     33.72934341
Li       -6.59508657      7.59086037     -8.86060905
Li       14.43164062     -5.24070311     46.68614578
Li        6.83431244     27.96057320     59.71495438
Li      -32.08182907    -75.60176086    -38.81563187
Li      -14.70742035     -6.25659752     47.55015945
Li        6.29937887    -23.54008102    -42.69532013
Li       32.04861832     18.23686028     25.50178146
Li        6.92995358      1.12426639     -4.82066441
Li       18.82280540     49.87925339     42.10627747
Li       53.99398041     26.26462555     -8.67973423
Li       36.32157898     16.68555450      7.86536455
Li       58.11016846     54.79010391     -8.52455044
Li       -1.87352180     55.41455078     28.95007706
Li       57.64476013     24.53876305     52.23110199
Li      -15.28219128      8.14561176    -12.70680428
Li      -10.35848427     -7.85939932     12.24200439
Li       11.05922031     -9.51719379    -12.68968487
Li       41.68995285     34.23056793     30.62737465
Li       32.66667557     -8.06815720     54.82582092
Li       41.80868530     36.54865646     34.21304321
Li      -37.01848221     21.73748016      4.41242075
Li       45.45784378      8.44519711     29.88880920
Li       19.70393562     13.85218525     34.02627945
Li        6.32630157    -39.13996887     -8.31128407
Li       14.59683609     -8.99708939     42.40958405
Li       36.76454926    -37.47939301      8.08440018
Li      -19.30462265     -5.34130430      4.22497034
Li        6.57531977     66.76885223     72.56219482
Li        2.69916391      6.26988316     19.44121552
Li       46.00246048      6.34415245     79.13380432
Li        6.34167051      0.36765927      8.65856075
Li       -5.98526382     11.64799881     47.29764557
Li      -36.31948090    -37.85541916     46.88267899
Li      -15.35610676     64.57171631    -16.66679001
Li       28.52805328     38.67963791     30.44833565
Li       41.40633011     -2.05089235     13.08460045
Li       62.79783249     47.90188599     -3.60925102
Li       42.40659332     25.27635002    -36.39960480
Li       49.70960999      3.90907311     29.73822021
Li       19.23349190     44.03354263    101.13800812
Li       11.08464146    -43.52697754     12.78152370
Li       14.80033493     12.81981087     89.19623566
Li       19.18486786     -0.91502571     46.52492523
Li       23.38374329     81.64690399    -25.41018677
Li       19.73359108      2.71779442     30.04616356
Li       10.95453167     23.09428596     25.67679405
Li       14.84213066      3.76376653     80.68679810
Li       23.08173943     26.92455292     25.11053658
Li       14.34329414      6.28710127     26.30552292
Li       58.65472794     25.59857941     -3.92897868
Li       11.02233505     14.31488991    -17.22993851
Li       10.65994263      1.40129316     17.42595100
Li      -32.69812393    -10.26256084    -42.70330811
Li      -32.28422928    -36.70978928     63.71455002
Li        7.00928688     24.96276283     22.46736336
Li       10.28860855     58.65000153      0.18429142
Li       36.91671371      2.85656881     55.18431091
Li       36.70356750     19.70026398     25.60770607
Li       23.41442490     78.64263916      9.27076435
Li      -18.95763588     36.97850037    -21.75097656
Li        6.20775270     39.67148209    -21.00136185
Li       -1.78265917    -11.05707073    -20.44863129
Li       18.17234802     65.26316833     60.83589172
Li       20.01227951     57.00365067     -3.51641464
Li       -6.09154606     68.65719604     -4.57833529
Li       27.68815041     49.83317566      0.12239228
Li       19.93593216     77.55990601      3.89470863
Li       32.20354462     21.78070641    -54.94497299
Li       19.14598083     28.73622131     43.30744171
Li       23.53847313    -12.42486000     42.68178940
Li        7.23055744    -70.88145447     53.88516235
Li        2.44432807     20.74402809    -12.29390621
Li      -19.68202019     12.66152191      4.31247187
Li       24.62669754      9.98673820    -22.08161354
Li        2.22509003    -25.69695854      4.14393759
Li       23.42218018     69.43392181     17.55014801
Li      -10.09215069    -35.37657547     20.71489525
Li       -5.96988964     50.71656418     20.76144028
Li       -2.36095595     30.49578667     25.12254715
Li       11.82140255     38.59550858     -2.72143936
Li       19.64943504     57.09333038      4.48013067
Li       45.21632004     89.37203979     16.71752739
Li       10.63758373     62.08816910     12.56424904
Li       32.04120636     21.35788918     50.08750534
Li       27.76695251      1.38394821    -59.26606369
Li       14.92541504    -12.21700764    -16.65261650
Li       44.53222275     13.39519119     58.96185684
Li       19.10284042    -10.27620411    -34.33921814
Li       32.61500931     27.60225105    -50.85029984
Li       36.65628052     22.78565598      8.55967236
Li       23.55387306      3.55777431     67.58590698
Li       11.36307812    -30.24940109     20.58903313
Li        7.18754625     55.24765778     71.50920105
Li        2.49024296    -27.49892998     29.62282372
Li       27.96629143     16.81394958     75.97972870
Li       75.37030792     78.42408752     -7.94819641
Li       15.14086533     30.62547302    -25.81809044
Li       -6.78346252    -31.56513023     16.88583755
Li       26.96856689    -10.73038960     15.25593472
Li       27.35340118    -37.73900223    -26.36705780
Li       -5.50618124    -13.07575417     29.45884514
Li       28.10139275     -0.78689557     29.80339622
Li      -10.82398510      9.70330048    -16.75202179
Li       -5.93529606     14.71890831    -64.26436615
Li       11.58243656     -3.42816448    -13.73368454
Li        6.93882704    -28.94698334     89.58924103
Li       14.93271446     -2.92134309     68.31288910
Li      -22.96004105    -24.77779579    -28.50988007
Li       49.90377808    -20.32301903     16.24781418
Li       26.47372818     37.93527222    -14.95721626
Li       45.51791000     68.64390564     46.33536148
Li       45.39138031     53.34314728    -38.20413208
Li       15.30671406     52.25640869    -20.95295143
Li       19.88346481     14.88589382     -4.49966717
Li       53.68457031     40.73108292     16.95454979
Li       -6.42909050     11.19987106    -12.21032810
Li       15.41293430     34.19212723    -28.92974854
Li        1.96402144    -19.62243652     58.51092529
Li       32.46772766     24.63667107     25.72318840
Li       15.58786774     36.90099716      4.00312090
Li      -24.29862404    -37.72175217     -0.27777955
Li       24.30128860     67.58977509     12.69019413
Li       32.44188690     37.02729416     85.14579773
Li       24.15453339     18.60776901     17.10323524
Li      -15.25783920     46.96006393     59.50613022
Li        6.87063599    -17.44744110     80.09889221
Li      -28.08046150     -2.36941886      8.10006428
Li      -40.97385788    -19.05714035     30.15056801
Li       19.92007446     59.81661606    -16.45371628
Li      -19.20445251     52.19419479     38.53807068
Li       -5.88060284     14.42263794     29.35843086
Li       -2.01234961    -26.40512276    -29.87300110
Li       -2.96569252     -0.23872164     42.11860657
Li      -11.08677387     12.36841202     16.75151062
Li       76.13014984     10.16713619     37.71075439
Li       37.10768890     93.19733429     13.62189293
Li       19.41405296    -18.45440865     -4.21081877
Li        2.45592260     41.85648346     38.00181961
Li        9.54070568    -34.17854309    -40.98383331
Li       15.58438969     -2.18028092    -20.39768982
Li      -45.61251068     -5.01841116     38.14032745
Li       36.43918991     25.83670807      8.15588760
Li      -10.39897728     61.28641510     13.21790886
Li      -15.33643150     37.97169495     34.38732910
Li      -20.19342804     30.88558578     25.16744423
Li      -27.94073105     -8.44222736     42.45140457
Li        7.11454391     40.49183273     -4.31541729
Li       -2.74084067     12.42506218     67.73449707
Li       58.39812851     40.29852295      4.34592915
Li      -23.38858414     -4.00697994    -25.36061859
Li       41.44576645     10.43805504     28.78205681
Li       -6.06999636    -73.07057190      4.60665989
Li       10.27899933     40.26419449    -16.93183517
Li       53.55556107     16.83794785     24.89760590
Li       45.10501480     62.42578888     -8.77308750
Li       45.06231308     62.24740601    -17.27634048
Li       32.87503433     24.48908806     63.62670898
Li        1.93742764     13.77317142    -25.12592888
Li       53.21370316      8.22573185     25.19905663
Li       84.08232117     93.52092743     16.45566177
Li       -2.41918421     75.77539062    -34.33232117
Li       10.56394863     43.65352249     50.22685623
Li       40.35670471     39.60409546    101.24775696
Li       -1.62828290      6.87938881     -3.08987379
Li       75.87885284     18.59426498      8.70426369
Li       -6.13503456     -3.60412693     54.59057999
Li       67.59364319     46.84033203     53.15520859
Li       -6.17539406      5.23435163      0.17099960
Li        1.72730708    -25.71190643     76.87651825
Li       -6.46705866     -3.91626549     -0.05464562
Li        2.65752530    -24.41400909     30.21117401
Li       19.17510986     10.49350643    -24.96967697
Li        7.00141954     19.00566292     20.99971390
Li       53.54862976     34.89289093     25.09882355
Li       33.07339096     34.31034470     72.69976044
Li       24.13266754     59.09303284    -29.78632927
Li       62.62205505     62.11127853     25.22649765
Li       49.46825027     75.79548645    -25.90155029
Li       -6.40481472     -0.35610372     12.92422676
Li       31.95431137     15.53609180     17.71845055
Li        2.44319677     47.48790741    -46.26364517
Li      -28.42647552      6.42769814    -24.93632317
Li       32.11969757    -56.88801193     68.44981384
Li        1.04501820      4.31750345     25.77945518
Li       27.60145569     13.47252178     16.98637962
Li      -27.74170685     -8.14024353     -4.69922352
Li       24.17056656     52.30837631     -3.54542208
Li      -15.78592014      4.41178846      8.18950748
Li       -6.65482235    -16.18756104    -75.40515137
Li        6.51307583    -14.37134647     -4.17090940
Li       -2.38880587     67.09557343     46.69012833
Li       41.69841385     73.45632935     12.34885597
Li       24.06885910     64.66854095      4.29722881
Li       49.64145279     66.91547394     -3.98313022
Li        5.93315506     12.15345669     -0.35766411
Li       -6.13596153    -15.58623886     13.08121109
Li       10.98584366     26.43268776     -4.17806578
Li       33.20792007     -8.12296295    -30.24191666
Li       -1.62718070    -28.84151649    -12.57195854
Li        2.06066990    -34.70522308     68.30843353
Li        6.17151070      3.35261703     25.07818031
Li       45.09183121      8.48158550     21.29891014
Li        2.14056063     53.84126663     -4.19520187
Li       24.23603439    -22.19835091    -12.88279247
Li       -6.78914070     43.85478973     50.26898193
Li       27.68305588     38.25110245     34.90509796
Li       11.09633732     29.52790451     30.00825500
Li      -10.83013535     21.58755302    -17.34216499
Li       10.62945461     62.34564209     38.42634201
Li        1.97201765     56.21101761     34.50900269
Li      -41.29231644     28.58513832     51.55196762
Li       11.27877617     50.74723053     -4.76687336
Li       41.17768478    -20.61209679     42.26928711
Li      -15.73244953     -1.22150493    -25.96595955
Li        2.67718887     29.81591034      4.90758753
Li       87.85295868     22.48905182      8.31912041
Li       28.17375755     10.63671970    -16.25562668
Li      -28.20627594      6.08909559    -33.51408768
Li       -6.02014971    -36.28080750     50.76262665
Li       54.08062744     98.72709656     -4.16121101
Li       23.31134605    -20.85284615     -7.38801765
Li       45.05170822     13.49481297     33.74926376
Li       -1.77023613      9.98977470     29.38359642
Li       46.28247833     23.94365883      3.11243367
Li       13.93929863     33.46466446     10.48865414
Li        1.83468795     61.62002945     66.84062195
Li       28.41811180     24.00528336     17.36349106
Li       45.79903030    -48.52018356     28.81070709
Li       45.11780167     -1.40715086      7.77325630
Li       20.06042290     30.03099632     89.47558594
Li        6.52380371    -32.34748459     21.28846359
Li       75.69277954     12.78077793      4.28779125
Li       50.01337051     10.00656033      9.12925148
Li       10.66980648     14.31203175    -25.11780167
Li       19.14331055     53.44103622     55.29138947
Li       15.24044228     24.69781685     38.07743073
Li       49.35247040     36.03588867     42.18114090
Li       37.39717865     36.16840744     88.85311127
Li       50.18807220     37.38355255     88.45544434
Li       28.71400261     56.52907181    -12.11359215
Li      -18.66652107     27.70437622      3.95245481
Li       79.78704071     47.31471252    -17.04189301
Li       79.41088104     61.20355988     41.18786621
Li      -10.47006512      6.85771036     -3.76634908
Li      -24.10076714      7.84252691    -34.21566772
Li       -6.15737247    -12.48326588    -55.53009033
Li       23.41440010     48.16071701     41.22974396
Li       30.15737343      5.66126060     -6.49146414
Li       10.60684109      4.76249409     25.38626862
Li        1.95183647      1.58812881     60.12671661
Li      -11.08996677    -27.22170067     59.11289215
Li      -19.45046234     54.72291565    -84.57881927
Li        7.02476454    -11.28902054      5.27418804
Li      -11.17502785     21.58315659     -0.32899743
Li      -10.72481155     43.03411484      4.98391294
Li      -36.81556320     -8.47911644     33.85653305
Li       -2.28969765      3.59352088     25.00539970
Li       24.63223267     34.16447067     73.36733246
Li       -6.48869038     26.07919121     89.23052979
Li       40.69522095     -5.81666803     76.13276672
Li      -23.56339836    -42.25109482    -46.24036026
Li      -27.39364815    -65.16059875     -3.72882247
Li      -49.20856476    -21.57938576     12.28778744
Li       -2.30353594    -12.13895988      8.73853588
Li       15.48249149     15.92387962     -3.87478423
Li        1.85519207      4.26599932    118.77157593
Li       62.76365280     50.39363861     46.33602905
Li       58.56941605     48.92730713     46.89835739
Li        6.17162371     21.43453598      8.03371429
Li       29.05381966     77.53354645     12.08771038
Li       -6.40395021     -1.02244091     21.66426468
Li       32.53057861     52.36683655     21.58726501
Li        6.27727699     -5.11637449     12.91909504
Li       -6.15494680     -6.86237288    -13.03283882
Li       23.41901207     57.53376389     -8.59540081
Li       66.64307404      6.18178654    -16.28643417
Li      -23.30584717    -30.67164612     -4.61017895
Li       -6.21270609    -13.01253128     34.23070908
Li       36.76625061     14.09275913     25.65174103
Li       51.58729172     46.67813110     53.28617096
Li       32.74678421     16.14118004      4.33377409
Li       -2.13007855     -8.77240276     25.45757866
Li       19.40056229     -1.07166767     63.54248428
Li        6.76779556     55.18555450    -38.88309860
Li       18.76066971     -7.17609882     69.02217865
Li       11.15864468     29.86126328     38.51746750
Li       62.94547272     95.82602692     54.59228516
Li       37.08922195     38.65777588      4.54153728
Li       18.92857742     26.01433182      8.24519062
Li       45.27201843      7.00902605     41.40945435
Li       77.56867218     82.70899963     44.64200592
Li       15.00415516    -29.92154121     34.44299316
Li       61.93550491    -23.00887299    -42.15922546
Li       11.24520683     14.43935204     46.19820786
Li       32.68568802    -10.85609818     38.05669785
Li       75.90145111     79.59808350      4.63070154
Li       27.53317261     40.64122391      8.40341854
Li       37.15727234     -3.71823359    -46.96319199
Li       63.03031540     44.65950394     38.30222702
Li       20.73594666     29.63312721    -36.67208862
Li        6.26799250      9.23762131      8.51275253
Li       -2.44207263     23.97474098     85.05872345
Li       58.67399597     18.76008224     63.20411682
Li       23.92988396     46.34414291     54.77768326
Li       50.01148987     70.16526794     30.35088539
Li       23.40299416     39.84940338     46.85274887
Li       32.27145386     44.96669006     -0.16906524
Li       -2.19232202     21.35808182      8.31512070
Li       19.45668030     10.80520535     51.04856491
Li      -11.47434235    -45.28767014    -25.39835548
Li      -28.20406723    -23.79658699     75.84611511
Li      -14.88949013      4.99593592      0.19440843
Li      -41.00817108     75.61235809     25.39882851
Li       15.09491634     60.23664474      8.78442955
Li      -19.79508591     62.34904099     -0.08937311
Li        3.96823835     47.60833359    -52.61393356
Li       23.92165184     70.50788116    -21.06397820
Li       37.25395203     32.54470825     12.46913528
Li      -14.67357159     11.52401066     47.45081711
Li      -54.15205765     39.69568634    -42.91049957
Li      -14.97681713     71.48189545    -12.74034500
Li      -36.27270889     31.13201141      8.24694252
Li      -10.78396130     30.73570442    -12.49395847
Li       11.28831768     12.14707184    -12.28297806
Li       54.32337189      2.22836685     21.05163956
Li        9.39422417    -19.64143372    -27.58210564
Li       63.09239197     41.87342072    105.49922180
Li      -32.08077621     -9.74795437      4.17158747
Li       19.33119202     46.65746307    -33.68626404
Li       63.06100082      5.38627768     54.88270950
Li       14.70874405     48.69451141     12.83514977
Li       15.20755768     52.74788284     21.43458748
Li       23.58966827     15.35236359      0.53764594
Li       14.68830872     21.42621613    -29.09822464
Li       -6.49527311     28.73032188     33.91983032
Li      -10.37290096     36.97339249     29.43725586
Li       10.51587582     28.61925507     42.76719666
Li       15.28109455     27.60756111     51.18001556
Li      -11.35461044    -32.69825363     41.94286728
Li       40.69472122      6.47592306    -16.59000397
Li        1.97522259     29.33458900     25.31211281
Li       32.13389206      3.61967659    -12.36928463
Li        1.96086216    -25.46580696     51.48651886
Li      -24.34277534    -13.65623665     50.77058411
Li       36.86586761     26.40436554     46.95049667
Li       45.11685181     53.71508026     21.14610291
Li      -19.53696632     42.92621994     46.48913956
Li      -14.83055496     -3.91884041     12.51478672
Li       24.00902557     94.62147522    -38.05452347
Li        6.31084728    -32.62341309    106.05419159
Li       36.28533554     62.14739990     50.53482056
Li      -37.20953369     18.22579002    -33.94162750
Li        6.64479208     13.11713219     63.65217590
Li       28.32073784     38.45292664     47.01607513
Li       44.91591263     89.01245117     -9.42854023
Li       36.51693344    -65.07396698     66.71720123
Li       23.45888519     12.94083118     -4.09093857
Li       15.45421028      7.71943092     55.10407257
Li       31.81548691    -23.55881882     21.32962990
Li       15.10301590     30.94631767    -12.48439598
Li       83.95895386     39.36158752     33.54322433
Li       36.88269424     35.76300812    -21.14719009
Li       23.56373024      3.05039167     50.07650375
Li       54.78083038     56.93504333     13.43259621
Li       32.46471024     30.82852745     16.74059296
Li       27.90017319     44.07675934     -0.29161686
Li       40.99064255     12.62038803     46.57352448
Li       32.16867065     48.15938187    -85.25372314
Li       49.37167740     15.32806110     25.91469765
Li       35.24406052     34.92899323     24.12859535
Li       41.76371384     43.28585052     13.63474846
Li      -11.22343159    -36.02044296    -25.46544075
Li        8.68908215     -1.35186231     23.17810631
Li      -10.36538601    -53.32529831     12.21161461
Li      -15.31888294    -28.06233025    -21.01287842
Li       10.81350613      4.89045954     -0.03957086
Li      -36.79133987    -41.31533432     63.55720901
Li        6.29040623     31.05369377     -4.15573359
Li       28.25582695      8.40297127    -12.63814354
Li      -35.88516617     18.78082657    -47.25728989
Li       10.78619671     29.23714066     25.43627167
Li       15.40055752     19.02935219     -4.45999575
Li        2.04555321     23.01137352     25.35840607
Li       -6.85351372     62.13630676     29.86618805
Li       -5.17337370     29.39492035    -18.97239113
Li        2.10762405     17.12798882    -12.62714672
Li       54.34891510     11.68248177     29.72521591
Li        2.11887407     29.12863541      8.64408970
Li       32.49165726     39.81816864     29.89155769
Li       19.33377647    -46.10803604     21.26415062
Li      -11.01044750      3.85709310    -12.86235428
Li       10.07950306    -31.65985298     42.54327011
Li       37.29461670      2.69374824     47.30252457
Li       10.59819984      1.50596166      9.04872322
Li       31.75386238     18.02612495     16.75067139
Li       58.43756104     58.17252350    -46.62048721
Li        1.64541399     13.41564655    -17.01692390
Li       -9.28025532     15.93123913     57.13718414
Li       67.40441895     40.33064651     12.71374702
Li      -10.81242847     -5.94012690     16.31534958
Li      -15.52652645    -10.80370045    -18.18813896
Li       -6.63806152     10.23348618     59.49229813
Li      -15.52795506     38.09491348     60.09436798
Li       23.95488930    -74.73500824    -37.87313080
Li       11.37719250    -21.09156036     54.26567841
Li        6.97973537    -23.00237656     50.70267868
Li       62.42852783     -7.30498314     25.67738342
Li        2.56998539     32.47417068     -8.25368023
Li       36.05290985      4.50967503     42.29000854
Li       -2.92842197    -38.93143082     60.25883484
Li      -10.57839298     -1.98672152    -12.24193668
Li       36.39530563     17.39294243     38.17079163
Li      -23.78280449    -40.11086273     25.61179733
Li       23.48952866     12.47731304     33.71596527
Li       11.13399887     23.59517097     54.44823456
Li       23.33677673      5.97475767     17.32221222
Li       14.59691715     54.47697449    -34.04122162
Li       -1.51296043     28.32513428     -4.96497536
Li       66.75350952     12.32829380     25.24919128
Li       32.17870331     -8.77944469     42.38609695
Li       50.25990295     19.14776802     20.50763130
Li       57.68551636     54.29161072     42.14437485
Li       36.57810211     37.86201477      9.17332649
Li       45.57071304     74.81628418    -28.96758270
Li       15.11013031    -32.35936737      4.30327845
Li       40.66346359     30.65438843     -8.87022591
Li       28.46740723     -3.90485406     59.60593033
Li       46.13632584     39.30491638     21.52881622
Li       37.55617905      2.41498065     -2.89429665
Li       35.85051727     13.40516090     -0.10879481
Li       41.17011642     24.56604767     80.34422302
Li       23.68782806     -2.73172522    -24.94900322
Li       66.74390411     36.82089233     -0.05284555
Li       41.53332520     34.46741867     21.40215111
Li       37.03247452     23.74989510     45.81172943
Li       41.52537155     28.14148521    -21.80099297
Li      -36.16460037    -17.15392876     12.29622650
Li       15.36538315    -44.61035538    -38.32947922
Li       14.94287586     12.64428902     -4.09414291
Li       23.89162827     51.24268341      8.90382290
Li       19.20375824     -9.96904087      4.29169273
Li       36.78208160     32.62311172     50.96405411
Li      -18.67733192     -8.09670448     20.79544449
Li      -27.53635979     10.24338722     21.02107048
Li      -31.94862747     -6.37187195    -54.53506851
Li        6.30786991    -14.32153130     -8.80689812
Li       19.96620560     38.63931656     38.63436890
Li       23.45369530     15.54729748    -50.09141541
Li       15.23921585     54.92592621    -42.14077377
Li       28.69203568     38.54243088     21.90345955
Li       15.26441002     25.24895668    -20.41918755
Li       19.49661827     11.82888603     38.51685333
Li       23.56334686    -29.76789665      0.31645948
Li        6.28637505     -5.93294001     33.41635895
Li      -24.04924393    -16.55363274      8.94365406
Li        4.46596575    -21.18637848     18.69001198
Li       19.15274239     43.68128204      8.02941799
Li      -11.02620029    -14.27081680     12.74460411
Li       36.63943100     -0.83510512     38.30354691
Li        6.08331108     -9.11865425      0.10471311
Li       11.27674675     41.70656967      3.86898494
Li       37.23221207     50.46701050      4.08989668
Li       58.47600937     46.24889755      3.95752120
Li       10.90380096     20.85398674     38.25318146
Li      -10.51149273     27.60863686    -33.82727051
Li       56.28142548     57.23434448     74.77655792
Li       36.63554382     44.14402390     55.58565140
Li       49.35069275     33.53436661    -41.77742767
Li       58.05105209     33.00283432     59.95313644
Li       67.74427795      9.95254421     80.14272308
Li       15.80311584      9.62840557     12.65962696
Li       28.46809959     20.56236458     38.56999207
Li       37.41230392     23.80404472    -38.59643173
Li        5.96679878    -45.25635529    -16.97202492
Li       -1.00989914     -2.12158275     65.06294250
Li       20.71865845     50.27069092     20.86324883
Li        6.01212502     -2.73121977     51.33487320
Li       11.70654011     36.18366241     25.55312729
Li       32.93455887     19.71255875     36.97616196
Li        6.27905703     30.73434830    -12.44341850
Li        2.73119926     45.55461121    -21.49888802
Li       19.14229393     53.24771881     47.16839218
Li       32.96256638     36.73368073     97.28162384
Li       37.19657898     23.76530647     20.85241508
Li       11.32247257    -21.75191498     71.66494751
Li       24.07659721      0.79398876     34.12736130
Li        1.74074340    -19.49206161     16.56056213
Li       40.40466690     45.19880676      0.00970463
Li       11.25148678     -3.58673286     37.80053329
Li       27.97966576    -10.41563320     -0.66891223
Li       71.00691223    -16.48705864     51.33518219
Li       -2.39110446     -2.73225260    -33.56533051
Li       27.84533882     22.62919044     42.42827225
Li       15.38436127      4.54008484    -12.68502235
Li       24.26546478     16.66211319     72.30065918
Li       27.35687065     19.96300697    -16.05341148
Li        6.55623484     15.25558186      3.58921766
Li       45.16666794     55.84091568     25.73598099
Li       76.26276398     58.81555557     37.84396744
Li      -15.42517567    -22.65666199     -8.59634399
Li       28.04346466     46.75418472     42.77901459
Li       -6.76863146     16.96035957     33.58172989
Li      -41.45933914    -37.34691620     58.99167252
Li       23.81749344     24.37946320    -33.78637695
Li       -6.40650606     29.62020493     -3.40636659
Li      -19.94867897     30.63562393     50.60559082
Li      -11.23317623     -5.74092054     41.94887543
Li       28.11477852     92.19233704     -4.43783283
Li      -15.20741749     23.02583504     -8.27906895
Li       -2.19870782     12.87385654    -38.21016312
Li       32.17403412      6.00361490    -25.14998817
Li       49.49676514     51.43994522    -33.67347717
Li       -2.28773808     51.62624741     -8.13908195
Li       -6.98221731     22.52899361     25.37180901
Li       -6.08588028     32.32159805     42.50338364
Li       -6.33540106    -18.85468864      4.45635128
Li       -2.30956292    -14.68305492     -0.49910301
Li       19.90501976     -3.72102785     20.85631943
Li       19.15067863     34.93597794     -0.48012868
Li       11.06527996     39.17575073     46.51771927
Li       37.04934692     50.62249374     46.25225449
Li       41.46182251     28.18109322     20.71461868
Li       14.98087502     12.53881836     67.64756012
Li       19.16703033     53.67639923      4.44645166
Li       -7.02735424     34.82177353     33.27788162
Li        6.51690960      3.33194280     41.82791901
Li        2.56387091     42.05681229     46.00937653
Li       15.21855640     64.05794525    -42.37752914
Li       28.56137848     47.58930969      4.80070162
Li       14.91539955    -39.02611542     17.59917831
Li       19.25245857     -4.17132616      0.07865009
Li        1.66780913     -4.52895164    -67.96975708
Li      -14.74872017    -12.50793362     54.60292816
Li      -11.22786140     -0.34548005     50.80368042
Li       -2.26203513     30.57213402     38.14395905
Li       36.41429520     20.00110245      9.31082439
Li       27.88833237     19.45344925     42.89587784
Li       49.34706879     36.25741196     17.17464638
Li      -28.03260422     -2.49834132    -29.67773628
Li       11.31064320     11.40806866     13.18027020
Li       19.34805489    -16.20854950     33.96347809
Li       -6.77767992      7.60235834    -26.11398506
Li       14.56880379      9.13504505     59.28205490
Li       36.66214371     29.10045433    -51.44330215
Li      -23.95491982     10.11048126    -25.29396439
Li       19.59142303     56.48146820     55.52648544
Li       32.36714172     24.44007683     33.97784424
Li       58.15390396     39.54005051     -8.66052914
Li       37.76718903    -24.65436935      6.94428158
Li       36.49144745      8.07528305     16.58604622
Li       53.59183502    -37.55154419     16.28589439
Li       28.56455040     77.75178528     29.40917206
Li       -2.05925250     -1.82537353    -12.54684258
Li       45.85435104     11.61046982     30.02386284
Li       40.76557922     36.38700867     -8.33771229
Li       36.67470169    -18.65873146    -54.95668411
Li       20.06658745      5.13126802     46.43120956
Li       10.45128250     19.71158028     34.16989899
Li        6.22296810     15.55244827     59.82211685
Li       28.48747826     32.51502609    -21.46032906
Li       32.10587311     45.26598740    -25.41353035
Li       58.62740707     63.90442657     50.77733994
Li       45.32189941     19.94567108     51.31754684
Li      -36.45714951    -62.28030014     -8.30398655
Li      -32.64124298     62.44043350     29.64885521
Li      -10.42974567     25.24031830     89.65023804
Li       15.13722992     48.51463318      7.96404171
Li       -6.39918423     28.17568398    -21.51997185
Li       10.45919514     10.86996746    -41.71897888
Li       15.51983547     43.06389999     -3.45659018
Li       50.01222229     55.14962006     46.34244537
Li       24.40414619     13.90459538     72.07947540
Li       -1.77659965      7.14321423     13.04753590
Li      -18.80408669     28.36805916     46.08463287
Li      -11.14673424     -0.01269775     59.49982071
Li        2.13458276     26.47701263     21.30723000
Li      -32.20381546     32.57047272     42.84402084
Li       27.79738045     16.72454643     84.57418060
Li       40.76587677     57.53828812     50.78102112
Li       10.87989998      8.10899734    -54.90042496
Li        6.49186039     18.74764824    -16.89386177
Li       15.44028568     10.04131603     63.38992691
Li       14.41971588    -54.35964584     75.97854614
Li       10.23974800      7.87142706     -9.04199219
Li       15.38366318     43.79499054    -29.54448509
Li      -14.60058689     14.35013866     37.80572510
Li      -19.62891197    -20.80783844     42.96860123
Li       -2.62640214      2.88139653      7.25319052
Li        7.00690079     37.20324707    105.60794067
Li       32.22428131     54.63089752    -59.35308456
Li      -10.85485744     33.45389938      0.45659283
Li       41.55681610     52.28680801    -12.36092091
Li       45.73302460     58.59852982      8.52468872
Li        6.07553768     -5.68555355    -17.31502533
Li       -5.67288065     63.32788086     37.99308777
Li       26.52699471      2.06916785     27.51284790
Li       19.82707405     -3.60979438      3.85968089
Li      -15.55002499    -31.46726799     93.42761993
Li       19.23648453    -19.18850517     50.35178757
Li       19.68022537     -0.71676958    -29.58757210
Li       18.80766296     31.55155182     42.13673019
Li       32.80192184     37.30551910     12.10878849
Li       18.77931023     49.84695435     16.83344269
Li      -10.94966602    -12.08384132     59.77508926
Li      -19.30774117      9.55454826     34.27624893
Li       36.53271484     41.05027008     33.87243271
Li       10.41949177     -7.36522102     51.44929504
Li      -19.71815681     22.17214394     21.11748123
Li       19.28498650     37.61899185     85.33032990
Li       50.61415482     55.92314911     36.87733459
Li       32.68123245     34.09111786     50.33838654
Li       14.60041523     12.24071503    -17.21884155
Li       24.03315735     37.16587067      4.06721783
Li      -36.74967194    -20.78301620      8.78437805
Li       36.89152145     59.60693741    -29.72870636
Li       35.92955780     10.63653564     34.80101776
Li       10.04225159     31.82558441     50.74395752
Li       19.01374245     22.79710007     67.97618103
Li       27.82938004     17.40400314     46.71893311
Li       62.48094559     80.34365845     12.85845661
Li       62.41247177     25.70692444    -26.27544212
Li        6.03357935     40.02567673     16.60849762
Li       23.79491997    -20.29710007     47.09811020
Li       15.14198589     36.40615845     67.73817444
Li      -15.26833344      8.33843327     63.55301285
Li       37.07080078     29.57893944     89.40936279
Li       10.78602028      8.73482323     38.31985855
Li       -6.47651482     17.58026314    -12.84776115
Li       11.24226093     -3.69447827     63.21641159
Li       -6.13967514    -12.52033138     37.72944641
Li       -2.08358693     24.87587166     20.87664986
Li       20.05705643     23.63889503      3.61465168
Li       32.06166077     21.94323921    -46.66878891
Li       11.19576263     20.55383301    -20.87508202
Li       33.13772964      0.73424852     37.70465088
Li      -32.62746811     13.72250748     54.92176819
Li      -15.79570580     31.46841431     59.34394073
Li       24.22024155     55.23901749    105.62462616
Li       14.76750660     97.20281219     59.75340271
Li      -24.16755867     34.64828873    -17.88481903
Li       -1.39692831     31.62333488    -46.57742310
Li        6.74614573     10.03240490     17.47130966
Li       49.47399521     48.55524445     24.78460312
Li      -18.72645187    -11.06469631    -37.09958267
Li       54.21778488     -6.85534525     38.69334030
Li       19.28770638     19.60648727     25.86751747
Li      -14.65926838    -45.41514587     46.45464325
Li        4.71377850    -11.48725033     -6.77028227
Li       50.38166809     58.90250397    -67.76200104
Li       -2.42697001     21.28104782     30.24943161
Li       45.47124481    -18.69841003     12.81447601
Li       -2.43966889      5.77457142     33.96971130
Li       -2.38044977     21.51394272     59.28388214
Li        1.92184567      7.70795584     41.86595154
Li       67.46249390     73.51382446     20.51384735
Li       10.26313019     65.02845001      0.86653727
Li      -19.34185600     36.28257751    -42.32689285
Li      -19.87540245     44.95520401     16.84135437
Li       -6.33467674     -3.78623295      3.89941311
Li       41.02305222     24.48013687      8.66730309
Li       10.60841179     83.02602386    -33.43286896
Li       37.21789169     32.90047836     37.55841827
Li       29.27578926     29.64804649      6.94294548
Li       15.34138107     46.17383194     37.87345123
Li       45.57020187     56.44630432     63.86865616
Li       58.84194183     28.10704231     20.81995773
Li       57.94621658     30.50076103     25.01826096
Li       32.34264755     36.74132156     25.43035316
Li       36.38105392     22.53104210    -17.05112076
Li       19.12196159     31.62145805     50.96153259
Li       58.57809067      7.26014376     89.45809174
Li       24.16961479     54.87876129     20.72923660
Li       40.52880859     13.07168770    -12.80663967
Li       10.68693066     35.05065918     38.46691513
Li      -15.30477333     16.69976425    109.88494110
Li       53.54203796      7.59041023    -17.81359673
Li       23.74243736     -5.39936686     -3.96298599
Li       24.17730141    -17.48877335     34.20812988
Li      -27.28306389    -20.07329559     47.82843781
Li       -6.51619005    -16.02702904    -33.15194702
Li        6.88613272     27.76468277      3.95414042
Li       36.48152542     23.03800011      0.29197404
Li       15.57713890     22.22591019     12.64953995
Li       58.62926102     46.25494766     63.13888550
Li       11.27682686     26.37546921     33.55979919
Li       23.27752686     48.46290207     -8.89805603
Li       32.09851837      3.21209860     83.97878265
Li       32.29499054    -42.05588531    -33.92930222
Li       45.86138916     -0.06297531    -12.74781132
Li       54.12757874     32.36098480     29.47548676
Li       40.53940964     36.37736511     50.98244476
P         0.13356039      7.42932034      2.05882192
S         0.07623107      6.30148792      0.33862740
S         0.38128957      6.39505672      3.81890726
S         1.71797132      8.72864056      1.96279037
S        -1.76252615      8.24726963      2.16332674
S         0.07623107      6.30148792      8.81652737
S         0.38128957      6.39505672     12.29680729
S         1.71797132      8.72864056     10.44069099
P         0.13356039      7.42932034     10.53672123
S        -1.76252615      8.24726963     10.64122677
S         1.71797132      8.72864056     18.91858864
P         0.13356039      7.42932034     19.01461983
S         0.07623107      6.30148792     17.29442787
S         0.38128957      6.39505672     20.77470589
S        -1.76252615      8.24726963     19.11912537
P         0.13356039      7.42932034     27.49251938
S         0.07623107      6.30148792     25.77232552
S         0.38128957      6.39505672     29.25260544
S         1.71797132      8.72864056     27.39648819
S        -1.76252615      8.24726963     27.59702492
S         0.38128957     15.44125652      3.81890726
S         1.71797132     17.77483940      1.96279037
P         0.13356039     16.47551918      2.05882192
S         0.07623107     15.34768772      0.33862740
S        -1.76252615     17.29347038      2.16332674
S         1.71797132     17.77483940     10.44069099
P         0.13356039     16.47551918     10.53672123
S         0.07623107     15.34768772      8.81652737
S         0.38128957     15.44125652     12.29680729
S        -1.76252615     17.29347038     10.64122677
S         0.07623107     15.34768772     17.29442787
S         0.38128957     15.44125652     20.77470589
S         1.71797132     17.77483940     18.91858864
P         0.13356039     16.47551918     19.01461983
S        -1.76252615     17.29347038     19.11912537
S         0.38128957     15.44125652     29.25260544
S         1.71797132     17.77483940     27.39648819
P         0.13356039     16.47551918     27.49251938
S         0.07623107     15.34768772     25.77232552
S        -1.76252615     17.29347038     27.59702492
P         0.13356039     25.52171898      2.05882192
S         0.07623107     24.39388657      0.33862740
S         0.38128957     24.48745537      3.81890726
S         1.71797132     26.82103920      1.96279037
S        -1.76252615     26.33966827      2.16332674
S         0.07623107     24.39388657      8.81652737
S         0.38128957     24.48745537     12.29680729
S         1.71797132     26.82103920     10.44069099
P         0.13356039     25.52171898     10.53672123
S        -1.76252615     26.33966827     10.64122677
S         1.71797132     26.82103920     18.91858864
P         0.13356039     25.52171898     19.01461983
S         0.07623107     24.39388657     17.29442787
S         0.38128957     24.48745537     20.77470589
S        -1.76252615     26.33966827     19.11912537
P         0.13356039     25.52171898     27.49251938
S         0.07623107     24.39388657     25.77232552
S         0.38128957     24.48745537     29.25260544
S         1.71797132     26.82103920     27.39648819
S        -1.76252615     26.33966827     27.59702492
S         0.38128957     33.53365326      3.81890726
S         1.71797132     35.86723709      1.96279037
P         0.13356039     34.56791687      2.05882192
S         0.07623107     33.44008636      0.33862740
S        -1.76252615     35.38586426      2.16332674
S         1.71797132     35.86723709     10.44069099
P         0.13356039     34.56791687     10.53672123
S         0.07623107     33.44008636      8.81652737
S         0.38128957     33.53365326     12.29680729
S        -1.76252615     35.38586426     10.64122677
S         0.07623107     33.44008636     17.29442787
S         0.38128957     33.53365326     20.77470589
S         1.71797132     35.86723709     18.91858864
P         0.13356039     34.56791687     19.01461983
S        -1.76252615     35.38586426     19.11912537
S         0.38128957     33.53365326     29.25260544
S         1.71797132     35.86723709     27.39648819
P         0.13356039     34.56791687     27.49251938
S         0.07623107     33.44008636     25.77232552
S        -1.76252615     35.38586426     27.59702492
S         6.88097382      8.24726963      2.16332674
P         8.77706051      7.42932034      2.05882192
S         8.71973038      6.30148792      0.33862740
S         9.02478981      6.39505672      3.81890726
S        10.36147118      8.72864056      1.96279037
S         6.88097382      8.24726963     10.64122677
S         8.71973038      6.30148792      8.81652737
S         9.02478981      6.39505672     12.29680729
S        10.36147118      8.72864056     10.44069099
P         8.77706051      7.42932034     10.53672123
S         6.88097382      8.24726963     19.11912537
S        10.36147118      8.72864056     18.91858864
P         8.77706051      7.42932034     19.01461983
S         8.71973038      6.30148792     17.29442787
S         9.02478981      6.39505672     20.77470589
S         6.88097382      8.24726963     27.59702492
P         8.77706051      7.42932034     27.49251938
S         8.71973038      6.30148792     25.77232552
S         9.02478981      6.39505672     29.25260544
S        10.36147118      8.72864056     27.39648819
S         6.88097382     17.29347038      2.16332674
S         9.02478981     15.44125652      3.81890726
S        10.36147118     17.77483940      1.96279037
P         8.77706051     16.47551918      2.05882192
S         8.71973038     15.34768772      0.33862740
S         6.88097382     17.29347038     10.64122677
S        10.36147118     17.77483940     10.44069099
P         8.77706051     16.47551918     10.53672123
S         8.71973038     15.34768772      8.81652737
S         9.02478981     15.44125652     12.29680729
S         6.88097382     17.29347038     19.11912537
S         8.71973038     15.34768772     17.29442787
S         9.02478981     15.44125652     20.77470589
S        10.36147118     17.77483940     18.91858864
P         8.77706051     16.47551918     19.01461983
S        10.36147118     17.77483940     27.39648819
S         8.71973038     15.34768772     25.77232552
S         6.88097382     17.29347038     27.59702492
P         8.77706051     16.47551918     27.49251938
S         9.02478981     15.44125652     29.25260544
S        10.36147118     26.82103920      1.96279037
S         6.88097382     26.33966827      2.16332674
S         8.71973038     24.39388657      0.33862740
S         9.02478981     24.48745537      3.81890726
P         8.77706051     25.52171898      2.05882192
S         6.88097382     26.33966827     10.64122677
S        10.36147118     26.82103920     10.44069099
S         9.02478981     24.48745537     12.29680729
P         8.77706051     25.52171898     10.53672123
S         8.71973038     24.39388657      8.81652737
S         6.88097382     26.33966827     19.11912537
S         8.71973038     24.39388657     17.29442787
S         9.02478981     24.48745537     20.77470589
S        10.36147118     26.82103920     18.91858864
P         8.77706051     25.52171898     19.01461983
S         6.88097382     26.33966827     27.59702492
S        10.36147118     26.82103920     27.39648819
S         8.71973038     24.39388657     25.77232552
P         8.77706051     25.52171898     27.49251938
S         9.02478981     24.48745537     29.25260544
P         8.77706051     34.56791687      2.05882192
S         6.88097382     35.38586426      2.16332674
S        10.36147118     35.86723709      1.96279037
S         9.02478981     33.53365326      3.81890726
S         8.71973038     33.44008636      0.33862740
S         8.71973038     33.44008636      8.81652737
S         9.02478981     33.53365326     12.29680729
P         8.77706051     34.56791687     10.53672123
S         6.88097382     35.38586426     10.64122677
S        10.36147118     35.86723709     10.44069099
S        10.36147118     35.86723709     18.91858864
S         9.02478981     33.53365326     20.77470589
S         6.88097382     35.38586426     19.11912537
P         8.77706051     34.56791687     19.01461983
S         8.71973038     33.44008636     17.29442787
S        10.36147118     35.86723709     27.39648819
S         8.71973038     33.44008636     25.77232552
S         6.88097382     35.38586426     27.59702492
P         8.77706051     34.56791687     27.49251938
S         9.02478981     33.53365326     29.25260544
P        17.42055893      7.42932034      2.05882192
S        19.00496864      8.72864056      1.96279037
S        17.36323166      6.30148792      0.33862740
S        17.66828918      6.39505672      3.81890726
S        15.52447224      8.24726963      2.16332674
S        17.66828918      6.39505672     12.29680729
S        17.36323166      6.30148792      8.81652737
S        19.00496864      8.72864056     10.44069099
P        17.42055893      7.42932034     10.53672123
S        15.52447224      8.24726963     10.64122677
S        17.66828918      6.39505672     20.77470589
P        17.42055893      7.42932034     19.01461983
S        19.00496864      8.72864056     18.91858864
S        17.36323166      6.30148792     17.29442787
S        15.52447224      8.24726963     19.11912537
P        17.42055893      7.42932034     27.49251938
S        17.66828918      6.39505672     29.25260544
S        17.36323166      6.30148792     25.77232552
S        19.00496864      8.72864056     27.39648819
S        15.52447224      8.24726963     27.59702492
S        17.36323166     15.34768772      0.33862740
S        17.66828918     15.44125652      3.81890726
P        17.42055893     16.47551918      2.05882192
S        19.00496864     17.77483940      1.96279037
S        15.52447224     17.29347038      2.16332674
S        17.36323166     15.34768772      8.81652737
S        19.00496864     17.77483940     10.44069099
P        17.42055893     16.47551918     10.53672123
S        17.66828918     15.44125652     12.29680729
S        15.52447224     17.29347038     10.64122677
P        17.42055893     16.47551918     19.01461983
S        19.00496864     17.77483940     18.91858864
S        17.36323166     15.34768772     17.29442787
S        17.66828918     15.44125652     20.77470589
S        15.52447224     17.29347038     19.11912537
S        17.66828918     15.44125652     29.25260544
S        17.36323166     15.34768772     25.77232552
S        19.00496864     17.77483940     27.39648819
P        17.42055893     16.47551918     27.49251938
S        15.52447224     17.29347038     27.59702492
P        17.42055893     25.52171898      2.05882192
S        19.00496864     26.82103920      1.96279037
S        17.36323166     24.39388657      0.33862740
S        17.66828918     24.48745537      3.81890726
S        15.52447224     26.33966827      2.16332674
S        17.66828918     24.48745537     12.29680729
S        17.36323166     24.39388657      8.81652737
S        19.00496864     26.82103920     10.44069099
P        17.42055893     25.52171898     10.53672123
S        15.52447224     26.33966827     10.64122677
S        17.66828918     24.48745537     20.77470589
P        17.42055893     25.52171898     19.01461983
S        19.00496864     26.82103920     18.91858864
S        17.36323166     24.39388657     17.29442787
S        15.52447224     26.33966827     19.11912537
P        17.42055893     25.52171898     27.49251938
S        17.66828918     24.48745537     29.25260544
S        17.36323166     24.39388657     25.77232552
S        19.00496864     26.82103920     27.39648819
S        15.52447224     26.33966827     27.59702492
S        17.36323166     33.44008636      0.33862740
S        17.66828918     33.53365326      3.81890726
P        17.42055893     34.56791687      2.05882192
S        19.00496864     35.86723709      1.96279037
S        15.52447224     35.38586426      2.16332674
S        17.36323166     33.44008636      8.81652737
S        19.00496864     35.86723709     10.44069099
P        17.42055893     34.56791687     10.53672123
S        17.66828918     33.53365326     12.29680729
S        15.52447224     35.38586426     10.64122677
P        17.42055893     34.56791687     19.01461983
S        19.00496864     35.86723709     18.91858864
S        17.36323166     33.44008636     17.29442787
S        17.66828918     33.53365326     20.77470589
S        15.52447224     35.38586426     19.11912537
S        17.66828918     33.53365326     29.25260544
S        17.36323166     33.44008636     25.77232552
S        19.00496864     35.86723709     27.39648819
P        17.42055893     34.56791687     27.49251938
S        15.52447224     35.38586426     27.59702492
S        24.16797256      8.24726963      2.16332674
P        26.06406021      7.42932034      2.05882192
S        27.64846992      8.72864056      1.96279037
S        26.00673103      6.30148792      0.33862740
S        26.31178856      6.39505672      3.81890726
S        24.16797256      8.24726963     10.64122677
S        26.31178856      6.39505672     12.29680729
S        26.00673103      6.30148792      8.81652737
S        27.64846992      8.72864056     10.44069099
P        26.06406021      7.42932034     10.53672123
S        24.16797256      8.24726963     19.11912537
S        26.31178856      6.39505672     20.77470589
P        26.06406021      7.42932034     19.01461983
S        27.64846992      8.72864056     18.91858864
S        26.00673103      6.30148792     17.29442787
S        24.16797256      8.24726963     27.59702492
P        26.06406021      7.42932034     27.49251938
S        26.31178856      6.39505672     29.25260544
S        26.00673103      6.30148792     25.77232552
S        27.64846992      8.72864056     27.39648819
S        24.16797256     17.29347038      2.16332674
S        26.00673103     15.34768772      0.33862740
S        26.31178856     15.44125652      3.81890726
P        26.06406021     16.47551918      2.05882192
S        27.64846992     17.77483940      1.96279037
S        24.16797256     17.29347038     10.64122677
S        26.00673103     15.34768772      8.81652737
S        27.64846992     17.77483940     10.44069099
P        26.06406021     16.47551918     10.53672123
S        26.31178856     15.44125652     12.29680729
S        24.16797256     17.29347038     19.11912537
P        26.06406021     16.47551918     19.01461983
S        27.64846992     17.77483940     18.91858864
S        26.00673103     15.34768772     17.29442787
S        26.31178856     15.44125652     20.77470589
S        27.64846992     17.77483940     27.39648819
S        26.00673103     15.34768772     25.77232552
S        24.16797256     17.29347038     27.59702492
P        26.06406021     16.47551918     27.49251938
S        26.31178856     15.44125652     29.25260544
S        24.16797256     26.33966827      2.16332674
S        27.64846992     26.82103920      1.96279037
S        26.00673103     24.39388657      0.33862740
S        26.31178856     24.48745537      3.81890726
P        26.06406021     25.52171898      2.05882192
S        24.16797256     26.33966827     10.64122677
S        27.64846992     26.82103920     10.44069099
S        26.00673103     24.39388657      8.81652737
P        26.06406021     25.52171898     10.53672123
S        26.31178856     24.48745537     12.29680729
S        24.16797256     26.33966827     19.11912537
S        27.64846992     26.82103920     18.91858864
S        26.00673103     24.39388657     17.29442787
S        26.31178856     24.48745537     20.77470589
P        26.06406021     25.52171898     19.01461983
S        26.00673103     24.39388657     25.77232552
S        24.16797256     26.33966827     27.59702492
S        27.64846992     26.82103920     27.39648819
P        26.06406021     25.52171898     27.49251938
S        26.31178856     24.48745537     29.25260544
S        26.31178856     33.53365326      3.81890726
P        26.06406021     34.56791687      2.05882192
S        24.16797256     35.38586426      2.16332674
S        27.64846992     35.86723709      1.96279037
S        26.00673103     33.44008636      0.33862740
S        27.64846992     35.86723709     10.44069099
S        26.31178856     33.53365326     12.29680729
P        26.06406021     34.56791687     10.53672123
S        24.16797256     35.38586426     10.64122677
S        26.00673103     33.44008636      8.81652737
S        27.64846992     35.86723709     18.91858864
S        26.00673103     33.44008636     17.29442787
S        26.31178856     33.53365326     20.77470589
S        24.16797256     35.38586426     19.11912537
P        26.06406021     34.56791687     19.01461983
S        27.64846992     35.86723709     27.39648819
S        26.00673103     33.44008636     25.77232552
S        24.16797256     35.38586426     27.59702492
P        26.06406021     34.56791687     27.49251938
S        26.31178856     33.53365326     29.25260544
S         8.59868145      2.55062222      4.59899426
P         8.62425995      1.43142736      6.32084656
S         7.03375053      0.12948570      6.23224068
S         8.50094318      2.54693842      8.04579258
S        10.49157810      0.53820163      6.38177395
P         8.62425995      1.43142736     14.79874611
S         7.03375053      0.12948570     14.71013927
S         8.50094318      2.54693842     16.52369308
S         8.59868145      2.55062222     13.07689476
S        10.49157810      0.53820163     14.85967350
S         8.50094318      2.54693842     25.00159073
S         8.59868145      2.55062222     21.55479431
P         8.62425995      1.43142736     23.27664566
S         7.03375053      0.12948570     23.18803978
S        10.49157810      0.53820163     23.33757401
S         8.59868145      2.55062222     30.03269196
P         8.62425995      1.43142736     31.75454521
S         7.03375053      0.12948570     31.66593933
S         8.50094318      2.54693842     33.47949219
S        10.49157810      0.53820163     31.81547165
S         7.03375053      9.17568493      6.23224068
S         8.50094318     11.59313869      8.04579258
S         8.59868145     11.59682274      4.59899426
P         8.62425995     10.47762680      6.32084656
S        10.49157810      9.58440113      6.38177395
S         8.50094318     11.59313869     16.52369308
S         8.59868145     11.59682274     13.07689476
P         8.62425995     10.47762680     14.79874611
S         7.03375053      9.17568493     14.71013927
S        10.49157810      9.58440113     14.85967350
P         8.62425995     10.47762680     23.27664566
S         7.03375053      9.17568493     23.18803978
S         8.50094318     11.59313869     25.00159073
S         8.59868145     11.59682274     21.55479431
S        10.49157810      9.58440113     23.33757401
S         7.03375053      9.17568493     31.66593933
S         8.50094318     11.59313869     33.47949219
S         8.59868145     11.59682274     30.03269196
P         8.62425995     10.47762680     31.75454521
S        10.49157810      9.58440113     31.81547165
S         8.59868145     20.64302254      4.59899426
P         8.62425995     19.52382660      6.32084656
S         7.03375053     18.22188568      6.23224068
S         8.50094318     20.63933945      8.04579258
S        10.49157810     18.63059998      6.38177395
P         8.62425995     19.52382660     14.79874611
S         7.03375053     18.22188568     14.71013927
S         8.50094318     20.63933945     16.52369308
S         8.59868145     20.64302254     13.07689476
S        10.49157810     18.63059998     14.85967350
S         8.50094318     20.63933945     25.00159073
S         8.59868145     20.64302254     21.55479431
P         8.62425995     19.52382660     23.27664566
S         7.03375053     18.22188568     23.18803978
S        10.49157810     18.63059998     23.33757401
S         8.59868145     20.64302254     30.03269196
P         8.62425995     19.52382660     31.75454521
S         7.03375053     18.22188568     31.66593933
S         8.50094318     20.63933945     33.47949219
S        10.49157810     18.63059998     31.81547165
S         7.03375053     27.26808357      6.23224068
S         8.50094318     29.68553925      8.04579258
S         8.59868145     29.68922234      4.59899426
P         8.62425995     28.57002640      6.32084656
S        10.49157810     27.67679977      6.38177395
S         8.50094318     29.68553925     16.52369308
S         8.59868145     29.68922234     13.07689476
P         8.62425995     28.57002640     14.79874611
S         7.03375053     27.26808357     14.71013927
S        10.49157810     27.67679977     14.85967350
P         8.62425995     28.57002640     23.27664566
S         7.03375053     27.26808357     23.18803978
S         8.50094318     29.68553925     25.00159073
S         8.59868145     29.68922234     21.55479431
S        10.49157810     27.67679977     23.33757401
S         7.03375053     27.26808357     31.66593933
S         8.50094318     29.68553925     33.47949219
S         8.59868145     29.68922234     30.03269196
P         8.62425995     28.57002640     31.75454521
S        10.49157810     27.67679977     31.81547165
S        19.13507652      0.53820163      6.38177395
S        17.24217987      2.55062222      4.59899426
P        17.26775932      1.43142736      6.32084656
S        15.67725086      0.12948570      6.23224068
S        17.14444351      2.54693842      8.04579258
S        19.13507652      0.53820163     14.85967350
P        17.26775932      1.43142736     14.79874611
S        15.67725086      0.12948570     14.71013927
S        17.14444351      2.54693842     16.52369308
S        17.24217987      2.55062222     13.07689476
S        19.13507652      0.53820163     23.33757401
S        17.14444351      2.54693842     25.00159073
S        17.24217987      2.55062222     21.55479431
P        17.26775932      1.43142736     23.27664566
S        15.67725086      0.12948570     23.18803978
S        19.13507652      0.53820163     31.81547165
S        17.24217987      2.55062222     30.03269196
P        17.26775932      1.43142736     31.75454521
S        15.67725086      0.12948570     31.66593933
S        17.14444351      2.54693842     33.47949219
S        19.13507652      9.58440113      6.38177395
S        15.67725086      9.17568493      6.23224068
S        17.14444351     11.59313869      8.04579258
S        17.24217987     11.59682274      4.59899426
P        17.26775932     10.47762680      6.32084656
S        19.13507652      9.58440113     14.85967350
S        17.14444351     11.59313869     16.52369308
S        17.24217987     11.59682274     13.07689476
P        17.26775932     10.47762680     14.79874611
S        15.67725086      9.17568493     14.71013927
S        19.13507652      9.58440113     23.33757401
P        17.26775932     10.47762680     23.27664566
S        15.67725086      9.17568493     23.18803978
S        17.14444351     11.59313869     25.00159073
S        17.24217987     11.59682274     21.55479431
S        17.24217987     11.59682274     30.03269196
S        19.13507652      9.58440113     31.81547165
S        17.14444351     11.59313869     33.47949219
P        17.26775932     10.47762680     31.75454521
S        15.67725086      9.17568493     31.66593933
S        15.67725086     18.22188568      6.23224068
S        19.13507652     18.63059998      6.38177395
S        17.14444351     20.63933945      8.04579258
P        17.26775932     19.52382660      6.32084656
S        17.24217987     20.64302254      4.59899426
S        19.13507652     18.63059998     14.85967350
S        15.67725086     18.22188568     14.71013927
S        17.24217987     20.64302254     13.07689476
S        17.14444351     20.63933945     16.52369308
P        17.26775932     19.52382660     14.79874611
S        19.13507652     18.63059998     23.33757401
S        15.67725086     18.22188568     23.18803978
S        17.24217987     20.64302254     21.55479431
S        17.14444351     20.63933945     25.00159073
P        17.26775932     19.52382660     23.27664566
P        17.26775932     19.52382660     31.75454521
S        19.13507652     18.63059998     31.81547165
S        15.67725086     18.22188568     31.66593933
S        17.24217987     20.64302254     30.03269196
S        17.14444351     20.63933945     33.47949219
S        17.14444351     29.68553925      8.04579258
P        17.26775932     28.57002640      6.32084656
S        19.13507652     27.67679977      6.38177395
S        15.67725086     27.26808357      6.23224068
S        17.24217987     29.68922234      4.59899426
S        17.24217987     29.68922234     13.07689476
P        17.26775932     28.57002640     14.79874611
S        19.13507652     27.67679977     14.85967350
S        17.14444351     29.68553925     16.52369308
S        15.67725086     27.26808357     14.71013927
S        15.67725086     27.26808357     23.18803978
S        17.24217987     29.68922234     21.55479431
S        17.14444351     29.68553925     25.00159073
S        19.13507652     27.67679977     23.33757401
P        17.26775932     28.57002640     23.27664566
S        17.24217987     29.68922234     30.03269196
S        19.13507652     27.67679977     31.81547165
S        17.14444351     29.68553925     33.47949219
P        17.26775932     28.57002640     31.75454521
S        15.67725086     27.26808357     31.66593933
S        25.88568115      2.55062222      4.59899426
S        25.78794289      2.54693842      8.04579258
P        25.91125870      1.43142736      6.32084656
S        24.32075119      0.12948570      6.23224068
S        27.77857590      0.53820163      6.38177395
S        24.32075119      0.12948570     14.71013927
S        25.78794289      2.54693842     16.52369308
P        25.91125870      1.43142736     14.79874611
S        25.88568115      2.55062222     13.07689476
S        27.77857590      0.53820163     14.85967350
S        24.32075119      0.12948570     23.18803978
S        25.88568115      2.55062222     21.55479431
S        25.78794289      2.54693842     25.00159073
P        25.91125870      1.43142736     23.27664566
S        27.77857590      0.53820163     23.33757401
P        25.91125870      1.43142736     31.75454521
S        25.88568115      2.55062222     30.03269196
S        24.32075119      0.12948570     31.66593933
S        25.78794289      2.54693842     33.47949219
S        27.77857590      0.53820163     31.81547165
P        25.91125870     10.47762680      6.32084656
S        24.32075119      9.17568493      6.23224068
S        25.88568115     11.59682274      4.59899426
S        25.78794289     11.59313869      8.04579258
S        27.77857590      9.58440113      6.38177395
S        25.78794289     11.59313869     16.52369308
P        25.91125870     10.47762680     14.79874611
S        25.88568115     11.59682274     13.07689476
S        24.32075119      9.17568493     14.71013927
S        27.77857590      9.58440113     14.85967350
S        25.88568115     11.59682274     21.55479431
S        25.78794289     11.59313869     25.00159073
P        25.91125870     10.47762680     23.27664566
S        24.32075119      9.17568493     23.18803978
S        27.77857590      9.58440113     23.33757401
S        24.32075119      9.17568493     31.66593933
S        25.78794289     11.59313869     33.47949219
P        25.91125870     10.47762680     31.75454521
S        25.88568115     11.59682274     30.03269196
S        27.77857590      9.58440113     31.81547165
S        25.88568115     20.64302254      4.59899426
S        25.78794289     20.63933945      8.04579258
P        25.91125870     19.52382660      6.32084656
S        24.32075119     18.22188568      6.23224068
S        27.77857590     18.63059998      6.38177395
S        24.32075119     18.22188568     14.71013927
S        25.78794289     20.63933945     16.52369308
P        25.91125870     19.52382660     14.79874611
S        25.88568115     20.64302254     13.07689476
S        27.77857590     18.63059998     14.85967350
S        24.32075119     18.22188568     23.18803978
S        25.88568115     20.64302254     21.55479431
S        25.78794289     20.63933945     25.00159073
P        25.91125870     19.52382660     23.27664566
S        27.77857590     18.63059998     23.33757401
P        25.91125870     19.52382660     31.75454521
S        25.88568115     20.64302254     30.03269196
S        24.32075119     18.22188568     31.66593933
S        25.78794289     20.63933945     33.47949219
S        27.77857590     18.63059998     31.81547165
P        25.91125870     28.57002640      6.32084656
S        24.32075119     27.26808357      6.23224068
S        25.88568115     29.68922234      4.59899426
S        25.78794289     29.68553925      8.04579258
S        27.77857590     27.67679977      6.38177395
S        25.78794289     29.68553925     16.52369308
P        25.91125870     28.57002640     14.79874611
S        25.88568115     29.68922234     13.07689476
S        24.32075119     27.26808357     14.71013927
S        27.77857590     27.67679977     14.85967350
S        25.88568115     29.68922234     21.55479431
S        25.78794289     29.68553925     25.00159073
P        25.91125870     28.57002640     23.27664566
S        24.32075119     27.26808357     23.18803978
S        27.77857590     27.67679977     23.33757401
S        24.32075119     27.26808357     31.66593933
S        25.78794289     29.68553925     33.47949219
P        25.91125870     28.57002640     31.75454521
S        25.88568115     29.68922234     30.03269196
S        27.77857590     27.67679977     31.81547165
S         1.84807801      0.53820163      6.38177395
S        -0.04481757      2.55062222      4.59899426
S        -0.14255774      2.54693842      8.04579258
P        -0.01924002      1.43142736      6.32084656
S        -1.60975122      0.12948570      6.23224068
S         1.84807801      0.53820163     14.85967350
S        -1.60975122      0.12948570     14.71013927
S        -0.14255774      2.54693842     16.52369308
P        -0.01924002      1.43142736     14.79874611
S        -0.04481757      2.55062222     13.07689476
S         1.84807801      0.53820163     23.33757401
S        -1.60975122      0.12948570     23.18803978
S        -0.04481757      2.55062222     21.55479431
S        -0.14255774      2.54693842     25.00159073
P        -0.01924002      1.43142736     23.27664566
S         1.84807801      0.53820163     31.81547165
P        -0.01924002      1.43142736     31.75454521
S        -0.04481757      2.55062222     30.03269196
S        -1.60975122      0.12948570     31.66593933
S        -0.14255774      2.54693842     33.47949219
S         1.84807801      9.58440113      6.38177395
P        -0.01924002     10.47762680      6.32084656
S        -1.60975122      9.17568493      6.23224068
S        -0.04481757     11.59682274      4.59899426
S        -0.14255774     11.59313869      8.04579258
S         1.84807801      9.58440113     14.85967350
S        -0.14255774     11.59313869     16.52369308
P        -0.01924002     10.47762680     14.79874611
S        -0.04481757     11.59682274     13.07689476
S        -1.60975122      9.17568493     14.71013927
S         1.84807801      9.58440113     23.33757401
S        -0.04481757     11.59682274     21.55479431
S        -0.14255774     11.59313869     25.00159073
P        -0.01924002     10.47762680     23.27664566
S        -1.60975122      9.17568493     23.18803978
S        34.52917862     11.59682274     30.03269196
S        36.42207718      9.58440113     31.81547165
S        34.43143845     11.59313869     33.47949219
P        34.55475998     10.47762680     31.75454521
S        32.96424866      9.17568493     31.66593933
S        32.96424866     18.22188568      6.23224068
S        36.42207718     18.63059998      6.38177395
S        34.43143845     20.63933945      8.04579258
P        34.55475998     19.52382660      6.32084656
S        34.52917862     20.64302254      4.59899426
S         1.84807801     18.63059998     14.85967350
S        -0.04481757     20.64302254     13.07689476
S        -0.14255774     20.63933945     16.52369308
S        -1.60975122     18.22188568     14.71013927
P        -0.01924002     19.52382660     14.79874611
S        34.43143845     20.63933945     25.00159073
S        36.42207718     18.63059998     23.33757401
S        34.52917862     20.64302254     21.55479431
S        32.96424866     18.22188568     23.18803978
P        34.55475998     19.52382660     23.27664566
S         1.84807801     18.63059998     31.81547165
S        -1.60975122     18.22188568     31.66593933
S        -0.04481757     20.64302254     30.03269196
P        -0.01924002     19.52382660     31.75454521
S        -0.14255774     20.63933945     33.47949219
S        34.43143845     29.68553925      8.04579258
S        36.42207718     27.67679977      6.38177395
S        32.96424866     27.26808357      6.23224068
P        34.55475998     28.57002640      6.32084656
S        34.52917862     29.68922234      4.59899426
S        34.52917862     29.68922234     13.07689476
P        34.55475998     28.57002640     14.79874611
S        36.42207718     27.67679977     14.85967350
S        34.43143845     29.68553925     16.52369308
S        32.96424866     27.26808357     14.71013927
S        32.96424866     27.26808357     23.18803978
S        34.43143845     29.68553925     25.00159073
S        36.42207718     27.67679977     23.33757401
P        34.55475998     28.57002640     23.27664566
S        34.52917862     29.68922234     21.55479431
S        34.52917862     29.68922234     30.03269196
S        36.42207718     27.67679977     31.81547165
S        34.43143845     29.68553925     33.47949219
P        34.55475998     28.57002640     31.75454521
S        32.96424866     27.26808357     31.66593933
S         2.55707860      3.72702479      2.16970515
S         4.68690920      1.85451043      3.81615973
S         4.40876293      1.79732180      0.33176979
P         4.44928074      2.90685177      2.06477547
S         6.03877926      4.20367098      1.98782718
S         4.40876293      1.79732180      8.80966949
S         2.55707860      3.72702479     10.64760494
P         4.44928074      2.90685177     10.54267406
S         6.03877926      4.20367098     10.46572590
S         4.68690920      1.85451043     12.29405975
S         6.03877926      4.20367098     18.94362450
S         2.55707860      3.72702479     19.12550545
S         4.68690920      1.85451043     20.77195930
S         4.40876293      1.79732180     17.28756714
P         4.44928074      2.90685177     19.02057266
S         4.40876293      1.79732180     25.76546860
S         2.55707860      3.72702479     27.60340500
P         4.44928074      2.90685177     27.49847412
S         6.03877926      4.20367098     27.42152786
S         4.68690920      1.85451043     29.24985886
P         4.44928074     11.95305157      2.06477547
S         6.03877926     13.24987030      1.98782718
S         2.55707860     12.77322483      2.16970515
S         4.68690920     10.90070915      3.81615973
S         4.40876293     10.84352207      0.33176979
S         6.03877926     13.24987030     10.46572590
S         4.68690920     10.90070915     12.29405975
S         4.40876293     10.84352207      8.80966949
S         2.55707860     12.77322483     10.64760494
P         4.44928074     11.95305157     10.54267406
S         4.40876293     10.84352207     17.28756714
P         4.44928074     11.95305157     19.02057266
S         6.03877926     13.24987030     18.94362450
S         2.55707860     12.77322483     19.12550545
S         4.68690920     10.90070915     20.77195930
P         4.44928074     11.95305157     27.49847412
S         6.03877926     13.24987030     27.42152786
S         4.68690920     10.90070915     29.24985886
S         4.40876293     10.84352207     25.76546860
S         2.55707860     12.77322483     27.60340500
S         2.55707860     21.81942558      2.16970515
S         4.68690920     19.94691086      3.81615973
S         4.40876293     19.88971901      0.33176979
P         4.44928074     20.99925041      2.06477547
S         6.03877926     22.29607010      1.98782718
S         4.40876293     19.88971901      8.80966949
S         2.55707860     21.81942558     10.64760494
P         4.44928074     20.99925041     10.54267406
S         6.03877926     22.29607010     10.46572590
S         4.68690920     19.94691086     12.29405975
S         6.03877926     22.29607010     18.94362450
S         2.55707860     21.81942558     19.12550545
S         4.68690920     19.94691086     20.77195930
S         4.40876293     19.88971901     17.28756714
P         4.44928074     20.99925041     19.02057266
S         4.40876293     19.88971901     25.76546860
S         2.55707860     21.81942558     27.60340500
P         4.44928074     20.99925041     27.49847412
S         6.03877926     22.29607010     27.42152786
S         4.68690920     19.94691086     29.24985886
P         4.44928074     30.04545021      2.06477547
S         6.03877926     31.34226990      1.98782718
S         2.55707860     30.86562538      2.16970515
S         4.68690920     28.99310875      3.81615973
S         4.40876293     28.93592072      0.33176979
S         6.03877926     31.34226990     10.46572590
S         4.68690920     28.99310875     12.29405975
S         4.40876293     28.93592072      8.80966949
S         2.55707860     30.86562538     10.64760494
P         4.44928074     30.04545021     10.54267406
S         4.40876293     28.93592072     17.28756714
P         4.44928074     30.04545021     19.02057266
S         6.03877926     31.34226990     18.94362450
S         2.55707860     30.86562538     19.12550545
S         4.68690920     28.99310875     20.77195930
P         4.44928074     30.04545021     27.49847412
S         6.03877926     31.34226990     27.42152786
S         4.68690920     28.99310875     29.24985886
S         4.40876293     28.93592072     25.76546860
S         2.55707860     30.86562538     27.60340500
S        11.20057869      3.72702479      2.16970515
S        13.33041000      1.85451043      3.81615973
S        13.05226326      1.79732180      0.33176979
P        13.09278011      2.90685177      2.06477547
S        14.68227959      4.20367098      1.98782718
S        13.05226326      1.79732180      8.80966949
S        11.20057869      3.72702479     10.64760494
P        13.09278011      2.90685177     10.54267406
S        14.68227959      4.20367098     10.46572590
S        13.33041000      1.85451043     12.29405975
S        14.68227959      4.20367098     18.94362450
S        11.20057869      3.72702479     19.12550545
S        13.33041000      1.85451043     20.77195930
S        13.05226326      1.79732180     17.28756714
P        13.09278011      2.90685177     19.02057266
S        13.05226326      1.79732180     25.76546860
S        11.20057869      3.72702479     27.60340500
P        13.09278011      2.90685177     27.49847412
S        14.68227959      4.20367098     27.42152786
S        13.33041000      1.85451043     29.24985886
P        13.09278011     11.95305157      2.06477547
S        14.68227959     13.24987030      1.98782718
S        11.20057869     12.77322483      2.16970515
S        13.33041000     10.90070915      3.81615973
S        13.05226326     10.84352207      0.33176979
S        14.68227959     13.24987030     10.46572590
S        13.33041000     10.90070915     12.29405975
S        13.05226326     10.84352207      8.80966949
S        11.20057869     12.77322483     10.64760494
P        13.09278011     11.95305157     10.54267406
S        13.05226326     10.84352207     17.28756714
P        13.09278011     11.95305157     19.02057266
S        14.68227959     13.24987030     18.94362450
S        11.20057869     12.77322483     19.12550545
S        13.33041000     10.90070915     20.77195930
S        13.05226326     10.84352207     25.76546860
S        13.33041000     10.90070915     29.24985886
S        11.20057869     12.77322483     27.60340500
P        13.09278011     11.95305157     27.49847412
S        14.68227959     13.24987030     27.42152786
S        13.05226326     19.88971901      0.33176979
S        13.33041000     19.94691086      3.81615973
P        13.09278011     20.99925041      2.06477547
S        11.20057869     21.81942558      2.16970515
S        14.68227959     22.29607010      1.98782718
S        14.68227959     22.29607010     10.46572590
S        13.33041000     19.94691086     12.29405975
S        13.05226326     19.88971901      8.80966949
P        13.09278011     20.99925041     10.54267406
S        11.20057869     21.81942558     10.64760494
S        11.20057869     21.81942558     19.12550545
S        14.68227959     22.29607010     18.94362450
P        13.09278011     20.99925041     19.02057266
S        13.05226326     19.88971901     17.28756714
S        13.33041000     19.94691086     20.77195930
P        13.09278011     20.99925041     27.49847412
S        13.33041000     19.94691086     29.24985886
S        11.20057869     21.81942558     27.60340500
S        14.68227959     22.29607010     27.42152786
S        13.05226326     19.88971901     25.76546860
S        13.05226326     28.93592072      0.33176979
S        13.33041000     28.99310875      3.81615973
S        11.20057869     30.86562538      2.16970515
S        14.68227959     31.34226990      1.98782718
P        13.09278011     30.04545021      2.06477547
S        13.05226326     28.93592072      8.80966949
S        13.33041000     28.99310875     12.29405975
P        13.09278011     30.04545021     10.54267406
S        11.20057869     30.86562538     10.64760494
S        14.68227959     31.34226990     10.46572590
P        13.09278011     30.04545021     19.02057266
S        13.33041000     28.99310875     20.77195930
S        11.20057869     30.86562538     19.12550545
S        14.68227959     31.34226990     18.94362450
S        13.05226326     28.93592072     17.28756714
S        14.68227959     31.34226990     27.42152786
S        13.05226326     28.93592072     25.76546860
S        13.33041000     28.99310875     29.24985886
S        11.20057869     30.86562538     27.60340500
P        13.09278011     30.04545021     27.49847412
S        19.84407806      3.72702479      2.16970515
S        21.97390938      1.85451043      3.81615973
S        23.32577896      4.20367098      1.98782718
S        21.69576263      1.79732180      0.33176979
P        21.73627853      2.90685177      2.06477547
S        19.84407806      3.72702479     10.64760494
P        21.73627853      2.90685177     10.54267406
S        23.32577896      4.20367098     10.46572590
S        21.97390938      1.85451043     12.29405975
S        21.69576263      1.79732180      8.80966949
P        21.73627853      2.90685177     19.02057266
S        19.84407806      3.72702479     19.12550545
S        21.97390938      1.85451043     20.77195930
S        23.32577896      4.20367098     18.94362450
S        21.69576263      1.79732180     17.28756714
S        21.97390938      1.85451043     29.24985886
S        21.69576263      1.79732180     25.76546860
S        19.84407806      3.72702479     27.60340500
P        21.73627853      2.90685177     27.49847412
S        23.32577896      4.20367098     27.42152786
S        21.69576263     10.84352207      0.33176979
P        21.73627853     11.95305157      2.06477547
S        19.84407806     12.77322483      2.16970515
S        21.97390938     10.90070915      3.81615973
S        23.32577896     13.24987030      1.98782718
S        23.32577896     13.24987030     10.46572590
S        21.97390938     10.90070915     12.29405975
S        21.69576263     10.84352207      8.80966949
S        19.84407806     12.77322483     10.64760494
P        21.73627853     11.95305157     10.54267406
S        23.32577896     13.24987030     18.94362450
S        21.69576263     10.84352207     17.28756714
P        21.73627853     11.95305157     19.02057266
S        19.84407806     12.77322483     19.12550545
S        21.97390938     10.90070915     20.77195930
P        21.73627853     11.95305157     27.49847412
S        23.32577896     13.24987030     27.42152786
S        21.97390938     10.90070915     29.24985886
S        21.69576263     10.84352207     25.76546860
S        19.84407806     12.77322483     27.60340500
S        19.84407806     21.81942558      2.16970515
S        21.97390938     19.94691086      3.81615973
S        23.32577896     22.29607010      1.98782718
S        21.69576263     19.88971901      0.33176979
P        21.73627853     20.99925041      2.06477547
S        19.84407806     21.81942558     10.64760494
P        21.73627853     20.99925041     10.54267406
S        23.32577896     22.29607010     10.46572590
S        21.97390938     19.94691086     12.29405975
S        21.69576263     19.88971901      8.80966949
P        21.73627853     20.99925041     19.02057266
S        19.84407806     21.81942558     19.12550545
S        21.97390938     19.94691086     20.77195930
S        23.32577896     22.29607010     18.94362450
S        21.69576263     19.88971901     17.28756714
S        21.97390938     19.94691086     29.24985886
S        21.69576263     19.88971901     25.76546860
S        19.84407806     21.81942558     27.60340500
P        21.73627853     20.99925041     27.49847412
S        23.32577896     22.29607010     27.42152786
S        21.69576263     28.93592072      0.33176979
P        21.73627853     30.04545021      2.06477547
S        19.84407806     30.86562538      2.16970515
S        21.97390938     28.99310875      3.81615973
S        23.32577896     31.34226990      1.98782718
S        23.32577896     31.34226990     10.46572590
S        21.97390938     28.99310875     12.29405975
S        21.69576263     28.93592072      8.80966949
S        19.84407806     30.86562538     10.64760494
P        21.73627853     30.04545021     10.54267406
S        23.32577896     31.34226990     18.94362450
S        21.69576263     28.93592072     17.28756714
P        21.73627853     30.04545021     19.02057266
S        19.84407806     30.86562538     19.12550545
S        21.97390938     28.99310875     20.77195930
P        21.73627853     30.04545021     27.49847412
S        23.32577896     31.34226990     27.42152786
S        21.97390938     28.99310875     29.24985886
S        21.69576263     28.93592072     25.76546860
S        19.84407806     30.86562538     27.60340500
S        28.48757935      3.72702479      2.16970515
S        30.61740685      1.85451043      3.81615973
S        31.96927834      4.20367098      1.98782718
S        30.33926392      1.79732180      0.33176979
P        30.37978172      2.90685177      2.06477547
S        28.48757935      3.72702479     10.64760494
P        30.37978172      2.90685177     10.54267406
S        31.96927834      4.20367098     10.46572590
S        30.61740685      1.85451043     12.29405975
S        30.33926392      1.79732180      8.80966949
P        30.37978172      2.90685177     19.02057266
S        28.48757935      3.72702479     19.12550545
S        30.61740685      1.85451043     20.77195930
S        31.96927834      4.20367098     18.94362450
S        30.33926392      1.79732180     17.28756714
S        30.61740685      1.85451043     29.24985886
S        30.33926392      1.79732180     25.76546860
S        28.48757935      3.72702479     27.60340500
P        30.37978172      2.90685177     27.49847412
S        31.96927834      4.20367098     27.42152786
S        30.33926392     10.84352207      0.33176979
P        30.37978172     11.95305157      2.06477547
S        28.48757935     12.77322483      2.16970515
S        30.61740685     10.90070915      3.81615973
S        31.96927834     13.24987030      1.98782718
S        31.96927834     13.24987030     10.46572590
S        30.61740685     10.90070915     12.29405975
S        30.33926392     10.84352207      8.80966949
S        28.48757935     12.77322483     10.64760494
P        30.37978172     11.95305157     10.54267406
S        31.96927834     13.24987030     18.94362450
S        30.33926392     10.84352207     17.28756714
P        30.37978172     11.95305157     19.02057266
S        28.48757935     12.77322483     19.12550545
S        30.61740685     10.90070915     20.77195930
S        30.33926392     10.84352207     25.76546860
S        30.61740685     10.90070915     29.24985886
S        28.48757935     12.77322483     27.60340500
P        30.37978172     11.95305157     27.49847412
S        31.96927834     13.24987030     27.42152786
S        31.96927834     22.29607010      1.98782718
S        30.33926392     19.88971901      0.33176979
S        30.61740685     19.94691086      3.81615973
P        30.37978172     20.99925041      2.06477547
S        28.48757935     21.81942558      2.16970515
S        31.96927834     22.29607010     10.46572590
S        30.61740685     19.94691086     12.29405975
S        28.48757935     21.81942558     10.64760494
P        30.37978172     20.99925041     10.54267406
S        30.33926392     19.88971901      8.80966949
S        30.61740685     19.94691086     20.77195930
S        28.48757935     21.81942558     19.12550545
S        31.96927834     22.29607010     18.94362450
P        30.37978172     20.99925041     19.02057266
S        30.33926392     19.88971901     17.28756714
S        30.33926392     19.88971901     25.76546860
P        30.37978172     20.99925041     27.49847412
S        28.48757935     21.81942558     27.60340500
S        31.96927834     22.29607010     27.42152786
S        30.61740685     19.94691086     29.24985886
P        30.37978172     30.04545021      2.06477547
S        30.61740685     28.99310875      3.81615973
S        28.48757935     30.86562538      2.16970515
S        31.96927834     31.34226990      1.98782718
S        30.33926392     28.93592072      0.33176979
S        30.33926392     28.93592072      8.80966949
S        30.61740685     28.99310875     12.29405975
P        30.37978172     30.04545021     10.54267406
S        28.48757935     30.86562538     10.64760494
S        31.96927834     31.34226990     10.46572590
S        30.33926392     28.93592072     17.28756714
P        30.37978172     30.04545021     19.02057266
S        30.61740685     28.99310875     20.77195930
S        28.48757935     30.86562538     19.12550545
S        31.96927834     31.34226990     18.94362450
S        31.96927834     31.34226990     27.42152786
S        30.33926392     28.93592072     25.76546860
S        30.61740685     28.99310875     29.24985886
S        28.48757935     30.86562538     27.60340500
P        30.37978172     30.04545021     27.49847412
S         6.16996384      5.06017256      6.38299274
S         4.29002380      7.08196259      4.60333204
S         4.17791653      7.07625246      8.04720783
S         2.70986295      4.66403198      6.23054552
P         4.30682993      5.95866919      6.32365513
S         6.16996384      5.06017256     14.86089230
S         2.70986295      4.66403198     14.70844555
P         4.30682993      5.95866919     14.80155468
S         4.29002380      7.08196259     13.08123112
S         4.17791653      7.07625246     16.52510643
P         4.30682993      5.95866919     23.27945328
S         6.16996384      5.06017256     23.33879280
S         4.29002380      7.08196259     21.55913162
S         4.17791653      7.07625246     25.00300598
S         2.70986295      4.66403198     23.18634605
S         4.29002380      7.08196259     30.03703117
S         4.17791653      7.07625246     33.48090744
S         6.16996384      5.06017256     31.81669426
S         2.70986295      4.66403198     31.66424561
P         4.30682993      5.95866919     31.75735283
S         2.70986295     13.71023178      6.23054552
P         4.30682993     15.00486851      6.32365513
S         6.16996384     14.10637188      6.38299274
S         4.29002380     16.12816238      4.60333204
S         4.17791653     16.12245369      8.04720783
P         4.30682993     15.00486851     14.80155468
S         4.29002380     16.12816238     13.08123112
S         4.17791653     16.12245369     16.52510643
S         6.16996384     14.10637188     14.86089230
S         2.70986295     13.71023178     14.70844555
S         4.17791653     16.12245369     25.00300598
S         2.70986295     13.71023178     23.18634605
P         4.30682993     15.00486851     23.27945328
S         6.16996384     14.10637188     23.33879280
S         4.29002380     16.12816238     21.55913162
S         2.70986295     13.71023178     31.66424561
P         4.30682993     15.00486851     31.75735283
S         4.29002380     16.12816238     30.03703117
S         4.17791653     16.12245369     33.48090744
S         6.16996384     14.10637188     31.81669426
S         6.16996384     23.15257263      6.38299274
S         4.29002380     25.17436218      4.60333204
S         4.17791653     25.16865349      8.04720783
S         2.70986295     22.75643158      6.23054552
P         4.30682993     24.05106926      6.32365513
S         6.16996384     23.15257263     14.86089230
S         2.70986295     22.75643158     14.70844555
P         4.30682993     24.05106926     14.80155468
S         4.29002380     25.17436218     13.08123112
S         4.17791653     25.16865349     16.52510643
P         4.30682993     24.05106926     23.27945328
S         6.16996384     23.15257263     23.33879280
S         4.29002380     25.17436218     21.55913162
S         4.17791653     25.16865349     25.00300598
S         2.70986295     22.75643158     23.18634605
S         4.29002380     25.17436218     30.03703117
S         4.17791653     25.16865349     33.48090744
S         6.16996384     23.15257263     31.81669426
S         2.70986295     22.75643158     31.66424561
P         4.30682993     24.05106926     31.75735283
S         2.70986295     31.80262947      6.23054552
P         4.30682993     33.09726334      6.32365513
S         6.16996384     32.19877243      6.38299274
S         4.29002380     34.22055817      4.60333204
S         4.17791653     34.21484756      8.04720783
P         4.30682993     33.09726334     14.80155468
S         4.29002380     34.22055817     13.08123112
S         4.17791653     34.21484756     16.52510643
S         6.16996384     32.19877243     14.86089230
S         2.70986295     31.80262947     14.70844555
S         4.17791653     34.21484756     25.00300598
S         2.70986295     31.80262947     23.18634605
P         4.30682993     33.09726334     23.27945328
S         6.16996384     32.19877243     23.33879280
S         4.29002380     34.22055817     21.55913162
S         2.70986295     31.80262947     31.66424561
P         4.30682993     33.09726334     31.75735283
S         4.29002380     34.22055817     30.03703117
S         4.17791653     34.21484756     33.48090744
S         6.16996384     32.19877243     31.81669426
S        14.81346321      5.06017256      6.38299274
S        12.93352318      7.08196259      4.60333204
S        12.82141685      7.07625246      8.04720783
S        11.35336208      4.66403198      6.23054552
P        12.95032883      5.95866919      6.32365513
S        14.81346321      5.06017256     14.86089230
S        11.35336208      4.66403198     14.70844555
P        12.95032883      5.95866919     14.80155468
S        12.93352318      7.08196259     13.08123112
S        12.82141685      7.07625246     16.52510643
P        12.95032883      5.95866919     23.27945328
S        14.81346321      5.06017256     23.33879280
S        12.93352318      7.08196259     21.55913162
S        12.82141685      7.07625246     25.00300598
S        11.35336208      4.66403198     23.18634605
S        12.93352318      7.08196259     30.03703117
S        12.82141685      7.07625246     33.48090744
S        14.81346321      5.06017256     31.81669426
S        11.35336208      4.66403198     31.66424561
P        12.95032883      5.95866919     31.75735283
S        11.35336208     13.71023178      6.23054552
P        12.95032883     15.00486851      6.32365513
S        14.81346321     14.10637188      6.38299274
S        12.93352318     16.12816238      4.60333204
S        12.82141685     16.12245369      8.04720783
P        12.95032883     15.00486851     14.80155468
S        12.93352318     16.12816238     13.08123112
S        12.82141685     16.12245369     16.52510643
S        14.81346321     14.10637188     14.86089230
S        11.35336208     13.71023178     14.70844555
S        12.82141685     16.12245369     25.00300598
S        11.35336208     13.71023178     23.18634605
P        12.95032883     15.00486851     23.27945328
S        14.81346321     14.10637188     23.33879280
S        12.93352318     16.12816238     21.55913162
S        12.93352318     16.12816238     30.03703117
P        12.95032883     15.00486851     31.75735283
S        12.82141685     16.12245369     33.48090744
S        14.81346321     14.10637188     31.81669426
S        11.35336208     13.71023178     31.66424561
S        12.93352318     25.17436218      4.60333204
P        12.95032883     24.05106926      6.32365513
S        12.82141685     25.16865349      8.04720783
S        14.81346321     23.15257263      6.38299274
S        11.35336208     22.75643158      6.23054552
S        11.35336208     22.75643158     14.70844555
S        12.82141685     25.16865349     16.52510643
S        12.93352318     25.17436218     13.08123112
S        14.81346321     23.15257263     14.86089230
P        12.95032883     24.05106926     14.80155468
S        12.82141685     25.16865349     25.00300598
S        14.81346321     23.15257263     23.33879280
S        11.35336208     22.75643158     23.18634605
P        12.95032883     24.05106926     23.27945328
S        12.93352318     25.17436218     21.55913162
S        12.82141685     25.16865349     33.48090744
P        12.95032883     24.05106926     31.75735283
S        14.81346321     23.15257263     31.81669426
S        11.35336208     22.75643158     31.66424561
S        12.93352318     25.17436218     30.03703117
S        12.93352318     34.22055817      4.60333204
P        12.95032883     33.09726334      6.32365513
S        12.82141685     34.21484756      8.04720783
S        14.81346321     32.19877243      6.38299274
S        11.35336208     31.80262947      6.23054552
S        12.93352318     34.22055817     13.08123112
S        12.82141685     34.21484756     16.52510643
S        14.81346321     32.19877243     14.86089230
S        11.35336208     31.80262947     14.70844555
P        12.95032883     33.09726334     14.80155468
S        12.93352318     34.22055817     21.55913162
P        12.95032883     33.09726334     23.27945328
S        14.81346321     32.19877243     23.33879280
S        11.35336208     31.80262947     23.18634605
S        12.82141685     34.21484756     25.00300598
S        12.82141685     34.21484756     33.48090744
S        12.93352318     34.22055817     30.03703117
P        12.95032883     33.09726334     31.75735283
S        14.81346321     32.19877243     31.81669426
S        11.35336208     31.80262947     31.66424561
S        23.45696259      5.06017256      6.38299274
P        21.59382820      5.95866919      6.32365513
S        21.57702255      7.08196259      4.60333204
S        21.46491432      7.07625246      8.04720783
S        19.99686241      4.66403198      6.23054552
S        21.46491432      7.07625246     16.52510643
S        23.45696259      5.06017256     14.86089230
S        19.99686241      4.66403198     14.70844555
P        21.59382820      5.95866919     14.80155468
S        21.57702255      7.08196259     13.08123112
S        19.99686241      4.66403198     23.18634605
S        23.45696259      5.06017256     23.33879280
P        21.59382820      5.95866919     23.27945328
S        21.57702255      7.08196259     21.55913162
S        21.46491432      7.07625246     25.00300598
S        21.57702255      7.08196259     30.03703117
S        21.46491432      7.07625246     33.48090744
S        23.45696259      5.06017256     31.81669426
S        19.99686241      4.66403198     31.66424561
P        21.59382820      5.95866919     31.75735283
S        19.99686241     13.71023178      6.23054552
S        23.45696259     14.10637188      6.38299274
P        21.59382820     15.00486851      6.32365513
S        21.57702255     16.12816238      4.60333204
S        21.46491432     16.12245369      8.04720783
P        21.59382820     15.00486851     14.80155468
S        21.57702255     16.12816238     13.08123112
S        21.46491432     16.12245369     16.52510643
S        23.45696259     14.10637188     14.86089230
S        19.99686241     13.71023178     14.70844555
S        21.57702255     16.12816238     21.55913162
S        21.46491432     16.12245369     25.00300598
S        19.99686241     13.71023178     23.18634605
S        23.45696259     14.10637188     23.33879280
P        21.59382820     15.00486851     23.27945328
S        19.99686241     13.71023178     31.66424561
P        21.59382820     15.00486851     31.75735283
S        21.57702255     16.12816238     30.03703117
S        21.46491432     16.12245369     33.48090744
S        23.45696259     14.10637188     31.81669426
S        23.45696259     23.15257263      6.38299274
P        21.59382820     24.05106926      6.32365513
S        21.57702255     25.17436218      4.60333204
S        21.46491432     25.16865349      8.04720783
S        19.99686241     22.75643158      6.23054552
S        21.46491432     25.16865349     16.52510643
S        23.45696259     23.15257263     14.86089230
S        19.99686241     22.75643158     14.70844555
P        21.59382820     24.05106926     14.80155468
S        21.57702255     25.17436218     13.08123112
S        19.99686241     22.75643158     23.18634605
S        23.45696259     23.15257263     23.33879280
P        21.59382820     24.05106926     23.27945328
S        21.57702255     25.17436218     21.55913162
S        21.46491432     25.16865349     25.00300598
S        21.57702255     25.17436218     30.03703117
S        21.46491432     25.16865349     33.48090744
S        23.45696259     23.15257263     31.81669426
S        19.99686241     22.75643158     31.66424561
P        21.59382820     24.05106926     31.75735283
S        19.99686241     31.80262947      6.23054552
S        23.45696259     32.19877243      6.38299274
P        21.59382820     33.09726334      6.32365513
S        21.57702255     34.22055817      4.60333204
S        21.46491432     34.21484756      8.04720783
P        21.59382820     33.09726334     14.80155468
S        21.57702255     34.22055817     13.08123112
S        21.46491432     34.21484756     16.52510643
S        23.45696259     32.19877243     14.86089230
S        19.99686241     31.80262947     14.70844555
S        21.57702255     34.22055817     21.55913162
S        21.46491432     34.21484756     25.00300598
S        19.99686241     31.80262947     23.18634605
S        23.45696259     32.19877243     23.33879280
P        21.59382820     33.09726334     23.27945328
S        19.99686241     31.80262947     31.66424561
P        21.59382820     33.09726334     31.75735283
S        21.57702255     34.22055817     30.03703117
S        21.46491432     34.21484756     33.48090744
S        23.45696259     32.19877243     31.81669426
S        32.10046387      5.06017256      6.38299274
P        30.23732948      5.95866919      6.32365513
S        30.22052193      7.08196259      4.60333204
S        30.10841560      7.07625246      8.04720783
S        28.64036369      4.66403198      6.23054552
S        30.10841560      7.07625246     16.52510643
S        32.10046387      5.06017256     14.86089230
S        28.64036369      4.66403198     14.70844555
P        30.23732948      5.95866919     14.80155468
S        30.22052193      7.08196259     13.08123112
S        28.64036369      4.66403198     23.18634605
S        32.10046387      5.06017256     23.33879280
P        30.23732948      5.95866919     23.27945328
S        30.22052193      7.08196259     21.55913162
S        30.10841560      7.07625246     25.00300598
S        30.22052193      7.08196259     30.03703117
S        30.10841560      7.07625246     33.48090744
S        32.10046387      5.06017256     31.81669426
S        28.64036369      4.66403198     31.66424561
P        30.23732948      5.95866919     31.75735283
S        28.64036369     13.71023178      6.23054552
S        32.10046387     14.10637188      6.38299274
P        30.23732948     15.00486851      6.32365513
S        30.22052193     16.12816238      4.60333204
S        30.10841560     16.12245369      8.04720783
P        30.23732948     15.00486851     14.80155468
S        30.22052193     16.12816238     13.08123112
S        30.10841560     16.12245369     16.52510643
S        32.10046387     14.10637188     14.86089230
S        28.64036369     13.71023178     14.70844555
S        30.22052193     16.12816238     21.55913162
S        30.10841560     16.12245369     25.00300598
S        28.64036369     13.71023178     23.18634605
S        32.10046387     14.10637188     23.33879280
P        30.23732948     15.00486851     23.27945328
S        30.22052193     16.12816238     30.03703117
P        30.23732948     15.00486851     31.75735283
S        30.10841560     16.12245369     33.48090744
S        32.10046387     14.10637188     31.81669426
S        28.64036369     13.71023178     31.66424561
S        30.22052193     25.17436218      4.60333204
S        32.10046387     23.15257263      6.38299274
P        30.23732948     24.05106926      6.32365513
S        30.10841560     25.16865349      8.04720783
S        28.64036369     22.75643158      6.23054552
S        32.10046387     23.15257263     14.86089230
S        28.64036369     22.75643158     14.70844555
S        30.22052193     25.17436218     13.08123112
S        30.10841560     25.16865349     16.52510643
P        30.23732948     24.05106926     14.80155468
P        30.23732948     24.05106926     23.27945328
S        30.10841560     25.16865349     25.00300598
S        32.10046387     23.15257263     23.33879280
S        28.64036369     22.75643158     23.18634605
S        30.22052193     25.17436218     21.55913162
S        30.10841560     25.16865349     33.48090744
P        30.23732948     24.05106926     31.75735283
S        32.10046387     23.15257263     31.81669426
S        28.64036369     22.75643158     31.66424561
S        30.22052193     25.17436218     30.03703117
S        30.22052193     34.22055817      4.60333204
P        30.23732948     33.09726334      6.32365513
S        30.10841560     34.21484756      8.04720783
S        32.10046387     32.19877243      6.38299274
S        28.64036369     31.80262947      6.23054552
S        30.22052193     34.22055817     13.08123112
S        30.10841560     34.21484756     16.52510643
S        32.10046387     32.19877243     14.86089230
S        28.64036369     31.80262947     14.70844555
P        30.23732948     33.09726334     14.80155468
S        30.10841560     34.21484756     25.00300598
P        30.23732948     33.09726334     23.27945328
S        32.10046387     32.19877243     23.33879280
S        28.64036369     31.80262947     23.18634605
S        30.22052193     34.22055817     21.55913162
S        30.10841560     34.21484756     33.48090744
S        30.22052193     34.22055817     30.03703117
P        30.23732948     33.09726334     31.75735283
S        32.10046387     32.19877243     31.81669426
S        28.64036369     31.80262947     31.66424561
