2048

Li       27.90594292    -10.12253094     -0.17937526
Li      -23.22134018    -58.03037643     -4.73386717
Li      -14.41501427    -39.38184357     71.30971527
Li       41.62198639     19.03562164     54.62941360
Li       40.88880920     39.28079987     -0.31646949
Li       49.74470901     54.14435196     67.69897461
Li      -10.19316101     61.06631088     22.30062675
Li       19.07640839     76.85970306     76.48915100
Li       97.24549103     23.40010262     93.45090485
Li       83.83255005     78.15360260     51.11427307
Li       28.65503693     41.93528748    -49.86340332
Li        2.05423641    -34.56160355     51.11130524
Li       -2.00314116     40.01145935     89.18431854
Li       93.16239929     48.97010040     71.88671875
Li       27.83212280     28.58728409     34.17441559
Li       -2.48442483    -14.77914619     92.86484528
Li       67.59396362    -35.40909958     80.08732605
Li       23.46630287    -23.79189110     75.98435974
Li       -2.86173916     15.32203960     36.94361496
Li       -1.29743600     28.52766228    -30.77154732
Li      -37.22523499    -54.29171371      4.04845905
Li       45.75696945    -21.75001335     25.50888252
Li        6.30721283      6.05082989     51.03668594
Li      -36.79306793    -50.26685715     72.12950134
Li       36.91405487      8.17347908    -46.42034531
Li       22.73466110    -56.86355209     18.38586044
Li       48.92676544     60.73274231     52.44659805
Li      -41.66843796     40.64963150     76.18944550
Li       36.73586655    -18.94451141     29.73661613
Li       19.36310959     25.93646049    -71.55466461
Li        6.81349134     -8.08766270     20.71327400
Li       23.35146713    -23.65021706     58.95791626
Li       10.95910931      2.32571316    -37.82190704
Li      127.20552063     15.18035507    -58.72656250
Li      -36.45833206     91.09979248    -76.00634766
Li       32.38525772     27.72755814      8.75267220
Li       10.96623039     -3.88742328      8.75872326
Li       27.90994453      1.42562616     34.23127747
Li       10.71240997      2.04043627     42.46716690
Li      106.19871521     26.91879082     21.14307976
Li      -18.98184204     43.22679901    -37.64787674
Li       49.14067078      9.00428104     17.02865410
Li        6.75214005    -38.04067230     13.06549835
Li       36.38269043    -73.70925140    118.53067780
Li       36.96674347     23.48238182     20.93174553
Li        6.67314816    -35.34317017    -38.83402252
Li        2.35976696    102.06413269     29.97316742
Li      -24.29973221    -10.11358738     58.72744751
Li       19.81875610     56.68325043    -12.18536758
Li      -10.53886890    -44.18928909    -13.56575680
Li       49.99111176    -29.52510834     38.69149017
Li       75.70544434    -59.88228226     89.38034821
Li        6.26683664    -20.98646736     71.24210358
Li        5.86504412    -63.50632858     -8.65972996
Li        2.17247581    -28.39161301     29.98600388
Li       73.65667725    102.93270874    -18.60966110
Li       58.80396271     58.58426285     29.83185196
Li       58.95294189     37.44974899     62.95340729
Li       57.95762253      9.24456692     33.93464279
Li      -10.70456123     58.10393906     42.17253494
Li       37.14533234     50.81562042     37.86316681
Li       23.34394264    -32.97542572    -59.69255447
Li       41.04671097     49.01899338    131.53573608
Li       41.57245636     91.24103546    -30.00524521
Li       23.66401100     -5.92239094     50.13079834
Li       10.21910286     49.89807129     -0.48292434
Li        2.89871526      2.55108142     13.71331310
Li      -11.61690331    -84.12640381    -58.18500519
Li       32.03416443     69.27620697     51.03876495
Li       15.07649136    103.07691956      4.41383600
Li        1.95878744    -37.04806519     55.20781326
Li       37.29965591     54.27650070     71.81653595
Li      -23.97987938     19.95899010      0.72967273
Li      -11.04666138    -23.92193031     -0.53048354
Li       -6.71048927     98.07183075     42.14626694
Li      -28.05025482    -37.17435837     42.21720123
Li        9.26501751     47.18072128      1.86842871
Li       41.29274750     67.36109161    -59.28565598
Li       49.50412369     41.76989746    101.89318085
Li       15.07893372     69.87875366      0.37258375
Li       63.10540390     78.11861420     80.05016327
Li      106.35047913     38.67545700    -37.81659317
Li       23.23959732     24.40205956    -32.82164383
Li        2.95544028    -97.37184906    132.42076111
Li      -23.97215271    -19.17126274     84.24582672
Li      -24.00538063    -28.18450546     -8.83878994
Li      -28.25262070     -5.46033621     29.87944031
Li       -2.10666919      0.76556838      8.87560081
Li        6.07317781    -23.81914330     -8.57718563
Li       93.27857208     49.22123718     12.90694618
Li       -6.43639994    -94.50071716     29.26290512
Li      -37.30707550     -0.16472997     33.85061646
Li      -11.10020256     42.73265839     17.77518082
Li      -36.59798050    -26.33309937     -8.19449043
Li       71.90720367     47.69261932    -46.11351395
Li      -23.58041954     14.12761307     42.59193420
Li      -20.95277596    -56.87315369      2.33877158
Li       53.60548401     34.45401001     32.82337189
Li      -53.75074005    -83.78466034     29.84959984
Li       15.30921173    -17.37847519    -38.26851654
Li       11.13334560      5.64316177     63.34947968
Li       76.61950684     -8.21829605     29.40602875
Li       57.75034332    -27.08762550     16.82342720
Li       18.96804237     25.69466972     33.09282303
Li      -44.72296906     46.09978485      4.00479031
Li       10.73906231     -1.07514977     12.77558994
Li       23.92963600     -5.45397902     29.61397743
Li        6.91194057     -8.30091476     37.90417862
Li       19.99626160     36.34249496     37.97634125
Li      -32.26237106     32.26019669    -25.34970665
Li       10.26922226     46.76628876     42.78035355
Li       75.70965576     39.89567184     46.79964447
Li       19.60034752     35.59745026    -54.91927338
Li       66.99197388    -38.13671112     -4.50962114
Li       32.33303070     15.59784412     93.39010620
Li       11.26392841     29.49652863     64.18319702
Li       53.80789566    -25.40974998    -42.09205246
Li       49.67661285      6.65234232    -25.18803596
Li       92.56372833     69.47457886     26.11404419
Li       45.19097900     26.02825928     21.33112717
Li       -0.95978385     83.11264038     10.91203117
Li       37.10137558     50.53480911     29.21290398
Li       62.53303528     67.68884277     33.93865967
Li       41.03293610    -18.56669044     76.12059784
Li       36.39890289    -10.38223553    -17.16884804
Li       27.90362930     71.14643097    -59.53448868
Li       24.22834778     22.21654510     25.34290695
Li       -2.27771878     -5.33498716    -17.26459122
Li      -36.58837891      0.61669701     21.03825760
Li      -74.28196716     11.50641537    -27.23999786
Li      -37.02125168    -66.51742554      0.48374966
Li       32.72973251     41.12670135    -59.28328323
Li      -40.89411926     38.91103745     29.61099434
Li      -25.79935265     10.72061920     61.12306595
Li       31.94812584     39.30030441     33.04461288
Li      -93.35317230    -16.44755745     42.91127014
Li      -36.30627441     28.06289673     63.11907196
Li      -18.69439316    -26.51703835      4.00206566
Li       53.61510849     62.09455109     -8.83174610
Li       63.59107971     14.21405029     93.48423767
Li      -11.06531811     12.79993057     21.28161812
Li      -71.76677704    123.29313660    -16.64768982
Li      -28.37102890     66.48155975     33.37706375
Li      -72.19857025    -18.28516197     75.89890289
Li       27.81425095      8.05454159     29.65242004
Li       -6.21679354     20.80621147   -144.44831848
Li      -28.55098534     81.36889648     63.59744263
Li      -54.54344177    -77.79191589    -34.05983353
Li       45.79750443    -24.65779495      4.51595163
Li       84.45981598    106.68759155     21.42723274
Li      -26.10985756      7.54247904     -2.12080526
Li       10.47455883     49.54957581     50.88333130
Li       28.01135826     53.28794098    -37.97178268
Li       14.86618996      9.60504246    -25.12430000
Li       14.85288715      3.29904246     24.88567352
Li      -32.39887619     -7.07603025      4.11442995
Li       24.20826530     43.22144318    165.49380493
Li       24.25308990    -17.56317902      4.13203907
Li       32.91415024     18.90867233     -4.60026789
Li       32.34534836     -5.38369322     55.08562469
Li       -0.52629530    -11.04600334    -44.81109619
Li       62.80530548     90.11036682    -97.32294464
Li      101.15019226     48.67199707     55.32817459
Li       10.49553871     -7.15154076     34.13800812
Li       36.35269928     16.63063812     -9.33392143
Li       24.18656731      1.19704616     71.78677368
Li       41.09741211    -14.18873692     -4.07646418
Li        6.46002150     57.84220886     59.20721817
Li       25.44497871     24.86600685      6.06445408
Li       -6.72786999     58.78743362     16.96285057
Li       32.03447342     48.71821976     -8.73768997
Li        2.69155884    -12.80286980     42.67759323
Li       14.64586258    -32.36160660    -46.55640411
Li       19.54526138     20.78257179     38.58372498
Li       62.99958801     55.78242493     80.18157959
Li       32.04659271     60.47510147     34.89188385
Li       23.78216743     30.35605621     41.99333572
Li       -6.63655329    -61.71773911     77.11906433
Li       36.60826111     12.90404129     76.28327942
Li       27.88943863     13.85556412     17.13359642
Li       -2.38355875    -14.49721909     13.03165627
Li       32.61921692     27.61517334    -13.03110886
Li       45.27988052     44.58576202     -4.20714140
Li       28.20164680    -39.62132645     -4.40059519
Li       46.01685715     81.20421600    101.61150360
Li       88.13988495     34.99148941     59.20304489
Li       11.62714767    -81.25345612     46.77740479
Li       20.79551315     38.27237701     66.04219818
Li       32.54141235     52.98673630     33.87003708
Li       54.29124451    -33.72116470    -20.17062759
Li       84.03485870     78.59539032    -42.29185104
Li       10.55505657     16.85028267     33.45701599
Li        2.04176188    -18.99204826    -68.21208191
Li      -28.62627602      6.04896259    -33.63552475
Li       32.58833694     43.21359634     24.67604828
Li       71.05418396    116.01421356     50.49563217
Li       19.04792404     16.89241028      8.12370586
Li      -45.57461929     42.14949799      8.93788147
Li        2.49867058     14.51822281     80.33221436
Li       70.73598480     67.59382629     67.86008453
Li      -19.67059326      9.03754711     33.91506195
Li       10.48323536     60.93403244     50.06043243
Li       10.80076599     28.96421432    -41.80171967
Li       11.12249660     23.42573738     29.45823669
Li       60.94478607     33.12496185    -95.25916290
Li      -29.71932983     -6.16119194     39.82049179
Li      -58.01263428     32.53596497     88.39337158
Li       14.41257572     57.64820099     67.31266022
Li      -28.02642441     15.24355602     68.71824646
Li       54.36163330     38.85319519     89.58429718
Li       -6.74109030     67.97909546     42.46991348
Li       62.58507156      8.06052685     16.70438385
Li      -23.82332420     10.20270920     50.85771561
Li       19.19483376      1.77925658     -7.95390463
Li       62.76552582     71.84884644     21.14036942
Li       71.20289612     -9.93191719     38.43807602
Li      -23.25214767    -15.39259911    -63.03338623
Li      -32.55709839    -19.22412872    -25.50729561
Li       63.37932587    -15.70674324     30.68758965
Li        7.03347635    -26.04166031     20.71150970
Li       -6.07734203     51.21361542    -48.17921066
Li       40.45445633    -20.76832008     43.41270828
Li        2.86511540     -3.26028967    105.03860474
Li       76.00773621    124.71133423     21.82103920
Li       19.98418808    -12.12037468     11.71024990
Li      -11.34873772     51.68973160      0.86996710
Li       36.47325516     38.26431274    -41.56865311
Li       36.66155243     19.97434998     59.97639465
Li      -27.72934341    -13.04590416     17.04414940
Li      -10.68608093      6.88379145    -97.18459320
Li       32.36344147     24.47884750     93.64122772
Li       27.92045021     -0.49907723     38.04420853
Li       84.49961853     79.68190765     46.96673203
Li       -0.96354705    -27.12383461     67.96208191
Li       34.84634399    -28.39403725      6.67374468
Li      -11.12455368      3.24025106    -42.65898132
Li       62.50679016     52.74279785    -19.81939316
Li       -8.33482170    -20.13283157    -10.58101368
Li       62.75186539     38.70593643     -8.44295502
Li       -3.68065548     38.97588730     74.01037598
Li      -27.57516289    -40.72994995    -97.85549927
Li       40.49126434    -36.74747467     21.23913193
Li       33.07560730     -1.95112574    149.00416565
Li       41.20973587     18.78170204     -8.45846176
Li       15.30797958     13.38861465     33.81663895
Li       88.31663513     -7.45315552    118.89480591
Li       49.45235825     33.15316010     17.19041634
Li       40.79817200     90.82169342    -21.21004295
Li       20.05503082     50.70474243     54.40561676
Li       71.16029358     44.22513580    101.45298004
Li       32.92583466     91.50074768     20.80914688
Li       -6.73981428     26.27456284    -37.98765182
Li       23.79800797    -29.36374283     93.02807617
Li       27.81485367    -19.54964066     42.19168091
Li        5.97561359     75.29413605    -77.11888123
Li       -1.56173348    -13.63873291     21.09342003
Li       46.34273529    -39.87360764     71.70248413
Li       49.70654678      0.71793145    -33.52733994
Li       11.05292606    -24.82092667     81.07443237
Li       -7.00318575      8.06991005    -12.03322315
Li       28.78498650     77.70832062     20.71350861
Li       20.02317047     90.34914398     38.06720734
Li      -27.98373604    -10.83777332    -71.71327972
Li       18.86619759     -4.86564922     -0.30674881
Li      -36.78839111     -2.59668279    -58.61045837
Li       54.00281906     73.70211029    -25.14892197
Li       15.28909874     88.38768005     -8.72520733
Li       14.63346004     36.00672150     63.63228607
Li       54.61388779     23.71434212     54.58315277
Li       32.48498535      6.02262449      3.55690646
Li       15.13782692     64.09353638     17.18174362
Li       75.35197449     57.58216858     -0.50734693
Li       37.11106873    110.36705780    -12.42080593
Li       85.04286957     -4.50022602     29.59818077
Li      -23.77841187    -30.81019402     51.40887833
Li       -1.93588626    -17.64905930     51.02485275
Li       19.74790382     86.55956268    -25.40490341
Li       80.73986816     60.02399826     11.95316410
Li        2.68483210      5.27519464     29.33976555
Li        1.81107402    -31.61123276    -16.93805504
Li       -6.19223595     49.48035049    -34.00970840
Li       32.16596222     76.10494995    -17.14047813
Li       63.04382706      3.03920865    -63.45814133
Li       32.60015869     79.26424408    -17.16210175
Li       -6.48968124      1.57922113     42.68740082
Li      -18.97084999     55.03184509     71.75399017
Li      -15.74101067      7.90458488    -59.59521484
Li      -18.92712593    -44.08632660     29.34443665
Li      -41.29677582    -43.35371017     25.63177872
Li       10.76554012      4.83963299     59.45455170
Li        6.15563107    -83.98852539     -8.18865490
Li       14.89821529    -23.53490639     29.86038971
Li       19.25416374    -10.84039974     16.67249870
Li       23.74633408     15.40937233    -42.67714691
Li        6.10343218     15.34278107     26.38616180
Li       27.84193802      4.51602077    -34.00237656
Li      -10.77570629    -90.10059357    -41.99385452
Li       63.13338852     24.31389046     87.75550842
Li        6.55229855     28.12955666      8.88014507
Li       53.95768356     44.24567413     33.51015472
Li        9.75751400    -18.82895279     93.00083160
Li      -32.64961624     65.43643951    -41.63639450
Li      -32.32762527     56.39356995     63.54593277
Li       -2.33229208     30.58305359     47.06485367
Li      -92.47777557    -97.12591553    -37.59191132
Li       24.96062851     61.19731903    -36.45052719
Li      -40.91027069      1.85832667    -12.92134285
Li      -15.41246128     89.55010223    156.97479248
Li       11.00678158     56.90391541    -17.63536644
Li       57.70905685     -9.05494690     29.64351654
Li      -11.15061855     21.72983360    -20.85196877
Li      -32.50505447    -55.20936203    -80.28722382
Li       80.33594513     53.61895752      4.30474043
Li       27.89147949     25.95832634     92.86575317
Li       11.40970612     99.36213684     84.76822662
Li      -19.11714172    -17.45275307     12.49461079
Li       18.71826553     76.75542450     -4.28263474
Li       89.29161835     36.16431427    118.69594574
Li      -53.95852280    -87.03055573      3.84768987
Li       83.56250763     57.94184494     -8.73230553
Li      -19.71623230    -39.02074432     59.88334274
Li      -14.72353935     -6.64612484    -28.60737228
Li       54.03950882     32.56386185     50.96666336
Li      -49.70504379     11.70773411     30.00088882
Li       71.65972900     95.96676636      3.99458504
Li       88.94947815     83.91504669    -12.18871689
Li      -46.93458557     24.35230637     60.82271957
Li       19.12106133      4.79469633     -8.26926899
Li      -14.71886063     -9.16470051    -29.88058090
Li      -10.34161663     64.29398346     80.35572815
Li      -27.71612930     16.16821098    -20.91113091
Li       32.43915558     63.96955872     46.43766022
Li      -27.82809830     39.91443634    -46.33828354
Li      -50.72040176    -25.12055397     52.41650391
Li       -6.91599464    -37.55767059     33.35063171
Li        6.35980463     21.26389694     47.01448822
Li       11.05558777    -39.69615555     12.65990353
Li       28.23249626    -60.97874451     47.34206772
Li       23.85411835    -37.99766541     16.61635590
Li       49.60002899      9.87263775     59.36384583
Li       19.28778076     -9.76499844     46.77216339
Li       19.33208084     28.98508835    -33.36840057
Li       33.59384155     16.03227615     40.14665222
Li       -5.93070984    -39.96200562    -12.96053219
Li      -14.55829716      3.00618172     38.24314117
Li       84.88226318     82.29692841     79.82076263
Li      -37.01873398     21.31284714     -0.28628540
Li       40.96648026     12.48515415    -34.11585999
Li       79.66398621     28.66778374    -25.15876007
Li       19.74491119     29.57952690     13.06863308
Li       15.47168636     61.74628067    -12.36017895
Li       -2.04396701      0.57089537     93.74634552
Li      -10.86205006     21.56987190    -34.17213058
Li       70.63822174     10.81898975     60.43357468
Li       49.93594742    -41.18157959     88.93361664
Li       32.35464096     -5.21681643     63.84883499
Li       49.47509003     48.68898392    -51.41130447
Li      -19.42174530     21.65085983    -12.52227402
Li       58.43034363     -1.83316255      4.30353594
Li       45.32420731     83.46212006     59.16111755
Li      -11.09173870     69.63141632     -0.04126511
Li       11.16255760     35.10251617     -4.35068178
Li       90.33998871     20.35122681     -2.27921534
Li       14.59124947     21.29391861     75.99257660
Li       28.31805038     83.69911957     63.83277512
Li       45.28990555     17.13241768     21.42453575
Li       27.64948273     43.31176376      7.24488306
Li       16.49329185     -2.34209466     48.09485245
Li       25.58658600     18.83279228    -13.57286644
Li       15.31357098    -17.32664490     84.91146851
Li       19.10461426    -55.93365097     49.77949905
Li       44.80452347     40.95489883     42.12868881
Li       22.61878014     40.37279129    -71.84812164
Li        2.19183254     44.49225235    106.13813019
Li       -2.09161329     12.93082619      4.40716171
Li       19.17218590     19.61458778    101.99366760
Li       14.25162983     17.86509132    109.76179504
Li       31.45301819      6.34340954     28.11541557
Li      -23.82842827      5.06095695     72.02185822
Li       84.21757507     33.25696564      8.49586868
Li       50.12428665     36.40546417     -8.18248940
Li       36.87672806    -24.47726631      4.48123455
Li       45.47629166     80.74598694      4.47306347
Li       37.56206131     50.46361160     17.44350624
Li       49.11455536     66.87886810    -85.10076904
Li       33.21180725      7.40562344    -12.08467674
Li        2.07876301     47.10557175     34.64509964
Li        2.15508986    -37.31624222     59.00834274
Li       19.41227913    -22.25522804    -76.42060089
Li       26.10238647      5.04507780     31.33313370
Li      -19.33467293     61.03864288    -54.96204758
Li       28.87041283     50.78472137     11.97763634
Li       11.25788498     32.02635956      0.06548117
Li      -19.79571915     36.22560120     50.84032440
Li       36.79867935     19.96714592     21.50691605
Li       11.22899437     45.37141418     88.78378296
Li       14.71464157     39.10974121     50.00597763
Li        2.43898773    114.07048798    -64.00802612
Li       24.01854324     88.96388245     80.97085571
Li       14.98724651     24.21191597      1.08741093
Li      -31.99917221     -3.14270210     29.03295517
Li      -49.24748611    -84.91229248    -29.80096817
Li       28.90681267     81.62966919     38.01293564
Li       32.37321091     39.93061066     63.73048782
Li       71.13789368     53.37263870    -20.95224380
Li        2.46230268    -42.99591446    -11.91602421
Li       -2.30401611     60.75871277      9.17417622
Li        6.86530304     45.94017792      4.04113579
Li        1.26746309     38.03099060     34.95955276
Li       54.05696869     22.88961792     25.46516609
Li      -41.11389923    -10.01545143     12.82331848
Li       10.91413689      2.43058515     38.40364075
Li      -15.15873337     11.27712822      8.94987583
Li      -66.87208557    -10.02510738     63.38672256
Li       39.64878082     60.70547867     86.50160217
Li        2.43088460     77.25013733    -42.25431061
Li       53.25360870     76.56378937     33.75392914
Li        1.72255433    -19.42244530    -17.52472305
Li       79.52171326     70.99375153     92.89141846
Li       10.42770100     22.77702904    -59.16437149
Li       11.35283661    111.15753174     46.95483780
Li       32.57279205    -20.15345764     47.59554291
Li        6.14357996     36.29280090     -8.67489624
Li        6.48127460    -11.70897293     80.31165314
Li       23.70485878     64.00321198     25.44206238
Li       53.77995300     83.60597229      3.74316287
Li        2.01216340     28.41892433    -67.62271118
Li        6.60636282    -20.44405174     29.92867470
Li      -35.22171783      7.08211184   -138.24621582
Li       -6.41447258    -40.30112457    -84.76130676
Li       15.27765083     88.10942841   -114.38192749
Li      -10.97441006     30.47713089     -0.58341604
Li       19.76245880    -27.76291466     63.63996506
Li       53.91059113     44.54614258    -63.45408630
Li      -10.75148010     -5.40042162    -63.13705826
Li       11.18715572    -63.61325455     80.48415375
Li       15.05230522     21.65160370    -20.82732773
Li       27.93779564     -9.63554573      4.19820881
Li       79.98616791     56.55861282     -8.39604664
Li       11.23067474     27.04734802    -29.81829071
Li       19.43567085     47.32119370    -68.01422119
Li       23.45645714     81.35348511      8.45143890
Li       36.76792145     -0.85065842    -21.29368973
Li       67.45116425     24.67171097     29.94519234
Li      -28.00125122      9.83422089      8.92938328
Li       45.79574966     77.85253906    -55.33716965
Li       66.20484924     81.00032806      8.55208778
Li       19.41168022     61.81487274    -26.39499283
Li       27.34025002    -25.05691719     85.87930298
Li       45.65644073     50.63730240     37.66497803
Li       -1.76205397    -38.27084351      4.87589264
Li      -14.70656586    -39.32203293     46.06490707
Li       11.17100239     20.18421364    -20.75980186
Li        1.92689550      8.00996208     80.92530823
Li       28.25780296     83.69103241    -80.03462982
Li       -1.83070230    -71.69875336    -16.85113335
Li       10.96973324     -6.40152407     21.40222549
Li      -54.62495804      0.02657835    -93.56576538
Li      -54.12645721    -24.02139282     75.57472992
Li       36.86345673     39.01673508    106.30263519
Li       -7.03485680     -1.11291683     -8.52650452
Li        1.95485711     56.33998108     33.68817520
Li       36.52483749     92.51170349     42.54256058
Li       28.27665901     50.70657730     37.98173141
Li       10.20341587    -18.72385979    -55.00640106
Li       -5.97400570     59.84334946    -72.62290955
Li       53.19744873      4.25511026     84.68127441
Li       58.11325836     57.56703186    -17.42295837
Li       15.53936005     70.54801941    -96.77052307
Li       32.96127319     24.86106300     13.44752598
Li       10.92795372     -4.08884811     93.38753510
Li      -18.76976776     28.14842033     12.28282070
Li       28.14618874     29.73053169    -20.83304787
Li       37.42882156     68.81951141    -81.07269287
Li      -67.34685516    -28.33578682    -42.67574310
Li       32.15970230     48.57517242     -0.37579325
Li       52.61057281    110.41477966     19.35980606
Li       24.75311661     27.52472878      3.87147832
Li       41.10076523    -44.82018280     80.31698608
Li       -6.19251108     65.51007843     -3.77599788
Li      -10.51358032     43.21905899     80.79312897
Li       10.58789730     71.36927795      4.39915466
Li      -54.44680023   -104.77102661     71.99499512
Li       24.14901924     45.90018845    -12.92905521
Li       58.54804230     33.94013977    -38.18523788
Li      -45.53379822      3.87875009      4.11803150
Li       45.77571106     41.59790802     20.91308212
Li       57.85435486     27.37998962     42.47047424
Li      123.69023132     48.06037140    -20.66097069
Li       54.55058289      5.49522495      3.57714248
Li       58.17666245     58.18771744     21.22476578
Li        6.51490593      6.54982042    -29.82386589
Li       32.33908463     30.28925323    -25.83481789
Li      -23.33830643    -49.05852509     59.73414230
Li       28.16786957     -0.73275036     97.68045807
Li       19.96910667     72.21056366     29.53204727
Li      110.08477020     21.30645752    -59.49850845
Li      -40.58042145    -33.41183472     16.56622887
Li       15.25253105     16.08337784     64.03495026
Li       62.97896957     23.30118942     37.90785980
Li      -11.10799980      6.18538904      0.72871882
Li       53.70107651     55.99579239     52.11358261
Li       90.30786133     41.08639145    -21.72075844
Li       49.94700241     39.78523636     29.49455833
Li       41.37282562     34.53513336    -63.14936829
Li       -2.18848777     -5.83481693     38.84949493
Li       54.18917084     29.34851646     -4.43720388
Li       10.70861340     17.04768944    -26.04963875
Li       33.26691437     73.27754974    -30.00365067
Li       40.63885117      9.06129456     33.77232742
Li      -32.23849106     23.47917938     -4.44672346
Li       -6.04942560    -18.38996506     25.24058151
Li      -15.49252415      7.32075834    -17.62266159
Li      -23.68025398     59.19342041     33.80381012
Li       50.04213333     24.93519020     72.29801941
Li      -10.71753216     24.70597267     16.46961021
Li       41.45362091     46.21783066    -21.55039024
Li       16.76841354     15.64483929     39.93651962
Li       11.42656422     87.74510956    -14.81695461
Li      -28.20583344     33.36447144     68.65266418
Li       -6.12928295     29.38204384    -79.64449310
Li      -37.02676392      3.32702875     24.97327232
Li       41.26038361     82.06719208     16.80697823
Li       41.37503052     37.78623581     19.70303726
Li       -5.58093834     54.38354111     20.98509407
Li       -2.91937256    -23.99217033     50.30292130
Li      -62.35631943    -23.01575470     80.45391083
Li       58.02125168    126.98424530     42.59532547
Li       67.40284729     46.31820297     63.17583847
Li       19.48601341    -13.41674614     29.48779488
Li      -23.27565193     12.37895107     21.40734482
Li       62.27065659     25.52933311    -17.41254997
Li       36.86927032     68.43274689     -8.42383957
Li       53.89647675     89.29985809    -42.51162338
Li       -2.46660423     12.24577332     41.86223221
Li       62.56437302     16.77420425     -0.35140249
Li        6.39658976     39.44257355    -17.16842079
Li       37.00907135     23.30304527    -16.56738091
Li       -5.74333572     42.12055969     36.84696198
Li       37.24230194      8.71615124    110.10209656
Li       45.88811874     14.30281067    -21.55409813
Li       23.82766533     16.52591705    -80.39864349
Li       92.15145111     71.99193573     89.08738708
Li       -2.20311952     75.78815460     13.05161095
Li      -10.62310791    -26.10856628     97.28646851
Li      -15.34256649     53.34647751     -0.49656683
Li        5.95073605      3.65847278    -29.38528442
Li       36.45388412     74.41777039     76.37158203
Li        8.47748756     61.55861282    -19.04491615
Li       -1.77567482    118.56492615    -49.99874496
Li        6.05608654    -23.49325371      7.97015858
Li       24.15004158     34.20815277    -20.83960342
Li       -2.24768233    -11.78094006     17.01219177
Li       23.78668022     42.71008682     21.02667427
Li       32.11806107     93.93736267     -4.05075932
Li       49.93344116     52.61714935    148.49578857
Li       -1.70088089      0.98115402     -4.53969288
Li       23.66294098     72.53231812     -8.51846218
Li       54.83859253     69.05873108     54.26710892
Li       53.98601151     80.87626648     80.59246826
Li       54.61524963      5.37649488     88.66337585
Li       58.24740219     48.67975616     50.57777405
Li      -27.49153137    -31.85697746    -38.19354630
Li       36.43775177     -0.71923095      4.51365376
Li       44.92248917      1.77976525    -67.15215302
Li       -1.88639259     46.00741959      3.86693430
Li       49.41249466     66.45119476     24.94136429
Li       32.47948074     33.13478851     59.41446304
Li        6.44729471     60.91013336     42.02584457
Li       45.02332306     37.79092789     17.50974464
Li       -2.34306931     -5.90348196     33.61613083
Li       24.20353317     55.42082977     12.51740456
Li       28.61097145     23.42089844     46.30318069
Li      -54.02996826    -57.14185715    -16.67191505
Li       10.52202320      7.80873346     76.01826477
Li       41.25560760     24.72205544    106.26884460
Li        7.01284122    -11.38348579     21.82236099
Li       32.28428650    -14.90051937     16.51682854
Li       97.00070953     44.95072556     46.64165878
Li      -18.83137512    -98.75711060     97.24972534
Li      -19.02423859     27.11916542     59.35381317
Li       -0.30100313    -16.89115906      2.28651285
Li       70.98852539     26.13177872   -122.75653839
Li       13.20353603     32.50189590     -5.05360699
Li        6.40073729     78.14340210    -42.25934601
Li       14.43492699     38.89904022     32.02194977
Li        2.29698467    -24.94262695     46.66146469
Li       19.75558472    -14.69082546     75.85515594
Li       19.37567902    -22.01976395     33.95620346
Li      -53.90192032    -23.39673996    106.08905029
Li       41.48403931    -28.67592812    -46.29002380
Li       23.76746941    -33.15961838    -11.84100342
Li       19.16222954     64.79326630    -58.89549255
Li       50.24765396     73.65876007     45.71047974
Li      -32.57016754    -61.00481033     84.59798431
Li       67.57298279     64.18561554     59.65305710
Li        0.22825508    -10.26871967    -26.95472908
Li       36.90251923     29.57252502     12.80336666
Li        7.01868105      1.28735471     36.86636734
Li       75.42859650     84.46601105     16.67313576
Li       67.44001770     79.55324554     81.09416199
Li       49.73443222     58.00028610     63.68127823
Li       -5.93996334      2.30304670    -54.72605515
Li        6.89407635      6.88932133     46.70841599
Li      -45.70646286     33.77574158     42.94016266
Li       11.16201782     75.41427612     89.13192749
Li       37.18914032     23.18062782      0.27357459
Li       40.65152740     17.87766838    -34.04460526
Li      -10.96442509     22.94095230    -29.75225830
Li       45.39460754     35.83339691     55.27126694
Li        1.80807745     28.68826866     51.63038254
Li       41.12355042     19.43444252     17.33304024
Li       58.95328903     88.17374420      4.92084789
Li       66.19906616     13.19119549     97.58154297
Li      109.84680939     84.58754730     38.96255112
Li       28.29030228     32.65516281    127.30615997
Li      -16.61829948    -70.09342194    -66.06311035
Li       19.23749542     19.52844810     25.67220306
Li       58.92366028      9.96493149     12.08941460
Li      -27.38910484     -1.65672886     63.88276672
Li       10.67237949    -34.66325760     25.79400444
Li       -1.52019167     10.03507710    -13.18439770
Li       23.49501228     54.04405212     50.84368896
Li      -15.25660324     43.97897720     24.85856819
Li       45.07588577     -1.58824158    -17.59017563
Li       40.81140900     36.15341949     33.72329330
Li       83.80271149     33.26781845    -56.12378693
Li       10.80430508     62.69458389     -4.11693764
Li       28.49850082    -15.67126560      4.84185457
Li       -1.89084208     61.36531067    106.17381287
Li       49.46522141     96.67104340     93.81198883
Li      -16.75491333     19.99742317     43.92584610
Li       53.71636963     12.75581169    -17.19801712
Li       96.70176697    119.25907135     26.05378914
Li       88.27595520    -40.38127136     25.20735168
Li      105.25730896    107.53167725     42.08900452
Li       23.90404320      3.28800297     50.76750946
Li       10.83984852     53.47639847     -4.03248358
Li       70.66416168     25.74307823     33.34011078
Li       79.71728516     34.80213928    100.96981812
Li      -24.09516144     -4.40116978     16.91629219
Li       -1.89348066     28.32521248    -16.36168480
Li       24.07305908     54.69202423      0.11750410
Li      -27.99974251    -44.35235214    -84.66567230
Li       23.85262108     46.18753815     25.97199059
Li       28.03116608     19.37971306    118.74983215
Li      -54.54895020     -9.20499039    -25.34612656
Li       45.24608612     62.01464081     41.82091522
Li       36.90848923    -22.33206177    -42.31752396
Li       61.98069000     22.37207031     76.65489960
Li       58.59055328    -32.21946335     12.71454334
Li       -5.74250603     32.67790222    113.86553192
Li       83.95132446     48.62495041     58.78598785
Li      -32.61513138     62.40438461     -8.63924408
Li       45.92937851     95.81230927     88.92971039
Li      -32.30141830     41.36948395     33.89002609
Li      -19.18636894    -43.91875458    -12.97130966
Li      -19.51676941     26.34032822     33.88074112
Li       -6.84442997    -37.52905655    -17.14409447
Li       71.94860077     57.01260757     81.35161591
Li       28.83476639    -15.02269554    -12.39887524
Li       23.56439972     75.87847137     67.62924957
Li      -31.37904930     -3.90794659     46.29394531
Li       58.68479156     16.14168358     -3.37291813
Li       -8.86751080     73.81994629     53.19029999
Li      -28.17363739    -38.85864639     -8.06252193
Li       23.70059395     -5.08215332    -46.47013092
Li       -2.70343208     27.02225685    101.73943329
Li       53.52901077     -7.56332636     93.95317841
Li       54.36740112     50.94879150     45.94382477
Li        2.03059459     19.89821053    -16.79791641
Li      -45.06531906    -53.09561539     29.40716362
Li       32.70195770     52.73002625     89.27648926
Li       71.08103943     -7.80082798      8.74785519
Li      -19.21774101    -29.27854729     21.24956894
Li       -1.53711617     15.86593151     30.18476105
Li       48.99699783     94.29238892     16.54482460
Li      -28.08548355     30.67941284    -55.25970459
Li       23.91275024     27.79961586    -16.48596573
Li        2.86943579    -15.48062420      4.84955835
Li       71.33926392     41.49742508    -25.19951630
Li       -1.71059537    -38.47369385     21.94685555
Li       31.91204262     30.40962219     58.97206879
Li       45.09130478     71.40126038    -25.66313744
Li       27.58942032     83.28703308     68.87553406
Li       28.63994980    105.36118317    105.37763977
Li      -41.22835922     44.26169968    -34.46408081
Li       23.66096878     66.75350189    -42.99853897
Li       49.55577850    -84.48984528      8.74593258
Li       32.46739578    -39.50007248      0.31631568
Li       71.56752777      5.38499641     12.21722794
Li       54.40480423     30.10303879    -12.51547623
Li       15.57805347      9.92484188     20.74588394
Li       84.16667175     13.26157188     55.18883896
Li       27.66855049     43.95311356     -9.12218094
Li       18.98940468     17.45144463    -21.14025497
Li        6.62023640    -44.42301941    -41.98424149
Li       50.43108368    100.23365021    -97.87410736
Li       15.13605309      3.73572993     46.59016418
Li       53.78657532     58.69579315     16.88366318
Li       45.66870880    -15.33225536     63.76627731
Li       93.22560120      0.85805184    -33.91720963
Li      -23.40356636     23.47682381     37.94024277
Li      -15.36429405    -41.00535202      8.42876720
Li       -6.37990332    -73.21800232     46.82915497
Li       27.76482201    121.98416901      8.64985561
Li       62.26891327     -7.08061504    -24.62807083
Li      -18.90691948     73.45700073     21.12753296
Li        7.05705547     37.20886612    -21.64445877
Li       70.98899841     34.78728867     33.53187180
Li       11.36568642    102.35353851    -29.32071686
Li        6.19329309    -14.78877926    -12.28604794
Li      -40.70616913     29.76194382    -62.77201843
Li       71.38988495     35.60371399     63.63269043
Li      -23.55031395     -6.34726238     47.00914383
Li       40.65614700     57.59296417     38.69455719
Li      -15.18193150     44.52077866     21.30337524
Li        2.48374796     86.83870697     54.91161346
Li       62.31436920     91.97786713     76.51647186
Li       -1.69230664     18.92003059     46.53041840
Li      -11.30128670     -5.20974398     12.79516029
Li       41.60726929    127.42380524     29.49424171
Li       28.02583504     62.63947296     55.39108658
Li       41.47897720     -4.27260447     84.89141846
Li       49.82234955     66.69644928     41.81744385
Li       -3.38263702     15.56938839    111.69380188
Li       37.22833633     41.39785004     54.91313553
Li      114.06507111     98.33725739     33.33598328
Li        6.32949257     24.49493980      0.36825982
Li       23.20821953     27.28710556   -101.29724884
Li      -67.36838531     -4.40614939     50.83968735
Li       15.43724251    -16.89572525     20.89174652
Li       -6.24542665      5.31424999     25.59111404
Li       44.89015198     79.48757172    -18.38760757
Li       24.02337837     25.57022476    -21.01486969
Li       27.78110504     95.22559357      0.04990464
Li       37.38961792     23.70465088     80.08789062
Li       10.22918510      4.30979395    101.44884491
Li       41.21061325     -0.88273996     50.64778900
Li       19.19824219     -1.43463898    -59.51317978
Li       19.56792068    -45.95192719     21.12427139
Li       62.52878952     65.21350098     50.86994553
Li       41.16429138     51.45810699     17.42832947
Li       19.38590622     35.42338181     55.08682632
Li       40.86681747    -29.48970032      8.80407238
Li        5.84306431     30.67546844     92.63146973
Li      -10.13512802     13.36216831     29.41756630
Li      -14.73316288    -51.88906479    -20.88932610
Li       -8.75088501     -1.96352983     23.04087067
Li       19.75463676     32.57465744    -38.63520432
Li       45.74392700     92.74714661     20.93099213
Li       15.09339428     13.16323662     12.68990612
Li      -16.03160286    -13.69113731    -34.13196564
Li       41.28980255     -5.02397013     55.28361511
Li      -19.68249893    -68.65833282     42.03866577
Li       36.89011765     58.80327225     -8.43566799
Li       84.69589996     91.67720032     25.73463821
Li       58.57640076     73.35143280    -21.59636497
Li        6.90956974     -8.16682911      0.79654419
Li      119.44323730      0.72383255     71.90732574
Li       -2.20259762     12.53122616    -55.21516800
Li       54.42228699     51.35880280     29.22789955
Li       -6.63013124    -16.04657936    -33.70363617
Li       36.49205017     13.72383976     34.09321594
Li       20.42454529     54.67269135    -38.51582718
Li       54.29738998     50.69341278     38.00732422
Li       31.99854279    -14.90336227     42.10135269
Li       40.78314972      3.28488398    -25.92067909
P         0.13356039      7.42932034      2.05882192
S         0.07623107      6.30148792      0.33862740
S         0.38128957      6.39505672      3.81890726
S         1.71797132      8.72864056      1.96279037
S        -1.76252615      8.24726963      2.16332674
S         0.07623107      6.30148792      8.81652737
S         0.38128957      6.39505672     12.29680729
S         1.71797132      8.72864056     10.44069099
P         0.13356039      7.42932034     10.53672123
S        -1.76252615      8.24726963     10.64122677
S         1.71797132      8.72864056     18.91858864
P         0.13356039      7.42932034     19.01461983
S         0.07623107      6.30148792     17.29442787
S         0.38128957      6.39505672     20.77470589
S        -1.76252615      8.24726963     19.11912537
P         0.13356039      7.42932034     27.49251938
S         0.07623107      6.30148792     25.77232552
S         0.38128957      6.39505672     29.25260544
S         1.71797132      8.72864056     27.39648819
S        -1.76252615      8.24726963     27.59702492
S         0.38128957     15.44125652      3.81890726
S         1.71797132     17.77483940      1.96279037
P         0.13356039     16.47551918      2.05882192
S         0.07623107     15.34768772      0.33862740
S        -1.76252615     17.29347038      2.16332674
S         1.71797132     17.77483940     10.44069099
P         0.13356039     16.47551918     10.53672123
S         0.07623107     15.34768772      8.81652737
S         0.38128957     15.44125652     12.29680729
S        -1.76252615     17.29347038     10.64122677
S         0.07623107     15.34768772     17.29442787
S         0.38128957     15.44125652     20.77470589
S         1.71797132     17.77483940     18.91858864
P         0.13356039     16.47551918     19.01461983
S        -1.76252615     17.29347038     19.11912537
S         0.38128957     15.44125652     29.25260544
S         1.71797132     17.77483940     27.39648819
P         0.13356039     16.47551918     27.49251938
S         0.07623107     15.34768772     25.77232552
S        -1.76252615     17.29347038     27.59702492
P         0.13356039     25.52171898      2.05882192
S         0.07623107     24.39388657      0.33862740
S         0.38128957     24.48745537      3.81890726
S         1.71797132     26.82103920      1.96279037
S        -1.76252615     26.33966827      2.16332674
S         0.07623107     24.39388657      8.81652737
S         0.38128957     24.48745537     12.29680729
S         1.71797132     26.82103920     10.44069099
P         0.13356039     25.52171898     10.53672123
S        -1.76252615     26.33966827     10.64122677
S         1.71797132     26.82103920     18.91858864
P         0.13356039     25.52171898     19.01461983
S         0.07623107     24.39388657     17.29442787
S         0.38128957     24.48745537     20.77470589
S        -1.76252615     26.33966827     19.11912537
P         0.13356039     25.52171898     27.49251938
S         0.07623107     24.39388657     25.77232552
S         0.38128957     24.48745537     29.25260544
S         1.71797132     26.82103920     27.39648819
S        -1.76252615     26.33966827     27.59702492
S         0.38128957     33.53365326      3.81890726
S         1.71797132     35.86723709      1.96279037
P         0.13356039     34.56791687      2.05882192
S         0.07623107     33.44008636      0.33862740
S        -1.76252615     35.38586426      2.16332674
S         1.71797132     35.86723709     10.44069099
P         0.13356039     34.56791687     10.53672123
S         0.07623107     33.44008636      8.81652737
S         0.38128957     33.53365326     12.29680729
S        -1.76252615     35.38586426     10.64122677
S         0.07623107     33.44008636     17.29442787
S         0.38128957     33.53365326     20.77470589
S         1.71797132     35.86723709     18.91858864
P         0.13356039     34.56791687     19.01461983
S        -1.76252615     35.38586426     19.11912537
S         0.38128957     33.53365326     29.25260544
S         1.71797132     35.86723709     27.39648819
P         0.13356039     34.56791687     27.49251938
S         0.07623107     33.44008636     25.77232552
S        -1.76252615     35.38586426     27.59702492
S         6.88097382      8.24726963      2.16332674
P         8.77706051      7.42932034      2.05882192
S         8.71973038      6.30148792      0.33862740
S         9.02478981      6.39505672      3.81890726
S        10.36147118      8.72864056      1.96279037
S         6.88097382      8.24726963     10.64122677
S         8.71973038      6.30148792      8.81652737
S         9.02478981      6.39505672     12.29680729
S        10.36147118      8.72864056     10.44069099
P         8.77706051      7.42932034     10.53672123
S         6.88097382      8.24726963     19.11912537
S        10.36147118      8.72864056     18.91858864
P         8.77706051      7.42932034     19.01461983
S         8.71973038      6.30148792     17.29442787
S         9.02478981      6.39505672     20.77470589
S         6.88097382      8.24726963     27.59702492
P         8.77706051      7.42932034     27.49251938
S         8.71973038      6.30148792     25.77232552
S         9.02478981      6.39505672     29.25260544
S        10.36147118      8.72864056     27.39648819
S         6.88097382     17.29347038      2.16332674
S         9.02478981     15.44125652      3.81890726
S        10.36147118     17.77483940      1.96279037
P         8.77706051     16.47551918      2.05882192
S         8.71973038     15.34768772      0.33862740
S         6.88097382     17.29347038     10.64122677
S        10.36147118     17.77483940     10.44069099
P         8.77706051     16.47551918     10.53672123
S         8.71973038     15.34768772      8.81652737
S         9.02478981     15.44125652     12.29680729
S         6.88097382     17.29347038     19.11912537
S         8.71973038     15.34768772     17.29442787
S         9.02478981     15.44125652     20.77470589
S        10.36147118     17.77483940     18.91858864
P         8.77706051     16.47551918     19.01461983
S        10.36147118     17.77483940     27.39648819
S         8.71973038     15.34768772     25.77232552
S         6.88097382     17.29347038     27.59702492
P         8.77706051     16.47551918     27.49251938
S         9.02478981     15.44125652     29.25260544
S        10.36147118     26.82103920      1.96279037
S         6.88097382     26.33966827      2.16332674
S         8.71973038     24.39388657      0.33862740
S         9.02478981     24.48745537      3.81890726
P         8.77706051     25.52171898      2.05882192
S         6.88097382     26.33966827     10.64122677
S        10.36147118     26.82103920     10.44069099
S         9.02478981     24.48745537     12.29680729
P         8.77706051     25.52171898     10.53672123
S         8.71973038     24.39388657      8.81652737
S         6.88097382     26.33966827     19.11912537
S         8.71973038     24.39388657     17.29442787
S         9.02478981     24.48745537     20.77470589
S        10.36147118     26.82103920     18.91858864
P         8.77706051     25.52171898     19.01461983
S         6.88097382     26.33966827     27.59702492
S        10.36147118     26.82103920     27.39648819
S         8.71973038     24.39388657     25.77232552
P         8.77706051     25.52171898     27.49251938
S         9.02478981     24.48745537     29.25260544
P         8.77706051     34.56791687      2.05882192
S         6.88097382     35.38586426      2.16332674
S        10.36147118     35.86723709      1.96279037
S         9.02478981     33.53365326      3.81890726
S         8.71973038     33.44008636      0.33862740
S         8.71973038     33.44008636      8.81652737
S         9.02478981     33.53365326     12.29680729
P         8.77706051     34.56791687     10.53672123
S         6.88097382     35.38586426     10.64122677
S        10.36147118     35.86723709     10.44069099
S        10.36147118     35.86723709     18.91858864
S         9.02478981     33.53365326     20.77470589
S         6.88097382     35.38586426     19.11912537
P         8.77706051     34.56791687     19.01461983
S         8.71973038     33.44008636     17.29442787
S        10.36147118     35.86723709     27.39648819
S         8.71973038     33.44008636     25.77232552
S         6.88097382     35.38586426     27.59702492
P         8.77706051     34.56791687     27.49251938
S         9.02478981     33.53365326     29.25260544
P        17.42055893      7.42932034      2.05882192
S        19.00496864      8.72864056      1.96279037
S        17.36323166      6.30148792      0.33862740
S        17.66828918      6.39505672      3.81890726
S        15.52447224      8.24726963      2.16332674
S        17.66828918      6.39505672     12.29680729
S        17.36323166      6.30148792      8.81652737
S        19.00496864      8.72864056     10.44069099
P        17.42055893      7.42932034     10.53672123
S        15.52447224      8.24726963     10.64122677
S        17.66828918      6.39505672     20.77470589
P        17.42055893      7.42932034     19.01461983
S        19.00496864      8.72864056     18.91858864
S        17.36323166      6.30148792     17.29442787
S        15.52447224      8.24726963     19.11912537
P        17.42055893      7.42932034     27.49251938
S        17.66828918      6.39505672     29.25260544
S        17.36323166      6.30148792     25.77232552
S        19.00496864      8.72864056     27.39648819
S        15.52447224      8.24726963     27.59702492
S        17.36323166     15.34768772      0.33862740
S        17.66828918     15.44125652      3.81890726
P        17.42055893     16.47551918      2.05882192
S        19.00496864     17.77483940      1.96279037
S        15.52447224     17.29347038      2.16332674
S        17.36323166     15.34768772      8.81652737
S        19.00496864     17.77483940     10.44069099
P        17.42055893     16.47551918     10.53672123
S        17.66828918     15.44125652     12.29680729
S        15.52447224     17.29347038     10.64122677
P        17.42055893     16.47551918     19.01461983
S        19.00496864     17.77483940     18.91858864
S        17.36323166     15.34768772     17.29442787
S        17.66828918     15.44125652     20.77470589
S        15.52447224     17.29347038     19.11912537
S        17.66828918     15.44125652     29.25260544
S        17.36323166     15.34768772     25.77232552
S        19.00496864     17.77483940     27.39648819
P        17.42055893     16.47551918     27.49251938
S        15.52447224     17.29347038     27.59702492
P        17.42055893     25.52171898      2.05882192
S        19.00496864     26.82103920      1.96279037
S        17.36323166     24.39388657      0.33862740
S        17.66828918     24.48745537      3.81890726
S        15.52447224     26.33966827      2.16332674
S        17.66828918     24.48745537     12.29680729
S        17.36323166     24.39388657      8.81652737
S        19.00496864     26.82103920     10.44069099
P        17.42055893     25.52171898     10.53672123
S        15.52447224     26.33966827     10.64122677
S        17.66828918     24.48745537     20.77470589
P        17.42055893     25.52171898     19.01461983
S        19.00496864     26.82103920     18.91858864
S        17.36323166     24.39388657     17.29442787
S        15.52447224     26.33966827     19.11912537
P        17.42055893     25.52171898     27.49251938
S        17.66828918     24.48745537     29.25260544
S        17.36323166     24.39388657     25.77232552
S        19.00496864     26.82103920     27.39648819
S        15.52447224     26.33966827     27.59702492
S        17.36323166     33.44008636      0.33862740
S        17.66828918     33.53365326      3.81890726
P        17.42055893     34.56791687      2.05882192
S        19.00496864     35.86723709      1.96279037
S        15.52447224     35.38586426      2.16332674
S        17.36323166     33.44008636      8.81652737
S        19.00496864     35.86723709     10.44069099
P        17.42055893     34.56791687     10.53672123
S        17.66828918     33.53365326     12.29680729
S        15.52447224     35.38586426     10.64122677
P        17.42055893     34.56791687     19.01461983
S        19.00496864     35.86723709     18.91858864
S        17.36323166     33.44008636     17.29442787
S        17.66828918     33.53365326     20.77470589
S        15.52447224     35.38586426     19.11912537
S        17.66828918     33.53365326     29.25260544
S        17.36323166     33.44008636     25.77232552
S        19.00496864     35.86723709     27.39648819
P        17.42055893     34.56791687     27.49251938
S        15.52447224     35.38586426     27.59702492
S        24.16797256      8.24726963      2.16332674
P        26.06406021      7.42932034      2.05882192
S        27.64846992      8.72864056      1.96279037
S        26.00673103      6.30148792      0.33862740
S        26.31178856      6.39505672      3.81890726
S        24.16797256      8.24726963     10.64122677
S        26.31178856      6.39505672     12.29680729
S        26.00673103      6.30148792      8.81652737
S        27.64846992      8.72864056     10.44069099
P        26.06406021      7.42932034     10.53672123
S        24.16797256      8.24726963     19.11912537
S        26.31178856      6.39505672     20.77470589
P        26.06406021      7.42932034     19.01461983
S        27.64846992      8.72864056     18.91858864
S        26.00673103      6.30148792     17.29442787
S        24.16797256      8.24726963     27.59702492
P        26.06406021      7.42932034     27.49251938
S        26.31178856      6.39505672     29.25260544
S        26.00673103      6.30148792     25.77232552
S        27.64846992      8.72864056     27.39648819
S        24.16797256     17.29347038      2.16332674
S        26.00673103     15.34768772      0.33862740
S        26.31178856     15.44125652      3.81890726
P        26.06406021     16.47551918      2.05882192
S        27.64846992     17.77483940      1.96279037
S        24.16797256     17.29347038     10.64122677
S        26.00673103     15.34768772      8.81652737
S        27.64846992     17.77483940     10.44069099
P        26.06406021     16.47551918     10.53672123
S        26.31178856     15.44125652     12.29680729
S        24.16797256     17.29347038     19.11912537
P        26.06406021     16.47551918     19.01461983
S        27.64846992     17.77483940     18.91858864
S        26.00673103     15.34768772     17.29442787
S        26.31178856     15.44125652     20.77470589
S        27.64846992     17.77483940     27.39648819
S        26.00673103     15.34768772     25.77232552
S        24.16797256     17.29347038     27.59702492
P        26.06406021     16.47551918     27.49251938
S        26.31178856     15.44125652     29.25260544
S        24.16797256     26.33966827      2.16332674
S        27.64846992     26.82103920      1.96279037
S        26.00673103     24.39388657      0.33862740
S        26.31178856     24.48745537      3.81890726
P        26.06406021     25.52171898      2.05882192
S        24.16797256     26.33966827     10.64122677
S        27.64846992     26.82103920     10.44069099
S        26.00673103     24.39388657      8.81652737
P        26.06406021     25.52171898     10.53672123
S        26.31178856     24.48745537     12.29680729
S        24.16797256     26.33966827     19.11912537
S        27.64846992     26.82103920     18.91858864
S        26.00673103     24.39388657     17.29442787
S        26.31178856     24.48745537     20.77470589
P        26.06406021     25.52171898     19.01461983
S        26.00673103     24.39388657     25.77232552
S        24.16797256     26.33966827     27.59702492
S        27.64846992     26.82103920     27.39648819
P        26.06406021     25.52171898     27.49251938
S        26.31178856     24.48745537     29.25260544
S        26.31178856     33.53365326      3.81890726
P        26.06406021     34.56791687      2.05882192
S        24.16797256     35.38586426      2.16332674
S        27.64846992     35.86723709      1.96279037
S        26.00673103     33.44008636      0.33862740
S        27.64846992     35.86723709     10.44069099
S        26.31178856     33.53365326     12.29680729
P        26.06406021     34.56791687     10.53672123
S        24.16797256     35.38586426     10.64122677
S        26.00673103     33.44008636      8.81652737
S        27.64846992     35.86723709     18.91858864
S        26.00673103     33.44008636     17.29442787
S        26.31178856     33.53365326     20.77470589
S        24.16797256     35.38586426     19.11912537
P        26.06406021     34.56791687     19.01461983
S        27.64846992     35.86723709     27.39648819
S        26.00673103     33.44008636     25.77232552
S        24.16797256     35.38586426     27.59702492
P        26.06406021     34.56791687     27.49251938
S        26.31178856     33.53365326     29.25260544
S         8.59868145      2.55062222      4.59899426
P         8.62425995      1.43142736      6.32084656
S         7.03375053      0.12948570      6.23224068
S         8.50094318      2.54693842      8.04579258
S        10.49157810      0.53820163      6.38177395
P         8.62425995      1.43142736     14.79874611
S         7.03375053      0.12948570     14.71013927
S         8.50094318      2.54693842     16.52369308
S         8.59868145      2.55062222     13.07689476
S        10.49157810      0.53820163     14.85967350
S         8.50094318      2.54693842     25.00159073
S         8.59868145      2.55062222     21.55479431
P         8.62425995      1.43142736     23.27664566
S         7.03375053      0.12948570     23.18803978
S        10.49157810      0.53820163     23.33757401
S         8.59868145      2.55062222     30.03269196
P         8.62425995      1.43142736     31.75454521
S         7.03375053      0.12948570     31.66593933
S         8.50094318      2.54693842     33.47949219
S        10.49157810      0.53820163     31.81547165
S         7.03375053      9.17568493      6.23224068
S         8.50094318     11.59313869      8.04579258
S         8.59868145     11.59682274      4.59899426
P         8.62425995     10.47762680      6.32084656
S        10.49157810      9.58440113      6.38177395
S         8.50094318     11.59313869     16.52369308
S         8.59868145     11.59682274     13.07689476
P         8.62425995     10.47762680     14.79874611
S         7.03375053      9.17568493     14.71013927
S        10.49157810      9.58440113     14.85967350
P         8.62425995     10.47762680     23.27664566
S         7.03375053      9.17568493     23.18803978
S         8.50094318     11.59313869     25.00159073
S         8.59868145     11.59682274     21.55479431
S        10.49157810      9.58440113     23.33757401
S         7.03375053      9.17568493     31.66593933
S         8.50094318     11.59313869     33.47949219
S         8.59868145     11.59682274     30.03269196
P         8.62425995     10.47762680     31.75454521
S        10.49157810      9.58440113     31.81547165
S         8.59868145     20.64302254      4.59899426
P         8.62425995     19.52382660      6.32084656
S         7.03375053     18.22188568      6.23224068
S         8.50094318     20.63933945      8.04579258
S        10.49157810     18.63059998      6.38177395
P         8.62425995     19.52382660     14.79874611
S         7.03375053     18.22188568     14.71013927
S         8.50094318     20.63933945     16.52369308
S         8.59868145     20.64302254     13.07689476
S        10.49157810     18.63059998     14.85967350
S         8.50094318     20.63933945     25.00159073
S         8.59868145     20.64302254     21.55479431
P         8.62425995     19.52382660     23.27664566
S         7.03375053     18.22188568     23.18803978
S        10.49157810     18.63059998     23.33757401
S         8.59868145     20.64302254     30.03269196
P         8.62425995     19.52382660     31.75454521
S         7.03375053     18.22188568     31.66593933
S         8.50094318     20.63933945     33.47949219
S        10.49157810     18.63059998     31.81547165
S         7.03375053     27.26808357      6.23224068
S         8.50094318     29.68553925      8.04579258
S         8.59868145     29.68922234      4.59899426
P         8.62425995     28.57002640      6.32084656
S        10.49157810     27.67679977      6.38177395
S         8.50094318     29.68553925     16.52369308
S         8.59868145     29.68922234     13.07689476
P         8.62425995     28.57002640     14.79874611
S         7.03375053     27.26808357     14.71013927
S        10.49157810     27.67679977     14.85967350
P         8.62425995     28.57002640     23.27664566
S         7.03375053     27.26808357     23.18803978
S         8.50094318     29.68553925     25.00159073
S         8.59868145     29.68922234     21.55479431
S        10.49157810     27.67679977     23.33757401
S         7.03375053     27.26808357     31.66593933
S         8.50094318     29.68553925     33.47949219
S         8.59868145     29.68922234     30.03269196
P         8.62425995     28.57002640     31.75454521
S        10.49157810     27.67679977     31.81547165
S        19.13507652      0.53820163      6.38177395
S        17.24217987      2.55062222      4.59899426
P        17.26775932      1.43142736      6.32084656
S        15.67725086      0.12948570      6.23224068
S        17.14444351      2.54693842      8.04579258
S        19.13507652      0.53820163     14.85967350
P        17.26775932      1.43142736     14.79874611
S        15.67725086      0.12948570     14.71013927
S        17.14444351      2.54693842     16.52369308
S        17.24217987      2.55062222     13.07689476
S        19.13507652      0.53820163     23.33757401
S        17.14444351      2.54693842     25.00159073
S        17.24217987      2.55062222     21.55479431
P        17.26775932      1.43142736     23.27664566
S        15.67725086      0.12948570     23.18803978
S        19.13507652      0.53820163     31.81547165
S        17.24217987      2.55062222     30.03269196
P        17.26775932      1.43142736     31.75454521
S        15.67725086      0.12948570     31.66593933
S        17.14444351      2.54693842     33.47949219
S        19.13507652      9.58440113      6.38177395
S        15.67725086      9.17568493      6.23224068
S        17.14444351     11.59313869      8.04579258
S        17.24217987     11.59682274      4.59899426
P        17.26775932     10.47762680      6.32084656
S        19.13507652      9.58440113     14.85967350
S        17.14444351     11.59313869     16.52369308
S        17.24217987     11.59682274     13.07689476
P        17.26775932     10.47762680     14.79874611
S        15.67725086      9.17568493     14.71013927
S        19.13507652      9.58440113     23.33757401
P        17.26775932     10.47762680     23.27664566
S        15.67725086      9.17568493     23.18803978
S        17.14444351     11.59313869     25.00159073
S        17.24217987     11.59682274     21.55479431
S        17.24217987     11.59682274     30.03269196
S        19.13507652      9.58440113     31.81547165
S        17.14444351     11.59313869     33.47949219
P        17.26775932     10.47762680     31.75454521
S        15.67725086      9.17568493     31.66593933
S        15.67725086     18.22188568      6.23224068
S        19.13507652     18.63059998      6.38177395
S        17.14444351     20.63933945      8.04579258
P        17.26775932     19.52382660      6.32084656
S        17.24217987     20.64302254      4.59899426
S        19.13507652     18.63059998     14.85967350
S        15.67725086     18.22188568     14.71013927
S        17.24217987     20.64302254     13.07689476
S        17.14444351     20.63933945     16.52369308
P        17.26775932     19.52382660     14.79874611
S        19.13507652     18.63059998     23.33757401
S        15.67725086     18.22188568     23.18803978
S        17.24217987     20.64302254     21.55479431
S        17.14444351     20.63933945     25.00159073
P        17.26775932     19.52382660     23.27664566
P        17.26775932     19.52382660     31.75454521
S        19.13507652     18.63059998     31.81547165
S        15.67725086     18.22188568     31.66593933
S        17.24217987     20.64302254     30.03269196
S        17.14444351     20.63933945     33.47949219
S        17.14444351     29.68553925      8.04579258
P        17.26775932     28.57002640      6.32084656
S        19.13507652     27.67679977      6.38177395
S        15.67725086     27.26808357      6.23224068
S        17.24217987     29.68922234      4.59899426
S        17.24217987     29.68922234     13.07689476
P        17.26775932     28.57002640     14.79874611
S        19.13507652     27.67679977     14.85967350
S        17.14444351     29.68553925     16.52369308
S        15.67725086     27.26808357     14.71013927
S        15.67725086     27.26808357     23.18803978
S        17.24217987     29.68922234     21.55479431
S        17.14444351     29.68553925     25.00159073
S        19.13507652     27.67679977     23.33757401
P        17.26775932     28.57002640     23.27664566
S        17.24217987     29.68922234     30.03269196
S        19.13507652     27.67679977     31.81547165
S        17.14444351     29.68553925     33.47949219
P        17.26775932     28.57002640     31.75454521
S        15.67725086     27.26808357     31.66593933
S        25.88568115      2.55062222      4.59899426
S        25.78794289      2.54693842      8.04579258
P        25.91125870      1.43142736      6.32084656
S        24.32075119      0.12948570      6.23224068
S        27.77857590      0.53820163      6.38177395
S        24.32075119      0.12948570     14.71013927
S        25.78794289      2.54693842     16.52369308
P        25.91125870      1.43142736     14.79874611
S        25.88568115      2.55062222     13.07689476
S        27.77857590      0.53820163     14.85967350
S        24.32075119      0.12948570     23.18803978
S        25.88568115      2.55062222     21.55479431
S        25.78794289      2.54693842     25.00159073
P        25.91125870      1.43142736     23.27664566
S        27.77857590      0.53820163     23.33757401
P        25.91125870      1.43142736     31.75454521
S        25.88568115      2.55062222     30.03269196
S        24.32075119      0.12948570     31.66593933
S        25.78794289      2.54693842     33.47949219
S        27.77857590      0.53820163     31.81547165
P        25.91125870     10.47762680      6.32084656
S        24.32075119      9.17568493      6.23224068
S        25.88568115     11.59682274      4.59899426
S        25.78794289     11.59313869      8.04579258
S        27.77857590      9.58440113      6.38177395
S        25.78794289     11.59313869     16.52369308
P        25.91125870     10.47762680     14.79874611
S        25.88568115     11.59682274     13.07689476
S        24.32075119      9.17568493     14.71013927
S        27.77857590      9.58440113     14.85967350
S        25.88568115     11.59682274     21.55479431
S        25.78794289     11.59313869     25.00159073
P        25.91125870     10.47762680     23.27664566
S        24.32075119      9.17568493     23.18803978
S        27.77857590      9.58440113     23.33757401
S        24.32075119      9.17568493     31.66593933
S        25.78794289     11.59313869     33.47949219
P        25.91125870     10.47762680     31.75454521
S        25.88568115     11.59682274     30.03269196
S        27.77857590      9.58440113     31.81547165
S        25.88568115     20.64302254      4.59899426
S        25.78794289     20.63933945      8.04579258
P        25.91125870     19.52382660      6.32084656
S        24.32075119     18.22188568      6.23224068
S        27.77857590     18.63059998      6.38177395
S        24.32075119     18.22188568     14.71013927
S        25.78794289     20.63933945     16.52369308
P        25.91125870     19.52382660     14.79874611
S        25.88568115     20.64302254     13.07689476
S        27.77857590     18.63059998     14.85967350
S        24.32075119     18.22188568     23.18803978
S        25.88568115     20.64302254     21.55479431
S        25.78794289     20.63933945     25.00159073
P        25.91125870     19.52382660     23.27664566
S        27.77857590     18.63059998     23.33757401
P        25.91125870     19.52382660     31.75454521
S        25.88568115     20.64302254     30.03269196
S        24.32075119     18.22188568     31.66593933
S        25.78794289     20.63933945     33.47949219
S        27.77857590     18.63059998     31.81547165
P        25.91125870     28.57002640      6.32084656
S        24.32075119     27.26808357      6.23224068
S        25.88568115     29.68922234      4.59899426
S        25.78794289     29.68553925      8.04579258
S        27.77857590     27.67679977      6.38177395
S        25.78794289     29.68553925     16.52369308
P        25.91125870     28.57002640     14.79874611
S        25.88568115     29.68922234     13.07689476
S        24.32075119     27.26808357     14.71013927
S        27.77857590     27.67679977     14.85967350
S        25.88568115     29.68922234     21.55479431
S        25.78794289     29.68553925     25.00159073
P        25.91125870     28.57002640     23.27664566
S        24.32075119     27.26808357     23.18803978
S        27.77857590     27.67679977     23.33757401
S        24.32075119     27.26808357     31.66593933
S        25.78794289     29.68553925     33.47949219
P        25.91125870     28.57002640     31.75454521
S        25.88568115     29.68922234     30.03269196
S        27.77857590     27.67679977     31.81547165
S         1.84807801      0.53820163      6.38177395
S        -0.04481757      2.55062222      4.59899426
S        -0.14255774      2.54693842      8.04579258
P        -0.01924002      1.43142736      6.32084656
S        -1.60975122      0.12948570      6.23224068
S         1.84807801      0.53820163     14.85967350
S        -1.60975122      0.12948570     14.71013927
S        -0.14255774      2.54693842     16.52369308
P        -0.01924002      1.43142736     14.79874611
S        -0.04481757      2.55062222     13.07689476
S         1.84807801      0.53820163     23.33757401
S        -1.60975122      0.12948570     23.18803978
S        -0.04481757      2.55062222     21.55479431
S        -0.14255774      2.54693842     25.00159073
P        -0.01924002      1.43142736     23.27664566
S         1.84807801      0.53820163     31.81547165
P        -0.01924002      1.43142736     31.75454521
S        -0.04481757      2.55062222     30.03269196
S        -1.60975122      0.12948570     31.66593933
S        -0.14255774      2.54693842     33.47949219
S         1.84807801      9.58440113      6.38177395
P        -0.01924002     10.47762680      6.32084656
S        -1.60975122      9.17568493      6.23224068
S        -0.04481757     11.59682274      4.59899426
S        -0.14255774     11.59313869      8.04579258
S         1.84807801      9.58440113     14.85967350
S        -0.14255774     11.59313869     16.52369308
P        -0.01924002     10.47762680     14.79874611
S        -0.04481757     11.59682274     13.07689476
S        -1.60975122      9.17568493     14.71013927
S         1.84807801      9.58440113     23.33757401
S        -0.04481757     11.59682274     21.55479431
S        -0.14255774     11.59313869     25.00159073
P        -0.01924002     10.47762680     23.27664566
S        -1.60975122      9.17568493     23.18803978
S        34.52917862     11.59682274     30.03269196
S        36.42207718      9.58440113     31.81547165
S        34.43143845     11.59313869     33.47949219
P        34.55475998     10.47762680     31.75454521
S        32.96424866      9.17568493     31.66593933
S        32.96424866     18.22188568      6.23224068
S        36.42207718     18.63059998      6.38177395
S        34.43143845     20.63933945      8.04579258
P        34.55475998     19.52382660      6.32084656
S        34.52917862     20.64302254      4.59899426
S         1.84807801     18.63059998     14.85967350
S        -0.04481757     20.64302254     13.07689476
S        -0.14255774     20.63933945     16.52369308
S        -1.60975122     18.22188568     14.71013927
P        -0.01924002     19.52382660     14.79874611
S        34.43143845     20.63933945     25.00159073
S        36.42207718     18.63059998     23.33757401
S        34.52917862     20.64302254     21.55479431
S        32.96424866     18.22188568     23.18803978
P        34.55475998     19.52382660     23.27664566
S         1.84807801     18.63059998     31.81547165
S        -1.60975122     18.22188568     31.66593933
S        -0.04481757     20.64302254     30.03269196
P        -0.01924002     19.52382660     31.75454521
S        -0.14255774     20.63933945     33.47949219
S        34.43143845     29.68553925      8.04579258
S        36.42207718     27.67679977      6.38177395
S        32.96424866     27.26808357      6.23224068
P        34.55475998     28.57002640      6.32084656
S        34.52917862     29.68922234      4.59899426
S        34.52917862     29.68922234     13.07689476
P        34.55475998     28.57002640     14.79874611
S        36.42207718     27.67679977     14.85967350
S        34.43143845     29.68553925     16.52369308
S        32.96424866     27.26808357     14.71013927
S        32.96424866     27.26808357     23.18803978
S        34.43143845     29.68553925     25.00159073
S        36.42207718     27.67679977     23.33757401
P        34.55475998     28.57002640     23.27664566
S        34.52917862     29.68922234     21.55479431
S        34.52917862     29.68922234     30.03269196
S        36.42207718     27.67679977     31.81547165
S        34.43143845     29.68553925     33.47949219
P        34.55475998     28.57002640     31.75454521
S        32.96424866     27.26808357     31.66593933
S         2.55707860      3.72702479      2.16970515
S         4.68690920      1.85451043      3.81615973
S         4.40876293      1.79732180      0.33176979
P         4.44928074      2.90685177      2.06477547
S         6.03877926      4.20367098      1.98782718
S         4.40876293      1.79732180      8.80966949
S         2.55707860      3.72702479     10.64760494
P         4.44928074      2.90685177     10.54267406
S         6.03877926      4.20367098     10.46572590
S         4.68690920      1.85451043     12.29405975
S         6.03877926      4.20367098     18.94362450
S         2.55707860      3.72702479     19.12550545
S         4.68690920      1.85451043     20.77195930
S         4.40876293      1.79732180     17.28756714
P         4.44928074      2.90685177     19.02057266
S         4.40876293      1.79732180     25.76546860
S         2.55707860      3.72702479     27.60340500
P         4.44928074      2.90685177     27.49847412
S         6.03877926      4.20367098     27.42152786
S         4.68690920      1.85451043     29.24985886
P         4.44928074     11.95305157      2.06477547
S         6.03877926     13.24987030      1.98782718
S         2.55707860     12.77322483      2.16970515
S         4.68690920     10.90070915      3.81615973
S         4.40876293     10.84352207      0.33176979
S         6.03877926     13.24987030     10.46572590
S         4.68690920     10.90070915     12.29405975
S         4.40876293     10.84352207      8.80966949
S         2.55707860     12.77322483     10.64760494
P         4.44928074     11.95305157     10.54267406
S         4.40876293     10.84352207     17.28756714
P         4.44928074     11.95305157     19.02057266
S         6.03877926     13.24987030     18.94362450
S         2.55707860     12.77322483     19.12550545
S         4.68690920     10.90070915     20.77195930
P         4.44928074     11.95305157     27.49847412
S         6.03877926     13.24987030     27.42152786
S         4.68690920     10.90070915     29.24985886
S         4.40876293     10.84352207     25.76546860
S         2.55707860     12.77322483     27.60340500
S         2.55707860     21.81942558      2.16970515
S         4.68690920     19.94691086      3.81615973
S         4.40876293     19.88971901      0.33176979
P         4.44928074     20.99925041      2.06477547
S         6.03877926     22.29607010      1.98782718
S         4.40876293     19.88971901      8.80966949
S         2.55707860     21.81942558     10.64760494
P         4.44928074     20.99925041     10.54267406
S         6.03877926     22.29607010     10.46572590
S         4.68690920     19.94691086     12.29405975
S         6.03877926     22.29607010     18.94362450
S         2.55707860     21.81942558     19.12550545
S         4.68690920     19.94691086     20.77195930
S         4.40876293     19.88971901     17.28756714
P         4.44928074     20.99925041     19.02057266
S         4.40876293     19.88971901     25.76546860
S         2.55707860     21.81942558     27.60340500
P         4.44928074     20.99925041     27.49847412
S         6.03877926     22.29607010     27.42152786
S         4.68690920     19.94691086     29.24985886
P         4.44928074     30.04545021      2.06477547
S         6.03877926     31.34226990      1.98782718
S         2.55707860     30.86562538      2.16970515
S         4.68690920     28.99310875      3.81615973
S         4.40876293     28.93592072      0.33176979
S         6.03877926     31.34226990     10.46572590
S         4.68690920     28.99310875     12.29405975
S         4.40876293     28.93592072      8.80966949
S         2.55707860     30.86562538     10.64760494
P         4.44928074     30.04545021     10.54267406
S         4.40876293     28.93592072     17.28756714
P         4.44928074     30.04545021     19.02057266
S         6.03877926     31.34226990     18.94362450
S         2.55707860     30.86562538     19.12550545
S         4.68690920     28.99310875     20.77195930
P         4.44928074     30.04545021     27.49847412
S         6.03877926     31.34226990     27.42152786
S         4.68690920     28.99310875     29.24985886
S         4.40876293     28.93592072     25.76546860
S         2.55707860     30.86562538     27.60340500
S        11.20057869      3.72702479      2.16970515
S        13.33041000      1.85451043      3.81615973
S        13.05226326      1.79732180      0.33176979
P        13.09278011      2.90685177      2.06477547
S        14.68227959      4.20367098      1.98782718
S        13.05226326      1.79732180      8.80966949
S        11.20057869      3.72702479     10.64760494
P        13.09278011      2.90685177     10.54267406
S        14.68227959      4.20367098     10.46572590
S        13.33041000      1.85451043     12.29405975
S        14.68227959      4.20367098     18.94362450
S        11.20057869      3.72702479     19.12550545
S        13.33041000      1.85451043     20.77195930
S        13.05226326      1.79732180     17.28756714
P        13.09278011      2.90685177     19.02057266
S        13.05226326      1.79732180     25.76546860
S        11.20057869      3.72702479     27.60340500
P        13.09278011      2.90685177     27.49847412
S        14.68227959      4.20367098     27.42152786
S        13.33041000      1.85451043     29.24985886
P        13.09278011     11.95305157      2.06477547
S        14.68227959     13.24987030      1.98782718
S        11.20057869     12.77322483      2.16970515
S        13.33041000     10.90070915      3.81615973
S        13.05226326     10.84352207      0.33176979
S        14.68227959     13.24987030     10.46572590
S        13.33041000     10.90070915     12.29405975
S        13.05226326     10.84352207      8.80966949
S        11.20057869     12.77322483     10.64760494
P        13.09278011     11.95305157     10.54267406
S        13.05226326     10.84352207     17.28756714
P        13.09278011     11.95305157     19.02057266
S        14.68227959     13.24987030     18.94362450
S        11.20057869     12.77322483     19.12550545
S        13.33041000     10.90070915     20.77195930
S        13.05226326     10.84352207     25.76546860
S        13.33041000     10.90070915     29.24985886
S        11.20057869     12.77322483     27.60340500
P        13.09278011     11.95305157     27.49847412
S        14.68227959     13.24987030     27.42152786
S        13.05226326     19.88971901      0.33176979
S        13.33041000     19.94691086      3.81615973
P        13.09278011     20.99925041      2.06477547
S        11.20057869     21.81942558      2.16970515
S        14.68227959     22.29607010      1.98782718
S        14.68227959     22.29607010     10.46572590
S        13.33041000     19.94691086     12.29405975
S        13.05226326     19.88971901      8.80966949
P        13.09278011     20.99925041     10.54267406
S        11.20057869     21.81942558     10.64760494
S        11.20057869     21.81942558     19.12550545
S        14.68227959     22.29607010     18.94362450
P        13.09278011     20.99925041     19.02057266
S        13.05226326     19.88971901     17.28756714
S        13.33041000     19.94691086     20.77195930
P        13.09278011     20.99925041     27.49847412
S        13.33041000     19.94691086     29.24985886
S        11.20057869     21.81942558     27.60340500
S        14.68227959     22.29607010     27.42152786
S        13.05226326     19.88971901     25.76546860
S        13.05226326     28.93592072      0.33176979
S        13.33041000     28.99310875      3.81615973
S        11.20057869     30.86562538      2.16970515
S        14.68227959     31.34226990      1.98782718
P        13.09278011     30.04545021      2.06477547
S        13.05226326     28.93592072      8.80966949
S        13.33041000     28.99310875     12.29405975
P        13.09278011     30.04545021     10.54267406
S        11.20057869     30.86562538     10.64760494
S        14.68227959     31.34226990     10.46572590
P        13.09278011     30.04545021     19.02057266
S        13.33041000     28.99310875     20.77195930
S        11.20057869     30.86562538     19.12550545
S        14.68227959     31.34226990     18.94362450
S        13.05226326     28.93592072     17.28756714
S        14.68227959     31.34226990     27.42152786
S        13.05226326     28.93592072     25.76546860
S        13.33041000     28.99310875     29.24985886
S        11.20057869     30.86562538     27.60340500
P        13.09278011     30.04545021     27.49847412
S        19.84407806      3.72702479      2.16970515
S        21.97390938      1.85451043      3.81615973
S        23.32577896      4.20367098      1.98782718
S        21.69576263      1.79732180      0.33176979
P        21.73627853      2.90685177      2.06477547
S        19.84407806      3.72702479     10.64760494
P        21.73627853      2.90685177     10.54267406
S        23.32577896      4.20367098     10.46572590
S        21.97390938      1.85451043     12.29405975
S        21.69576263      1.79732180      8.80966949
P        21.73627853      2.90685177     19.02057266
S        19.84407806      3.72702479     19.12550545
S        21.97390938      1.85451043     20.77195930
S        23.32577896      4.20367098     18.94362450
S        21.69576263      1.79732180     17.28756714
S        21.97390938      1.85451043     29.24985886
S        21.69576263      1.79732180     25.76546860
S        19.84407806      3.72702479     27.60340500
P        21.73627853      2.90685177     27.49847412
S        23.32577896      4.20367098     27.42152786
S        21.69576263     10.84352207      0.33176979
P        21.73627853     11.95305157      2.06477547
S        19.84407806     12.77322483      2.16970515
S        21.97390938     10.90070915      3.81615973
S        23.32577896     13.24987030      1.98782718
S        23.32577896     13.24987030     10.46572590
S        21.97390938     10.90070915     12.29405975
S        21.69576263     10.84352207      8.80966949
S        19.84407806     12.77322483     10.64760494
P        21.73627853     11.95305157     10.54267406
S        23.32577896     13.24987030     18.94362450
S        21.69576263     10.84352207     17.28756714
P        21.73627853     11.95305157     19.02057266
S        19.84407806     12.77322483     19.12550545
S        21.97390938     10.90070915     20.77195930
P        21.73627853     11.95305157     27.49847412
S        23.32577896     13.24987030     27.42152786
S        21.97390938     10.90070915     29.24985886
S        21.69576263     10.84352207     25.76546860
S        19.84407806     12.77322483     27.60340500
S        19.84407806     21.81942558      2.16970515
S        21.97390938     19.94691086      3.81615973
S        23.32577896     22.29607010      1.98782718
S        21.69576263     19.88971901      0.33176979
P        21.73627853     20.99925041      2.06477547
S        19.84407806     21.81942558     10.64760494
P        21.73627853     20.99925041     10.54267406
S        23.32577896     22.29607010     10.46572590
S        21.97390938     19.94691086     12.29405975
S        21.69576263     19.88971901      8.80966949
P        21.73627853     20.99925041     19.02057266
S        19.84407806     21.81942558     19.12550545
S        21.97390938     19.94691086     20.77195930
S        23.32577896     22.29607010     18.94362450
S        21.69576263     19.88971901     17.28756714
S        21.97390938     19.94691086     29.24985886
S        21.69576263     19.88971901     25.76546860
S        19.84407806     21.81942558     27.60340500
P        21.73627853     20.99925041     27.49847412
S        23.32577896     22.29607010     27.42152786
S        21.69576263     28.93592072      0.33176979
P        21.73627853     30.04545021      2.06477547
S        19.84407806     30.86562538      2.16970515
S        21.97390938     28.99310875      3.81615973
S        23.32577896     31.34226990      1.98782718
S        23.32577896     31.34226990     10.46572590
S        21.97390938     28.99310875     12.29405975
S        21.69576263     28.93592072      8.80966949
S        19.84407806     30.86562538     10.64760494
P        21.73627853     30.04545021     10.54267406
S        23.32577896     31.34226990     18.94362450
S        21.69576263     28.93592072     17.28756714
P        21.73627853     30.04545021     19.02057266
S        19.84407806     30.86562538     19.12550545
S        21.97390938     28.99310875     20.77195930
P        21.73627853     30.04545021     27.49847412
S        23.32577896     31.34226990     27.42152786
S        21.97390938     28.99310875     29.24985886
S        21.69576263     28.93592072     25.76546860
S        19.84407806     30.86562538     27.60340500
S        28.48757935      3.72702479      2.16970515
S        30.61740685      1.85451043      3.81615973
S        31.96927834      4.20367098      1.98782718
S        30.33926392      1.79732180      0.33176979
P        30.37978172      2.90685177      2.06477547
S        28.48757935      3.72702479     10.64760494
P        30.37978172      2.90685177     10.54267406
S        31.96927834      4.20367098     10.46572590
S        30.61740685      1.85451043     12.29405975
S        30.33926392      1.79732180      8.80966949
P        30.37978172      2.90685177     19.02057266
S        28.48757935      3.72702479     19.12550545
S        30.61740685      1.85451043     20.77195930
S        31.96927834      4.20367098     18.94362450
S        30.33926392      1.79732180     17.28756714
S        30.61740685      1.85451043     29.24985886
S        30.33926392      1.79732180     25.76546860
S        28.48757935      3.72702479     27.60340500
P        30.37978172      2.90685177     27.49847412
S        31.96927834      4.20367098     27.42152786
S        30.33926392     10.84352207      0.33176979
P        30.37978172     11.95305157      2.06477547
S        28.48757935     12.77322483      2.16970515
S        30.61740685     10.90070915      3.81615973
S        31.96927834     13.24987030      1.98782718
S        31.96927834     13.24987030     10.46572590
S        30.61740685     10.90070915     12.29405975
S        30.33926392     10.84352207      8.80966949
S        28.48757935     12.77322483     10.64760494
P        30.37978172     11.95305157     10.54267406
S        31.96927834     13.24987030     18.94362450
S        30.33926392     10.84352207     17.28756714
P        30.37978172     11.95305157     19.02057266
S        28.48757935     12.77322483     19.12550545
S        30.61740685     10.90070915     20.77195930
S        30.33926392     10.84352207     25.76546860
S        30.61740685     10.90070915     29.24985886
S        28.48757935     12.77322483     27.60340500
P        30.37978172     11.95305157     27.49847412
S        31.96927834     13.24987030     27.42152786
S        31.96927834     22.29607010      1.98782718
S        30.33926392     19.88971901      0.33176979
S        30.61740685     19.94691086      3.81615973
P        30.37978172     20.99925041      2.06477547
S        28.48757935     21.81942558      2.16970515
S        31.96927834     22.29607010     10.46572590
S        30.61740685     19.94691086     12.29405975
S        28.48757935     21.81942558     10.64760494
P        30.37978172     20.99925041     10.54267406
S        30.33926392     19.88971901      8.80966949
S        30.61740685     19.94691086     20.77195930
S        28.48757935     21.81942558     19.12550545
S        31.96927834     22.29607010     18.94362450
P        30.37978172     20.99925041     19.02057266
S        30.33926392     19.88971901     17.28756714
S        30.33926392     19.88971901     25.76546860
P        30.37978172     20.99925041     27.49847412
S        28.48757935     21.81942558     27.60340500
S        31.96927834     22.29607010     27.42152786
S        30.61740685     19.94691086     29.24985886
P        30.37978172     30.04545021      2.06477547
S        30.61740685     28.99310875      3.81615973
S        28.48757935     30.86562538      2.16970515
S        31.96927834     31.34226990      1.98782718
S        30.33926392     28.93592072      0.33176979
S        30.33926392     28.93592072      8.80966949
S        30.61740685     28.99310875     12.29405975
P        30.37978172     30.04545021     10.54267406
S        28.48757935     30.86562538     10.64760494
S        31.96927834     31.34226990     10.46572590
S        30.33926392     28.93592072     17.28756714
P        30.37978172     30.04545021     19.02057266
S        30.61740685     28.99310875     20.77195930
S        28.48757935     30.86562538     19.12550545
S        31.96927834     31.34226990     18.94362450
S        31.96927834     31.34226990     27.42152786
S        30.33926392     28.93592072     25.76546860
S        30.61740685     28.99310875     29.24985886
S        28.48757935     30.86562538     27.60340500
P        30.37978172     30.04545021     27.49847412
S         6.16996384      5.06017256      6.38299274
S         4.29002380      7.08196259      4.60333204
S         4.17791653      7.07625246      8.04720783
S         2.70986295      4.66403198      6.23054552
P         4.30682993      5.95866919      6.32365513
S         6.16996384      5.06017256     14.86089230
S         2.70986295      4.66403198     14.70844555
P         4.30682993      5.95866919     14.80155468
S         4.29002380      7.08196259     13.08123112
S         4.17791653      7.07625246     16.52510643
P         4.30682993      5.95866919     23.27945328
S         6.16996384      5.06017256     23.33879280
S         4.29002380      7.08196259     21.55913162
S         4.17791653      7.07625246     25.00300598
S         2.70986295      4.66403198     23.18634605
S         4.29002380      7.08196259     30.03703117
S         4.17791653      7.07625246     33.48090744
S         6.16996384      5.06017256     31.81669426
S         2.70986295      4.66403198     31.66424561
P         4.30682993      5.95866919     31.75735283
S         2.70986295     13.71023178      6.23054552
P         4.30682993     15.00486851      6.32365513
S         6.16996384     14.10637188      6.38299274
S         4.29002380     16.12816238      4.60333204
S         4.17791653     16.12245369      8.04720783
P         4.30682993     15.00486851     14.80155468
S         4.29002380     16.12816238     13.08123112
S         4.17791653     16.12245369     16.52510643
S         6.16996384     14.10637188     14.86089230
S         2.70986295     13.71023178     14.70844555
S         4.17791653     16.12245369     25.00300598
S         2.70986295     13.71023178     23.18634605
P         4.30682993     15.00486851     23.27945328
S         6.16996384     14.10637188     23.33879280
S         4.29002380     16.12816238     21.55913162
S         2.70986295     13.71023178     31.66424561
P         4.30682993     15.00486851     31.75735283
S         4.29002380     16.12816238     30.03703117
S         4.17791653     16.12245369     33.48090744
S         6.16996384     14.10637188     31.81669426
S         6.16996384     23.15257263      6.38299274
S         4.29002380     25.17436218      4.60333204
S         4.17791653     25.16865349      8.04720783
S         2.70986295     22.75643158      6.23054552
P         4.30682993     24.05106926      6.32365513
S         6.16996384     23.15257263     14.86089230
S         2.70986295     22.75643158     14.70844555
P         4.30682993     24.05106926     14.80155468
S         4.29002380     25.17436218     13.08123112
S         4.17791653     25.16865349     16.52510643
P         4.30682993     24.05106926     23.27945328
S         6.16996384     23.15257263     23.33879280
S         4.29002380     25.17436218     21.55913162
S         4.17791653     25.16865349     25.00300598
S         2.70986295     22.75643158     23.18634605
S         4.29002380     25.17436218     30.03703117
S         4.17791653     25.16865349     33.48090744
S         6.16996384     23.15257263     31.81669426
S         2.70986295     22.75643158     31.66424561
P         4.30682993     24.05106926     31.75735283
S         2.70986295     31.80262947      6.23054552
P         4.30682993     33.09726334      6.32365513
S         6.16996384     32.19877243      6.38299274
S         4.29002380     34.22055817      4.60333204
S         4.17791653     34.21484756      8.04720783
P         4.30682993     33.09726334     14.80155468
S         4.29002380     34.22055817     13.08123112
S         4.17791653     34.21484756     16.52510643
S         6.16996384     32.19877243     14.86089230
S         2.70986295     31.80262947     14.70844555
S         4.17791653     34.21484756     25.00300598
S         2.70986295     31.80262947     23.18634605
P         4.30682993     33.09726334     23.27945328
S         6.16996384     32.19877243     23.33879280
S         4.29002380     34.22055817     21.55913162
S         2.70986295     31.80262947     31.66424561
P         4.30682993     33.09726334     31.75735283
S         4.29002380     34.22055817     30.03703117
S         4.17791653     34.21484756     33.48090744
S         6.16996384     32.19877243     31.81669426
S        14.81346321      5.06017256      6.38299274
S        12.93352318      7.08196259      4.60333204
S        12.82141685      7.07625246      8.04720783
S        11.35336208      4.66403198      6.23054552
P        12.95032883      5.95866919      6.32365513
S        14.81346321      5.06017256     14.86089230
S        11.35336208      4.66403198     14.70844555
P        12.95032883      5.95866919     14.80155468
S        12.93352318      7.08196259     13.08123112
S        12.82141685      7.07625246     16.52510643
P        12.95032883      5.95866919     23.27945328
S        14.81346321      5.06017256     23.33879280
S        12.93352318      7.08196259     21.55913162
S        12.82141685      7.07625246     25.00300598
S        11.35336208      4.66403198     23.18634605
S        12.93352318      7.08196259     30.03703117
S        12.82141685      7.07625246     33.48090744
S        14.81346321      5.06017256     31.81669426
S        11.35336208      4.66403198     31.66424561
P        12.95032883      5.95866919     31.75735283
S        11.35336208     13.71023178      6.23054552
P        12.95032883     15.00486851      6.32365513
S        14.81346321     14.10637188      6.38299274
S        12.93352318     16.12816238      4.60333204
S        12.82141685     16.12245369      8.04720783
P        12.95032883     15.00486851     14.80155468
S        12.93352318     16.12816238     13.08123112
S        12.82141685     16.12245369     16.52510643
S        14.81346321     14.10637188     14.86089230
S        11.35336208     13.71023178     14.70844555
S        12.82141685     16.12245369     25.00300598
S        11.35336208     13.71023178     23.18634605
P        12.95032883     15.00486851     23.27945328
S        14.81346321     14.10637188     23.33879280
S        12.93352318     16.12816238     21.55913162
S        12.93352318     16.12816238     30.03703117
P        12.95032883     15.00486851     31.75735283
S        12.82141685     16.12245369     33.48090744
S        14.81346321     14.10637188     31.81669426
S        11.35336208     13.71023178     31.66424561
S        12.93352318     25.17436218      4.60333204
P        12.95032883     24.05106926      6.32365513
S        12.82141685     25.16865349      8.04720783
S        14.81346321     23.15257263      6.38299274
S        11.35336208     22.75643158      6.23054552
S        11.35336208     22.75643158     14.70844555
S        12.82141685     25.16865349     16.52510643
S        12.93352318     25.17436218     13.08123112
S        14.81346321     23.15257263     14.86089230
P        12.95032883     24.05106926     14.80155468
S        12.82141685     25.16865349     25.00300598
S        14.81346321     23.15257263     23.33879280
S        11.35336208     22.75643158     23.18634605
P        12.95032883     24.05106926     23.27945328
S        12.93352318     25.17436218     21.55913162
S        12.82141685     25.16865349     33.48090744
P        12.95032883     24.05106926     31.75735283
S        14.81346321     23.15257263     31.81669426
S        11.35336208     22.75643158     31.66424561
S        12.93352318     25.17436218     30.03703117
S        12.93352318     34.22055817      4.60333204
P        12.95032883     33.09726334      6.32365513
S        12.82141685     34.21484756      8.04720783
S        14.81346321     32.19877243      6.38299274
S        11.35336208     31.80262947      6.23054552
S        12.93352318     34.22055817     13.08123112
S        12.82141685     34.21484756     16.52510643
S        14.81346321     32.19877243     14.86089230
S        11.35336208     31.80262947     14.70844555
P        12.95032883     33.09726334     14.80155468
S        12.93352318     34.22055817     21.55913162
P        12.95032883     33.09726334     23.27945328
S        14.81346321     32.19877243     23.33879280
S        11.35336208     31.80262947     23.18634605
S        12.82141685     34.21484756     25.00300598
S        12.82141685     34.21484756     33.48090744
S        12.93352318     34.22055817     30.03703117
P        12.95032883     33.09726334     31.75735283
S        14.81346321     32.19877243     31.81669426
S        11.35336208     31.80262947     31.66424561
S        23.45696259      5.06017256      6.38299274
P        21.59382820      5.95866919      6.32365513
S        21.57702255      7.08196259      4.60333204
S        21.46491432      7.07625246      8.04720783
S        19.99686241      4.66403198      6.23054552
S        21.46491432      7.07625246     16.52510643
S        23.45696259      5.06017256     14.86089230
S        19.99686241      4.66403198     14.70844555
P        21.59382820      5.95866919     14.80155468
S        21.57702255      7.08196259     13.08123112
S        19.99686241      4.66403198     23.18634605
S        23.45696259      5.06017256     23.33879280
P        21.59382820      5.95866919     23.27945328
S        21.57702255      7.08196259     21.55913162
S        21.46491432      7.07625246     25.00300598
S        21.57702255      7.08196259     30.03703117
S        21.46491432      7.07625246     33.48090744
S        23.45696259      5.06017256     31.81669426
S        19.99686241      4.66403198     31.66424561
P        21.59382820      5.95866919     31.75735283
S        19.99686241     13.71023178      6.23054552
S        23.45696259     14.10637188      6.38299274
P        21.59382820     15.00486851      6.32365513
S        21.57702255     16.12816238      4.60333204
S        21.46491432     16.12245369      8.04720783
P        21.59382820     15.00486851     14.80155468
S        21.57702255     16.12816238     13.08123112
S        21.46491432     16.12245369     16.52510643
S        23.45696259     14.10637188     14.86089230
S        19.99686241     13.71023178     14.70844555
S        21.57702255     16.12816238     21.55913162
S        21.46491432     16.12245369     25.00300598
S        19.99686241     13.71023178     23.18634605
S        23.45696259     14.10637188     23.33879280
P        21.59382820     15.00486851     23.27945328
S        19.99686241     13.71023178     31.66424561
P        21.59382820     15.00486851     31.75735283
S        21.57702255     16.12816238     30.03703117
S        21.46491432     16.12245369     33.48090744
S        23.45696259     14.10637188     31.81669426
S        23.45696259     23.15257263      6.38299274
P        21.59382820     24.05106926      6.32365513
S        21.57702255     25.17436218      4.60333204
S        21.46491432     25.16865349      8.04720783
S        19.99686241     22.75643158      6.23054552
S        21.46491432     25.16865349     16.52510643
S        23.45696259     23.15257263     14.86089230
S        19.99686241     22.75643158     14.70844555
P        21.59382820     24.05106926     14.80155468
S        21.57702255     25.17436218     13.08123112
S        19.99686241     22.75643158     23.18634605
S        23.45696259     23.15257263     23.33879280
P        21.59382820     24.05106926     23.27945328
S        21.57702255     25.17436218     21.55913162
S        21.46491432     25.16865349     25.00300598
S        21.57702255     25.17436218     30.03703117
S        21.46491432     25.16865349     33.48090744
S        23.45696259     23.15257263     31.81669426
S        19.99686241     22.75643158     31.66424561
P        21.59382820     24.05106926     31.75735283
S        19.99686241     31.80262947      6.23054552
S        23.45696259     32.19877243      6.38299274
P        21.59382820     33.09726334      6.32365513
S        21.57702255     34.22055817      4.60333204
S        21.46491432     34.21484756      8.04720783
P        21.59382820     33.09726334     14.80155468
S        21.57702255     34.22055817     13.08123112
S        21.46491432     34.21484756     16.52510643
S        23.45696259     32.19877243     14.86089230
S        19.99686241     31.80262947     14.70844555
S        21.57702255     34.22055817     21.55913162
S        21.46491432     34.21484756     25.00300598
S        19.99686241     31.80262947     23.18634605
S        23.45696259     32.19877243     23.33879280
P        21.59382820     33.09726334     23.27945328
S        19.99686241     31.80262947     31.66424561
P        21.59382820     33.09726334     31.75735283
S        21.57702255     34.22055817     30.03703117
S        21.46491432     34.21484756     33.48090744
S        23.45696259     32.19877243     31.81669426
S        32.10046387      5.06017256      6.38299274
P        30.23732948      5.95866919      6.32365513
S        30.22052193      7.08196259      4.60333204
S        30.10841560      7.07625246      8.04720783
S        28.64036369      4.66403198      6.23054552
S        30.10841560      7.07625246     16.52510643
S        32.10046387      5.06017256     14.86089230
S        28.64036369      4.66403198     14.70844555
P        30.23732948      5.95866919     14.80155468
S        30.22052193      7.08196259     13.08123112
S        28.64036369      4.66403198     23.18634605
S        32.10046387      5.06017256     23.33879280
P        30.23732948      5.95866919     23.27945328
S        30.22052193      7.08196259     21.55913162
S        30.10841560      7.07625246     25.00300598
S        30.22052193      7.08196259     30.03703117
S        30.10841560      7.07625246     33.48090744
S        32.10046387      5.06017256     31.81669426
S        28.64036369      4.66403198     31.66424561
P        30.23732948      5.95866919     31.75735283
S        28.64036369     13.71023178      6.23054552
S        32.10046387     14.10637188      6.38299274
P        30.23732948     15.00486851      6.32365513
S        30.22052193     16.12816238      4.60333204
S        30.10841560     16.12245369      8.04720783
P        30.23732948     15.00486851     14.80155468
S        30.22052193     16.12816238     13.08123112
S        30.10841560     16.12245369     16.52510643
S        32.10046387     14.10637188     14.86089230
S        28.64036369     13.71023178     14.70844555
S        30.22052193     16.12816238     21.55913162
S        30.10841560     16.12245369     25.00300598
S        28.64036369     13.71023178     23.18634605
S        32.10046387     14.10637188     23.33879280
P        30.23732948     15.00486851     23.27945328
S        30.22052193     16.12816238     30.03703117
P        30.23732948     15.00486851     31.75735283
S        30.10841560     16.12245369     33.48090744
S        32.10046387     14.10637188     31.81669426
S        28.64036369     13.71023178     31.66424561
S        30.22052193     25.17436218      4.60333204
S        32.10046387     23.15257263      6.38299274
P        30.23732948     24.05106926      6.32365513
S        30.10841560     25.16865349      8.04720783
S        28.64036369     22.75643158      6.23054552
S        32.10046387     23.15257263     14.86089230
S        28.64036369     22.75643158     14.70844555
S        30.22052193     25.17436218     13.08123112
S        30.10841560     25.16865349     16.52510643
P        30.23732948     24.05106926     14.80155468
P        30.23732948     24.05106926     23.27945328
S        30.10841560     25.16865349     25.00300598
S        32.10046387     23.15257263     23.33879280
S        28.64036369     22.75643158     23.18634605
S        30.22052193     25.17436218     21.55913162
S        30.10841560     25.16865349     33.48090744
P        30.23732948     24.05106926     31.75735283
S        32.10046387     23.15257263     31.81669426
S        28.64036369     22.75643158     31.66424561
S        30.22052193     25.17436218     30.03703117
S        30.22052193     34.22055817      4.60333204
P        30.23732948     33.09726334      6.32365513
S        30.10841560     34.21484756      8.04720783
S        32.10046387     32.19877243      6.38299274
S        28.64036369     31.80262947      6.23054552
S        30.22052193     34.22055817     13.08123112
S        30.10841560     34.21484756     16.52510643
S        32.10046387     32.19877243     14.86089230
S        28.64036369     31.80262947     14.70844555
P        30.23732948     33.09726334     14.80155468
S        30.10841560     34.21484756     25.00300598
P        30.23732948     33.09726334     23.27945328
S        32.10046387     32.19877243     23.33879280
S        28.64036369     31.80262947     23.18634605
S        30.22052193     34.22055817     21.55913162
S        30.10841560     34.21484756     33.48090744
S        30.22052193     34.22055817     30.03703117
P        30.23732948     33.09726334     31.75735283
S        32.10046387     32.19877243     31.81669426
S        28.64036369     31.80262947     31.66424561
