2048

Li       23.74903488     72.82360077      8.57889938
Li       50.00995636     45.96367264      8.71251774
Li      -36.29491806    -35.97647095     67.94531250
Li       -1.72823596    -44.57784653     88.93309784
Li       58.75640869     64.47209930    -47.36584473
Li      -41.29421997    -16.37634659     42.90599060
Li       67.19631958      3.66256738     46.86363220
Li        6.08364820    -84.25893402     68.35828400
Li       27.88943481    -28.07532310    -34.18453598
Li       63.01632690    -24.76215172     12.77411938
Li       32.93783951     79.41172791     55.90660095
Li      -44.99610901    -37.94031525    -12.18957615
Li      -23.43837357      5.30381918     37.95359421
Li       45.08496857    137.22708130    -84.50790405
Li       19.81334877     11.59583092     30.09792328
Li       62.66178513     55.49922562     67.94152832
Li       44.29487991     71.78723145    -37.55598068
Li       32.30268860     15.28002453    -93.49012756
Li       27.94344902     35.31089401     13.04760551
Li       53.65865326    -49.95972443    -50.78937531
Li       88.43286133    110.08071899     68.29126740
Li       54.42518234      5.71412849     54.73372650
Li        6.46321869    -29.89235115    -32.88185501
Li      -15.05268860    -36.96513367    -12.80769539
Li       -7.04195642     49.99903107      8.46582794
Li      -53.36878204     27.63733673     29.31257820
Li       23.55417061     39.98160172    -12.52771282
Li      -24.09238052    -52.83275604     33.88597107
Li       10.48006153      4.75937366     33.72116470
Li       19.05044365     52.89479446    109.30369568
Li       19.16492844     47.09634018     -8.00143147
Li        6.09698057     66.94273376     21.26216507
Li       31.86889839     27.17428970     -8.73210049
Li      -80.09104919     12.28393173     16.74271774
Li      -25.75159264    -19.70762634      6.41134024
Li      -32.60928726     -7.67935276     -8.11505604
Li       32.20872498    -96.16271210     76.17655945
Li       19.51754951     29.55820084      4.22769880
Li      -23.22171402    -12.85209370     63.47200012
Li      -84.15789032     -0.53618902     29.66211319
Li       71.78404236     29.48429680     64.35402679
Li      -10.84226799    -20.75687408     43.10064316
Li      100.93224335     63.16489792     42.44489670
Li       49.81204987     27.97708130     68.03288269
Li       32.41180038    -47.26520157    -21.42562675
Li       28.16880035     -0.87225157    -12.61211109
Li       45.83177948     29.70003891    -28.84033585
Li        5.84385300     87.73156738     94.39269257
Li       29.19038773    -63.31108856     21.01304054
Li       41.67208099     13.99523258     71.90013885
Li       10.43997955    -46.28302383     42.00671387
Li       23.49026871    -11.84905052    127.75352478
Li        6.84904480     19.27871132    -16.52572441
Li       71.10513306      8.13732529     59.19545364
Li      -27.91424370    -68.76074219     63.53515244
Li       62.79583740     31.49060249     33.93413544
Li      -19.24576569     -1.68306684     55.84361649
Li       75.83946991     52.45550919     -0.91746330
Li       45.31348801    -18.97867775     29.96895599
Li       -2.43976760      0.55091155     16.90993118
Li      -53.91981506     68.02096558     21.20772362
Li       79.63046265     98.47125244     33.42316818
Li       23.57489967     48.50307083     33.50683594
Li       80.95914459      8.94686985    -29.97254753
Li       -2.43252039     20.90855980     50.39564133
Li        1.69234455      7.88160372    -17.60355186
Li      -54.10438156     15.46720505    -16.64838409
Li       -2.37858534    -41.95321655     -9.07760048
Li       11.13059902     29.58504677    -54.90676117
Li      -11.32593346     -8.90079975     -8.66328430
Li       28.77166939     32.40904236    -21.57761002
Li       10.58508492      8.28948116     13.12818050
Li       40.68593216     53.54600143   -105.61998749
Li        1.24480820     13.27173328     -4.09253311
Li      -32.57704926     -0.97420949     55.08567810
Li       44.98625183    -50.09812546     76.22899628
Li      -54.15005493     36.31921768    -25.39482117
Li      -22.99315262    -30.80355072    -21.55472183
Li      -36.70671463    -23.44300461    -37.75072098
Li      -31.84700584    -21.04559898     87.97747803
Li      -19.42860603    -14.52456379    -21.22441483
Li      -53.49450302    -89.38885498    -21.66407013
Li      -45.32028580    -44.44473648    -84.73827362
Li      -36.55527496    -17.63127327     54.98636246
Li       27.84786606      1.77660358    -24.63706207
Li       -2.56298256    -40.98106766    -46.52737427
Li       10.67482853    -67.81407928    -42.27706909
Li      -23.55697632    -13.02535915     17.28461647
Li       71.27864838     26.29280090    -37.81225586
Li      -54.28670883    -32.79788589     -8.85673714
Li      -10.66672802     39.85448837      4.56477833
Li       49.54486847    102.93077087     38.41920090
Li       41.06130219     39.81995010   -135.87501526
Li       23.41048622     -5.31292582     38.46520233
Li      -41.24071121    -19.57229424    -68.47663116
Li       75.10619354     84.97558594     -9.07473946
Li        6.82919931     16.11803055     13.11447048
Li      -18.86160851    -35.15658188     -7.96950674
Li       66.47381592     31.24604797     12.79470348
Li      -41.15385056    -32.07858276      8.22555351
Li        6.11471176     30.25848007    -17.08041573
Li       38.94773102     48.23555374    -36.51786041
Li      -10.96338463    -14.86083794    -21.14369392
Li       -2.81344509     27.38361168    -16.86345673
Li      -10.17147064      1.25087571    -81.20084381
Li       -7.76122141     83.48771667    103.72699738
Li      -10.56350327     19.03970528    -25.12982750
Li       28.31036568     38.29868698     12.80855942
Li      -19.87074471    -32.60280991     38.31355667
Li       10.58339977     92.50984955     17.83949852
Li       20.04902458     14.55300140     -4.67776155
Li       49.82416534    -17.62258339    -25.37887573
Li       66.58398438    -26.91356850    160.96992493
Li       57.97671127      6.00338221     -8.26973629
Li      -32.01079178    -85.13800812     54.79425430
Li        6.11358595    -11.58454609     60.00976944
Li       28.49617958     17.97116280     -8.66906929
Li       84.72425842     97.09693146    -37.73453140
Li      -15.05101204    -43.64225769    101.87899017
Li       53.67806625     62.24323654     38.71213913
Li      -15.29451752    -55.55036926   -144.27641296
Li       44.81177139     25.68544197    -17.61715889
Li      -97.52516937    -66.31195068     93.59622955
Li        4.14586401     20.96238518     31.29344940
Li      -24.62656021      1.96015418    -91.64477539
Li       70.95151520     13.55766392    -17.05063629
Li       42.40674210     24.82605934     39.81791306
Li       84.22428894    130.24595642      8.16025925
Li      -15.52734566     52.98543930    -34.16157913
Li        6.44934893     18.32301712     -8.59320927
Li       32.83115768     10.03855228     80.07792664
Li       58.75669861     61.10352325     -3.38392830
Li      -28.30619812    -77.98876953     59.20800018
Li       67.04915619     88.60369110    106.27040863
Li       15.14105225     61.53170013     76.02408600
Li       26.84231567     11.07724762     53.29642487
Li      -63.34149551     59.82575226    -97.88323975
Li       23.49429131     12.52806377     30.13080406
Li        6.96273947     28.22994423     54.49402237
Li      -41.31242752     17.26732826      8.05506706
Li      -58.78238297     16.41811180     -0.59572351
Li        6.27886152     58.11351776     29.79564285
Li       -1.64540172     22.43605232     38.36923981
Li       41.52278137     61.56453705    123.39154816
Li      -58.55884933    -13.47196293     33.99481964
Li       -2.40813756     -5.79032850    -51.35924149
Li       19.94944382     75.16304779     47.21496964
Li      -40.69537354     24.07853508    -47.83838272
Li       24.29921532     64.17245483     29.45414925
Li        6.14205790     48.72758102     50.53152466
Li       88.42661285     31.72616768      8.58312511
Li       14.09991837     42.37897491      1.43134320
Li      -54.27898788     -5.51974106     75.98078918
Li      -14.62209320     32.72952271      4.05086756
Li      -10.11588478     52.30165100    -37.26622772
Li       -2.56714368     20.88668823     40.90046692
Li       28.29683304     29.18999100     -4.22657061
Li       21.19694328     20.85330772     73.85099792
Li       50.22530365    154.89401245     38.02490616
Li      -15.42582226      1.63797951      9.06767082
Li       23.90241051     30.99868393    122.99887085
Li      -84.26778412    -27.75845909    -63.56605148
Li       -6.55720329    -82.11277008     12.92851257
Li       28.60041809     -6.54904366     55.67017746
Li      -19.72197342    -50.82268906     -4.16771841
Li       10.06597328      4.35333443      8.49208546
Li      -15.40014553     -1.51574969    -17.60862541
Li       24.11820221     -1.87291980     72.47286224
Li       -6.47434902     44.68506622    -21.01684952
Li      -19.62442207     -5.74510717    -42.49384308
Li       71.62600708      5.47646952    102.05677032
Li        2.62764239    -24.73113823    115.22639465
Li      -19.79707527     -8.57463932    -50.67026138
Li       20.02347183     83.72179413     47.55240250
Li      -23.37214279     -3.14526844     -4.71160936
Li       -2.42005491     21.86202049     -8.68245506
Li       27.75063896     11.00525570     42.96965790
Li       41.15946579     19.20573235    -33.78470612
Li       36.40134811     46.46999359     34.13624191
Li      -14.63578510     45.12512207     -4.41344404
Li       19.80300903     23.65851021    -38.32023621
Li       24.14042091     18.90607643      3.73952198
Li       32.52661133     -2.46209836     76.29514313
Li       -7.03572941    107.38449860    -26.00235748
Li       53.78754044     32.12925339    -76.26858521
Li       58.09141922     78.74646759      0.81592083
Li       15.15696907     15.47110271     68.64580536
Li       33.16556549    -11.06433392     98.29924011
Li       -6.84930849     28.68487930     42.68867111
Li       45.73143387    104.89316559     12.60046291
Li      -19.17010880     -8.29099083     42.52353668
Li       62.93289185     41.75056839     12.45530224
Li      -37.03235626    -39.01410675     25.67793083
Li       28.02051735    -52.67038345    122.60521698
Li       19.53869629     -0.74695885    -21.16300392
Li      -23.29101181     86.83174133     63.43817139
Li      -14.86110401    -15.16826439     -4.00235939
Li       28.60135651     23.76112175     12.05825806
Li       27.71735954     -1.00411451    -29.83227730
Li        2.07346129     10.58838749     51.43389130
Li       19.20525932     44.43003464     12.79920197
Li       66.69627380    135.69241333     -0.25896087
Li       -1.68455815     46.33143997     37.80629349
Li       19.73365784     38.70309067    -29.23131752
Li       63.04581833     87.15402222     54.19692230
Li       15.80941010     85.30667877    -38.22833633
Li       14.29226303     45.14808655     67.72612762
Li      -14.97230721     59.52011871     54.58326340
Li       -3.63138747     42.89612198     10.46888447
Li       62.49895096     34.82315445     16.26191902
Li      -81.22743225    -47.62998199    -31.24007607
Li       36.60670090     52.97702789     84.59284210
Li      -22.95200539     75.07340240     21.95095634
Li       58.52977753    -26.14834595    -55.30244064
Li        6.40384007    -23.98308563     21.66746902
Li        6.83081770     46.10448074      8.58794117
Li       45.85022354     38.86260986     13.15620327
Li       53.57795334     62.73849487     29.78097343
Li       41.28701782    -35.12662506     76.75183868
Li        2.58666229     59.60997009     29.48581505
Li      -10.80049229    -32.66318512    -25.54651642
Li       10.57322216     44.28598785     21.60399628
Li       63.07329559     38.20520020     21.74390411
Li       75.56636810      3.07189703    -42.83792496
Li       -6.70602560    -10.33028412     33.46468735
Li       62.69957352    -85.83988190     -8.30068588
Li      -57.90192032    -93.73548126     12.65616322
Li        2.03643680    -34.38412857     25.36068535
Li        7.09161377     37.18478394     63.16126251
Li      -54.01436615    -38.99928665     -8.05015278
Li       96.85440063     94.59722137     34.01149750
Li       10.71724319     35.33158112     46.73239899
Li      -33.74621582    -43.41534042    -15.37005520
Li       53.80324936     85.98005676     84.84999084
Li       41.50080490    -13.95038509     21.22077942
Li       70.78468323     79.50636292     32.15759659
Li       32.66152191     52.16331100     29.93427086
Li       33.53285599     79.30383301     40.48907471
Li      -14.77117157     15.84553432     37.03479767
Li       23.60356140     36.56672287     84.72904205
Li        1.81905019    -19.21390915     -8.93055820
Li       62.80670547     84.53690338     16.67409706
Li       50.18741608    -35.12755585     20.77533531
Li       15.00209236     -2.63704991    110.88269806
Li       71.47357941     66.21395874     13.06181717
Li       41.20755768    -13.95562458    152.33686829
Li       54.43032455     90.27865601    -21.39514732
Li       15.56510735    -68.16952515     -4.24661446
Li      114.35243225    113.54141998     17.09784889
Li      -11.00929260     51.70937729     34.51517105
Li       19.90992165      5.56722164      3.72387290
Li       31.79437065     45.30201721      8.29695797
Li        6.15137815     -5.62640572     30.00363731
Li       35.98078156    -10.30782032    -76.78008270
Li       62.51204300     62.60638046     -4.18644381
Li       -1.68082047      0.99604470    114.17098236
Li       -2.37450886     84.62586975     -8.63106632
Li       41.43813705     18.93317986     54.68043518
Li       10.37797165    -43.51556778      0.80525696
Li       11.28641701     -3.54443622     71.80555725
Li      -27.66525269     34.08785629    -45.70520782
Li       15.65131855      7.09262800      4.50976276
Li      -24.80798721     -7.08425570     27.87368965
Li      -79.59384155    -55.97223282    -12.38440704
Li       28.33713531     14.52453041     37.63320160
Li       34.97878647    -34.69724655     19.04681778
Li      -10.35520649     43.44031906     63.89803696
Li       36.74869919     41.23241425     76.49868011
Li      -40.62078476     20.70671272    -29.79372025
Li       11.04969311     54.13824081     38.21035767
Li      -31.79628181      9.02072620    -72.28636169
Li      -24.06397438     44.03533554     42.01873016
Li       28.51309013    -39.71382904    -47.27811813
Li      -15.18368053    -25.54325104    -58.71808624
Li       -6.61074495    -53.09750366     50.94532394
Li      -49.98168182     11.04807472     68.81119537
Li       10.55634022     35.36147690     75.86184692
Li      -57.76514435    -40.00893784     34.29994583
Li       41.88686752      9.52198315     51.16350174
Li       24.05354881     34.02288055     13.11921215
Li      -24.09214973     13.70273399    -17.01123810
Li      -28.27298927     -2.62296438     28.63500977
Li      -27.75587654    -32.35038376    -12.69689655
Li       -6.47128773    -36.81278229     -4.06954527
Li        1.94377661     34.96346664     33.50889969
Li      -32.35329437     44.60051727    -12.52567291
Li       15.72517109     88.27675629     64.50254822
Li      -62.97752380    -21.12787437     51.16245651
Li      -31.75536728     -3.57731414    -47.15566635
Li       49.79877472     43.04603195     21.52757835
Li       27.83782959     44.20774841     16.49972534
Li       62.29686356    -25.60762405     -8.14972687
Li      -50.14115524    -28.25079346     67.27069092
Li       49.94176865     -1.90478981     38.32009506
Li       27.79893303     77.07707214     51.02260208
Li       14.72162437     21.41558838     16.72695541
Li       15.82448578      1.65989983      2.72783828
Li        2.44453073     59.98203659    -21.84115791
Li       40.75083542     -5.65767622     67.43256378
Li       10.80654526     47.85632706    -11.88894367
Li       19.12310219     86.26873779     -8.58725834
Li        6.60321474     42.38560867    -21.55305099
Li      -15.19192600    -34.34048462     25.48676872
Li        6.74445105    -65.53670502     55.20033264
Li       26.26905632     19.67340851    -40.89390564
Li       18.90442276    -13.82209969     38.10562515
Li        1.64490962     -7.22113371      0.83158737
Li       19.15421677     22.69396591     76.08744812
Li      -58.68908691    -58.65542221    -42.51677704
Li       36.26062393     37.76839828     28.70679665
Li       67.55587006     61.14249039     55.89942169
Li       11.44981003     54.41234589      8.65422153
Li        6.70434618     79.48902893    -28.97250175
Li      -34.26644897     62.27227020    -19.72797966
Li       14.46049595     36.08109283     84.74512482
Li       23.33277893     51.58740616     26.35807228
Li       19.96343613    -48.57160950    -21.73344803
Li      -45.42994308      3.55276775    -20.68945885
Li      -80.03243256     15.52829742    -16.84189224
Li       31.90604973     -0.14882432     88.82147217
Li      -10.37582111      9.64765930    -29.90325928
Li      -19.88828659    -87.26420593     58.95151520
Li      -11.03960705    -23.33252907     21.35407066
Li      -20.85686684     -2.70121884     35.80901337
Li       32.33639145     51.54822922    -33.14239883
Li       -1.59309793     55.87574768      3.07702541
Li       32.81189728     18.69754601     63.16830063
Li      -45.14289856    -11.02926445     80.86099243
Li        7.63213348    -16.89022827     96.41782379
Li       19.18258476     25.96633148    -76.84894562
Li      -45.27559662     21.93008423    -38.15420151
Li       14.97868156     24.44679832     85.56603241
Li      -15.00820541    -16.62821960     17.71372223
Li      -28.34993935    -11.80050659      8.76208973
Li        8.87653828    -25.61786842      1.62095010
Li       20.02783775     36.00156021    -29.98045158
Li      -19.87448120    -11.89598942     37.52762222
Li       41.18308640     26.87624931    -59.53120422
Li      -14.78300762    -13.10435772      0.09488927
Li       58.12068558     30.64545250     -8.79647827
Li       63.00939560    -54.31841660     29.68556595
Li      -11.12356281     -2.88381124      8.68814182
Li       41.06270599      3.37247682     46.77434540
Li       37.19861984     -8.50438786     16.97272491
Li       19.66439629      5.45167446     59.55882645
Li       15.37748241     45.95176697    -41.91269684
Li       41.10976410      9.51214218    -42.12069702
Li      -14.57320881     68.82030487    -21.71473122
Li      -28.32547569     32.99814606     17.37886238
Li       37.38208008     26.66341591      0.04828184
Li      -67.25347900     89.05363464    -25.96055984
Li      -19.64318657    -23.73132515    -12.58378315
Li       61.40732574     61.05471802    -10.37290764
Li       40.97019958     85.02877808     33.82469559
Li       37.22542191     50.80554581    -21.95469666
Li       -6.87531042    -28.95968246     58.03979492
Li      -14.81544113     14.03114033      9.00194359
Li      -23.97754288    -25.29505157     85.27514648
Li       19.68566513    -42.60194397     13.60730839
Li       23.17069054      3.41529226     -8.72677040
Li       62.54187012     37.77023315     25.90744972
Li       -2.62526536     18.40325737     -0.07081747
Li       20.04724693     -9.30645466     12.75365067
Li       41.40423965     82.08145905     12.69546127
Li        2.49583459     14.34803486      3.80782461
Li      -41.13221359     28.42990875     -8.05670643
Li       12.65835094    -85.03775787    -24.06053543
Li       10.65334034    -46.41341400     59.06144333
Li      -10.81332016     39.40648270     50.43300247
Li      -11.13682556     21.66053772     -8.68856144
Li       -2.66064429    -20.85874557     85.57608032
Li       40.70192719     30.45513535    -60.00954056
Li      -32.64351654     35.65810394    -88.91969299
Li      -15.32365227    -10.45204449     67.58807373
Li       11.22297287     68.67246246    -13.23775578
Li      -27.58446312     -1.93503428     47.22320175
Li       36.60300064     26.39936066     21.33503723
Li       -6.00005627    -30.38373184     29.05853653
Li       27.84638977     26.25808525      8.12642956
Li       79.83897400    122.71530151      8.60869122
Li       32.12910843    -41.55053711     33.60191727
Li       10.73922443     80.52757263    -34.09038162
Li       88.91968536     78.09133911     -4.33328247
Li      -62.32078552     18.73876953     46.38768005
Li      -14.73089790      3.02319384    -12.51420116
Li       66.25996399     44.82327271     16.83893204
Li      -35.69329071    -92.82135010     23.50710678
Li      -37.02680588      6.33262539     17.38217926
Li      -49.75518417    -31.75357437     -0.03454068
Li       14.86104584     48.56745148     59.20160294
Li      -40.95602417      2.21527123     67.93337250
Li       15.45686626     46.14844513     -4.46458578
Li        1.99346483      1.77096117     76.54943085
Li       33.37197113     -4.52780533      3.98872995
Li      -28.59516525     39.29015350    -17.50352859
Li       33.07431030     25.30882454     72.85678101
Li       41.56290817     46.26358414     29.29142761
Li       32.45330811     64.14071655     63.35063934
Li      -10.66729069     21.98588753     67.63240814
Li        2.59527373     32.46701431     97.36425018
Li       32.27117538     48.51358414     84.46610260
Li      -66.87519073     17.34326553     12.75598335
Li       15.56893539    -62.37696075    122.45016479
Li      -15.48484039     22.46644592     25.51535416
Li      -79.18685913    -67.95259857    -72.23735046
Li      -36.58474731    -30.83265877     72.01913452
Li       -6.40386343     59.93582916     42.57011795
Li      -45.18186951      0.81495744     46.27614975
Li       66.43762207    -21.11415291     94.04563904
Li        1.99804473      5.05175114     -8.65348244
Li       62.87005615     95.74745178     29.66537476
Li       41.12503815     34.73654175      4.38883448
Li      -14.26999569     86.93476868     20.65687752
Li       76.35140228    100.07788086     37.80738831
Li       14.77297115     45.63849258    -84.96543121
Li        5.80719805    -36.27815628     51.11700439
Li       19.34186172    116.63047028    -51.38636017
Li       36.82685089     32.23949051    -63.68741608
Li       41.46379852    -11.21327400     30.35044861
Li       14.96408176     88.17121887    -41.82661057
Li      -10.54455185     16.16704369     38.80693817
Li       37.36487579     41.70320892     20.86071777
Li      -24.11696625     -1.35870004     25.26641083
Li      -10.31265068     13.27335167      4.23566389
Li       97.16558838     17.76562881      4.25133181
Li      -19.63625908      3.28618979    -34.53908539
Li        6.03893805     21.73440552      8.32552528
Li      -11.22496414     -9.46305943     42.36807632
Li      -50.39149857    -67.71720886     16.78992081
Li      -40.99484253     31.94750977     59.32117844
Li      -10.96030331    -39.11097336     25.68754768
Li       66.68780518     60.32684326      0.34813857
Li       36.76913452    -23.82992744     -8.90957165
Li       57.77213669     21.33009720     55.72563553
Li       41.78470230     46.00851059     20.54517365
Li       58.37404251     60.62622833    -16.27921677
Li       28.82128334     11.64862442    -28.78454971
Li       53.43599319     55.67163849     25.74793053
Li       24.01684570     -7.84548521     79.73667908
Li      -10.71486378      0.84551042    101.77276611
Li       23.17587662      3.09384656     33.29194641
Li       66.56121063     12.72571754     -0.21433133
Li      -36.38737488    -44.17220688     46.25749588
Li       32.03100967     60.62714386     51.30681229
Li       24.10333061     10.10957146    -38.60973358
Li      -23.54263687     74.43905640     -4.11652231
Li      105.95610809     35.08465195    109.80464172
Li       84.16615295     57.77275085    135.19868469
Li      -36.77451706    -68.61599731     -4.05458212
Li      -41.07243729    -40.39743042    -16.86688042
Li       49.32048416     -0.36098966     -0.08186977
Li       19.36233711     -7.59664440     51.10079575
Li      -37.05687332      0.08420780     59.39319611
Li       14.95715904     48.75486755   -130.99009705
Li      -23.94535446      1.77132857      0.37846336
Li      -67.48130798     -4.73925495     16.94709396
Li       10.66217709     -0.77641618      4.59886885
Li      -18.94817543     37.11055756     29.39421844
Li       24.62274933     85.88489532     46.44649887
Li        6.20141315     33.50692749    -24.79488945
Li      -41.13708878    -19.84949112     22.75891685
Li       45.14330292     -9.46182728    -29.82118607
Li       14.88914299    -53.62318802     -0.22014952
Li        6.10184145     78.78887939    -84.07891846
Li       11.01786518      2.40025902      4.61541224
Li       58.05126572    -30.25741577    -16.74626160
Li       15.35722351    -29.43859482     80.47252655
Li       49.31074142     78.57437134    -41.96520233
Li       23.36058044    -27.17395020    -59.20141983
Li      -36.94253159     36.63389587    -25.21970177
Li       23.55748749      9.48699951    -50.81373596
Li       15.41878796     52.39048767     38.46513367
Li       11.65452957     47.87147141      5.06607056
Li       -2.69736362     21.80660248     21.36962128
Li      -44.72168732    -10.95021725    -96.73749542
Li        1.98632002     31.95504570     76.31095123
Li      -28.08882904     27.74267960    -33.77946091
Li      -32.05558777     11.32145882     21.48611259
Li       23.30436325     30.45980644     50.49954987
Li      -32.65368271     16.62181282     67.77633667
Li       19.05845833     35.23802567     -0.37512112
Li       -6.80510235    -22.86515427    -67.78224182
Li       58.00014496    -41.46315002    -59.61220551
Li       84.19193268     -5.35998201     12.83492279
Li       53.31691742     47.01078415     51.91738892
Li       40.79629898    -14.12550545     46.64488602
Li       66.29834747     54.17501068     -8.14840508
Li       18.80133820    -43.26679611     43.62615585
Li       10.27242184    -19.44072342    -76.85694122
Li       40.73869705    -38.92426682    -33.11313248
Li       15.77249336     16.09694290    -11.91858864
Li      -32.24662781    -78.73075104    -46.13344193
Li       -1.99326730     40.01937866    -12.83376312
Li       53.90473175     -4.24097252      0.11189053
Li       32.79767990     28.00636292    -63.89370346
Li       66.39946747     39.55797958     33.43552780
Li      -23.84418678    -16.40533638    -21.10552788
Li       45.83273697     23.51028824     20.81353760
Li       23.34233856     84.69759369     25.11648750
Li       66.89093018    -84.34355927    -24.94581985
Li       49.73262787     14.88857365      8.93492794
Li       84.31758881     21.93257523     21.33217239
Li      -40.44525146     50.95665741     79.93158722
Li       15.24074459     18.55525017   -110.01030731
Li       41.36030579     25.64237404   -122.65131378
Li        2.49422836     32.98156357     12.08378792
Li       15.11700916     24.39050674     -7.86964846
Li       58.13793182     -2.47333121    -33.52122879
Li       66.85497284     90.62656403    -16.75651360
Li       27.81575394     49.86048889     59.42956161
Li       49.20169067      5.91491747     85.13545227
Li       10.94505787     -0.89516389     21.36937332
Li       15.48331928      7.28912687     30.16423225
Li       15.20645523     97.36038971     20.88663864
Li       19.26318932     56.17239761     34.42908859
Li      -92.84512329     12.36031723     33.64697647
Li       36.44162750     22.47583389    -42.50152588
Li       28.19356728      8.54724503    -29.33674622
Li       23.35170937    -27.05915833    -33.72441101
Li       67.04030609     60.44623566     26.22403908
Li      -10.28303146     37.38260269     28.90306854
Li        6.62372541     -5.17722893     38.06584549
Li      -15.45055103     -4.33860636    -16.68340302
Li        1.45070219     62.43260956     42.05384445
Li       15.47688866     91.06699371    -84.63372803
Li       32.87618637     46.06514740     20.97175026
Li       -1.80619073     16.10877037     13.26563644
Li      -45.33800125     42.95643234     21.12408638
Li        6.56857443    -44.53974915   -110.04099274
Li       49.30899429     -5.76307583     16.92743874
Li      -32.68454742    -22.67505264    -33.87228012
Li       15.87892246     55.55702972      3.26248813
Li      -44.87881470    -17.40472412     51.02985382
Li      -27.82616806    -20.87740517     21.22662926
Li      -41.35526276    -56.04553223    -17.55052567
Li       41.54723740      1.24346375    -64.42242432
Li       36.67434311     23.53826523     17.07022476
Li      -18.71887207    -32.04791260    -12.82872105
Li       33.10581589     13.33997250     37.91873550
Li       19.23233032     37.71662140     51.37097549
Li        2.17062068     16.69479942     -4.03711224
Li       19.86816406    -24.76956749    -29.02546692
Li      -40.78788376      3.18828249     29.90593338
Li       59.17618179     19.08812714     54.56935883
Li      -11.14341927    -17.69892120    -67.84012604
Li      -10.40771961    -17.17509460     63.32761383
Li       49.58778381     -2.16559243     -4.46056461
Li       28.64015198    -24.48623657    -12.31478691
Li       32.69168091     18.97698593     12.68095016
Li       15.52294636     51.70506668     46.56491089
Li      -19.43440056     48.57430649    -21.44158554
Li       92.43820953     -2.77707314     51.49544525
Li       -6.03667402      5.95880985    -80.91237640
Li       53.79908752     65.14671326     25.78665924
Li      -37.07550049     -2.89144206      0.35180536
Li       62.44955826     77.30741882     59.66087723
Li       54.12128830      8.69350719    -12.67519379
Li       46.93399811     65.80060577     31.73217010
Li       10.35141754     26.58145142    -46.52022934
Li      -23.03969002    -30.49078369     20.20115662
Li      -30.90078354   -106.25352478     31.71690369
Li       66.57890320     39.03041458     -9.39308453
Li      -49.35406494    -39.74808884     -4.71266842
Li       45.90436172     29.64743996     55.86888504
Li      -32.21031952     35.07900238    131.71939087
Li       -2.24701881     -2.80602217     17.69531822
Li        2.49945903     86.26985168    -25.29419518
Li       62.29029083     80.06763458    -25.70816612
Li       -2.29038453     45.84719849    -67.55823517
Li       74.23284912     60.76237106     52.27786636
Li      -14.87981987    -78.70923615     29.90484810
Li       -5.94163561     11.55365467     64.43727112
Li      -19.61403084    -29.68243027    -25.20134354
Li       66.91134644     57.98058701     29.97364998
Li       10.49417496     74.18876648    -50.14712143
Li       -1.45981371     37.20970917     62.89794159
Li      -62.65177536     91.14828491      3.81995845
Li      -10.44742584    -29.47088432    114.92122650
Li        6.58729649     55.18417740     42.29637909
Li       36.68719482     17.06285286    -63.26953125
Li      -10.35170460    -10.03135777     33.78839874
Li      -58.04090500    -30.90413475     -4.44863892
Li       79.46631622    -64.55146790    -42.92649841
Li      -19.65022469     48.76013184     33.70216370
Li       -1.73799145     -2.05516267    -37.44437408
Li      -67.23883820    -52.78379822     51.24485397
Li        2.28062367     56.24630737     37.97433090
Li       10.73888779    164.43777466     -8.25354195
Li      -24.09872437      7.61023188     50.65947342
Li       62.62446213     41.37744141      0.10557351
Li      -24.58133507    -40.84663391    -16.72150993
Li      -27.52921677      1.13757133     54.74335098
Li       27.87455559     -1.20180666     33.86950302
Li       11.07999802    -15.94568348     -4.12864161
Li       11.10264301     -6.63845682    -42.94652176
Li      -58.17197800     -9.24703789     29.66480827
Li       37.23871994    -12.72808361     33.98461151
Li       50.53694916      9.77756500     46.40388489
Li      -32.95098114     -7.20762300      9.38418484
Li      -41.51153183    -43.61280441     17.51968765
Li      -24.16776276    -13.61853981    -42.54292679
Li      -37.16599274     42.43807602    -67.44603729
Li       49.61773300     54.56284714     -4.33734703
Li       35.37409210     55.98085403     77.96907043
Li       41.11178207    -41.26970291    -54.96058273
Li       53.92953491     71.74159241      8.32960796
Li       24.12213135     46.13945389     20.92824936
Li        2.58464217      2.49644828     89.79733276
Li       -2.77100825     -5.75965071     41.75317001
Li       59.02805710     43.14872360     38.92512512
Li       20.03859711     14.51521873     12.23511410
Li       10.58076477     47.07334137     43.17256927
Li       58.96611023     46.18262482    -41.80111313
Li        1.84646106     -4.77542734    -67.81949615
Li       36.76604843      2.90286303    140.06365967
Li       14.82285881     21.70959663      4.40047789
Li       72.84852600     92.67363739    -44.72845078
Li       36.60093307     44.45981216      4.15251875
Li      -15.36425972     25.50857925    -51.79659653
Li       71.31481171     18.91104889     55.00576782
Li       19.71833229     32.44395065    -47.18516922
Li       14.80528641     39.52925491     75.96373749
Li       37.23158646    114.12500763    -38.59106064
Li       -2.24096537     57.90780640     12.58322048
Li       71.71757507    111.29328918    -54.27801514
Li       67.01220703      3.55287623    -17.13707924
Li       23.42723846    -14.73744488    -17.23891640
Li       28.51234245    -15.37031460     12.77683830
Li       66.48149109    -30.36014557     -8.05138016
Li       41.33717728     85.63166809    -38.03665924
Li       -1.50454926    -29.31369591     13.36504841
Li       36.87203979    -27.75442886    -54.85260391
Li       27.92551231      1.74727392    -16.48195267
Li       23.43623352     30.42952347    -34.22494125
Li       93.01020813     85.04895020      8.16870880
Li      102.09990692     -1.80639994     81.29013824
Li       -5.98876953      2.72681546    -29.27389908
Li      -36.50719452    -26.23534775    -38.52294540
Li      -19.63919067      3.78009319     46.71502304
Li        6.96759415     28.55736160    -90.41422272
Li      -96.78916168    -80.55525970    -72.35702515
Li      -49.82994843     16.90773010    -46.65954971
Li      -19.43280220    -59.75650787    -59.50760269
Li      -14.76331520     47.80360794     89.76984406
Li      -32.55000305    -52.52526855    -38.10124969
Li       -2.50092649    -14.94836617    -34.81103897
Li      -23.22897148     14.63803005     88.75167847
Li       14.62476921     -3.06287289     85.41141510
Li      -49.56782532      2.43609357    -37.95083237
Li       10.44011593     98.74452972    -21.17121887
Li      -44.78958511    -44.39733887     37.48532486
Li      -23.81408501     17.28728485    -12.46836472
Li      -36.19976425     50.26680756     55.00600815
Li        6.85212994     82.66837311      4.27485704
Li      -19.60921669      3.33296824     16.78517151
Li      -10.93342018     67.04714966    -21.02324104
Li        1.97841275    -36.93820953     38.29275513
Li        6.78696537     34.24082565     92.73831940
Li        6.19633436     -0.43201780    -34.01188278
Li      -10.41856289     70.24183655     -3.62670541
Li      -36.64463043    -41.53182602    -38.25282288
Li      -40.59115601     68.62682343     -4.46737623
Li       70.10247040    -15.99116993     26.97704697
Li      -15.37060642    -10.05757046     75.97399139
Li       15.61072922     19.34864616     88.71472931
Li       62.88953400     68.70282745      4.10715866
Li      -10.49403477     22.54839897    -25.66355324
Li      -41.29208374     28.71281815    -33.17792892
Li       40.55343628     12.84707546     12.87182903
Li       63.14546967     81.13374329     29.72164726
Li       15.09865475     -8.61030579    -42.12946701
Li       15.39896297     25.27552414    -34.29941559
Li        2.32670403     20.54164505    -20.66296768
Li       41.39671326    -29.21522331     30.02983093
Li      123.00197601     63.00897598     21.27169991
Li       -6.09724998    -84.89182281      3.85240912
Li       23.69280815     30.86538887     -4.10040712
Li      -24.20719719    -61.50083923     60.48046112
Li       39.99363708     51.86362076     36.30170059
Li       89.33303070     29.90848541     21.53964424
Li       15.80830860     64.16265869     21.02607536
Li       45.70039749    -24.21338463     46.91234589
Li       58.67549133    -17.73978996     -8.44205379
Li       -5.85190487    -54.52747726     46.56929779
Li       75.28452301     63.13497162    -17.09733963
Li      -27.95880127      0.59204108   -123.00419617
Li      -58.07784271    -51.36661530    -12.72615337
Li       19.22033310     34.87924957     -8.73763084
Li       71.44190979     32.23995972     93.57175446
Li       10.71334934    -73.61751556     33.30488205
Li       32.64591980     49.04022217    -21.32724762
Li        2.55569720    -66.95088196     80.47809601
Li       36.54671860     83.23778534      8.73592091
Li       37.05469894     41.84187698     37.40052414
Li      -67.21151733    -27.89538574      8.16927147
Li       45.29431152    -39.96950150    110.06529999
Li       18.86337662     20.16860199    -24.41205025
Li      -28.16867828    -30.01776123      8.51211357
Li       45.39843369     53.21669388     84.59663391
Li       10.65666771    -64.24406433     30.03856468
Li       40.89479065     21.24923897    -43.02873230
Li       18.91322517     52.37132263     15.79861736
Li       84.74409485     67.59671021     33.74200058
Li       67.50102997     73.26860809     37.82244873
Li       -2.45730186     54.50602722     42.42704391
Li        2.00973368     37.76348877     34.40802002
Li       11.27536583     86.98460388     37.74591064
Li       28.52663040     50.75131226     63.14590454
Li      -58.15149307    -51.75559235    -96.88860321
Li       50.13890457     64.05811310     46.40809250
Li        6.37810659     51.60402298      8.97000694
Li      -15.81063366      4.39189577     76.00195312
Li      -32.45013046    -52.49394226      0.47903228
Li       28.08172607     34.89503098    -42.63065720
Li      -19.58329391     30.56709480     97.55954742
Li       28.54197502     77.62237549     37.89522934
Li       11.28510094    104.89443970     25.50938225
Li       50.53036118     36.73622513    -21.60290146
Li       36.85039139     83.72069550      4.59131050
Li       50.40277481     61.46035767     47.39509964
Li       32.31466675     39.73101807     42.03448868
Li       75.43544769    -26.84349251    101.79259491
Li      -44.59232330    -20.23365593    -19.70934868
Li       19.73067284     56.69164276    -54.97864532
Li      -10.98890305     36.39626312     -8.33761787
Li       -1.86952937     -1.96025920    -63.03788757
Li      -31.66646194     27.08182907     80.42466736
Li       79.53290558     17.25552177     13.05535316
Li       34.25069046     70.73291016    -10.39648438
Li       28.37062073     30.02643967      4.90690327
Li        2.11813068     40.91168976    -16.74701500
Li       28.15216827     65.96928406    -55.18939972
Li      -23.83678436     71.06398010    -17.21024513
Li      -32.79079819     -0.87593359    -85.08420563
Li       54.24785995     93.16115570    -12.28623581
Li        2.99675202     59.60914993    -30.02375603
Li      -45.99958038    -65.99451447     42.90996552
Li       -6.91663265    -13.72976971     50.91772842
Li       45.61973572     59.76889801     46.28674316
Li       40.64349747     12.47278595     41.78802490
Li       54.16540527     13.79541588     67.77428436
Li      -41.90428162     26.62181091     21.32149506
Li       46.05801010     23.64556313     37.62938309
Li       15.38171959     27.90047455    -64.05669403
Li      -32.03264999     -6.92119551    -28.93635559
Li      -10.50646114      1.25627625      3.40497422
Li       53.55758286     43.54590607     41.23657227
Li       88.65207672     17.01893234     -4.25252151
Li      114.43611908    101.54769897     76.18977356
Li       24.05819702     54.95082092    -55.49858093
Li       14.98427296     12.53340816     16.49602890
Li       54.76280212     41.87365723     11.75683022
Li      -33.83423996    -61.61461258     -6.35030413
Li       58.36508942    -12.05533695    -47.01875687
Li       88.38201904     44.07736969     25.03478622
Li       41.58480453     40.58021927      4.23669720
Li       15.37739182     -2.31642723    -54.68131638
Li      -92.83202362    -24.92111588     63.67377472
Li       -6.31610346    -39.91572189    -59.13756561
Li       58.38843918     21.87828827     38.36405182
Li       40.18142700     38.90025330    -61.44641495
Li        2.04255986     -9.78455734     38.18256760
Li       27.95802116     25.42344284     83.55392456
Li       10.59536648      1.21068728     25.86223030
Li       29.04487801     27.26242638    -29.54356575
Li       71.45452118     22.19086456    -25.52583885
Li       32.83911133      6.91276741     -3.78817892
Li       54.32096481     18.23134804    -29.67737389
P         0.13356039      7.42932034      2.05882192
S         0.07623107      6.30148792      0.33862740
S         0.38128957      6.39505672      3.81890726
S         1.71797132      8.72864056      1.96279037
S        -1.76252615      8.24726963      2.16332674
S         0.07623107      6.30148792      8.81652737
S         0.38128957      6.39505672     12.29680729
S         1.71797132      8.72864056     10.44069099
P         0.13356039      7.42932034     10.53672123
S        -1.76252615      8.24726963     10.64122677
S         1.71797132      8.72864056     18.91858864
P         0.13356039      7.42932034     19.01461983
S         0.07623107      6.30148792     17.29442787
S         0.38128957      6.39505672     20.77470589
S        -1.76252615      8.24726963     19.11912537
P         0.13356039      7.42932034     27.49251938
S         0.07623107      6.30148792     25.77232552
S         0.38128957      6.39505672     29.25260544
S         1.71797132      8.72864056     27.39648819
S        -1.76252615      8.24726963     27.59702492
S         0.38128957     15.44125652      3.81890726
S         1.71797132     17.77483940      1.96279037
P         0.13356039     16.47551918      2.05882192
S         0.07623107     15.34768772      0.33862740
S        -1.76252615     17.29347038      2.16332674
S         1.71797132     17.77483940     10.44069099
P         0.13356039     16.47551918     10.53672123
S         0.07623107     15.34768772      8.81652737
S         0.38128957     15.44125652     12.29680729
S        -1.76252615     17.29347038     10.64122677
S         0.07623107     15.34768772     17.29442787
S         0.38128957     15.44125652     20.77470589
S         1.71797132     17.77483940     18.91858864
P         0.13356039     16.47551918     19.01461983
S        -1.76252615     17.29347038     19.11912537
S         0.38128957     15.44125652     29.25260544
S         1.71797132     17.77483940     27.39648819
P         0.13356039     16.47551918     27.49251938
S         0.07623107     15.34768772     25.77232552
S        -1.76252615     17.29347038     27.59702492
P         0.13356039     25.52171898      2.05882192
S         0.07623107     24.39388657      0.33862740
S         0.38128957     24.48745537      3.81890726
S         1.71797132     26.82103920      1.96279037
S        -1.76252615     26.33966827      2.16332674
S         0.07623107     24.39388657      8.81652737
S         0.38128957     24.48745537     12.29680729
S         1.71797132     26.82103920     10.44069099
P         0.13356039     25.52171898     10.53672123
S        -1.76252615     26.33966827     10.64122677
S         1.71797132     26.82103920     18.91858864
P         0.13356039     25.52171898     19.01461983
S         0.07623107     24.39388657     17.29442787
S         0.38128957     24.48745537     20.77470589
S        -1.76252615     26.33966827     19.11912537
P         0.13356039     25.52171898     27.49251938
S         0.07623107     24.39388657     25.77232552
S         0.38128957     24.48745537     29.25260544
S         1.71797132     26.82103920     27.39648819
S        -1.76252615     26.33966827     27.59702492
S         0.38128957     33.53365326      3.81890726
S         1.71797132     35.86723709      1.96279037
P         0.13356039     34.56791687      2.05882192
S         0.07623107     33.44008636      0.33862740
S        -1.76252615     35.38586426      2.16332674
S         1.71797132     35.86723709     10.44069099
P         0.13356039     34.56791687     10.53672123
S         0.07623107     33.44008636      8.81652737
S         0.38128957     33.53365326     12.29680729
S        -1.76252615     35.38586426     10.64122677
S         0.07623107     33.44008636     17.29442787
S         0.38128957     33.53365326     20.77470589
S         1.71797132     35.86723709     18.91858864
P         0.13356039     34.56791687     19.01461983
S        -1.76252615     35.38586426     19.11912537
S         0.38128957     33.53365326     29.25260544
S         1.71797132     35.86723709     27.39648819
P         0.13356039     34.56791687     27.49251938
S         0.07623107     33.44008636     25.77232552
S        -1.76252615     35.38586426     27.59702492
S         6.88097382      8.24726963      2.16332674
P         8.77706051      7.42932034      2.05882192
S         8.71973038      6.30148792      0.33862740
S         9.02478981      6.39505672      3.81890726
S        10.36147118      8.72864056      1.96279037
S         6.88097382      8.24726963     10.64122677
S         8.71973038      6.30148792      8.81652737
S         9.02478981      6.39505672     12.29680729
S        10.36147118      8.72864056     10.44069099
P         8.77706051      7.42932034     10.53672123
S         6.88097382      8.24726963     19.11912537
S        10.36147118      8.72864056     18.91858864
P         8.77706051      7.42932034     19.01461983
S         8.71973038      6.30148792     17.29442787
S         9.02478981      6.39505672     20.77470589
S         6.88097382      8.24726963     27.59702492
P         8.77706051      7.42932034     27.49251938
S         8.71973038      6.30148792     25.77232552
S         9.02478981      6.39505672     29.25260544
S        10.36147118      8.72864056     27.39648819
S         6.88097382     17.29347038      2.16332674
S         9.02478981     15.44125652      3.81890726
S        10.36147118     17.77483940      1.96279037
P         8.77706051     16.47551918      2.05882192
S         8.71973038     15.34768772      0.33862740
S         6.88097382     17.29347038     10.64122677
S        10.36147118     17.77483940     10.44069099
P         8.77706051     16.47551918     10.53672123
S         8.71973038     15.34768772      8.81652737
S         9.02478981     15.44125652     12.29680729
S         6.88097382     17.29347038     19.11912537
S         8.71973038     15.34768772     17.29442787
S         9.02478981     15.44125652     20.77470589
S        10.36147118     17.77483940     18.91858864
P         8.77706051     16.47551918     19.01461983
S        10.36147118     17.77483940     27.39648819
S         8.71973038     15.34768772     25.77232552
S         6.88097382     17.29347038     27.59702492
P         8.77706051     16.47551918     27.49251938
S         9.02478981     15.44125652     29.25260544
S        10.36147118     26.82103920      1.96279037
S         6.88097382     26.33966827      2.16332674
S         8.71973038     24.39388657      0.33862740
S         9.02478981     24.48745537      3.81890726
P         8.77706051     25.52171898      2.05882192
S         6.88097382     26.33966827     10.64122677
S        10.36147118     26.82103920     10.44069099
S         9.02478981     24.48745537     12.29680729
P         8.77706051     25.52171898     10.53672123
S         8.71973038     24.39388657      8.81652737
S         6.88097382     26.33966827     19.11912537
S         8.71973038     24.39388657     17.29442787
S         9.02478981     24.48745537     20.77470589
S        10.36147118     26.82103920     18.91858864
P         8.77706051     25.52171898     19.01461983
S         6.88097382     26.33966827     27.59702492
S        10.36147118     26.82103920     27.39648819
S         8.71973038     24.39388657     25.77232552
P         8.77706051     25.52171898     27.49251938
S         9.02478981     24.48745537     29.25260544
P         8.77706051     34.56791687      2.05882192
S         6.88097382     35.38586426      2.16332674
S        10.36147118     35.86723709      1.96279037
S         9.02478981     33.53365326      3.81890726
S         8.71973038     33.44008636      0.33862740
S         8.71973038     33.44008636      8.81652737
S         9.02478981     33.53365326     12.29680729
P         8.77706051     34.56791687     10.53672123
S         6.88097382     35.38586426     10.64122677
S        10.36147118     35.86723709     10.44069099
S        10.36147118     35.86723709     18.91858864
S         9.02478981     33.53365326     20.77470589
S         6.88097382     35.38586426     19.11912537
P         8.77706051     34.56791687     19.01461983
S         8.71973038     33.44008636     17.29442787
S        10.36147118     35.86723709     27.39648819
S         8.71973038     33.44008636     25.77232552
S         6.88097382     35.38586426     27.59702492
P         8.77706051     34.56791687     27.49251938
S         9.02478981     33.53365326     29.25260544
P        17.42055893      7.42932034      2.05882192
S        19.00496864      8.72864056      1.96279037
S        17.36323166      6.30148792      0.33862740
S        17.66828918      6.39505672      3.81890726
S        15.52447224      8.24726963      2.16332674
S        17.66828918      6.39505672     12.29680729
S        17.36323166      6.30148792      8.81652737
S        19.00496864      8.72864056     10.44069099
P        17.42055893      7.42932034     10.53672123
S        15.52447224      8.24726963     10.64122677
S        17.66828918      6.39505672     20.77470589
P        17.42055893      7.42932034     19.01461983
S        19.00496864      8.72864056     18.91858864
S        17.36323166      6.30148792     17.29442787
S        15.52447224      8.24726963     19.11912537
P        17.42055893      7.42932034     27.49251938
S        17.66828918      6.39505672     29.25260544
S        17.36323166      6.30148792     25.77232552
S        19.00496864      8.72864056     27.39648819
S        15.52447224      8.24726963     27.59702492
S        17.36323166     15.34768772      0.33862740
S        17.66828918     15.44125652      3.81890726
P        17.42055893     16.47551918      2.05882192
S        19.00496864     17.77483940      1.96279037
S        15.52447224     17.29347038      2.16332674
S        17.36323166     15.34768772      8.81652737
S        19.00496864     17.77483940     10.44069099
P        17.42055893     16.47551918     10.53672123
S        17.66828918     15.44125652     12.29680729
S        15.52447224     17.29347038     10.64122677
P        17.42055893     16.47551918     19.01461983
S        19.00496864     17.77483940     18.91858864
S        17.36323166     15.34768772     17.29442787
S        17.66828918     15.44125652     20.77470589
S        15.52447224     17.29347038     19.11912537
S        17.66828918     15.44125652     29.25260544
S        17.36323166     15.34768772     25.77232552
S        19.00496864     17.77483940     27.39648819
P        17.42055893     16.47551918     27.49251938
S        15.52447224     17.29347038     27.59702492
P        17.42055893     25.52171898      2.05882192
S        19.00496864     26.82103920      1.96279037
S        17.36323166     24.39388657      0.33862740
S        17.66828918     24.48745537      3.81890726
S        15.52447224     26.33966827      2.16332674
S        17.66828918     24.48745537     12.29680729
S        17.36323166     24.39388657      8.81652737
S        19.00496864     26.82103920     10.44069099
P        17.42055893     25.52171898     10.53672123
S        15.52447224     26.33966827     10.64122677
S        17.66828918     24.48745537     20.77470589
P        17.42055893     25.52171898     19.01461983
S        19.00496864     26.82103920     18.91858864
S        17.36323166     24.39388657     17.29442787
S        15.52447224     26.33966827     19.11912537
P        17.42055893     25.52171898     27.49251938
S        17.66828918     24.48745537     29.25260544
S        17.36323166     24.39388657     25.77232552
S        19.00496864     26.82103920     27.39648819
S        15.52447224     26.33966827     27.59702492
S        17.36323166     33.44008636      0.33862740
S        17.66828918     33.53365326      3.81890726
P        17.42055893     34.56791687      2.05882192
S        19.00496864     35.86723709      1.96279037
S        15.52447224     35.38586426      2.16332674
S        17.36323166     33.44008636      8.81652737
S        19.00496864     35.86723709     10.44069099
P        17.42055893     34.56791687     10.53672123
S        17.66828918     33.53365326     12.29680729
S        15.52447224     35.38586426     10.64122677
P        17.42055893     34.56791687     19.01461983
S        19.00496864     35.86723709     18.91858864
S        17.36323166     33.44008636     17.29442787
S        17.66828918     33.53365326     20.77470589
S        15.52447224     35.38586426     19.11912537
S        17.66828918     33.53365326     29.25260544
S        17.36323166     33.44008636     25.77232552
S        19.00496864     35.86723709     27.39648819
P        17.42055893     34.56791687     27.49251938
S        15.52447224     35.38586426     27.59702492
S        24.16797256      8.24726963      2.16332674
P        26.06406021      7.42932034      2.05882192
S        27.64846992      8.72864056      1.96279037
S        26.00673103      6.30148792      0.33862740
S        26.31178856      6.39505672      3.81890726
S        24.16797256      8.24726963     10.64122677
S        26.31178856      6.39505672     12.29680729
S        26.00673103      6.30148792      8.81652737
S        27.64846992      8.72864056     10.44069099
P        26.06406021      7.42932034     10.53672123
S        24.16797256      8.24726963     19.11912537
S        26.31178856      6.39505672     20.77470589
P        26.06406021      7.42932034     19.01461983
S        27.64846992      8.72864056     18.91858864
S        26.00673103      6.30148792     17.29442787
S        24.16797256      8.24726963     27.59702492
P        26.06406021      7.42932034     27.49251938
S        26.31178856      6.39505672     29.25260544
S        26.00673103      6.30148792     25.77232552
S        27.64846992      8.72864056     27.39648819
S        24.16797256     17.29347038      2.16332674
S        26.00673103     15.34768772      0.33862740
S        26.31178856     15.44125652      3.81890726
P        26.06406021     16.47551918      2.05882192
S        27.64846992     17.77483940      1.96279037
S        24.16797256     17.29347038     10.64122677
S        26.00673103     15.34768772      8.81652737
S        27.64846992     17.77483940     10.44069099
P        26.06406021     16.47551918     10.53672123
S        26.31178856     15.44125652     12.29680729
S        24.16797256     17.29347038     19.11912537
P        26.06406021     16.47551918     19.01461983
S        27.64846992     17.77483940     18.91858864
S        26.00673103     15.34768772     17.29442787
S        26.31178856     15.44125652     20.77470589
S        27.64846992     17.77483940     27.39648819
S        26.00673103     15.34768772     25.77232552
S        24.16797256     17.29347038     27.59702492
P        26.06406021     16.47551918     27.49251938
S        26.31178856     15.44125652     29.25260544
S        24.16797256     26.33966827      2.16332674
S        27.64846992     26.82103920      1.96279037
S        26.00673103     24.39388657      0.33862740
S        26.31178856     24.48745537      3.81890726
P        26.06406021     25.52171898      2.05882192
S        24.16797256     26.33966827     10.64122677
S        27.64846992     26.82103920     10.44069099
S        26.00673103     24.39388657      8.81652737
P        26.06406021     25.52171898     10.53672123
S        26.31178856     24.48745537     12.29680729
S        24.16797256     26.33966827     19.11912537
S        27.64846992     26.82103920     18.91858864
S        26.00673103     24.39388657     17.29442787
S        26.31178856     24.48745537     20.77470589
P        26.06406021     25.52171898     19.01461983
S        26.00673103     24.39388657     25.77232552
S        24.16797256     26.33966827     27.59702492
S        27.64846992     26.82103920     27.39648819
P        26.06406021     25.52171898     27.49251938
S        26.31178856     24.48745537     29.25260544
S        26.31178856     33.53365326      3.81890726
P        26.06406021     34.56791687      2.05882192
S        24.16797256     35.38586426      2.16332674
S        27.64846992     35.86723709      1.96279037
S        26.00673103     33.44008636      0.33862740
S        27.64846992     35.86723709     10.44069099
S        26.31178856     33.53365326     12.29680729
P        26.06406021     34.56791687     10.53672123
S        24.16797256     35.38586426     10.64122677
S        26.00673103     33.44008636      8.81652737
S        27.64846992     35.86723709     18.91858864
S        26.00673103     33.44008636     17.29442787
S        26.31178856     33.53365326     20.77470589
S        24.16797256     35.38586426     19.11912537
P        26.06406021     34.56791687     19.01461983
S        27.64846992     35.86723709     27.39648819
S        26.00673103     33.44008636     25.77232552
S        24.16797256     35.38586426     27.59702492
P        26.06406021     34.56791687     27.49251938
S        26.31178856     33.53365326     29.25260544
S         8.59868145      2.55062222      4.59899426
P         8.62425995      1.43142736      6.32084656
S         7.03375053      0.12948570      6.23224068
S         8.50094318      2.54693842      8.04579258
S        10.49157810      0.53820163      6.38177395
P         8.62425995      1.43142736     14.79874611
S         7.03375053      0.12948570     14.71013927
S         8.50094318      2.54693842     16.52369308
S         8.59868145      2.55062222     13.07689476
S        10.49157810      0.53820163     14.85967350
S         8.50094318      2.54693842     25.00159073
S         8.59868145      2.55062222     21.55479431
P         8.62425995      1.43142736     23.27664566
S         7.03375053      0.12948570     23.18803978
S        10.49157810      0.53820163     23.33757401
S         8.59868145      2.55062222     30.03269196
P         8.62425995      1.43142736     31.75454521
S         7.03375053      0.12948570     31.66593933
S         8.50094318      2.54693842     33.47949219
S        10.49157810      0.53820163     31.81547165
S         7.03375053      9.17568493      6.23224068
S         8.50094318     11.59313869      8.04579258
S         8.59868145     11.59682274      4.59899426
P         8.62425995     10.47762680      6.32084656
S        10.49157810      9.58440113      6.38177395
S         8.50094318     11.59313869     16.52369308
S         8.59868145     11.59682274     13.07689476
P         8.62425995     10.47762680     14.79874611
S         7.03375053      9.17568493     14.71013927
S        10.49157810      9.58440113     14.85967350
P         8.62425995     10.47762680     23.27664566
S         7.03375053      9.17568493     23.18803978
S         8.50094318     11.59313869     25.00159073
S         8.59868145     11.59682274     21.55479431
S        10.49157810      9.58440113     23.33757401
S         7.03375053      9.17568493     31.66593933
S         8.50094318     11.59313869     33.47949219
S         8.59868145     11.59682274     30.03269196
P         8.62425995     10.47762680     31.75454521
S        10.49157810      9.58440113     31.81547165
S         8.59868145     20.64302254      4.59899426
P         8.62425995     19.52382660      6.32084656
S         7.03375053     18.22188568      6.23224068
S         8.50094318     20.63933945      8.04579258
S        10.49157810     18.63059998      6.38177395
P         8.62425995     19.52382660     14.79874611
S         7.03375053     18.22188568     14.71013927
S         8.50094318     20.63933945     16.52369308
S         8.59868145     20.64302254     13.07689476
S        10.49157810     18.63059998     14.85967350
S         8.50094318     20.63933945     25.00159073
S         8.59868145     20.64302254     21.55479431
P         8.62425995     19.52382660     23.27664566
S         7.03375053     18.22188568     23.18803978
S        10.49157810     18.63059998     23.33757401
S         8.59868145     20.64302254     30.03269196
P         8.62425995     19.52382660     31.75454521
S         7.03375053     18.22188568     31.66593933
S         8.50094318     20.63933945     33.47949219
S        10.49157810     18.63059998     31.81547165
S         7.03375053     27.26808357      6.23224068
S         8.50094318     29.68553925      8.04579258
S         8.59868145     29.68922234      4.59899426
P         8.62425995     28.57002640      6.32084656
S        10.49157810     27.67679977      6.38177395
S         8.50094318     29.68553925     16.52369308
S         8.59868145     29.68922234     13.07689476
P         8.62425995     28.57002640     14.79874611
S         7.03375053     27.26808357     14.71013927
S        10.49157810     27.67679977     14.85967350
P         8.62425995     28.57002640     23.27664566
S         7.03375053     27.26808357     23.18803978
S         8.50094318     29.68553925     25.00159073
S         8.59868145     29.68922234     21.55479431
S        10.49157810     27.67679977     23.33757401
S         7.03375053     27.26808357     31.66593933
S         8.50094318     29.68553925     33.47949219
S         8.59868145     29.68922234     30.03269196
P         8.62425995     28.57002640     31.75454521
S        10.49157810     27.67679977     31.81547165
S        19.13507652      0.53820163      6.38177395
S        17.24217987      2.55062222      4.59899426
P        17.26775932      1.43142736      6.32084656
S        15.67725086      0.12948570      6.23224068
S        17.14444351      2.54693842      8.04579258
S        19.13507652      0.53820163     14.85967350
P        17.26775932      1.43142736     14.79874611
S        15.67725086      0.12948570     14.71013927
S        17.14444351      2.54693842     16.52369308
S        17.24217987      2.55062222     13.07689476
S        19.13507652      0.53820163     23.33757401
S        17.14444351      2.54693842     25.00159073
S        17.24217987      2.55062222     21.55479431
P        17.26775932      1.43142736     23.27664566
S        15.67725086      0.12948570     23.18803978
S        19.13507652      0.53820163     31.81547165
S        17.24217987      2.55062222     30.03269196
P        17.26775932      1.43142736     31.75454521
S        15.67725086      0.12948570     31.66593933
S        17.14444351      2.54693842     33.47949219
S        19.13507652      9.58440113      6.38177395
S        15.67725086      9.17568493      6.23224068
S        17.14444351     11.59313869      8.04579258
S        17.24217987     11.59682274      4.59899426
P        17.26775932     10.47762680      6.32084656
S        19.13507652      9.58440113     14.85967350
S        17.14444351     11.59313869     16.52369308
S        17.24217987     11.59682274     13.07689476
P        17.26775932     10.47762680     14.79874611
S        15.67725086      9.17568493     14.71013927
S        19.13507652      9.58440113     23.33757401
P        17.26775932     10.47762680     23.27664566
S        15.67725086      9.17568493     23.18803978
S        17.14444351     11.59313869     25.00159073
S        17.24217987     11.59682274     21.55479431
S        17.24217987     11.59682274     30.03269196
S        19.13507652      9.58440113     31.81547165
S        17.14444351     11.59313869     33.47949219
P        17.26775932     10.47762680     31.75454521
S        15.67725086      9.17568493     31.66593933
S        15.67725086     18.22188568      6.23224068
S        19.13507652     18.63059998      6.38177395
S        17.14444351     20.63933945      8.04579258
P        17.26775932     19.52382660      6.32084656
S        17.24217987     20.64302254      4.59899426
S        19.13507652     18.63059998     14.85967350
S        15.67725086     18.22188568     14.71013927
S        17.24217987     20.64302254     13.07689476
S        17.14444351     20.63933945     16.52369308
P        17.26775932     19.52382660     14.79874611
S        19.13507652     18.63059998     23.33757401
S        15.67725086     18.22188568     23.18803978
S        17.24217987     20.64302254     21.55479431
S        17.14444351     20.63933945     25.00159073
P        17.26775932     19.52382660     23.27664566
P        17.26775932     19.52382660     31.75454521
S        19.13507652     18.63059998     31.81547165
S        15.67725086     18.22188568     31.66593933
S        17.24217987     20.64302254     30.03269196
S        17.14444351     20.63933945     33.47949219
S        17.14444351     29.68553925      8.04579258
P        17.26775932     28.57002640      6.32084656
S        19.13507652     27.67679977      6.38177395
S        15.67725086     27.26808357      6.23224068
S        17.24217987     29.68922234      4.59899426
S        17.24217987     29.68922234     13.07689476
P        17.26775932     28.57002640     14.79874611
S        19.13507652     27.67679977     14.85967350
S        17.14444351     29.68553925     16.52369308
S        15.67725086     27.26808357     14.71013927
S        15.67725086     27.26808357     23.18803978
S        17.24217987     29.68922234     21.55479431
S        17.14444351     29.68553925     25.00159073
S        19.13507652     27.67679977     23.33757401
P        17.26775932     28.57002640     23.27664566
S        17.24217987     29.68922234     30.03269196
S        19.13507652     27.67679977     31.81547165
S        17.14444351     29.68553925     33.47949219
P        17.26775932     28.57002640     31.75454521
S        15.67725086     27.26808357     31.66593933
S        25.88568115      2.55062222      4.59899426
S        25.78794289      2.54693842      8.04579258
P        25.91125870      1.43142736      6.32084656
S        24.32075119      0.12948570      6.23224068
S        27.77857590      0.53820163      6.38177395
S        24.32075119      0.12948570     14.71013927
S        25.78794289      2.54693842     16.52369308
P        25.91125870      1.43142736     14.79874611
S        25.88568115      2.55062222     13.07689476
S        27.77857590      0.53820163     14.85967350
S        24.32075119      0.12948570     23.18803978
S        25.88568115      2.55062222     21.55479431
S        25.78794289      2.54693842     25.00159073
P        25.91125870      1.43142736     23.27664566
S        27.77857590      0.53820163     23.33757401
P        25.91125870      1.43142736     31.75454521
S        25.88568115      2.55062222     30.03269196
S        24.32075119      0.12948570     31.66593933
S        25.78794289      2.54693842     33.47949219
S        27.77857590      0.53820163     31.81547165
P        25.91125870     10.47762680      6.32084656
S        24.32075119      9.17568493      6.23224068
S        25.88568115     11.59682274      4.59899426
S        25.78794289     11.59313869      8.04579258
S        27.77857590      9.58440113      6.38177395
S        25.78794289     11.59313869     16.52369308
P        25.91125870     10.47762680     14.79874611
S        25.88568115     11.59682274     13.07689476
S        24.32075119      9.17568493     14.71013927
S        27.77857590      9.58440113     14.85967350
S        25.88568115     11.59682274     21.55479431
S        25.78794289     11.59313869     25.00159073
P        25.91125870     10.47762680     23.27664566
S        24.32075119      9.17568493     23.18803978
S        27.77857590      9.58440113     23.33757401
S        24.32075119      9.17568493     31.66593933
S        25.78794289     11.59313869     33.47949219
P        25.91125870     10.47762680     31.75454521
S        25.88568115     11.59682274     30.03269196
S        27.77857590      9.58440113     31.81547165
S        25.88568115     20.64302254      4.59899426
S        25.78794289     20.63933945      8.04579258
P        25.91125870     19.52382660      6.32084656
S        24.32075119     18.22188568      6.23224068
S        27.77857590     18.63059998      6.38177395
S        24.32075119     18.22188568     14.71013927
S        25.78794289     20.63933945     16.52369308
P        25.91125870     19.52382660     14.79874611
S        25.88568115     20.64302254     13.07689476
S        27.77857590     18.63059998     14.85967350
S        24.32075119     18.22188568     23.18803978
S        25.88568115     20.64302254     21.55479431
S        25.78794289     20.63933945     25.00159073
P        25.91125870     19.52382660     23.27664566
S        27.77857590     18.63059998     23.33757401
P        25.91125870     19.52382660     31.75454521
S        25.88568115     20.64302254     30.03269196
S        24.32075119     18.22188568     31.66593933
S        25.78794289     20.63933945     33.47949219
S        27.77857590     18.63059998     31.81547165
P        25.91125870     28.57002640      6.32084656
S        24.32075119     27.26808357      6.23224068
S        25.88568115     29.68922234      4.59899426
S        25.78794289     29.68553925      8.04579258
S        27.77857590     27.67679977      6.38177395
S        25.78794289     29.68553925     16.52369308
P        25.91125870     28.57002640     14.79874611
S        25.88568115     29.68922234     13.07689476
S        24.32075119     27.26808357     14.71013927
S        27.77857590     27.67679977     14.85967350
S        25.88568115     29.68922234     21.55479431
S        25.78794289     29.68553925     25.00159073
P        25.91125870     28.57002640     23.27664566
S        24.32075119     27.26808357     23.18803978
S        27.77857590     27.67679977     23.33757401
S        24.32075119     27.26808357     31.66593933
S        25.78794289     29.68553925     33.47949219
P        25.91125870     28.57002640     31.75454521
S        25.88568115     29.68922234     30.03269196
S        27.77857590     27.67679977     31.81547165
S         1.84807801      0.53820163      6.38177395
S        -0.04481757      2.55062222      4.59899426
S        -0.14255774      2.54693842      8.04579258
P        -0.01924002      1.43142736      6.32084656
S        -1.60975122      0.12948570      6.23224068
S         1.84807801      0.53820163     14.85967350
S        -1.60975122      0.12948570     14.71013927
S        -0.14255774      2.54693842     16.52369308
P        -0.01924002      1.43142736     14.79874611
S        -0.04481757      2.55062222     13.07689476
S         1.84807801      0.53820163     23.33757401
S        -1.60975122      0.12948570     23.18803978
S        -0.04481757      2.55062222     21.55479431
S        -0.14255774      2.54693842     25.00159073
P        -0.01924002      1.43142736     23.27664566
S         1.84807801      0.53820163     31.81547165
P        -0.01924002      1.43142736     31.75454521
S        -0.04481757      2.55062222     30.03269196
S        -1.60975122      0.12948570     31.66593933
S        -0.14255774      2.54693842     33.47949219
S         1.84807801      9.58440113      6.38177395
P        -0.01924002     10.47762680      6.32084656
S        -1.60975122      9.17568493      6.23224068
S        -0.04481757     11.59682274      4.59899426
S        -0.14255774     11.59313869      8.04579258
S         1.84807801      9.58440113     14.85967350
S        -0.14255774     11.59313869     16.52369308
P        -0.01924002     10.47762680     14.79874611
S        -0.04481757     11.59682274     13.07689476
S        -1.60975122      9.17568493     14.71013927
S         1.84807801      9.58440113     23.33757401
S        -0.04481757     11.59682274     21.55479431
S        -0.14255774     11.59313869     25.00159073
P        -0.01924002     10.47762680     23.27664566
S        -1.60975122      9.17568493     23.18803978
S        34.52917862     11.59682274     30.03269196
S        36.42207718      9.58440113     31.81547165
S        34.43143845     11.59313869     33.47949219
P        34.55475998     10.47762680     31.75454521
S        32.96424866      9.17568493     31.66593933
S        32.96424866     18.22188568      6.23224068
S        36.42207718     18.63059998      6.38177395
S        34.43143845     20.63933945      8.04579258
P        34.55475998     19.52382660      6.32084656
S        34.52917862     20.64302254      4.59899426
S         1.84807801     18.63059998     14.85967350
S        -0.04481757     20.64302254     13.07689476
S        -0.14255774     20.63933945     16.52369308
S        -1.60975122     18.22188568     14.71013927
P        -0.01924002     19.52382660     14.79874611
S        34.43143845     20.63933945     25.00159073
S        36.42207718     18.63059998     23.33757401
S        34.52917862     20.64302254     21.55479431
S        32.96424866     18.22188568     23.18803978
P        34.55475998     19.52382660     23.27664566
S         1.84807801     18.63059998     31.81547165
S        -1.60975122     18.22188568     31.66593933
S        -0.04481757     20.64302254     30.03269196
P        -0.01924002     19.52382660     31.75454521
S        -0.14255774     20.63933945     33.47949219
S        34.43143845     29.68553925      8.04579258
S        36.42207718     27.67679977      6.38177395
S        32.96424866     27.26808357      6.23224068
P        34.55475998     28.57002640      6.32084656
S        34.52917862     29.68922234      4.59899426
S        34.52917862     29.68922234     13.07689476
P        34.55475998     28.57002640     14.79874611
S        36.42207718     27.67679977     14.85967350
S        34.43143845     29.68553925     16.52369308
S        32.96424866     27.26808357     14.71013927
S        32.96424866     27.26808357     23.18803978
S        34.43143845     29.68553925     25.00159073
S        36.42207718     27.67679977     23.33757401
P        34.55475998     28.57002640     23.27664566
S        34.52917862     29.68922234     21.55479431
S        34.52917862     29.68922234     30.03269196
S        36.42207718     27.67679977     31.81547165
S        34.43143845     29.68553925     33.47949219
P        34.55475998     28.57002640     31.75454521
S        32.96424866     27.26808357     31.66593933
S         2.55707860      3.72702479      2.16970515
S         4.68690920      1.85451043      3.81615973
S         4.40876293      1.79732180      0.33176979
P         4.44928074      2.90685177      2.06477547
S         6.03877926      4.20367098      1.98782718
S         4.40876293      1.79732180      8.80966949
S         2.55707860      3.72702479     10.64760494
P         4.44928074      2.90685177     10.54267406
S         6.03877926      4.20367098     10.46572590
S         4.68690920      1.85451043     12.29405975
S         6.03877926      4.20367098     18.94362450
S         2.55707860      3.72702479     19.12550545
S         4.68690920      1.85451043     20.77195930
S         4.40876293      1.79732180     17.28756714
P         4.44928074      2.90685177     19.02057266
S         4.40876293      1.79732180     25.76546860
S         2.55707860      3.72702479     27.60340500
P         4.44928074      2.90685177     27.49847412
S         6.03877926      4.20367098     27.42152786
S         4.68690920      1.85451043     29.24985886
P         4.44928074     11.95305157      2.06477547
S         6.03877926     13.24987030      1.98782718
S         2.55707860     12.77322483      2.16970515
S         4.68690920     10.90070915      3.81615973
S         4.40876293     10.84352207      0.33176979
S         6.03877926     13.24987030     10.46572590
S         4.68690920     10.90070915     12.29405975
S         4.40876293     10.84352207      8.80966949
S         2.55707860     12.77322483     10.64760494
P         4.44928074     11.95305157     10.54267406
S         4.40876293     10.84352207     17.28756714
P         4.44928074     11.95305157     19.02057266
S         6.03877926     13.24987030     18.94362450
S         2.55707860     12.77322483     19.12550545
S         4.68690920     10.90070915     20.77195930
P         4.44928074     11.95305157     27.49847412
S         6.03877926     13.24987030     27.42152786
S         4.68690920     10.90070915     29.24985886
S         4.40876293     10.84352207     25.76546860
S         2.55707860     12.77322483     27.60340500
S         2.55707860     21.81942558      2.16970515
S         4.68690920     19.94691086      3.81615973
S         4.40876293     19.88971901      0.33176979
P         4.44928074     20.99925041      2.06477547
S         6.03877926     22.29607010      1.98782718
S         4.40876293     19.88971901      8.80966949
S         2.55707860     21.81942558     10.64760494
P         4.44928074     20.99925041     10.54267406
S         6.03877926     22.29607010     10.46572590
S         4.68690920     19.94691086     12.29405975
S         6.03877926     22.29607010     18.94362450
S         2.55707860     21.81942558     19.12550545
S         4.68690920     19.94691086     20.77195930
S         4.40876293     19.88971901     17.28756714
P         4.44928074     20.99925041     19.02057266
S         4.40876293     19.88971901     25.76546860
S         2.55707860     21.81942558     27.60340500
P         4.44928074     20.99925041     27.49847412
S         6.03877926     22.29607010     27.42152786
S         4.68690920     19.94691086     29.24985886
P         4.44928074     30.04545021      2.06477547
S         6.03877926     31.34226990      1.98782718
S         2.55707860     30.86562538      2.16970515
S         4.68690920     28.99310875      3.81615973
S         4.40876293     28.93592072      0.33176979
S         6.03877926     31.34226990     10.46572590
S         4.68690920     28.99310875     12.29405975
S         4.40876293     28.93592072      8.80966949
S         2.55707860     30.86562538     10.64760494
P         4.44928074     30.04545021     10.54267406
S         4.40876293     28.93592072     17.28756714
P         4.44928074     30.04545021     19.02057266
S         6.03877926     31.34226990     18.94362450
S         2.55707860     30.86562538     19.12550545
S         4.68690920     28.99310875     20.77195930
P         4.44928074     30.04545021     27.49847412
S         6.03877926     31.34226990     27.42152786
S         4.68690920     28.99310875     29.24985886
S         4.40876293     28.93592072     25.76546860
S         2.55707860     30.86562538     27.60340500
S        11.20057869      3.72702479      2.16970515
S        13.33041000      1.85451043      3.81615973
S        13.05226326      1.79732180      0.33176979
P        13.09278011      2.90685177      2.06477547
S        14.68227959      4.20367098      1.98782718
S        13.05226326      1.79732180      8.80966949
S        11.20057869      3.72702479     10.64760494
P        13.09278011      2.90685177     10.54267406
S        14.68227959      4.20367098     10.46572590
S        13.33041000      1.85451043     12.29405975
S        14.68227959      4.20367098     18.94362450
S        11.20057869      3.72702479     19.12550545
S        13.33041000      1.85451043     20.77195930
S        13.05226326      1.79732180     17.28756714
P        13.09278011      2.90685177     19.02057266
S        13.05226326      1.79732180     25.76546860
S        11.20057869      3.72702479     27.60340500
P        13.09278011      2.90685177     27.49847412
S        14.68227959      4.20367098     27.42152786
S        13.33041000      1.85451043     29.24985886
P        13.09278011     11.95305157      2.06477547
S        14.68227959     13.24987030      1.98782718
S        11.20057869     12.77322483      2.16970515
S        13.33041000     10.90070915      3.81615973
S        13.05226326     10.84352207      0.33176979
S        14.68227959     13.24987030     10.46572590
S        13.33041000     10.90070915     12.29405975
S        13.05226326     10.84352207      8.80966949
S        11.20057869     12.77322483     10.64760494
P        13.09278011     11.95305157     10.54267406
S        13.05226326     10.84352207     17.28756714
P        13.09278011     11.95305157     19.02057266
S        14.68227959     13.24987030     18.94362450
S        11.20057869     12.77322483     19.12550545
S        13.33041000     10.90070915     20.77195930
S        13.05226326     10.84352207     25.76546860
S        13.33041000     10.90070915     29.24985886
S        11.20057869     12.77322483     27.60340500
P        13.09278011     11.95305157     27.49847412
S        14.68227959     13.24987030     27.42152786
S        13.05226326     19.88971901      0.33176979
S        13.33041000     19.94691086      3.81615973
P        13.09278011     20.99925041      2.06477547
S        11.20057869     21.81942558      2.16970515
S        14.68227959     22.29607010      1.98782718
S        14.68227959     22.29607010     10.46572590
S        13.33041000     19.94691086     12.29405975
S        13.05226326     19.88971901      8.80966949
P        13.09278011     20.99925041     10.54267406
S        11.20057869     21.81942558     10.64760494
S        11.20057869     21.81942558     19.12550545
S        14.68227959     22.29607010     18.94362450
P        13.09278011     20.99925041     19.02057266
S        13.05226326     19.88971901     17.28756714
S        13.33041000     19.94691086     20.77195930
P        13.09278011     20.99925041     27.49847412
S        13.33041000     19.94691086     29.24985886
S        11.20057869     21.81942558     27.60340500
S        14.68227959     22.29607010     27.42152786
S        13.05226326     19.88971901     25.76546860
S        13.05226326     28.93592072      0.33176979
S        13.33041000     28.99310875      3.81615973
S        11.20057869     30.86562538      2.16970515
S        14.68227959     31.34226990      1.98782718
P        13.09278011     30.04545021      2.06477547
S        13.05226326     28.93592072      8.80966949
S        13.33041000     28.99310875     12.29405975
P        13.09278011     30.04545021     10.54267406
S        11.20057869     30.86562538     10.64760494
S        14.68227959     31.34226990     10.46572590
P        13.09278011     30.04545021     19.02057266
S        13.33041000     28.99310875     20.77195930
S        11.20057869     30.86562538     19.12550545
S        14.68227959     31.34226990     18.94362450
S        13.05226326     28.93592072     17.28756714
S        14.68227959     31.34226990     27.42152786
S        13.05226326     28.93592072     25.76546860
S        13.33041000     28.99310875     29.24985886
S        11.20057869     30.86562538     27.60340500
P        13.09278011     30.04545021     27.49847412
S        19.84407806      3.72702479      2.16970515
S        21.97390938      1.85451043      3.81615973
S        23.32577896      4.20367098      1.98782718
S        21.69576263      1.79732180      0.33176979
P        21.73627853      2.90685177      2.06477547
S        19.84407806      3.72702479     10.64760494
P        21.73627853      2.90685177     10.54267406
S        23.32577896      4.20367098     10.46572590
S        21.97390938      1.85451043     12.29405975
S        21.69576263      1.79732180      8.80966949
P        21.73627853      2.90685177     19.02057266
S        19.84407806      3.72702479     19.12550545
S        21.97390938      1.85451043     20.77195930
S        23.32577896      4.20367098     18.94362450
S        21.69576263      1.79732180     17.28756714
S        21.97390938      1.85451043     29.24985886
S        21.69576263      1.79732180     25.76546860
S        19.84407806      3.72702479     27.60340500
P        21.73627853      2.90685177     27.49847412
S        23.32577896      4.20367098     27.42152786
S        21.69576263     10.84352207      0.33176979
P        21.73627853     11.95305157      2.06477547
S        19.84407806     12.77322483      2.16970515
S        21.97390938     10.90070915      3.81615973
S        23.32577896     13.24987030      1.98782718
S        23.32577896     13.24987030     10.46572590
S        21.97390938     10.90070915     12.29405975
S        21.69576263     10.84352207      8.80966949
S        19.84407806     12.77322483     10.64760494
P        21.73627853     11.95305157     10.54267406
S        23.32577896     13.24987030     18.94362450
S        21.69576263     10.84352207     17.28756714
P        21.73627853     11.95305157     19.02057266
S        19.84407806     12.77322483     19.12550545
S        21.97390938     10.90070915     20.77195930
P        21.73627853     11.95305157     27.49847412
S        23.32577896     13.24987030     27.42152786
S        21.97390938     10.90070915     29.24985886
S        21.69576263     10.84352207     25.76546860
S        19.84407806     12.77322483     27.60340500
S        19.84407806     21.81942558      2.16970515
S        21.97390938     19.94691086      3.81615973
S        23.32577896     22.29607010      1.98782718
S        21.69576263     19.88971901      0.33176979
P        21.73627853     20.99925041      2.06477547
S        19.84407806     21.81942558     10.64760494
P        21.73627853     20.99925041     10.54267406
S        23.32577896     22.29607010     10.46572590
S        21.97390938     19.94691086     12.29405975
S        21.69576263     19.88971901      8.80966949
P        21.73627853     20.99925041     19.02057266
S        19.84407806     21.81942558     19.12550545
S        21.97390938     19.94691086     20.77195930
S        23.32577896     22.29607010     18.94362450
S        21.69576263     19.88971901     17.28756714
S        21.97390938     19.94691086     29.24985886
S        21.69576263     19.88971901     25.76546860
S        19.84407806     21.81942558     27.60340500
P        21.73627853     20.99925041     27.49847412
S        23.32577896     22.29607010     27.42152786
S        21.69576263     28.93592072      0.33176979
P        21.73627853     30.04545021      2.06477547
S        19.84407806     30.86562538      2.16970515
S        21.97390938     28.99310875      3.81615973
S        23.32577896     31.34226990      1.98782718
S        23.32577896     31.34226990     10.46572590
S        21.97390938     28.99310875     12.29405975
S        21.69576263     28.93592072      8.80966949
S        19.84407806     30.86562538     10.64760494
P        21.73627853     30.04545021     10.54267406
S        23.32577896     31.34226990     18.94362450
S        21.69576263     28.93592072     17.28756714
P        21.73627853     30.04545021     19.02057266
S        19.84407806     30.86562538     19.12550545
S        21.97390938     28.99310875     20.77195930
P        21.73627853     30.04545021     27.49847412
S        23.32577896     31.34226990     27.42152786
S        21.97390938     28.99310875     29.24985886
S        21.69576263     28.93592072     25.76546860
S        19.84407806     30.86562538     27.60340500
S        28.48757935      3.72702479      2.16970515
S        30.61740685      1.85451043      3.81615973
S        31.96927834      4.20367098      1.98782718
S        30.33926392      1.79732180      0.33176979
P        30.37978172      2.90685177      2.06477547
S        28.48757935      3.72702479     10.64760494
P        30.37978172      2.90685177     10.54267406
S        31.96927834      4.20367098     10.46572590
S        30.61740685      1.85451043     12.29405975
S        30.33926392      1.79732180      8.80966949
P        30.37978172      2.90685177     19.02057266
S        28.48757935      3.72702479     19.12550545
S        30.61740685      1.85451043     20.77195930
S        31.96927834      4.20367098     18.94362450
S        30.33926392      1.79732180     17.28756714
S        30.61740685      1.85451043     29.24985886
S        30.33926392      1.79732180     25.76546860
S        28.48757935      3.72702479     27.60340500
P        30.37978172      2.90685177     27.49847412
S        31.96927834      4.20367098     27.42152786
S        30.33926392     10.84352207      0.33176979
P        30.37978172     11.95305157      2.06477547
S        28.48757935     12.77322483      2.16970515
S        30.61740685     10.90070915      3.81615973
S        31.96927834     13.24987030      1.98782718
S        31.96927834     13.24987030     10.46572590
S        30.61740685     10.90070915     12.29405975
S        30.33926392     10.84352207      8.80966949
S        28.48757935     12.77322483     10.64760494
P        30.37978172     11.95305157     10.54267406
S        31.96927834     13.24987030     18.94362450
S        30.33926392     10.84352207     17.28756714
P        30.37978172     11.95305157     19.02057266
S        28.48757935     12.77322483     19.12550545
S        30.61740685     10.90070915     20.77195930
S        30.33926392     10.84352207     25.76546860
S        30.61740685     10.90070915     29.24985886
S        28.48757935     12.77322483     27.60340500
P        30.37978172     11.95305157     27.49847412
S        31.96927834     13.24987030     27.42152786
S        31.96927834     22.29607010      1.98782718
S        30.33926392     19.88971901      0.33176979
S        30.61740685     19.94691086      3.81615973
P        30.37978172     20.99925041      2.06477547
S        28.48757935     21.81942558      2.16970515
S        31.96927834     22.29607010     10.46572590
S        30.61740685     19.94691086     12.29405975
S        28.48757935     21.81942558     10.64760494
P        30.37978172     20.99925041     10.54267406
S        30.33926392     19.88971901      8.80966949
S        30.61740685     19.94691086     20.77195930
S        28.48757935     21.81942558     19.12550545
S        31.96927834     22.29607010     18.94362450
P        30.37978172     20.99925041     19.02057266
S        30.33926392     19.88971901     17.28756714
S        30.33926392     19.88971901     25.76546860
P        30.37978172     20.99925041     27.49847412
S        28.48757935     21.81942558     27.60340500
S        31.96927834     22.29607010     27.42152786
S        30.61740685     19.94691086     29.24985886
P        30.37978172     30.04545021      2.06477547
S        30.61740685     28.99310875      3.81615973
S        28.48757935     30.86562538      2.16970515
S        31.96927834     31.34226990      1.98782718
S        30.33926392     28.93592072      0.33176979
S        30.33926392     28.93592072      8.80966949
S        30.61740685     28.99310875     12.29405975
P        30.37978172     30.04545021     10.54267406
S        28.48757935     30.86562538     10.64760494
S        31.96927834     31.34226990     10.46572590
S        30.33926392     28.93592072     17.28756714
P        30.37978172     30.04545021     19.02057266
S        30.61740685     28.99310875     20.77195930
S        28.48757935     30.86562538     19.12550545
S        31.96927834     31.34226990     18.94362450
S        31.96927834     31.34226990     27.42152786
S        30.33926392     28.93592072     25.76546860
S        30.61740685     28.99310875     29.24985886
S        28.48757935     30.86562538     27.60340500
P        30.37978172     30.04545021     27.49847412
S         6.16996384      5.06017256      6.38299274
S         4.29002380      7.08196259      4.60333204
S         4.17791653      7.07625246      8.04720783
S         2.70986295      4.66403198      6.23054552
P         4.30682993      5.95866919      6.32365513
S         6.16996384      5.06017256     14.86089230
S         2.70986295      4.66403198     14.70844555
P         4.30682993      5.95866919     14.80155468
S         4.29002380      7.08196259     13.08123112
S         4.17791653      7.07625246     16.52510643
P         4.30682993      5.95866919     23.27945328
S         6.16996384      5.06017256     23.33879280
S         4.29002380      7.08196259     21.55913162
S         4.17791653      7.07625246     25.00300598
S         2.70986295      4.66403198     23.18634605
S         4.29002380      7.08196259     30.03703117
S         4.17791653      7.07625246     33.48090744
S         6.16996384      5.06017256     31.81669426
S         2.70986295      4.66403198     31.66424561
P         4.30682993      5.95866919     31.75735283
S         2.70986295     13.71023178      6.23054552
P         4.30682993     15.00486851      6.32365513
S         6.16996384     14.10637188      6.38299274
S         4.29002380     16.12816238      4.60333204
S         4.17791653     16.12245369      8.04720783
P         4.30682993     15.00486851     14.80155468
S         4.29002380     16.12816238     13.08123112
S         4.17791653     16.12245369     16.52510643
S         6.16996384     14.10637188     14.86089230
S         2.70986295     13.71023178     14.70844555
S         4.17791653     16.12245369     25.00300598
S         2.70986295     13.71023178     23.18634605
P         4.30682993     15.00486851     23.27945328
S         6.16996384     14.10637188     23.33879280
S         4.29002380     16.12816238     21.55913162
S         2.70986295     13.71023178     31.66424561
P         4.30682993     15.00486851     31.75735283
S         4.29002380     16.12816238     30.03703117
S         4.17791653     16.12245369     33.48090744
S         6.16996384     14.10637188     31.81669426
S         6.16996384     23.15257263      6.38299274
S         4.29002380     25.17436218      4.60333204
S         4.17791653     25.16865349      8.04720783
S         2.70986295     22.75643158      6.23054552
P         4.30682993     24.05106926      6.32365513
S         6.16996384     23.15257263     14.86089230
S         2.70986295     22.75643158     14.70844555
P         4.30682993     24.05106926     14.80155468
S         4.29002380     25.17436218     13.08123112
S         4.17791653     25.16865349     16.52510643
P         4.30682993     24.05106926     23.27945328
S         6.16996384     23.15257263     23.33879280
S         4.29002380     25.17436218     21.55913162
S         4.17791653     25.16865349     25.00300598
S         2.70986295     22.75643158     23.18634605
S         4.29002380     25.17436218     30.03703117
S         4.17791653     25.16865349     33.48090744
S         6.16996384     23.15257263     31.81669426
S         2.70986295     22.75643158     31.66424561
P         4.30682993     24.05106926     31.75735283
S         2.70986295     31.80262947      6.23054552
P         4.30682993     33.09726334      6.32365513
S         6.16996384     32.19877243      6.38299274
S         4.29002380     34.22055817      4.60333204
S         4.17791653     34.21484756      8.04720783
P         4.30682993     33.09726334     14.80155468
S         4.29002380     34.22055817     13.08123112
S         4.17791653     34.21484756     16.52510643
S         6.16996384     32.19877243     14.86089230
S         2.70986295     31.80262947     14.70844555
S         4.17791653     34.21484756     25.00300598
S         2.70986295     31.80262947     23.18634605
P         4.30682993     33.09726334     23.27945328
S         6.16996384     32.19877243     23.33879280
S         4.29002380     34.22055817     21.55913162
S         2.70986295     31.80262947     31.66424561
P         4.30682993     33.09726334     31.75735283
S         4.29002380     34.22055817     30.03703117
S         4.17791653     34.21484756     33.48090744
S         6.16996384     32.19877243     31.81669426
S        14.81346321      5.06017256      6.38299274
S        12.93352318      7.08196259      4.60333204
S        12.82141685      7.07625246      8.04720783
S        11.35336208      4.66403198      6.23054552
P        12.95032883      5.95866919      6.32365513
S        14.81346321      5.06017256     14.86089230
S        11.35336208      4.66403198     14.70844555
P        12.95032883      5.95866919     14.80155468
S        12.93352318      7.08196259     13.08123112
S        12.82141685      7.07625246     16.52510643
P        12.95032883      5.95866919     23.27945328
S        14.81346321      5.06017256     23.33879280
S        12.93352318      7.08196259     21.55913162
S        12.82141685      7.07625246     25.00300598
S        11.35336208      4.66403198     23.18634605
S        12.93352318      7.08196259     30.03703117
S        12.82141685      7.07625246     33.48090744
S        14.81346321      5.06017256     31.81669426
S        11.35336208      4.66403198     31.66424561
P        12.95032883      5.95866919     31.75735283
S        11.35336208     13.71023178      6.23054552
P        12.95032883     15.00486851      6.32365513
S        14.81346321     14.10637188      6.38299274
S        12.93352318     16.12816238      4.60333204
S        12.82141685     16.12245369      8.04720783
P        12.95032883     15.00486851     14.80155468
S        12.93352318     16.12816238     13.08123112
S        12.82141685     16.12245369     16.52510643
S        14.81346321     14.10637188     14.86089230
S        11.35336208     13.71023178     14.70844555
S        12.82141685     16.12245369     25.00300598
S        11.35336208     13.71023178     23.18634605
P        12.95032883     15.00486851     23.27945328
S        14.81346321     14.10637188     23.33879280
S        12.93352318     16.12816238     21.55913162
S        12.93352318     16.12816238     30.03703117
P        12.95032883     15.00486851     31.75735283
S        12.82141685     16.12245369     33.48090744
S        14.81346321     14.10637188     31.81669426
S        11.35336208     13.71023178     31.66424561
S        12.93352318     25.17436218      4.60333204
P        12.95032883     24.05106926      6.32365513
S        12.82141685     25.16865349      8.04720783
S        14.81346321     23.15257263      6.38299274
S        11.35336208     22.75643158      6.23054552
S        11.35336208     22.75643158     14.70844555
S        12.82141685     25.16865349     16.52510643
S        12.93352318     25.17436218     13.08123112
S        14.81346321     23.15257263     14.86089230
P        12.95032883     24.05106926     14.80155468
S        12.82141685     25.16865349     25.00300598
S        14.81346321     23.15257263     23.33879280
S        11.35336208     22.75643158     23.18634605
P        12.95032883     24.05106926     23.27945328
S        12.93352318     25.17436218     21.55913162
S        12.82141685     25.16865349     33.48090744
P        12.95032883     24.05106926     31.75735283
S        14.81346321     23.15257263     31.81669426
S        11.35336208     22.75643158     31.66424561
S        12.93352318     25.17436218     30.03703117
S        12.93352318     34.22055817      4.60333204
P        12.95032883     33.09726334      6.32365513
S        12.82141685     34.21484756      8.04720783
S        14.81346321     32.19877243      6.38299274
S        11.35336208     31.80262947      6.23054552
S        12.93352318     34.22055817     13.08123112
S        12.82141685     34.21484756     16.52510643
S        14.81346321     32.19877243     14.86089230
S        11.35336208     31.80262947     14.70844555
P        12.95032883     33.09726334     14.80155468
S        12.93352318     34.22055817     21.55913162
P        12.95032883     33.09726334     23.27945328
S        14.81346321     32.19877243     23.33879280
S        11.35336208     31.80262947     23.18634605
S        12.82141685     34.21484756     25.00300598
S        12.82141685     34.21484756     33.48090744
S        12.93352318     34.22055817     30.03703117
P        12.95032883     33.09726334     31.75735283
S        14.81346321     32.19877243     31.81669426
S        11.35336208     31.80262947     31.66424561
S        23.45696259      5.06017256      6.38299274
P        21.59382820      5.95866919      6.32365513
S        21.57702255      7.08196259      4.60333204
S        21.46491432      7.07625246      8.04720783
S        19.99686241      4.66403198      6.23054552
S        21.46491432      7.07625246     16.52510643
S        23.45696259      5.06017256     14.86089230
S        19.99686241      4.66403198     14.70844555
P        21.59382820      5.95866919     14.80155468
S        21.57702255      7.08196259     13.08123112
S        19.99686241      4.66403198     23.18634605
S        23.45696259      5.06017256     23.33879280
P        21.59382820      5.95866919     23.27945328
S        21.57702255      7.08196259     21.55913162
S        21.46491432      7.07625246     25.00300598
S        21.57702255      7.08196259     30.03703117
S        21.46491432      7.07625246     33.48090744
S        23.45696259      5.06017256     31.81669426
S        19.99686241      4.66403198     31.66424561
P        21.59382820      5.95866919     31.75735283
S        19.99686241     13.71023178      6.23054552
S        23.45696259     14.10637188      6.38299274
P        21.59382820     15.00486851      6.32365513
S        21.57702255     16.12816238      4.60333204
S        21.46491432     16.12245369      8.04720783
P        21.59382820     15.00486851     14.80155468
S        21.57702255     16.12816238     13.08123112
S        21.46491432     16.12245369     16.52510643
S        23.45696259     14.10637188     14.86089230
S        19.99686241     13.71023178     14.70844555
S        21.57702255     16.12816238     21.55913162
S        21.46491432     16.12245369     25.00300598
S        19.99686241     13.71023178     23.18634605
S        23.45696259     14.10637188     23.33879280
P        21.59382820     15.00486851     23.27945328
S        19.99686241     13.71023178     31.66424561
P        21.59382820     15.00486851     31.75735283
S        21.57702255     16.12816238     30.03703117
S        21.46491432     16.12245369     33.48090744
S        23.45696259     14.10637188     31.81669426
S        23.45696259     23.15257263      6.38299274
P        21.59382820     24.05106926      6.32365513
S        21.57702255     25.17436218      4.60333204
S        21.46491432     25.16865349      8.04720783
S        19.99686241     22.75643158      6.23054552
S        21.46491432     25.16865349     16.52510643
S        23.45696259     23.15257263     14.86089230
S        19.99686241     22.75643158     14.70844555
P        21.59382820     24.05106926     14.80155468
S        21.57702255     25.17436218     13.08123112
S        19.99686241     22.75643158     23.18634605
S        23.45696259     23.15257263     23.33879280
P        21.59382820     24.05106926     23.27945328
S        21.57702255     25.17436218     21.55913162
S        21.46491432     25.16865349     25.00300598
S        21.57702255     25.17436218     30.03703117
S        21.46491432     25.16865349     33.48090744
S        23.45696259     23.15257263     31.81669426
S        19.99686241     22.75643158     31.66424561
P        21.59382820     24.05106926     31.75735283
S        19.99686241     31.80262947      6.23054552
S        23.45696259     32.19877243      6.38299274
P        21.59382820     33.09726334      6.32365513
S        21.57702255     34.22055817      4.60333204
S        21.46491432     34.21484756      8.04720783
P        21.59382820     33.09726334     14.80155468
S        21.57702255     34.22055817     13.08123112
S        21.46491432     34.21484756     16.52510643
S        23.45696259     32.19877243     14.86089230
S        19.99686241     31.80262947     14.70844555
S        21.57702255     34.22055817     21.55913162
S        21.46491432     34.21484756     25.00300598
S        19.99686241     31.80262947     23.18634605
S        23.45696259     32.19877243     23.33879280
P        21.59382820     33.09726334     23.27945328
S        19.99686241     31.80262947     31.66424561
P        21.59382820     33.09726334     31.75735283
S        21.57702255     34.22055817     30.03703117
S        21.46491432     34.21484756     33.48090744
S        23.45696259     32.19877243     31.81669426
S        32.10046387      5.06017256      6.38299274
P        30.23732948      5.95866919      6.32365513
S        30.22052193      7.08196259      4.60333204
S        30.10841560      7.07625246      8.04720783
S        28.64036369      4.66403198      6.23054552
S        30.10841560      7.07625246     16.52510643
S        32.10046387      5.06017256     14.86089230
S        28.64036369      4.66403198     14.70844555
P        30.23732948      5.95866919     14.80155468
S        30.22052193      7.08196259     13.08123112
S        28.64036369      4.66403198     23.18634605
S        32.10046387      5.06017256     23.33879280
P        30.23732948      5.95866919     23.27945328
S        30.22052193      7.08196259     21.55913162
S        30.10841560      7.07625246     25.00300598
S        30.22052193      7.08196259     30.03703117
S        30.10841560      7.07625246     33.48090744
S        32.10046387      5.06017256     31.81669426
S        28.64036369      4.66403198     31.66424561
P        30.23732948      5.95866919     31.75735283
S        28.64036369     13.71023178      6.23054552
S        32.10046387     14.10637188      6.38299274
P        30.23732948     15.00486851      6.32365513
S        30.22052193     16.12816238      4.60333204
S        30.10841560     16.12245369      8.04720783
P        30.23732948     15.00486851     14.80155468
S        30.22052193     16.12816238     13.08123112
S        30.10841560     16.12245369     16.52510643
S        32.10046387     14.10637188     14.86089230
S        28.64036369     13.71023178     14.70844555
S        30.22052193     16.12816238     21.55913162
S        30.10841560     16.12245369     25.00300598
S        28.64036369     13.71023178     23.18634605
S        32.10046387     14.10637188     23.33879280
P        30.23732948     15.00486851     23.27945328
S        30.22052193     16.12816238     30.03703117
P        30.23732948     15.00486851     31.75735283
S        30.10841560     16.12245369     33.48090744
S        32.10046387     14.10637188     31.81669426
S        28.64036369     13.71023178     31.66424561
S        30.22052193     25.17436218      4.60333204
S        32.10046387     23.15257263      6.38299274
P        30.23732948     24.05106926      6.32365513
S        30.10841560     25.16865349      8.04720783
S        28.64036369     22.75643158      6.23054552
S        32.10046387     23.15257263     14.86089230
S        28.64036369     22.75643158     14.70844555
S        30.22052193     25.17436218     13.08123112
S        30.10841560     25.16865349     16.52510643
P        30.23732948     24.05106926     14.80155468
P        30.23732948     24.05106926     23.27945328
S        30.10841560     25.16865349     25.00300598
S        32.10046387     23.15257263     23.33879280
S        28.64036369     22.75643158     23.18634605
S        30.22052193     25.17436218     21.55913162
S        30.10841560     25.16865349     33.48090744
P        30.23732948     24.05106926     31.75735283
S        32.10046387     23.15257263     31.81669426
S        28.64036369     22.75643158     31.66424561
S        30.22052193     25.17436218     30.03703117
S        30.22052193     34.22055817      4.60333204
P        30.23732948     33.09726334      6.32365513
S        30.10841560     34.21484756      8.04720783
S        32.10046387     32.19877243      6.38299274
S        28.64036369     31.80262947      6.23054552
S        30.22052193     34.22055817     13.08123112
S        30.10841560     34.21484756     16.52510643
S        32.10046387     32.19877243     14.86089230
S        28.64036369     31.80262947     14.70844555
P        30.23732948     33.09726334     14.80155468
S        30.10841560     34.21484756     25.00300598
P        30.23732948     33.09726334     23.27945328
S        32.10046387     32.19877243     23.33879280
S        28.64036369     31.80262947     23.18634605
S        30.22052193     34.22055817     21.55913162
S        30.10841560     34.21484756     33.48090744
S        30.22052193     34.22055817     30.03703117
P        30.23732948     33.09726334     31.75735283
S        32.10046387     32.19877243     31.81669426
S        28.64036369     31.80262947     31.66424561
