2048

Li      -62.28083420    -55.72320175   -114.06503296
Li        6.62299252     63.69824982   -135.48269653
Li      -80.27031708    -50.77033234     -0.49893749
Li       35.39965439     64.98323822    205.45155334
Li      -14.33240795     14.33750820     88.88533020
Li      -46.42196655    -47.94502258     -7.11859369
Li       84.87035370    -26.21996880   -132.13624573
Li       14.60324383     54.30565262    118.57522583
Li       97.27873230     19.15457344     67.89086151
Li      -45.59250259     -5.55025816     -0.25867829
Li      -15.56748009    -15.87911510    170.14372253
Li       23.46536636     60.77650833     85.19978333
Li       66.86236572     24.46123314     -0.02088098
Li       15.13252544    103.35620117    -38.09985733
Li       49.34221268     90.43349457    -33.82024002
Li       -2.47295046     54.06149673     50.91803360
Li      -19.27050972     48.83171082    105.99099731
Li       36.62262726     26.13545990    -29.58529472
Li      -14.62931919    -21.65347481    -30.17923164
Li       -2.40457439     93.96285248     12.65014935
Li       -1.91820383    -11.23365688    -37.65178680
Li      -41.25411987     40.70659637     25.49353790
Li       28.35108185     74.55873871     -4.24518299
Li       41.61618042     79.22771454     13.08069992
Li      -37.43986130    -36.13849258     -0.43521994
Li      -41.12547684    -28.05902290     63.68357849
Li       24.46617889    -35.23048019     51.43487167
Li      -10.40036869    -53.19224167     29.19208717
Li       24.06896210     25.13645554    131.71791077
Li     -102.21777344    -40.75869751     42.27728653
Li      -49.90736008     16.62958717     24.95142746
Li       41.47854614    100.54988098     97.08289337
Li      -88.77890015     15.25042915     25.22255325
Li        1.86223602    -73.71842957     41.96808243
Li      -15.44063282     38.45465088      0.42175058
Li       67.58277130     55.38830948     63.20036697
Li      109.69935608    -23.70083046   -135.96643066
Li      -75.33512878    -60.81159210    -12.16511822
Li       79.54827118    -16.52913094     85.69065094
Li      -18.51897049    -25.68795776     28.52519226
Li      -36.54176712    -56.47504425     -3.56615782
Li       71.65522766     65.64310455     97.98339844
Li      -32.01631165    -54.77950287    -21.08072472
Li       54.24701309     -0.53657550    -12.89291000
Li       -6.34461164     14.21675205    -25.13248253
Li      -42.41690063     11.31321812     -6.41027832
Li       -2.20366979     14.90650940    102.02182007
Li       15.32461357    -28.94386673     21.15767479
Li       10.72017574    -73.07097626     33.51514053
Li       93.65599060     -7.90816641    -30.26372910
Li      144.69544983     -9.27529049     59.21118546
Li      -27.90040588    -89.68827820    110.54653168
Li       58.40278244    -41.85906601     29.95522499
Li       84.03978729    129.76423645    -17.70382881
Li       71.63370514     11.58888626     38.84864426
Li       -2.22293687    -68.79857635     25.05720711
Li       93.42169189     -5.11126280    -46.29470825
Li       28.32342529      8.57694530     89.00305176
Li       53.93894196    -70.63345337    -38.34816360
Li      -41.14016724     -1.80094326     33.11583328
Li       62.65372086    125.67876434    -42.42719269
Li      -19.16021538     52.35736084     64.14656830
Li       19.13942146     22.90138245     93.04702759
Li       76.26422119      1.05655396     93.85976410
Li       19.78904152    -21.41533279    -24.75327682
Li       44.68138123    -37.18272781    -25.84609604
Li       36.46237946     17.07100487     84.46669006
Li      -32.61306000     68.10112762    161.18928528
Li       28.61133575     -3.69372940    -21.49304199
Li      -44.41020966     46.14886093     12.04663467
Li       41.64654922      8.59643459     33.78857803
Li       36.14541245     80.92008972    -38.25802994
Li       19.56343460     65.69995117     92.82748413
Li      -44.82280350    -58.87668610     76.03086853
Li      -58.27078629     55.74329758     21.21543503
Li      -62.74331665     33.06630707      0.09778339
Li      -67.37735748    -37.15563965    -17.27168083
Li      -47.92452621     47.72399521      6.22331190
Li       32.23816681     12.29450798    -59.82299423
Li       28.39005280     75.10985565    -63.76667023
Li       33.45547867     46.21190643     62.75911713
Li      -28.69752121    -18.16558838     67.80544281
Li       83.92694855     57.24285889    160.29058838
Li       10.60620689     80.32319641    -42.77495193
Li       -1.80798554     70.35874176    -29.37219429
Li        6.53870201     24.74843788    -55.53656006
Li       53.80744171     98.21685028     84.28632355
Li       11.10205460     50.69760132     -4.35913610
Li      -19.62073135    -21.28211975     51.17938995
Li      -11.05852890     12.72047138     13.17463017
Li      -33.02516174    -82.26715851    -17.10307312
Li       10.98110962    -15.72159386    140.16152954
Li      -53.03550339    -58.85021591    -46.80916214
Li       33.08541107     70.54728699     89.69338226
Li      -54.48552322    -30.27919960     51.16109848
Li       -1.92633319    -23.40729523     12.75877190
Li       23.15127563    -36.05225372    -25.43026733
Li      -14.49069691    -21.52006340     12.31118393
Li       28.42444992     20.12401009    -72.10176086
Li       19.90384483     23.34269905    -33.58664322
Li       14.75500679     23.99377632    -33.73222733
Li      -18.91725159     43.29682159    -29.01840210
Li      -41.52248001     10.39925575     51.32367325
Li       -2.56789255      0.02394444     -8.48493195
Li      -36.17105103    -61.89271545    -56.32365799
Li      -32.35457230     55.98509216     25.82160950
Li       58.11339951    102.89717102    -26.01119041
Li       75.55297852    111.08808899    -60.28606033
Li      -19.35558701     73.13716125     84.76502228
Li       88.13803101     58.96241379     51.02033615
Li       88.44500732    134.43707275    143.74424744
Li      -32.78060532     55.91420746      8.67660141
Li      118.91703796     37.17620468     89.06697083
Li      110.24926758     21.69586372    -38.18883133
Li       32.48844528      6.41724157     42.76564407
Li      106.18819427     95.81990051     97.00110626
Li       -5.97610235     32.36455917    -50.59774017
Li      -28.16465187      6.14340448     -8.26504230
Li       10.35981560    -37.21044922    -54.98330307
Li       93.38216400     40.37781906    118.48119354
Li        3.56034613     38.48024368    -44.81441498
Li       62.74600220    102.63651276     33.76595306
Li      -19.43688583    -32.25670242      4.34368134
Li      158.52992249    -27.22756386     34.25317764
Li       62.34137726    -88.58056641      8.63921547
Li       41.14958572     33.85657120    -29.73150826
Li       84.12738037    -24.26661873     41.67270279
Li       32.43886566     21.70725060     21.28827858
Li       10.85247707     -3.36289096     60.28530121
Li      -15.20630550    -73.69810486    169.11903381
Li      -97.53161621    -14.83237362     25.21223831
Li      -66.72325134     32.65990067    169.73027039
Li      -19.14511681     27.67787552     54.82739639
Li       15.98489285     53.35814285     75.92569733
Li      -32.78914261     52.83211899    169.40237427
Li      -75.40031433     -0.78752476    -21.29028320
Li       42.50646210    -19.89170456    -61.09335327
Li        6.88583899     -1.94804740     -3.37593150
Li      -53.60116196    -16.36341858     45.20066452
Li       32.52000809     39.88485336     21.19683456
Li      123.64682007     96.07184601      3.72640061
Li       23.59142113     30.65863228     84.43791199
Li       66.77679443     69.51072693     45.99134064
Li       31.61314392    135.57489014     33.62562943
Li      -23.32110023      2.75885034    -21.07697296
Li      -19.12677193     69.85997009    -12.39334583
Li       19.92058945    -12.70253944    -21.49981499
Li      -19.33715820     25.49443054     38.53558350
Li      -49.01129913     38.69270325     22.12186623
Li       36.36098862     37.83512878      3.49883175
Li       37.24349594     15.12965298    121.90280914
Li      -15.67308998    -31.79214859      8.25159264
Li       41.31188202     21.92278290    -21.19254112
Li      -70.92124939    -29.26265144     47.60926437
Li       49.37962341     75.66801453     75.70700073
Li       -6.53234625     80.26634216      4.42847157
Li       32.16430283    -23.47188187    131.63594055
Li        6.93193483     43.53453064    -29.06158447
Li      -23.53644371    -24.56009674     16.10899162
Li      -24.14852333    -13.74507427     42.23675156
Li       15.85019493     52.03449631     21.99949455
Li       36.71640015     38.09333801    -83.55744934
Li       19.22169304     -0.90859050     -4.04553986
Li       15.45224380     73.03634644      0.37406921
Li       -1.50408316    -65.27758789    107.10194397
Li        7.79865456     83.64301300    -57.17304611
Li       11.06084824    -22.56361961   -110.36872864
Li       28.36561966     29.90450478     29.76862144
Li       11.09915638     26.44279099     46.77080154
Li       92.99155426    114.64497375    -33.30892944
Li       48.85206985     27.23503494    135.33685303
Li       -2.06960154     36.76329803     51.09767914
Li       -1.89101517     73.29978180   -106.39160156
Li        1.99334466     49.90072250    -34.00569916
Li      -32.47318268     74.36860657    -41.63467789
Li       19.32857323    -18.91065979    -80.23043823
Li       23.47277451     36.42771912     25.58530617
Li       27.92352295     53.38615036    -59.78302383
Li      149.45185852    111.30941010     72.50125885
Li       62.92591476    125.88571167     -3.99852967
Li     -135.90344238     14.28057861      3.57913327
Li       79.73732758    107.25316620     16.58419800
Li      -23.90717316      4.89676905     51.01173019
Li       49.36969376    165.71241760    -60.14654541
Li       14.82920933    -63.22686386     84.79238129
Li      -27.88684654    -98.47080231      3.64502072
Li        3.15380096    -13.33930588      8.53073597
Li      101.41777039     48.37409973     -0.41102976
Li       66.69845581     30.10413170    -17.29378128
Li      -53.93705368     45.05985260    -59.32714844
Li      -19.81864548    -50.57308197     72.32711792
Li       23.17020798     66.93127441     72.17857361
Li      -36.67781067     30.25516129     46.32942200
Li       36.43316269     43.89014435     67.45472717
Li       19.33435631    -70.84584045     76.73893738
Li       10.40089607    101.23703766      9.37839413
Li       36.90219879     14.69558430     96.43131256
Li      -27.55472755     55.70776367     54.58910751
Li       45.62257004     56.75421906    -20.76975632
Li       36.50119781     65.07642365      9.30569172
Li      -49.50620651    -91.14791107    114.49134064
Li       15.02519894    -12.04172230    110.39843750
Li       33.01953125      9.88468075     21.13249969
Li      -10.39750099    109.49558258     96.93037415
Li      -40.76212311    -24.77807236     98.09490967
Li      -19.11966133     64.00327301     50.90136719
Li       -2.56353641     30.82996559     63.61271667
Li        2.18936539      8.16137123    105.89273834
Li       10.79334259    -44.42640305    152.80955505
Li      -19.16504669     70.03604126     -3.77325296
Li      -40.66600800    -75.87754059    -38.46583939
Li       19.46402931     10.78518963     25.83315086
Li        5.96082687    -42.12517929    115.52872467
Li        2.06042433    -16.49782944      0.02347916
Li      -46.75868225    -65.88867950    154.32516479
Li      -26.23230362     19.37780952    -31.82460976
Li       40.89961243     31.37158394     -4.17743587
Li       66.63368225    -20.95156288     -7.87022257
Li       58.24105835     94.18445587    -46.36147690
Li       70.75742340     13.78552341     25.27989006
Li      -24.02930450     46.80227280     34.08670425
Li       14.90507030    -15.06488705    -20.30338478
Li       45.13580322    125.51894379     46.91906738
Li        2.97539997     33.07214355    113.43437958
Li      -45.00483704    -29.30537796     30.44006920
Li       60.01131821     43.15845490     23.65419579
Li        7.02044582     36.99463272     34.01380157
Li      -28.33992195    -23.44688797     55.17570496
Li       11.14186478     15.03927040     54.07682037
Li      -57.72298431    109.25624847     20.78420067
Li       -6.19563341    -21.61273956    130.99107361
Li       -2.14048529     -2.81813931    -50.90865326
Li       15.12352943    -50.76250076     -4.10603952
Li       80.61279297    -21.74756241     71.72190094
Li      -45.12236786     -8.27876949     50.66110992
Li      -14.93369484     11.61396980     -4.06690216
Li       15.58801842     28.18857384    114.11139679
Li       41.25463486     70.55381012     50.47156143
Li       50.21258926    -11.00927162     98.17463684
Li       27.84679222     31.72761536     -8.21951675
Li       36.60905457    101.26780701     -8.29584408
Li       75.40214539     12.27517033     47.05760956
Li      -10.45526600    -28.82727051     42.15745163
Li       92.81444550     45.51895523     33.98972321
Li       45.65371323     59.95943451     11.54235554
Li       40.97846603     -8.59403801     16.98098373
Li       54.08883667    -73.37062073      4.40661383
Li       63.40443039     81.37291718    148.27821350
Li       58.83757782      1.01932502    173.21569824
Li      -19.17104340    -19.80267715     12.85140705
Li       43.46841812     46.80157852     86.58397675
Li       28.38040543    -42.61498642     50.12008667
Li       -2.87953949    -32.79573441     16.77681732
Li       83.66059875      9.14646435     33.69625854
Li        2.17688298     46.60017014    -58.81042862
Li       45.56482697     57.72664261     33.88669968
Li      -28.42976570    -54.23744965    -85.07521820
Li       15.69412041     -8.94750690     59.33536911
Li      -11.10038376     21.56621933      8.08496857
Li       45.06225967     10.98316669    127.72529602
Li       18.74548721     53.41083908     33.78627396
Li       58.62094116     -8.13312244     25.81934547
Li      -71.00968933     37.22158813     71.70970154
Li      -53.92637634    -35.38031769    -63.85861969
Li       28.31717300     41.58375931      3.76471806
Li       -2.04320431    -95.95923615    -29.38075066
Li        2.42255235     -6.23972034     21.26979637
Li        6.56817245     70.45436096     46.60963821
Li      -92.63912201    -39.91922760     -4.49967480
Li       75.58441162     60.68277740    -67.78503418
Li      -54.56816864     69.65105438    -24.68700409
Li       10.80032539    -24.29223824    177.92672729
Li       66.59142303     42.52030563     51.60637283
Li       15.11203289     39.57150269     46.94198990
Li      -76.60288239    -10.52649784      6.81174994
Li       27.58685303     43.88948822     67.06830597
Li      -10.25370693   -128.78594971     -3.34785175
Li        2.32069445     -6.21321106     33.35052490
Li      -50.52885437    -46.77213669   -102.94515228
Li      -23.33428574      5.65830851    -12.83157063
Li       58.86853409    127.53282928     20.87912941
Li      -66.79978943     21.19543457     13.02663803
Li       41.89712524     18.79535866     97.38667297
Li        2.33841491     41.48485565     46.51028442
Li      -57.93226242    -24.11994171     89.18582153
Li       33.04823303     37.23637390    122.36119843
Li       36.35456085     17.17207336     -3.88961864
Li       63.37936783     99.52140808    -29.96689415
Li      114.66339111    -34.04884720    -38.62247467
Li      -11.16115665    -39.34654999    -25.04517937
Li       15.29411316    -92.12301636    -29.36174583
Li      -10.65200138      4.45967340    -12.78635693
Li      -27.27594185     -8.19361877   -114.99308777
Li      -62.80167007    -32.89573669     25.07159615
Li       45.31464005     -7.21459293    101.98806763
Li       45.69363403     86.68756104     84.89098358
Li       80.61035156    111.18968201    -79.59020996
Li       40.38370895      6.36896229     68.70217896
Li      -88.07811737    -35.26325607    -89.42011261
Li     -118.68115234     65.17620087     -0.01500933
Li       23.22627449    112.28380585     38.22558212
Li       53.85351944     17.18371010     30.15233803
Li       41.30039978      7.16598177    132.01533508
Li       49.23726273    -14.90524006    101.24673462
Li       45.26058578     16.88699532    -59.51284027
Li      -49.81965256    -21.68470573    -50.75995636
Li        7.56488562    -49.88954544     89.05383301
Li       36.60715485     71.40792847     72.16284180
Li      -45.74472046    -20.70206070    -83.89723206
Li       74.29441833     39.17820740    -69.62879181
Li       40.79224396    -14.80846691      8.31411552
Li      144.74864197    -26.76822090    161.05310059
Li       23.33634567    -21.14177513    -42.07032394
Li      -31.87099075     23.59446335    -64.13155365
Li      114.13816833     67.46497345     84.94632721
Li       17.12230301     55.27828979     36.56509399
Li       42.81039429    112.78047180      1.31056094
Li       50.24595642      9.94098377    -13.06290531
Li       -2.61112475     60.60512161     -7.94323587
Li      -37.33492279     30.35447502      7.61051559
Li       79.34535217     67.87679291     42.68872452
Li       57.91023636     33.43582916     34.54994965
Li       45.94087601     -3.35531092     54.55210495
Li     -161.55053711   -157.09957886    -98.18176270
Li      109.80729675     21.44572067     33.52247238
Li       92.35509491     66.93015289    -20.70222473
Li      -36.64963531     18.63308716     93.16172791
Li       23.99741364    -53.55817795    -16.27905273
Li       28.33926201     83.92354584     12.94305706
Li      -93.03574371    -81.89002228      4.44386530
Li       45.22697067    -19.17872047     55.49530411
Li       50.31517410     42.89015579     13.49697018
Li      -54.33317566     39.28061676     24.74505806
Li      -49.68520355      8.27920151     12.87489319
Li      -15.34208012      1.31003356     50.87761307
Li        2.13200593     -0.65230608     29.67948341
Li       -1.93123233    -53.43449783    -80.90291595
Li        6.90314054    -47.25725937     55.47715378
Li      -10.82053661     34.36968231     46.92681122
Li      -57.81493759    -24.28175545     -4.02335167
Li       67.25784302    -17.11387634     37.84311676
Li      -32.65923691    -28.29318047     42.25589752
Li     -105.24100494    -26.29365349    -30.13656425
Li        7.13696527      6.83862257    191.64889526
Li      -40.20261383    -30.35698128    -22.08461571
Li       62.48901367     17.11429024     55.03679657
Li       -2.53554106     39.56072617      8.23835468
Li       93.35253906    -44.07004929    147.74226379
Li      110.63446808     24.41139793    140.17242432
Li       76.10191345     76.66947937     -4.34796476
Li       77.94489288     61.50199890    150.70581055
Li       32.03316498    -24.04861832     24.64770126
Li      131.78948975     37.44308472    -76.05455017
Li      -41.23973465    -92.07495117     67.49056244
Li       23.25897217      6.38461447     60.37143707
Li      -54.04772949    -23.78272057     46.54717255
Li       80.27249908     29.43508148     55.33951569
Li       19.82557487    -59.94385529     33.61512756
Li      -11.06491470    -23.88337135     16.87207413
Li      -15.11338806    -61.81393051     37.38283157
Li      109.85440826     81.23394775     50.62844467
Li       63.01767731    120.91555786     92.93111420
Li       57.67436218    -11.67917919    102.67912292
Li       45.20912170     65.82624817     93.20447540
Li       67.39741516     52.66884232    -54.76527786
Li      139.59164429    130.83926392     67.49188995
Li      114.20949554    -28.34729576     41.97684097
Li       32.51153183      3.54611182    -71.98264313
Li      -14.73149300   -115.54080200     12.78927898
Li       15.23154640     -5.41381741    -29.67208099
Li      -40.55792618    -59.97610855     -0.17644663
Li       80.44263458    105.05353546     37.66421127
Li       11.22177601    -85.04454803     54.60471344
Li        6.11720705    -87.17178345     50.59024048
Li       89.18309784     32.65625381     88.83841705
Li       54.49583054     23.42671204     54.82049179
Li       37.79223633     90.34867096    -12.90920925
Li       45.05258179      7.79430628     50.39631653
Li      -80.08506775     21.87491035     29.78578186
Li       36.63523102    -10.38513374     25.34321404
Li       41.88391876    100.84308624     71.14593506
Li      104.67411804     47.35290146     52.79096603
Li       49.61842346     12.53105259     33.52758026
Li       10.94035149     29.92225647     72.13861847
Li       53.84011459     62.35830688      4.36924887
Li       37.01734543    -51.69800568    -97.12654877
Li      -45.45416641      3.78141451    -37.82590485
Li      -53.91847229      3.75185561     63.70566559
Li      -89.06544495    -41.54945755    -12.50606728
Li       -6.10366964     17.69759369     46.49135590
Li      -49.64266205    -12.99370384    110.36685944
Li       10.52894592    -46.41686249    143.82357788
Li      -23.31611633     32.55184937     80.28211212
Li      -15.26656055     -7.20732307     20.62080002
Li       32.05635834     33.42492294    110.32379913
Li        6.20131493    120.89460754     93.04797363
Li       88.63592529    -10.16366196     25.44908333
Li       36.24134827    -28.65865707     15.86563683
Li       17.76638794    116.30477905    -35.49670792
Li       -2.10227203    108.65749359    -25.38433456
Li      -67.38626862     16.84660339      7.81733274
Li       -6.14842987    -57.96106339     88.85946655
Li       49.48897552    -54.19289398     25.50270081
Li       71.14746857     26.22453690     46.63377380
Li       -2.10421133    -11.82784748    -92.66996002
Li       37.26950455     59.79468155    122.31569672
Li      -40.39532471    -69.75487518     55.53362656
Li      -41.16119385     74.20343018    -16.73784256
Li      -67.46529388     47.21915436     59.75494385
Li       36.52962494    116.73676300     21.47275352
Li      105.46872711    101.41111755     17.88997650
Li        2.42443585     65.96264648    148.78601074
Li      -11.68596935    124.04298401    -91.56726074
Li       23.94850159     46.72893524     43.15298843
Li       40.76633453      3.65543127     55.11907196
Li        6.48666096     21.15590477    106.14116669
Li       45.41194916     -6.67372274     13.43798447
Li      -32.28249359    -72.86270905    -67.92199707
Li       58.12081146     11.84491062     33.04516220
Li       -6.87995481     56.06748962     51.22625732
Li      -14.04165936     59.23730850     63.50350571
Li       -2.36626005     -2.88362575     68.09467316
Li       27.82452965     16.96125221   -119.14596558
Li       53.86380005     20.09172249     42.77794647
Li       37.18523026     93.04457092     64.54524994
Li       62.58835983     98.82434845     21.45701981
Li       -6.48685551    -45.69370270     29.78372192
Li      -49.92969131     19.94115448     -7.73401213
Li       28.13532829      1.44512355     76.78836060
Li       19.25550461    116.49008179     55.51424408
Li      -41.47817993     10.96155930      9.52716637
Li       93.27860260     19.73259544     36.78448105
Li       45.24242401    -11.04753780    -33.97448349
Li       79.50640106     40.61283493   -161.07127380
Li       36.12773895     25.77347755     41.82240677
Li       41.34140015     19.07999420    -55.18503189
Li       79.94377899     68.53068542    135.83177185
Li       11.01614189    -97.13288879    106.74236298
Li       15.25631046     94.54488373    -12.84807777
Li      102.25613403    163.55448914     12.55533504
Li       24.32236099     10.30382442     37.63918686
Li      -45.83620453   -126.71653748     25.43926048
Li      -10.97415257     24.18883133     43.13392258
Li        7.25659084    -31.46740913    -59.16839981
Li       15.38466454     61.39023590     80.78000641
Li       -6.07340860    -12.57292366      3.93226290
Li       28.45552635     96.15441895    -47.03594971
Li       71.66442871     11.60325718    -37.76712418
Li      -41.68704224    -49.99720383     34.12093353
Li       -6.41296482    -15.05259895    -55.01520920
Li       15.01232910     33.69255066     50.94790649
Li       -7.05171585    -88.94239807    127.52875519
Li      -21.94206619   -129.25294495     78.48335266
Li       20.23147011    -51.51942444      5.24496508
Li      -79.70194244      7.57586575    -20.79452896
Li      -84.63031769     26.26377106     55.59068680
Li      -32.95875168    -55.89325714     -9.37201691
Li      -14.96017265     20.37000465    -12.03561687
Li       40.60964584     53.42369461    173.92768860
Li      -32.22779846    -33.84969330     -3.97523403
Li      -36.70684052    -44.65574646     80.04521179
Li       41.37978363    109.74055481    -21.74903107
Li       23.74186707    100.19647980    -80.74649811
Li      -10.37260151     40.63781357     12.59257698
Li       54.22917175      8.23216248     -4.16926861
Li       46.32083130     77.66797638    -21.58813286
Li       10.34857845    -37.09671783     97.64182281
Li      -16.90522575     13.82972336     -2.28562927
Li      -53.37746429    -11.09401512     22.47884560
Li       28.37640953     92.50522614     21.66392517
Li      -36.41352844    -80.66701508    105.73245239
Li       37.13509750    104.95763397    -38.32314682
Li       40.67106247     66.71540833    -76.53248596
Li      -40.98817444    -12.71550179    -59.25940323
Li       -5.82600784      2.84876513    -20.77304077
Li       27.94408989    -37.18223190     41.86961746
Li      -15.37666130     -1.19307661     16.50407600
Li       37.50093079    -36.27726364    -46.88560867
Li       54.40694809     47.85052109     13.50675869
Li       53.44595718     88.49303436      7.14024878
Li      101.70114136    -32.18920898    182.47351074
Li       46.04793549     24.08603477     28.38133812
Li       62.31908035    113.27999115    -84.80231476
Li        1.90802383    -40.41985703    118.51111603
Li       29.01210976    -30.95629692    -72.56729889
Li       23.46870041     -2.66319704     26.19264984
Li      162.95936584    -22.49220085     38.16452789
Li       10.97178841     44.55717850    -88.98973846
Li       84.51260376     34.16620255    -88.44483948
Li      131.62124634    107.80075073     72.07833862
Li       23.45372391      3.16229534     33.69943619
Li       89.03603363     32.36604309    152.98356628
Li       23.11590385    -14.57316208   -119.30789948
Li      -82.08982086    -30.26048279     10.58170223
Li      -31.92290688     77.86697388     29.35666275
Li       75.54859161     40.08392334    -21.06528664
Li       32.39645767    -41.43677521   -181.75184631
Li        9.94128704    -68.06930542     25.45582581
Li      -49.85182190    -71.40739441     93.35253906
Li      -19.69035530     -5.47496367    152.35426331
Li       36.86876297      5.19825888      8.64734459
Li       32.22361755     21.25466537     -8.83323193
Li      -88.90393829   -150.41329956    -25.58128166
Li      -45.49345016    -21.31857491      0.14503056
Li      101.40008545     21.59687614    -37.72243500
Li       36.68700027    -82.52175140    101.37674713
Li       19.31686401    -18.64169312     84.57559204
Li       40.71025467      9.19639492      8.15915871
Li       37.30840302    105.26557159    -98.08150482
Li      -10.34601593     43.77989578     72.41457367
Li       40.68746948     -3.12574649     25.78577232
Li       88.46607208      5.08116531    131.11456299
Li       19.13327599     -1.52184510     75.55237579
Li       49.47193527    -11.53694820     -7.90941048
Li       10.67205334     17.35797501   -139.82936096
Li       23.58880615    -26.83470917     -8.78274918
Li       -5.62288332     50.73876953    105.40235138
Li      -11.38215160     66.64924622    126.83166504
Li      -28.57447433     15.24798870     43.22299576
Li      -37.09284210     66.43424225     -0.25693846
Li       19.14791679     29.03124046     17.56087494
Li      105.31992340     48.98589706    118.79944611
Li      -19.51483727    -93.54573822      8.84091949
Li      -44.82415390    -85.71237946    -55.23167419
Li       53.82110214    107.85734558     46.39344406
Li      -97.36259460    -47.45052338      8.36077404
Li        6.73135710    139.66638184     55.00030518
Li       71.36595154    117.30456543     12.74309826
Li      -23.96250725    -49.69118500    -42.49495697
Li        1.65834820    -32.35504150     33.94121170
Li      -10.83899498    -18.33790779      8.32788754
Li      -19.31722450     43.09988022     -4.65811062
Li      -23.66861534     13.95768356    -67.74488068
Li       54.18238068     20.52559090    -71.87371826
Li      -37.10966873     21.22775650     50.30347824
Li       15.61971474     10.21145630     79.58149719
Li        5.83889675     41.69867325    -50.70711899
Li      -24.01574135    -16.30803108     26.37716293
Li      -19.71562195    -11.76746368     17.72707558
Li       32.47490692     18.65616035     76.18023682
Li      -40.70881653     50.30044174    -84.79950714
Li       19.72359467     29.39925003    -72.20527649
Li      -27.72706032    -11.26045513    -37.40442657
Li       24.07590866     70.55490112     29.84168625
Li       62.63893127     -9.98736763     50.51626968
Li       88.18805695     10.77648449      8.79287052
Li       49.38014221     48.36630630    -42.79578018
Li       55.58871841     15.67817497     27.61082268
Li       15.83908558    -35.51009369    -72.45965576
Li       89.02170563     68.63310242    -75.84198761
Li      109.83712769     24.24690819    119.13356781
Li       54.05929947     46.91030121    122.55850983
Li       37.07947159     96.38407898    -21.60267258
Li      -41.25869751     -7.61475754     59.84515762
Li      -45.61001587     45.54614639    -50.69617462
Li      -24.03714752     19.57870483     42.75875473
Li      -15.79033375     19.81715584     17.99686241
Li      -84.37819672    -61.76863861    118.96972656
Li      -14.74432755      5.34540844      0.39267597
Li       32.49027634     52.14608002    -12.29310131
Li       75.55260468    148.73098755      4.30748367
Li       70.67596436    -37.18453979     93.11135101
Li       66.73669434     21.86516953     72.23082733
Li       28.06058884    -46.08082962    114.44599915
Li       14.66158390     66.58721161    -42.47885513
Li        6.14398861    -21.00778389     51.47588730
Li       23.46384621     39.75218582     41.96950150
Li       15.43034363    -53.36812973     63.31285858
Li      -14.71612263    -15.23234177    -54.76161957
Li       -2.50002480    -14.60783291      7.86670494
Li      -23.73620796     26.00171852     -8.91770554
Li       58.60941315     25.18920708     89.82354736
Li      -28.29504585     33.55113602      9.01695728
Li       32.46104431     12.81889725     50.57920074
Li      -10.80470848    142.12516785    -84.98056030
Li       88.82539368    -31.19561768     50.99494553
Li      -15.56561279     26.49962616     46.72377014
Li       28.51064301    -24.57246399      4.65083122
Li       -2.20746970     26.46748352    -17.23870850
Li       27.45542717     10.61605930      0.64229065
Li       80.22516632     65.66896820     63.81203842
Li       27.75105476    107.13990784     50.26893997
Li      -27.76623344   -128.74659729     46.78607941
Li       79.70141602      1.71811771     17.09473610
Li       32.14521790     87.66164398      8.80867767
Li       49.81406403    -17.35230637    -13.04969692
Li       28.27673340     -6.66703081     13.27159691
Li      -50.12193680     40.30413437     59.36724854
Li      -10.34071445    -20.05990982    -54.49942017
Li      -19.34926796     -5.33415937     46.69661713
Li      101.40846252     57.66182709     -0.20958324
Li        6.44431257     27.95861244    -93.25334167
Li       -1.67061508     -7.73757076    -81.26098633
Li       22.00498962      3.22515893    -53.19031906
Li      -49.87501144     40.75188828    -63.59597397
Li      122.69984436    116.23009491    109.49661255
Li       97.04304504     -0.82360053    -38.02596283
Li       66.71681976     42.57007980    164.44500732
Li      -33.07618332   -122.22473907     59.23957825
Li      -15.05079269     -3.81027222   -123.31156921
Li      -10.80381203     72.85820007     34.13465500
Li      -63.44191742     -5.42229700     50.57144165
Li      -28.26052475     45.35567093     54.97502518
Li      -41.45574188     25.66152763     24.56392097
Li       67.16133881     40.30005646     71.99166107
Li       45.35585785    -51.32468033     30.10022545
Li       88.20632935     67.64629364      8.60657024
Li       36.17845535     -0.84338057     46.86394119
Li       27.84796333    100.79997253    -92.96655273
Li       88.15008545     44.17887115     16.56929207
Li       97.17269135    -72.66722107     21.35059357
Li      118.79369354     66.47008514     67.67809296
Li       41.57809067      9.99030209    -38.51173401
Li       53.63206863     -7.12572622      3.43255734
Li       80.18933868     17.21522903     72.19386292
Li      -36.51588440     33.98731232    -37.67236710
Li      -44.24633789   -117.34279633      0.12654355
Li       49.56780243    -59.21182632     -4.13722134
Li       49.55205154     42.20697403    -76.12117767
Li      -49.41878510   -112.14706421     63.09457397
Li      -10.63338184    -50.07228088    -63.73428345
Li       27.94320679      7.84845352     41.96494675
Li       71.72602844    113.99633789    -13.29179859
Li      114.84241486     38.95296478     -0.36949825
Li        1.70389199    -34.28794479     43.03671265
Li       37.40606689      5.00845289      3.74931169
Li       88.88365173    -34.30411148     38.20564270
Li       -2.42775607    -63.11216736    144.26196289
Li       71.95174408    -21.28874588   -124.00173187
Li       27.83662033      1.59772658    136.10812378
Li       40.67771912     12.41769886     41.98714828
Li       62.22214127     53.48007584     72.24941254
Li       53.92907333     25.93643951   -105.91561127
Li       98.13221741     -6.57261944     90.01946259
Li      -15.50865078      8.02772999    -29.33347130
Li       45.78899765    -30.96420860     29.55295372
Li       27.72397232     -2.05545378    -44.07041168
Li     -101.61131287    -49.16916275    -50.47753906
Li      -61.82894516     49.56626129    105.79727936
Li       84.36476135    -35.17094803     -8.05947781
Li      -53.66530609    -80.48550415    131.19590759
Li       63.06290054     50.85148621     80.23264313
Li      -88.91754913     42.26691818    -24.59041023
Li     -114.24433899    -38.22739029      4.90945673
Li      -53.25418472      4.42801380     55.02575302
Li       66.94758606     25.33356667     88.92724609
Li      -24.10078812    -10.43774986     64.30653381
Li       35.90764618      4.51826620    -42.97751999
Li       62.83224869     22.57763481     50.81653976
Li      -45.03319168     12.89404678    -46.48967743
Li        2.16873837    -28.16258812     59.26318359
Li      -29.40603638     -2.53899097     53.41799927
Li       32.93484497    109.18123627     80.43486023
Li      -19.15246582     -1.92618787   -130.92864990
Li       88.81504059     39.28717422     12.96480846
Li      -10.92442989      3.69167471     -8.74683666
Li       -1.99709189    -11.38205242     13.54722214
Li      -49.03067780      5.10588884    156.57617188
Li       -2.34381986     33.40749359     -8.19868851
Li       41.33594131    -44.23457718    -55.48286057
Li       15.18581867    -44.52068710    -30.04731750
Li      -54.10873032     33.75228119    -42.60388947
Li       40.30006027     54.07967377    -42.38645554
Li      -31.97364044     38.29795837     47.21472931
Li       32.53694534     79.72126007     -8.47906113
Li      -15.25632668    -80.13751984      8.58012581
Li       10.52851772   -100.43978882     97.68216705
Li       23.84420586     -2.18677282     55.54455185
Li       23.60825348     84.99080658     -3.96557856
Li       88.48268127     68.32786560    -67.73826599
Li      -32.17351913    101.96767426     38.64144897
Li      -23.19981956      0.22517040     59.16337967
Li      -79.40222168      1.04478693     46.04037476
Li        1.92318988    -97.91593933    -33.46299362
Li       62.55319214    -28.19960594     25.10784721
Li      -10.87344933     12.23947239    -76.65200043
Li      -54.87416458    -27.44018745     -8.14561939
Li       66.99776459     27.57144928     -8.51319218
Li       11.14278603      5.46557283      3.66997957
Li      -15.78079700    -28.15681648     92.98133850
Li       58.75647354      9.98087978    -80.62099457
Li       58.81112289    -19.72656822     38.25288010
Li      -10.37374401     55.57595825    -21.44443512
Li       80.41558838     48.00971985     13.09448719
Li       58.24352646     89.84117889     33.82847595
Li      127.50803375     52.10645294     21.24771118
Li      -35.81997681     64.13762665    164.82800293
Li       28.18902397     77.58264160    101.86157227
Li       36.25513840     40.72468185    -51.01715851
Li      -23.85556984      7.59234571     67.49957275
Li      -10.60865402     25.17758751     72.46539307
Li       45.24915695      1.52759314     42.86795807
Li      100.00787354     96.60863495     87.03737640
Li       63.19300842    105.13806152   -148.89221191
Li       28.14090919    -52.29058838     37.60291290
Li        6.74689150      0.79108071    130.97927856
Li       71.45671082    105.03528595    -12.86451817
Li      -29.00761986    115.09499359      9.99633884
Li       42.02174759     36.98105240    118.97972870
Li       58.13983536    -15.13849831    127.08183289
Li      118.02646637    196.25715637    -32.85655594
Li       93.43544769    109.75286102     88.49864197
Li       28.52240181     95.77173615    131.05506897
Li       -2.24269748    -26.71132660     50.83295441
Li       -6.72956181      7.38839436    -17.56104088
Li      -32.14853668    -24.11867905     47.19623184
Li       -2.14288330    -20.33592796    -97.62740326
Li       14.81612778    -33.10330963    -17.55916405
Li       59.50166702    -83.39040375     48.07042694
Li      105.80133820     50.04088974      8.47630310
Li       38.84553146     36.49699020    -61.50574493
Li       36.80138397     53.37526703    173.90266418
Li       19.77157021    -55.01831436    -29.76119995
Li        5.92315340     66.25057983     67.03524017
Li       19.68644524    -76.10213470    -97.90920258
Li      -63.10869217    -96.15971375     84.42996979
Li      -10.05566692     82.22980499   -106.56932831
Li      -24.88163757     17.45434380    -76.52082062
Li        2.23712349     -9.85047340    -12.41578484
Li      -10.45255661     -8.64259529     76.32009888
Li       40.84946060     51.63714981     -5.03328228
Li        6.02886868     51.24121857    102.31892395
Li      -23.97182465    -81.89569092    -12.63907814
Li       -6.37401915    -39.93798828      4.11085367
Li       97.48142242     68.59270477     42.78295898
Li       -2.54353666    -93.63160706    -16.47776222
Li        1.79968584     56.04710007     85.13923645
Li       32.22849655    -33.07942581    100.76511383
Li       10.52241802     16.92714310    -34.19204330
Li       32.95993042      7.05885935     56.46794510
Li        6.16440439     30.65136528     75.67753601
Li       10.84679127    -28.10891533     72.17387390
Li       67.46385193     67.43338776      4.09131002
Li       10.46312237    116.79724121    -12.40669727
Li      -36.34241867    -11.19414234      5.03561592
Li       62.46661758     77.30445862    -25.62352371
Li      -27.45902443      0.92299014     20.97345734
Li       93.72081757     64.76433563    -39.41164398
Li       -2.89049768    -63.40298080    101.50003815
Li       37.05177689     48.27212906    -12.49469471
Li      -40.67817307      5.60671711    -13.21431160
Li       40.90494537    -93.62718964     59.42779160
Li      135.65396118     27.32401848      8.63977337
Li       -2.27746058    150.62487793    102.20860291
Li       11.07034969    -73.41333008     72.12727356
Li       -2.60930157     54.30882263     67.82432556
Li       71.63795471     92.82051086    -80.14108276
Li       45.84125519     59.92472076    -16.68170929
Li      -54.17115402     -8.71592522    -59.16619110
Li      -89.08588409    -32.92705536    -34.26937485
Li      -71.19559479     85.35825348    -80.53713226
Li      -54.16685104     48.50193787    -51.23242569
Li      -54.17326355   -107.94487000     42.23962402
Li       87.83107758     13.36502171     93.08148956
Li       49.76136780    -75.10419464    -67.73125458
Li       10.65487003    -55.57373810     84.10374451
Li       40.59650040     96.53043365     59.66268921
Li       -6.34349346    -42.80701828     72.16717529
Li       -6.28579950     22.91572571     59.27929306
Li      131.66058350     61.84978104     -0.55297285
Li       42.40741730     -2.33371401    -45.39710617
Li       41.20082092     36.76525497      4.12187529
Li       63.44734192     95.82498932     46.22606659
Li      105.79529572    -46.09419632     63.73574448
Li       83.95378876     42.38321686   -135.34892273
Li       40.85019302    -41.54734421    -63.43714523
Li       32.13710022     66.69298553    -76.94698334
Li        6.30516958     12.52167034     -4.08544970
P         0.13356039      7.42932034      2.05882192
S         0.07623107      6.30148792      0.33862740
S         0.38128957      6.39505672      3.81890726
S         1.71797132      8.72864056      1.96279037
S        -1.76252615      8.24726963      2.16332674
S         0.07623107      6.30148792      8.81652737
S         0.38128957      6.39505672     12.29680729
S         1.71797132      8.72864056     10.44069099
P         0.13356039      7.42932034     10.53672123
S        -1.76252615      8.24726963     10.64122677
S         1.71797132      8.72864056     18.91858864
P         0.13356039      7.42932034     19.01461983
S         0.07623107      6.30148792     17.29442787
S         0.38128957      6.39505672     20.77470589
S        -1.76252615      8.24726963     19.11912537
P         0.13356039      7.42932034     27.49251938
S         0.07623107      6.30148792     25.77232552
S         0.38128957      6.39505672     29.25260544
S         1.71797132      8.72864056     27.39648819
S        -1.76252615      8.24726963     27.59702492
S         0.38128957     15.44125652      3.81890726
S         1.71797132     17.77483940      1.96279037
P         0.13356039     16.47551918      2.05882192
S         0.07623107     15.34768772      0.33862740
S        -1.76252615     17.29347038      2.16332674
S         1.71797132     17.77483940     10.44069099
P         0.13356039     16.47551918     10.53672123
S         0.07623107     15.34768772      8.81652737
S         0.38128957     15.44125652     12.29680729
S        -1.76252615     17.29347038     10.64122677
S         0.07623107     15.34768772     17.29442787
S         0.38128957     15.44125652     20.77470589
S         1.71797132     17.77483940     18.91858864
P         0.13356039     16.47551918     19.01461983
S        -1.76252615     17.29347038     19.11912537
S         0.38128957     15.44125652     29.25260544
S         1.71797132     17.77483940     27.39648819
P         0.13356039     16.47551918     27.49251938
S         0.07623107     15.34768772     25.77232552
S        -1.76252615     17.29347038     27.59702492
P         0.13356039     25.52171898      2.05882192
S         0.07623107     24.39388657      0.33862740
S         0.38128957     24.48745537      3.81890726
S         1.71797132     26.82103920      1.96279037
S        -1.76252615     26.33966827      2.16332674
S         0.07623107     24.39388657      8.81652737
S         0.38128957     24.48745537     12.29680729
S         1.71797132     26.82103920     10.44069099
P         0.13356039     25.52171898     10.53672123
S        -1.76252615     26.33966827     10.64122677
S         1.71797132     26.82103920     18.91858864
P         0.13356039     25.52171898     19.01461983
S         0.07623107     24.39388657     17.29442787
S         0.38128957     24.48745537     20.77470589
S        -1.76252615     26.33966827     19.11912537
P         0.13356039     25.52171898     27.49251938
S         0.07623107     24.39388657     25.77232552
S         0.38128957     24.48745537     29.25260544
S         1.71797132     26.82103920     27.39648819
S        -1.76252615     26.33966827     27.59702492
S         0.38128957     33.53365326      3.81890726
S         1.71797132     35.86723709      1.96279037
P         0.13356039     34.56791687      2.05882192
S         0.07623107     33.44008636      0.33862740
S        -1.76252615     35.38586426      2.16332674
S         1.71797132     35.86723709     10.44069099
P         0.13356039     34.56791687     10.53672123
S         0.07623107     33.44008636      8.81652737
S         0.38128957     33.53365326     12.29680729
S        -1.76252615     35.38586426     10.64122677
S         0.07623107     33.44008636     17.29442787
S         0.38128957     33.53365326     20.77470589
S         1.71797132     35.86723709     18.91858864
P         0.13356039     34.56791687     19.01461983
S        -1.76252615     35.38586426     19.11912537
S         0.38128957     33.53365326     29.25260544
S         1.71797132     35.86723709     27.39648819
P         0.13356039     34.56791687     27.49251938
S         0.07623107     33.44008636     25.77232552
S        -1.76252615     35.38586426     27.59702492
S         6.88097382      8.24726963      2.16332674
P         8.77706051      7.42932034      2.05882192
S         8.71973038      6.30148792      0.33862740
S         9.02478981      6.39505672      3.81890726
S        10.36147118      8.72864056      1.96279037
S         6.88097382      8.24726963     10.64122677
S         8.71973038      6.30148792      8.81652737
S         9.02478981      6.39505672     12.29680729
S        10.36147118      8.72864056     10.44069099
P         8.77706051      7.42932034     10.53672123
S         6.88097382      8.24726963     19.11912537
S        10.36147118      8.72864056     18.91858864
P         8.77706051      7.42932034     19.01461983
S         8.71973038      6.30148792     17.29442787
S         9.02478981      6.39505672     20.77470589
S         6.88097382      8.24726963     27.59702492
P         8.77706051      7.42932034     27.49251938
S         8.71973038      6.30148792     25.77232552
S         9.02478981      6.39505672     29.25260544
S        10.36147118      8.72864056     27.39648819
S         6.88097382     17.29347038      2.16332674
S         9.02478981     15.44125652      3.81890726
S        10.36147118     17.77483940      1.96279037
P         8.77706051     16.47551918      2.05882192
S         8.71973038     15.34768772      0.33862740
S         6.88097382     17.29347038     10.64122677
S        10.36147118     17.77483940     10.44069099
P         8.77706051     16.47551918     10.53672123
S         8.71973038     15.34768772      8.81652737
S         9.02478981     15.44125652     12.29680729
S         6.88097382     17.29347038     19.11912537
S         8.71973038     15.34768772     17.29442787
S         9.02478981     15.44125652     20.77470589
S        10.36147118     17.77483940     18.91858864
P         8.77706051     16.47551918     19.01461983
S        10.36147118     17.77483940     27.39648819
S         8.71973038     15.34768772     25.77232552
S         6.88097382     17.29347038     27.59702492
P         8.77706051     16.47551918     27.49251938
S         9.02478981     15.44125652     29.25260544
S        10.36147118     26.82103920      1.96279037
S         6.88097382     26.33966827      2.16332674
S         8.71973038     24.39388657      0.33862740
S         9.02478981     24.48745537      3.81890726
P         8.77706051     25.52171898      2.05882192
S         6.88097382     26.33966827     10.64122677
S        10.36147118     26.82103920     10.44069099
S         9.02478981     24.48745537     12.29680729
P         8.77706051     25.52171898     10.53672123
S         8.71973038     24.39388657      8.81652737
S         6.88097382     26.33966827     19.11912537
S         8.71973038     24.39388657     17.29442787
S         9.02478981     24.48745537     20.77470589
S        10.36147118     26.82103920     18.91858864
P         8.77706051     25.52171898     19.01461983
S         6.88097382     26.33966827     27.59702492
S        10.36147118     26.82103920     27.39648819
S         8.71973038     24.39388657     25.77232552
P         8.77706051     25.52171898     27.49251938
S         9.02478981     24.48745537     29.25260544
P         8.77706051     34.56791687      2.05882192
S         6.88097382     35.38586426      2.16332674
S        10.36147118     35.86723709      1.96279037
S         9.02478981     33.53365326      3.81890726
S         8.71973038     33.44008636      0.33862740
S         8.71973038     33.44008636      8.81652737
S         9.02478981     33.53365326     12.29680729
P         8.77706051     34.56791687     10.53672123
S         6.88097382     35.38586426     10.64122677
S        10.36147118     35.86723709     10.44069099
S        10.36147118     35.86723709     18.91858864
S         9.02478981     33.53365326     20.77470589
S         6.88097382     35.38586426     19.11912537
P         8.77706051     34.56791687     19.01461983
S         8.71973038     33.44008636     17.29442787
S        10.36147118     35.86723709     27.39648819
S         8.71973038     33.44008636     25.77232552
S         6.88097382     35.38586426     27.59702492
P         8.77706051     34.56791687     27.49251938
S         9.02478981     33.53365326     29.25260544
P        17.42055893      7.42932034      2.05882192
S        19.00496864      8.72864056      1.96279037
S        17.36323166      6.30148792      0.33862740
S        17.66828918      6.39505672      3.81890726
S        15.52447224      8.24726963      2.16332674
S        17.66828918      6.39505672     12.29680729
S        17.36323166      6.30148792      8.81652737
S        19.00496864      8.72864056     10.44069099
P        17.42055893      7.42932034     10.53672123
S        15.52447224      8.24726963     10.64122677
S        17.66828918      6.39505672     20.77470589
P        17.42055893      7.42932034     19.01461983
S        19.00496864      8.72864056     18.91858864
S        17.36323166      6.30148792     17.29442787
S        15.52447224      8.24726963     19.11912537
P        17.42055893      7.42932034     27.49251938
S        17.66828918      6.39505672     29.25260544
S        17.36323166      6.30148792     25.77232552
S        19.00496864      8.72864056     27.39648819
S        15.52447224      8.24726963     27.59702492
S        17.36323166     15.34768772      0.33862740
S        17.66828918     15.44125652      3.81890726
P        17.42055893     16.47551918      2.05882192
S        19.00496864     17.77483940      1.96279037
S        15.52447224     17.29347038      2.16332674
S        17.36323166     15.34768772      8.81652737
S        19.00496864     17.77483940     10.44069099
P        17.42055893     16.47551918     10.53672123
S        17.66828918     15.44125652     12.29680729
S        15.52447224     17.29347038     10.64122677
P        17.42055893     16.47551918     19.01461983
S        19.00496864     17.77483940     18.91858864
S        17.36323166     15.34768772     17.29442787
S        17.66828918     15.44125652     20.77470589
S        15.52447224     17.29347038     19.11912537
S        17.66828918     15.44125652     29.25260544
S        17.36323166     15.34768772     25.77232552
S        19.00496864     17.77483940     27.39648819
P        17.42055893     16.47551918     27.49251938
S        15.52447224     17.29347038     27.59702492
P        17.42055893     25.52171898      2.05882192
S        19.00496864     26.82103920      1.96279037
S        17.36323166     24.39388657      0.33862740
S        17.66828918     24.48745537      3.81890726
S        15.52447224     26.33966827      2.16332674
S        17.66828918     24.48745537     12.29680729
S        17.36323166     24.39388657      8.81652737
S        19.00496864     26.82103920     10.44069099
P        17.42055893     25.52171898     10.53672123
S        15.52447224     26.33966827     10.64122677
S        17.66828918     24.48745537     20.77470589
P        17.42055893     25.52171898     19.01461983
S        19.00496864     26.82103920     18.91858864
S        17.36323166     24.39388657     17.29442787
S        15.52447224     26.33966827     19.11912537
P        17.42055893     25.52171898     27.49251938
S        17.66828918     24.48745537     29.25260544
S        17.36323166     24.39388657     25.77232552
S        19.00496864     26.82103920     27.39648819
S        15.52447224     26.33966827     27.59702492
S        17.36323166     33.44008636      0.33862740
S        17.66828918     33.53365326      3.81890726
P        17.42055893     34.56791687      2.05882192
S        19.00496864     35.86723709      1.96279037
S        15.52447224     35.38586426      2.16332674
S        17.36323166     33.44008636      8.81652737
S        19.00496864     35.86723709     10.44069099
P        17.42055893     34.56791687     10.53672123
S        17.66828918     33.53365326     12.29680729
S        15.52447224     35.38586426     10.64122677
P        17.42055893     34.56791687     19.01461983
S        19.00496864     35.86723709     18.91858864
S        17.36323166     33.44008636     17.29442787
S        17.66828918     33.53365326     20.77470589
S        15.52447224     35.38586426     19.11912537
S        17.66828918     33.53365326     29.25260544
S        17.36323166     33.44008636     25.77232552
S        19.00496864     35.86723709     27.39648819
P        17.42055893     34.56791687     27.49251938
S        15.52447224     35.38586426     27.59702492
S        24.16797256      8.24726963      2.16332674
P        26.06406021      7.42932034      2.05882192
S        27.64846992      8.72864056      1.96279037
S        26.00673103      6.30148792      0.33862740
S        26.31178856      6.39505672      3.81890726
S        24.16797256      8.24726963     10.64122677
S        26.31178856      6.39505672     12.29680729
S        26.00673103      6.30148792      8.81652737
S        27.64846992      8.72864056     10.44069099
P        26.06406021      7.42932034     10.53672123
S        24.16797256      8.24726963     19.11912537
S        26.31178856      6.39505672     20.77470589
P        26.06406021      7.42932034     19.01461983
S        27.64846992      8.72864056     18.91858864
S        26.00673103      6.30148792     17.29442787
S        24.16797256      8.24726963     27.59702492
P        26.06406021      7.42932034     27.49251938
S        26.31178856      6.39505672     29.25260544
S        26.00673103      6.30148792     25.77232552
S        27.64846992      8.72864056     27.39648819
S        24.16797256     17.29347038      2.16332674
S        26.00673103     15.34768772      0.33862740
S        26.31178856     15.44125652      3.81890726
P        26.06406021     16.47551918      2.05882192
S        27.64846992     17.77483940      1.96279037
S        24.16797256     17.29347038     10.64122677
S        26.00673103     15.34768772      8.81652737
S        27.64846992     17.77483940     10.44069099
P        26.06406021     16.47551918     10.53672123
S        26.31178856     15.44125652     12.29680729
S        24.16797256     17.29347038     19.11912537
P        26.06406021     16.47551918     19.01461983
S        27.64846992     17.77483940     18.91858864
S        26.00673103     15.34768772     17.29442787
S        26.31178856     15.44125652     20.77470589
S        27.64846992     17.77483940     27.39648819
S        26.00673103     15.34768772     25.77232552
S        24.16797256     17.29347038     27.59702492
P        26.06406021     16.47551918     27.49251938
S        26.31178856     15.44125652     29.25260544
S        24.16797256     26.33966827      2.16332674
S        27.64846992     26.82103920      1.96279037
S        26.00673103     24.39388657      0.33862740
S        26.31178856     24.48745537      3.81890726
P        26.06406021     25.52171898      2.05882192
S        24.16797256     26.33966827     10.64122677
S        27.64846992     26.82103920     10.44069099
S        26.00673103     24.39388657      8.81652737
P        26.06406021     25.52171898     10.53672123
S        26.31178856     24.48745537     12.29680729
S        24.16797256     26.33966827     19.11912537
S        27.64846992     26.82103920     18.91858864
S        26.00673103     24.39388657     17.29442787
S        26.31178856     24.48745537     20.77470589
P        26.06406021     25.52171898     19.01461983
S        26.00673103     24.39388657     25.77232552
S        24.16797256     26.33966827     27.59702492
S        27.64846992     26.82103920     27.39648819
P        26.06406021     25.52171898     27.49251938
S        26.31178856     24.48745537     29.25260544
S        26.31178856     33.53365326      3.81890726
P        26.06406021     34.56791687      2.05882192
S        24.16797256     35.38586426      2.16332674
S        27.64846992     35.86723709      1.96279037
S        26.00673103     33.44008636      0.33862740
S        27.64846992     35.86723709     10.44069099
S        26.31178856     33.53365326     12.29680729
P        26.06406021     34.56791687     10.53672123
S        24.16797256     35.38586426     10.64122677
S        26.00673103     33.44008636      8.81652737
S        27.64846992     35.86723709     18.91858864
S        26.00673103     33.44008636     17.29442787
S        26.31178856     33.53365326     20.77470589
S        24.16797256     35.38586426     19.11912537
P        26.06406021     34.56791687     19.01461983
S        27.64846992     35.86723709     27.39648819
S        26.00673103     33.44008636     25.77232552
S        24.16797256     35.38586426     27.59702492
P        26.06406021     34.56791687     27.49251938
S        26.31178856     33.53365326     29.25260544
S         8.59868145      2.55062222      4.59899426
P         8.62425995      1.43142736      6.32084656
S         7.03375053      0.12948570      6.23224068
S         8.50094318      2.54693842      8.04579258
S        10.49157810      0.53820163      6.38177395
P         8.62425995      1.43142736     14.79874611
S         7.03375053      0.12948570     14.71013927
S         8.50094318      2.54693842     16.52369308
S         8.59868145      2.55062222     13.07689476
S        10.49157810      0.53820163     14.85967350
S         8.50094318      2.54693842     25.00159073
S         8.59868145      2.55062222     21.55479431
P         8.62425995      1.43142736     23.27664566
S         7.03375053      0.12948570     23.18803978
S        10.49157810      0.53820163     23.33757401
S         8.59868145      2.55062222     30.03269196
P         8.62425995      1.43142736     31.75454521
S         7.03375053      0.12948570     31.66593933
S         8.50094318      2.54693842     33.47949219
S        10.49157810      0.53820163     31.81547165
S         7.03375053      9.17568493      6.23224068
S         8.50094318     11.59313869      8.04579258
S         8.59868145     11.59682274      4.59899426
P         8.62425995     10.47762680      6.32084656
S        10.49157810      9.58440113      6.38177395
S         8.50094318     11.59313869     16.52369308
S         8.59868145     11.59682274     13.07689476
P         8.62425995     10.47762680     14.79874611
S         7.03375053      9.17568493     14.71013927
S        10.49157810      9.58440113     14.85967350
P         8.62425995     10.47762680     23.27664566
S         7.03375053      9.17568493     23.18803978
S         8.50094318     11.59313869     25.00159073
S         8.59868145     11.59682274     21.55479431
S        10.49157810      9.58440113     23.33757401
S         7.03375053      9.17568493     31.66593933
S         8.50094318     11.59313869     33.47949219
S         8.59868145     11.59682274     30.03269196
P         8.62425995     10.47762680     31.75454521
S        10.49157810      9.58440113     31.81547165
S         8.59868145     20.64302254      4.59899426
P         8.62425995     19.52382660      6.32084656
S         7.03375053     18.22188568      6.23224068
S         8.50094318     20.63933945      8.04579258
S        10.49157810     18.63059998      6.38177395
P         8.62425995     19.52382660     14.79874611
S         7.03375053     18.22188568     14.71013927
S         8.50094318     20.63933945     16.52369308
S         8.59868145     20.64302254     13.07689476
S        10.49157810     18.63059998     14.85967350
S         8.50094318     20.63933945     25.00159073
S         8.59868145     20.64302254     21.55479431
P         8.62425995     19.52382660     23.27664566
S         7.03375053     18.22188568     23.18803978
S        10.49157810     18.63059998     23.33757401
S         8.59868145     20.64302254     30.03269196
P         8.62425995     19.52382660     31.75454521
S         7.03375053     18.22188568     31.66593933
S         8.50094318     20.63933945     33.47949219
S        10.49157810     18.63059998     31.81547165
S         7.03375053     27.26808357      6.23224068
S         8.50094318     29.68553925      8.04579258
S         8.59868145     29.68922234      4.59899426
P         8.62425995     28.57002640      6.32084656
S        10.49157810     27.67679977      6.38177395
S         8.50094318     29.68553925     16.52369308
S         8.59868145     29.68922234     13.07689476
P         8.62425995     28.57002640     14.79874611
S         7.03375053     27.26808357     14.71013927
S        10.49157810     27.67679977     14.85967350
P         8.62425995     28.57002640     23.27664566
S         7.03375053     27.26808357     23.18803978
S         8.50094318     29.68553925     25.00159073
S         8.59868145     29.68922234     21.55479431
S        10.49157810     27.67679977     23.33757401
S         7.03375053     27.26808357     31.66593933
S         8.50094318     29.68553925     33.47949219
S         8.59868145     29.68922234     30.03269196
P         8.62425995     28.57002640     31.75454521
S        10.49157810     27.67679977     31.81547165
S        19.13507652      0.53820163      6.38177395
S        17.24217987      2.55062222      4.59899426
P        17.26775932      1.43142736      6.32084656
S        15.67725086      0.12948570      6.23224068
S        17.14444351      2.54693842      8.04579258
S        19.13507652      0.53820163     14.85967350
P        17.26775932      1.43142736     14.79874611
S        15.67725086      0.12948570     14.71013927
S        17.14444351      2.54693842     16.52369308
S        17.24217987      2.55062222     13.07689476
S        19.13507652      0.53820163     23.33757401
S        17.14444351      2.54693842     25.00159073
S        17.24217987      2.55062222     21.55479431
P        17.26775932      1.43142736     23.27664566
S        15.67725086      0.12948570     23.18803978
S        19.13507652      0.53820163     31.81547165
S        17.24217987      2.55062222     30.03269196
P        17.26775932      1.43142736     31.75454521
S        15.67725086      0.12948570     31.66593933
S        17.14444351      2.54693842     33.47949219
S        19.13507652      9.58440113      6.38177395
S        15.67725086      9.17568493      6.23224068
S        17.14444351     11.59313869      8.04579258
S        17.24217987     11.59682274      4.59899426
P        17.26775932     10.47762680      6.32084656
S        19.13507652      9.58440113     14.85967350
S        17.14444351     11.59313869     16.52369308
S        17.24217987     11.59682274     13.07689476
P        17.26775932     10.47762680     14.79874611
S        15.67725086      9.17568493     14.71013927
S        19.13507652      9.58440113     23.33757401
P        17.26775932     10.47762680     23.27664566
S        15.67725086      9.17568493     23.18803978
S        17.14444351     11.59313869     25.00159073
S        17.24217987     11.59682274     21.55479431
S        17.24217987     11.59682274     30.03269196
S        19.13507652      9.58440113     31.81547165
S        17.14444351     11.59313869     33.47949219
P        17.26775932     10.47762680     31.75454521
S        15.67725086      9.17568493     31.66593933
S        15.67725086     18.22188568      6.23224068
S        19.13507652     18.63059998      6.38177395
S        17.14444351     20.63933945      8.04579258
P        17.26775932     19.52382660      6.32084656
S        17.24217987     20.64302254      4.59899426
S        19.13507652     18.63059998     14.85967350
S        15.67725086     18.22188568     14.71013927
S        17.24217987     20.64302254     13.07689476
S        17.14444351     20.63933945     16.52369308
P        17.26775932     19.52382660     14.79874611
S        19.13507652     18.63059998     23.33757401
S        15.67725086     18.22188568     23.18803978
S        17.24217987     20.64302254     21.55479431
S        17.14444351     20.63933945     25.00159073
P        17.26775932     19.52382660     23.27664566
P        17.26775932     19.52382660     31.75454521
S        19.13507652     18.63059998     31.81547165
S        15.67725086     18.22188568     31.66593933
S        17.24217987     20.64302254     30.03269196
S        17.14444351     20.63933945     33.47949219
S        17.14444351     29.68553925      8.04579258
P        17.26775932     28.57002640      6.32084656
S        19.13507652     27.67679977      6.38177395
S        15.67725086     27.26808357      6.23224068
S        17.24217987     29.68922234      4.59899426
S        17.24217987     29.68922234     13.07689476
P        17.26775932     28.57002640     14.79874611
S        19.13507652     27.67679977     14.85967350
S        17.14444351     29.68553925     16.52369308
S        15.67725086     27.26808357     14.71013927
S        15.67725086     27.26808357     23.18803978
S        17.24217987     29.68922234     21.55479431
S        17.14444351     29.68553925     25.00159073
S        19.13507652     27.67679977     23.33757401
P        17.26775932     28.57002640     23.27664566
S        17.24217987     29.68922234     30.03269196
S        19.13507652     27.67679977     31.81547165
S        17.14444351     29.68553925     33.47949219
P        17.26775932     28.57002640     31.75454521
S        15.67725086     27.26808357     31.66593933
S        25.88568115      2.55062222      4.59899426
S        25.78794289      2.54693842      8.04579258
P        25.91125870      1.43142736      6.32084656
S        24.32075119      0.12948570      6.23224068
S        27.77857590      0.53820163      6.38177395
S        24.32075119      0.12948570     14.71013927
S        25.78794289      2.54693842     16.52369308
P        25.91125870      1.43142736     14.79874611
S        25.88568115      2.55062222     13.07689476
S        27.77857590      0.53820163     14.85967350
S        24.32075119      0.12948570     23.18803978
S        25.88568115      2.55062222     21.55479431
S        25.78794289      2.54693842     25.00159073
P        25.91125870      1.43142736     23.27664566
S        27.77857590      0.53820163     23.33757401
P        25.91125870      1.43142736     31.75454521
S        25.88568115      2.55062222     30.03269196
S        24.32075119      0.12948570     31.66593933
S        25.78794289      2.54693842     33.47949219
S        27.77857590      0.53820163     31.81547165
P        25.91125870     10.47762680      6.32084656
S        24.32075119      9.17568493      6.23224068
S        25.88568115     11.59682274      4.59899426
S        25.78794289     11.59313869      8.04579258
S        27.77857590      9.58440113      6.38177395
S        25.78794289     11.59313869     16.52369308
P        25.91125870     10.47762680     14.79874611
S        25.88568115     11.59682274     13.07689476
S        24.32075119      9.17568493     14.71013927
S        27.77857590      9.58440113     14.85967350
S        25.88568115     11.59682274     21.55479431
S        25.78794289     11.59313869     25.00159073
P        25.91125870     10.47762680     23.27664566
S        24.32075119      9.17568493     23.18803978
S        27.77857590      9.58440113     23.33757401
S        24.32075119      9.17568493     31.66593933
S        25.78794289     11.59313869     33.47949219
P        25.91125870     10.47762680     31.75454521
S        25.88568115     11.59682274     30.03269196
S        27.77857590      9.58440113     31.81547165
S        25.88568115     20.64302254      4.59899426
S        25.78794289     20.63933945      8.04579258
P        25.91125870     19.52382660      6.32084656
S        24.32075119     18.22188568      6.23224068
S        27.77857590     18.63059998      6.38177395
S        24.32075119     18.22188568     14.71013927
S        25.78794289     20.63933945     16.52369308
P        25.91125870     19.52382660     14.79874611
S        25.88568115     20.64302254     13.07689476
S        27.77857590     18.63059998     14.85967350
S        24.32075119     18.22188568     23.18803978
S        25.88568115     20.64302254     21.55479431
S        25.78794289     20.63933945     25.00159073
P        25.91125870     19.52382660     23.27664566
S        27.77857590     18.63059998     23.33757401
P        25.91125870     19.52382660     31.75454521
S        25.88568115     20.64302254     30.03269196
S        24.32075119     18.22188568     31.66593933
S        25.78794289     20.63933945     33.47949219
S        27.77857590     18.63059998     31.81547165
P        25.91125870     28.57002640      6.32084656
S        24.32075119     27.26808357      6.23224068
S        25.88568115     29.68922234      4.59899426
S        25.78794289     29.68553925      8.04579258
S        27.77857590     27.67679977      6.38177395
S        25.78794289     29.68553925     16.52369308
P        25.91125870     28.57002640     14.79874611
S        25.88568115     29.68922234     13.07689476
S        24.32075119     27.26808357     14.71013927
S        27.77857590     27.67679977     14.85967350
S        25.88568115     29.68922234     21.55479431
S        25.78794289     29.68553925     25.00159073
P        25.91125870     28.57002640     23.27664566
S        24.32075119     27.26808357     23.18803978
S        27.77857590     27.67679977     23.33757401
S        24.32075119     27.26808357     31.66593933
S        25.78794289     29.68553925     33.47949219
P        25.91125870     28.57002640     31.75454521
S        25.88568115     29.68922234     30.03269196
S        27.77857590     27.67679977     31.81547165
S         1.84807801      0.53820163      6.38177395
S        -0.04481757      2.55062222      4.59899426
S        -0.14255774      2.54693842      8.04579258
P        -0.01924002      1.43142736      6.32084656
S        -1.60975122      0.12948570      6.23224068
S         1.84807801      0.53820163     14.85967350
S        -1.60975122      0.12948570     14.71013927
S        -0.14255774      2.54693842     16.52369308
P        -0.01924002      1.43142736     14.79874611
S        -0.04481757      2.55062222     13.07689476
S         1.84807801      0.53820163     23.33757401
S        -1.60975122      0.12948570     23.18803978
S        -0.04481757      2.55062222     21.55479431
S        -0.14255774      2.54693842     25.00159073
P        -0.01924002      1.43142736     23.27664566
S         1.84807801      0.53820163     31.81547165
P        -0.01924002      1.43142736     31.75454521
S        -0.04481757      2.55062222     30.03269196
S        -1.60975122      0.12948570     31.66593933
S        -0.14255774      2.54693842     33.47949219
S         1.84807801      9.58440113      6.38177395
P        -0.01924002     10.47762680      6.32084656
S        -1.60975122      9.17568493      6.23224068
S        -0.04481757     11.59682274      4.59899426
S        -0.14255774     11.59313869      8.04579258
S         1.84807801      9.58440113     14.85967350
S        -0.14255774     11.59313869     16.52369308
P        -0.01924002     10.47762680     14.79874611
S        -0.04481757     11.59682274     13.07689476
S        -1.60975122      9.17568493     14.71013927
S         1.84807801      9.58440113     23.33757401
S        -0.04481757     11.59682274     21.55479431
S        -0.14255774     11.59313869     25.00159073
P        -0.01924002     10.47762680     23.27664566
S        -1.60975122      9.17568493     23.18803978
S        34.52917862     11.59682274     30.03269196
S        36.42207718      9.58440113     31.81547165
S        34.43143845     11.59313869     33.47949219
P        34.55475998     10.47762680     31.75454521
S        32.96424866      9.17568493     31.66593933
S        32.96424866     18.22188568      6.23224068
S        36.42207718     18.63059998      6.38177395
S        34.43143845     20.63933945      8.04579258
P        34.55475998     19.52382660      6.32084656
S        34.52917862     20.64302254      4.59899426
S         1.84807801     18.63059998     14.85967350
S        -0.04481757     20.64302254     13.07689476
S        -0.14255774     20.63933945     16.52369308
S        -1.60975122     18.22188568     14.71013927
P        -0.01924002     19.52382660     14.79874611
S        34.43143845     20.63933945     25.00159073
S        36.42207718     18.63059998     23.33757401
S        34.52917862     20.64302254     21.55479431
S        32.96424866     18.22188568     23.18803978
P        34.55475998     19.52382660     23.27664566
S         1.84807801     18.63059998     31.81547165
S        -1.60975122     18.22188568     31.66593933
S        -0.04481757     20.64302254     30.03269196
P        -0.01924002     19.52382660     31.75454521
S        -0.14255774     20.63933945     33.47949219
S        34.43143845     29.68553925      8.04579258
S        36.42207718     27.67679977      6.38177395
S        32.96424866     27.26808357      6.23224068
P        34.55475998     28.57002640      6.32084656
S        34.52917862     29.68922234      4.59899426
S        34.52917862     29.68922234     13.07689476
P        34.55475998     28.57002640     14.79874611
S        36.42207718     27.67679977     14.85967350
S        34.43143845     29.68553925     16.52369308
S        32.96424866     27.26808357     14.71013927
S        32.96424866     27.26808357     23.18803978
S        34.43143845     29.68553925     25.00159073
S        36.42207718     27.67679977     23.33757401
P        34.55475998     28.57002640     23.27664566
S        34.52917862     29.68922234     21.55479431
S        34.52917862     29.68922234     30.03269196
S        36.42207718     27.67679977     31.81547165
S        34.43143845     29.68553925     33.47949219
P        34.55475998     28.57002640     31.75454521
S        32.96424866     27.26808357     31.66593933
S         2.55707860      3.72702479      2.16970515
S         4.68690920      1.85451043      3.81615973
S         4.40876293      1.79732180      0.33176979
P         4.44928074      2.90685177      2.06477547
S         6.03877926      4.20367098      1.98782718
S         4.40876293      1.79732180      8.80966949
S         2.55707860      3.72702479     10.64760494
P         4.44928074      2.90685177     10.54267406
S         6.03877926      4.20367098     10.46572590
S         4.68690920      1.85451043     12.29405975
S         6.03877926      4.20367098     18.94362450
S         2.55707860      3.72702479     19.12550545
S         4.68690920      1.85451043     20.77195930
S         4.40876293      1.79732180     17.28756714
P         4.44928074      2.90685177     19.02057266
S         4.40876293      1.79732180     25.76546860
S         2.55707860      3.72702479     27.60340500
P         4.44928074      2.90685177     27.49847412
S         6.03877926      4.20367098     27.42152786
S         4.68690920      1.85451043     29.24985886
P         4.44928074     11.95305157      2.06477547
S         6.03877926     13.24987030      1.98782718
S         2.55707860     12.77322483      2.16970515
S         4.68690920     10.90070915      3.81615973
S         4.40876293     10.84352207      0.33176979
S         6.03877926     13.24987030     10.46572590
S         4.68690920     10.90070915     12.29405975
S         4.40876293     10.84352207      8.80966949
S         2.55707860     12.77322483     10.64760494
P         4.44928074     11.95305157     10.54267406
S         4.40876293     10.84352207     17.28756714
P         4.44928074     11.95305157     19.02057266
S         6.03877926     13.24987030     18.94362450
S         2.55707860     12.77322483     19.12550545
S         4.68690920     10.90070915     20.77195930
P         4.44928074     11.95305157     27.49847412
S         6.03877926     13.24987030     27.42152786
S         4.68690920     10.90070915     29.24985886
S         4.40876293     10.84352207     25.76546860
S         2.55707860     12.77322483     27.60340500
S         2.55707860     21.81942558      2.16970515
S         4.68690920     19.94691086      3.81615973
S         4.40876293     19.88971901      0.33176979
P         4.44928074     20.99925041      2.06477547
S         6.03877926     22.29607010      1.98782718
S         4.40876293     19.88971901      8.80966949
S         2.55707860     21.81942558     10.64760494
P         4.44928074     20.99925041     10.54267406
S         6.03877926     22.29607010     10.46572590
S         4.68690920     19.94691086     12.29405975
S         6.03877926     22.29607010     18.94362450
S         2.55707860     21.81942558     19.12550545
S         4.68690920     19.94691086     20.77195930
S         4.40876293     19.88971901     17.28756714
P         4.44928074     20.99925041     19.02057266
S         4.40876293     19.88971901     25.76546860
S         2.55707860     21.81942558     27.60340500
P         4.44928074     20.99925041     27.49847412
S         6.03877926     22.29607010     27.42152786
S         4.68690920     19.94691086     29.24985886
P         4.44928074     30.04545021      2.06477547
S         6.03877926     31.34226990      1.98782718
S         2.55707860     30.86562538      2.16970515
S         4.68690920     28.99310875      3.81615973
S         4.40876293     28.93592072      0.33176979
S         6.03877926     31.34226990     10.46572590
S         4.68690920     28.99310875     12.29405975
S         4.40876293     28.93592072      8.80966949
S         2.55707860     30.86562538     10.64760494
P         4.44928074     30.04545021     10.54267406
S         4.40876293     28.93592072     17.28756714
P         4.44928074     30.04545021     19.02057266
S         6.03877926     31.34226990     18.94362450
S         2.55707860     30.86562538     19.12550545
S         4.68690920     28.99310875     20.77195930
P         4.44928074     30.04545021     27.49847412
S         6.03877926     31.34226990     27.42152786
S         4.68690920     28.99310875     29.24985886
S         4.40876293     28.93592072     25.76546860
S         2.55707860     30.86562538     27.60340500
S        11.20057869      3.72702479      2.16970515
S        13.33041000      1.85451043      3.81615973
S        13.05226326      1.79732180      0.33176979
P        13.09278011      2.90685177      2.06477547
S        14.68227959      4.20367098      1.98782718
S        13.05226326      1.79732180      8.80966949
S        11.20057869      3.72702479     10.64760494
P        13.09278011      2.90685177     10.54267406
S        14.68227959      4.20367098     10.46572590
S        13.33041000      1.85451043     12.29405975
S        14.68227959      4.20367098     18.94362450
S        11.20057869      3.72702479     19.12550545
S        13.33041000      1.85451043     20.77195930
S        13.05226326      1.79732180     17.28756714
P        13.09278011      2.90685177     19.02057266
S        13.05226326      1.79732180     25.76546860
S        11.20057869      3.72702479     27.60340500
P        13.09278011      2.90685177     27.49847412
S        14.68227959      4.20367098     27.42152786
S        13.33041000      1.85451043     29.24985886
P        13.09278011     11.95305157      2.06477547
S        14.68227959     13.24987030      1.98782718
S        11.20057869     12.77322483      2.16970515
S        13.33041000     10.90070915      3.81615973
S        13.05226326     10.84352207      0.33176979
S        14.68227959     13.24987030     10.46572590
S        13.33041000     10.90070915     12.29405975
S        13.05226326     10.84352207      8.80966949
S        11.20057869     12.77322483     10.64760494
P        13.09278011     11.95305157     10.54267406
S        13.05226326     10.84352207     17.28756714
P        13.09278011     11.95305157     19.02057266
S        14.68227959     13.24987030     18.94362450
S        11.20057869     12.77322483     19.12550545
S        13.33041000     10.90070915     20.77195930
S        13.05226326     10.84352207     25.76546860
S        13.33041000     10.90070915     29.24985886
S        11.20057869     12.77322483     27.60340500
P        13.09278011     11.95305157     27.49847412
S        14.68227959     13.24987030     27.42152786
S        13.05226326     19.88971901      0.33176979
S        13.33041000     19.94691086      3.81615973
P        13.09278011     20.99925041      2.06477547
S        11.20057869     21.81942558      2.16970515
S        14.68227959     22.29607010      1.98782718
S        14.68227959     22.29607010     10.46572590
S        13.33041000     19.94691086     12.29405975
S        13.05226326     19.88971901      8.80966949
P        13.09278011     20.99925041     10.54267406
S        11.20057869     21.81942558     10.64760494
S        11.20057869     21.81942558     19.12550545
S        14.68227959     22.29607010     18.94362450
P        13.09278011     20.99925041     19.02057266
S        13.05226326     19.88971901     17.28756714
S        13.33041000     19.94691086     20.77195930
P        13.09278011     20.99925041     27.49847412
S        13.33041000     19.94691086     29.24985886
S        11.20057869     21.81942558     27.60340500
S        14.68227959     22.29607010     27.42152786
S        13.05226326     19.88971901     25.76546860
S        13.05226326     28.93592072      0.33176979
S        13.33041000     28.99310875      3.81615973
S        11.20057869     30.86562538      2.16970515
S        14.68227959     31.34226990      1.98782718
P        13.09278011     30.04545021      2.06477547
S        13.05226326     28.93592072      8.80966949
S        13.33041000     28.99310875     12.29405975
P        13.09278011     30.04545021     10.54267406
S        11.20057869     30.86562538     10.64760494
S        14.68227959     31.34226990     10.46572590
P        13.09278011     30.04545021     19.02057266
S        13.33041000     28.99310875     20.77195930
S        11.20057869     30.86562538     19.12550545
S        14.68227959     31.34226990     18.94362450
S        13.05226326     28.93592072     17.28756714
S        14.68227959     31.34226990     27.42152786
S        13.05226326     28.93592072     25.76546860
S        13.33041000     28.99310875     29.24985886
S        11.20057869     30.86562538     27.60340500
P        13.09278011     30.04545021     27.49847412
S        19.84407806      3.72702479      2.16970515
S        21.97390938      1.85451043      3.81615973
S        23.32577896      4.20367098      1.98782718
S        21.69576263      1.79732180      0.33176979
P        21.73627853      2.90685177      2.06477547
S        19.84407806      3.72702479     10.64760494
P        21.73627853      2.90685177     10.54267406
S        23.32577896      4.20367098     10.46572590
S        21.97390938      1.85451043     12.29405975
S        21.69576263      1.79732180      8.80966949
P        21.73627853      2.90685177     19.02057266
S        19.84407806      3.72702479     19.12550545
S        21.97390938      1.85451043     20.77195930
S        23.32577896      4.20367098     18.94362450
S        21.69576263      1.79732180     17.28756714
S        21.97390938      1.85451043     29.24985886
S        21.69576263      1.79732180     25.76546860
S        19.84407806      3.72702479     27.60340500
P        21.73627853      2.90685177     27.49847412
S        23.32577896      4.20367098     27.42152786
S        21.69576263     10.84352207      0.33176979
P        21.73627853     11.95305157      2.06477547
S        19.84407806     12.77322483      2.16970515
S        21.97390938     10.90070915      3.81615973
S        23.32577896     13.24987030      1.98782718
S        23.32577896     13.24987030     10.46572590
S        21.97390938     10.90070915     12.29405975
S        21.69576263     10.84352207      8.80966949
S        19.84407806     12.77322483     10.64760494
P        21.73627853     11.95305157     10.54267406
S        23.32577896     13.24987030     18.94362450
S        21.69576263     10.84352207     17.28756714
P        21.73627853     11.95305157     19.02057266
S        19.84407806     12.77322483     19.12550545
S        21.97390938     10.90070915     20.77195930
P        21.73627853     11.95305157     27.49847412
S        23.32577896     13.24987030     27.42152786
S        21.97390938     10.90070915     29.24985886
S        21.69576263     10.84352207     25.76546860
S        19.84407806     12.77322483     27.60340500
S        19.84407806     21.81942558      2.16970515
S        21.97390938     19.94691086      3.81615973
S        23.32577896     22.29607010      1.98782718
S        21.69576263     19.88971901      0.33176979
P        21.73627853     20.99925041      2.06477547
S        19.84407806     21.81942558     10.64760494
P        21.73627853     20.99925041     10.54267406
S        23.32577896     22.29607010     10.46572590
S        21.97390938     19.94691086     12.29405975
S        21.69576263     19.88971901      8.80966949
P        21.73627853     20.99925041     19.02057266
S        19.84407806     21.81942558     19.12550545
S        21.97390938     19.94691086     20.77195930
S        23.32577896     22.29607010     18.94362450
S        21.69576263     19.88971901     17.28756714
S        21.97390938     19.94691086     29.24985886
S        21.69576263     19.88971901     25.76546860
S        19.84407806     21.81942558     27.60340500
P        21.73627853     20.99925041     27.49847412
S        23.32577896     22.29607010     27.42152786
S        21.69576263     28.93592072      0.33176979
P        21.73627853     30.04545021      2.06477547
S        19.84407806     30.86562538      2.16970515
S        21.97390938     28.99310875      3.81615973
S        23.32577896     31.34226990      1.98782718
S        23.32577896     31.34226990     10.46572590
S        21.97390938     28.99310875     12.29405975
S        21.69576263     28.93592072      8.80966949
S        19.84407806     30.86562538     10.64760494
P        21.73627853     30.04545021     10.54267406
S        23.32577896     31.34226990     18.94362450
S        21.69576263     28.93592072     17.28756714
P        21.73627853     30.04545021     19.02057266
S        19.84407806     30.86562538     19.12550545
S        21.97390938     28.99310875     20.77195930
P        21.73627853     30.04545021     27.49847412
S        23.32577896     31.34226990     27.42152786
S        21.97390938     28.99310875     29.24985886
S        21.69576263     28.93592072     25.76546860
S        19.84407806     30.86562538     27.60340500
S        28.48757935      3.72702479      2.16970515
S        30.61740685      1.85451043      3.81615973
S        31.96927834      4.20367098      1.98782718
S        30.33926392      1.79732180      0.33176979
P        30.37978172      2.90685177      2.06477547
S        28.48757935      3.72702479     10.64760494
P        30.37978172      2.90685177     10.54267406
S        31.96927834      4.20367098     10.46572590
S        30.61740685      1.85451043     12.29405975
S        30.33926392      1.79732180      8.80966949
P        30.37978172      2.90685177     19.02057266
S        28.48757935      3.72702479     19.12550545
S        30.61740685      1.85451043     20.77195930
S        31.96927834      4.20367098     18.94362450
S        30.33926392      1.79732180     17.28756714
S        30.61740685      1.85451043     29.24985886
S        30.33926392      1.79732180     25.76546860
S        28.48757935      3.72702479     27.60340500
P        30.37978172      2.90685177     27.49847412
S        31.96927834      4.20367098     27.42152786
S        30.33926392     10.84352207      0.33176979
P        30.37978172     11.95305157      2.06477547
S        28.48757935     12.77322483      2.16970515
S        30.61740685     10.90070915      3.81615973
S        31.96927834     13.24987030      1.98782718
S        31.96927834     13.24987030     10.46572590
S        30.61740685     10.90070915     12.29405975
S        30.33926392     10.84352207      8.80966949
S        28.48757935     12.77322483     10.64760494
P        30.37978172     11.95305157     10.54267406
S        31.96927834     13.24987030     18.94362450
S        30.33926392     10.84352207     17.28756714
P        30.37978172     11.95305157     19.02057266
S        28.48757935     12.77322483     19.12550545
S        30.61740685     10.90070915     20.77195930
S        30.33926392     10.84352207     25.76546860
S        30.61740685     10.90070915     29.24985886
S        28.48757935     12.77322483     27.60340500
P        30.37978172     11.95305157     27.49847412
S        31.96927834     13.24987030     27.42152786
S        31.96927834     22.29607010      1.98782718
S        30.33926392     19.88971901      0.33176979
S        30.61740685     19.94691086      3.81615973
P        30.37978172     20.99925041      2.06477547
S        28.48757935     21.81942558      2.16970515
S        31.96927834     22.29607010     10.46572590
S        30.61740685     19.94691086     12.29405975
S        28.48757935     21.81942558     10.64760494
P        30.37978172     20.99925041     10.54267406
S        30.33926392     19.88971901      8.80966949
S        30.61740685     19.94691086     20.77195930
S        28.48757935     21.81942558     19.12550545
S        31.96927834     22.29607010     18.94362450
P        30.37978172     20.99925041     19.02057266
S        30.33926392     19.88971901     17.28756714
S        30.33926392     19.88971901     25.76546860
P        30.37978172     20.99925041     27.49847412
S        28.48757935     21.81942558     27.60340500
S        31.96927834     22.29607010     27.42152786
S        30.61740685     19.94691086     29.24985886
P        30.37978172     30.04545021      2.06477547
S        30.61740685     28.99310875      3.81615973
S        28.48757935     30.86562538      2.16970515
S        31.96927834     31.34226990      1.98782718
S        30.33926392     28.93592072      0.33176979
S        30.33926392     28.93592072      8.80966949
S        30.61740685     28.99310875     12.29405975
P        30.37978172     30.04545021     10.54267406
S        28.48757935     30.86562538     10.64760494
S        31.96927834     31.34226990     10.46572590
S        30.33926392     28.93592072     17.28756714
P        30.37978172     30.04545021     19.02057266
S        30.61740685     28.99310875     20.77195930
S        28.48757935     30.86562538     19.12550545
S        31.96927834     31.34226990     18.94362450
S        31.96927834     31.34226990     27.42152786
S        30.33926392     28.93592072     25.76546860
S        30.61740685     28.99310875     29.24985886
S        28.48757935     30.86562538     27.60340500
P        30.37978172     30.04545021     27.49847412
S         6.16996384      5.06017256      6.38299274
S         4.29002380      7.08196259      4.60333204
S         4.17791653      7.07625246      8.04720783
S         2.70986295      4.66403198      6.23054552
P         4.30682993      5.95866919      6.32365513
S         6.16996384      5.06017256     14.86089230
S         2.70986295      4.66403198     14.70844555
P         4.30682993      5.95866919     14.80155468
S         4.29002380      7.08196259     13.08123112
S         4.17791653      7.07625246     16.52510643
P         4.30682993      5.95866919     23.27945328
S         6.16996384      5.06017256     23.33879280
S         4.29002380      7.08196259     21.55913162
S         4.17791653      7.07625246     25.00300598
S         2.70986295      4.66403198     23.18634605
S         4.29002380      7.08196259     30.03703117
S         4.17791653      7.07625246     33.48090744
S         6.16996384      5.06017256     31.81669426
S         2.70986295      4.66403198     31.66424561
P         4.30682993      5.95866919     31.75735283
S         2.70986295     13.71023178      6.23054552
P         4.30682993     15.00486851      6.32365513
S         6.16996384     14.10637188      6.38299274
S         4.29002380     16.12816238      4.60333204
S         4.17791653     16.12245369      8.04720783
P         4.30682993     15.00486851     14.80155468
S         4.29002380     16.12816238     13.08123112
S         4.17791653     16.12245369     16.52510643
S         6.16996384     14.10637188     14.86089230
S         2.70986295     13.71023178     14.70844555
S         4.17791653     16.12245369     25.00300598
S         2.70986295     13.71023178     23.18634605
P         4.30682993     15.00486851     23.27945328
S         6.16996384     14.10637188     23.33879280
S         4.29002380     16.12816238     21.55913162
S         2.70986295     13.71023178     31.66424561
P         4.30682993     15.00486851     31.75735283
S         4.29002380     16.12816238     30.03703117
S         4.17791653     16.12245369     33.48090744
S         6.16996384     14.10637188     31.81669426
S         6.16996384     23.15257263      6.38299274
S         4.29002380     25.17436218      4.60333204
S         4.17791653     25.16865349      8.04720783
S         2.70986295     22.75643158      6.23054552
P         4.30682993     24.05106926      6.32365513
S         6.16996384     23.15257263     14.86089230
S         2.70986295     22.75643158     14.70844555
P         4.30682993     24.05106926     14.80155468
S         4.29002380     25.17436218     13.08123112
S         4.17791653     25.16865349     16.52510643
P         4.30682993     24.05106926     23.27945328
S         6.16996384     23.15257263     23.33879280
S         4.29002380     25.17436218     21.55913162
S         4.17791653     25.16865349     25.00300598
S         2.70986295     22.75643158     23.18634605
S         4.29002380     25.17436218     30.03703117
S         4.17791653     25.16865349     33.48090744
S         6.16996384     23.15257263     31.81669426
S         2.70986295     22.75643158     31.66424561
P         4.30682993     24.05106926     31.75735283
S         2.70986295     31.80262947      6.23054552
P         4.30682993     33.09726334      6.32365513
S         6.16996384     32.19877243      6.38299274
S         4.29002380     34.22055817      4.60333204
S         4.17791653     34.21484756      8.04720783
P         4.30682993     33.09726334     14.80155468
S         4.29002380     34.22055817     13.08123112
S         4.17791653     34.21484756     16.52510643
S         6.16996384     32.19877243     14.86089230
S         2.70986295     31.80262947     14.70844555
S         4.17791653     34.21484756     25.00300598
S         2.70986295     31.80262947     23.18634605
P         4.30682993     33.09726334     23.27945328
S         6.16996384     32.19877243     23.33879280
S         4.29002380     34.22055817     21.55913162
S         2.70986295     31.80262947     31.66424561
P         4.30682993     33.09726334     31.75735283
S         4.29002380     34.22055817     30.03703117
S         4.17791653     34.21484756     33.48090744
S         6.16996384     32.19877243     31.81669426
S        14.81346321      5.06017256      6.38299274
S        12.93352318      7.08196259      4.60333204
S        12.82141685      7.07625246      8.04720783
S        11.35336208      4.66403198      6.23054552
P        12.95032883      5.95866919      6.32365513
S        14.81346321      5.06017256     14.86089230
S        11.35336208      4.66403198     14.70844555
P        12.95032883      5.95866919     14.80155468
S        12.93352318      7.08196259     13.08123112
S        12.82141685      7.07625246     16.52510643
P        12.95032883      5.95866919     23.27945328
S        14.81346321      5.06017256     23.33879280
S        12.93352318      7.08196259     21.55913162
S        12.82141685      7.07625246     25.00300598
S        11.35336208      4.66403198     23.18634605
S        12.93352318      7.08196259     30.03703117
S        12.82141685      7.07625246     33.48090744
S        14.81346321      5.06017256     31.81669426
S        11.35336208      4.66403198     31.66424561
P        12.95032883      5.95866919     31.75735283
S        11.35336208     13.71023178      6.23054552
P        12.95032883     15.00486851      6.32365513
S        14.81346321     14.10637188      6.38299274
S        12.93352318     16.12816238      4.60333204
S        12.82141685     16.12245369      8.04720783
P        12.95032883     15.00486851     14.80155468
S        12.93352318     16.12816238     13.08123112
S        12.82141685     16.12245369     16.52510643
S        14.81346321     14.10637188     14.86089230
S        11.35336208     13.71023178     14.70844555
S        12.82141685     16.12245369     25.00300598
S        11.35336208     13.71023178     23.18634605
P        12.95032883     15.00486851     23.27945328
S        14.81346321     14.10637188     23.33879280
S        12.93352318     16.12816238     21.55913162
S        12.93352318     16.12816238     30.03703117
P        12.95032883     15.00486851     31.75735283
S        12.82141685     16.12245369     33.48090744
S        14.81346321     14.10637188     31.81669426
S        11.35336208     13.71023178     31.66424561
S        12.93352318     25.17436218      4.60333204
P        12.95032883     24.05106926      6.32365513
S        12.82141685     25.16865349      8.04720783
S        14.81346321     23.15257263      6.38299274
S        11.35336208     22.75643158      6.23054552
S        11.35336208     22.75643158     14.70844555
S        12.82141685     25.16865349     16.52510643
S        12.93352318     25.17436218     13.08123112
S        14.81346321     23.15257263     14.86089230
P        12.95032883     24.05106926     14.80155468
S        12.82141685     25.16865349     25.00300598
S        14.81346321     23.15257263     23.33879280
S        11.35336208     22.75643158     23.18634605
P        12.95032883     24.05106926     23.27945328
S        12.93352318     25.17436218     21.55913162
S        12.82141685     25.16865349     33.48090744
P        12.95032883     24.05106926     31.75735283
S        14.81346321     23.15257263     31.81669426
S        11.35336208     22.75643158     31.66424561
S        12.93352318     25.17436218     30.03703117
S        12.93352318     34.22055817      4.60333204
P        12.95032883     33.09726334      6.32365513
S        12.82141685     34.21484756      8.04720783
S        14.81346321     32.19877243      6.38299274
S        11.35336208     31.80262947      6.23054552
S        12.93352318     34.22055817     13.08123112
S        12.82141685     34.21484756     16.52510643
S        14.81346321     32.19877243     14.86089230
S        11.35336208     31.80262947     14.70844555
P        12.95032883     33.09726334     14.80155468
S        12.93352318     34.22055817     21.55913162
P        12.95032883     33.09726334     23.27945328
S        14.81346321     32.19877243     23.33879280
S        11.35336208     31.80262947     23.18634605
S        12.82141685     34.21484756     25.00300598
S        12.82141685     34.21484756     33.48090744
S        12.93352318     34.22055817     30.03703117
P        12.95032883     33.09726334     31.75735283
S        14.81346321     32.19877243     31.81669426
S        11.35336208     31.80262947     31.66424561
S        23.45696259      5.06017256      6.38299274
P        21.59382820      5.95866919      6.32365513
S        21.57702255      7.08196259      4.60333204
S        21.46491432      7.07625246      8.04720783
S        19.99686241      4.66403198      6.23054552
S        21.46491432      7.07625246     16.52510643
S        23.45696259      5.06017256     14.86089230
S        19.99686241      4.66403198     14.70844555
P        21.59382820      5.95866919     14.80155468
S        21.57702255      7.08196259     13.08123112
S        19.99686241      4.66403198     23.18634605
S        23.45696259      5.06017256     23.33879280
P        21.59382820      5.95866919     23.27945328
S        21.57702255      7.08196259     21.55913162
S        21.46491432      7.07625246     25.00300598
S        21.57702255      7.08196259     30.03703117
S        21.46491432      7.07625246     33.48090744
S        23.45696259      5.06017256     31.81669426
S        19.99686241      4.66403198     31.66424561
P        21.59382820      5.95866919     31.75735283
S        19.99686241     13.71023178      6.23054552
S        23.45696259     14.10637188      6.38299274
P        21.59382820     15.00486851      6.32365513
S        21.57702255     16.12816238      4.60333204
S        21.46491432     16.12245369      8.04720783
P        21.59382820     15.00486851     14.80155468
S        21.57702255     16.12816238     13.08123112
S        21.46491432     16.12245369     16.52510643
S        23.45696259     14.10637188     14.86089230
S        19.99686241     13.71023178     14.70844555
S        21.57702255     16.12816238     21.55913162
S        21.46491432     16.12245369     25.00300598
S        19.99686241     13.71023178     23.18634605
S        23.45696259     14.10637188     23.33879280
P        21.59382820     15.00486851     23.27945328
S        19.99686241     13.71023178     31.66424561
P        21.59382820     15.00486851     31.75735283
S        21.57702255     16.12816238     30.03703117
S        21.46491432     16.12245369     33.48090744
S        23.45696259     14.10637188     31.81669426
S        23.45696259     23.15257263      6.38299274
P        21.59382820     24.05106926      6.32365513
S        21.57702255     25.17436218      4.60333204
S        21.46491432     25.16865349      8.04720783
S        19.99686241     22.75643158      6.23054552
S        21.46491432     25.16865349     16.52510643
S        23.45696259     23.15257263     14.86089230
S        19.99686241     22.75643158     14.70844555
P        21.59382820     24.05106926     14.80155468
S        21.57702255     25.17436218     13.08123112
S        19.99686241     22.75643158     23.18634605
S        23.45696259     23.15257263     23.33879280
P        21.59382820     24.05106926     23.27945328
S        21.57702255     25.17436218     21.55913162
S        21.46491432     25.16865349     25.00300598
S        21.57702255     25.17436218     30.03703117
S        21.46491432     25.16865349     33.48090744
S        23.45696259     23.15257263     31.81669426
S        19.99686241     22.75643158     31.66424561
P        21.59382820     24.05106926     31.75735283
S        19.99686241     31.80262947      6.23054552
S        23.45696259     32.19877243      6.38299274
P        21.59382820     33.09726334      6.32365513
S        21.57702255     34.22055817      4.60333204
S        21.46491432     34.21484756      8.04720783
P        21.59382820     33.09726334     14.80155468
S        21.57702255     34.22055817     13.08123112
S        21.46491432     34.21484756     16.52510643
S        23.45696259     32.19877243     14.86089230
S        19.99686241     31.80262947     14.70844555
S        21.57702255     34.22055817     21.55913162
S        21.46491432     34.21484756     25.00300598
S        19.99686241     31.80262947     23.18634605
S        23.45696259     32.19877243     23.33879280
P        21.59382820     33.09726334     23.27945328
S        19.99686241     31.80262947     31.66424561
P        21.59382820     33.09726334     31.75735283
S        21.57702255     34.22055817     30.03703117
S        21.46491432     34.21484756     33.48090744
S        23.45696259     32.19877243     31.81669426
S        32.10046387      5.06017256      6.38299274
P        30.23732948      5.95866919      6.32365513
S        30.22052193      7.08196259      4.60333204
S        30.10841560      7.07625246      8.04720783
S        28.64036369      4.66403198      6.23054552
S        30.10841560      7.07625246     16.52510643
S        32.10046387      5.06017256     14.86089230
S        28.64036369      4.66403198     14.70844555
P        30.23732948      5.95866919     14.80155468
S        30.22052193      7.08196259     13.08123112
S        28.64036369      4.66403198     23.18634605
S        32.10046387      5.06017256     23.33879280
P        30.23732948      5.95866919     23.27945328
S        30.22052193      7.08196259     21.55913162
S        30.10841560      7.07625246     25.00300598
S        30.22052193      7.08196259     30.03703117
S        30.10841560      7.07625246     33.48090744
S        32.10046387      5.06017256     31.81669426
S        28.64036369      4.66403198     31.66424561
P        30.23732948      5.95866919     31.75735283
S        28.64036369     13.71023178      6.23054552
S        32.10046387     14.10637188      6.38299274
P        30.23732948     15.00486851      6.32365513
S        30.22052193     16.12816238      4.60333204
S        30.10841560     16.12245369      8.04720783
P        30.23732948     15.00486851     14.80155468
S        30.22052193     16.12816238     13.08123112
S        30.10841560     16.12245369     16.52510643
S        32.10046387     14.10637188     14.86089230
S        28.64036369     13.71023178     14.70844555
S        30.22052193     16.12816238     21.55913162
S        30.10841560     16.12245369     25.00300598
S        28.64036369     13.71023178     23.18634605
S        32.10046387     14.10637188     23.33879280
P        30.23732948     15.00486851     23.27945328
S        30.22052193     16.12816238     30.03703117
P        30.23732948     15.00486851     31.75735283
S        30.10841560     16.12245369     33.48090744
S        32.10046387     14.10637188     31.81669426
S        28.64036369     13.71023178     31.66424561
S        30.22052193     25.17436218      4.60333204
S        32.10046387     23.15257263      6.38299274
P        30.23732948     24.05106926      6.32365513
S        30.10841560     25.16865349      8.04720783
S        28.64036369     22.75643158      6.23054552
S        32.10046387     23.15257263     14.86089230
S        28.64036369     22.75643158     14.70844555
S        30.22052193     25.17436218     13.08123112
S        30.10841560     25.16865349     16.52510643
P        30.23732948     24.05106926     14.80155468
P        30.23732948     24.05106926     23.27945328
S        30.10841560     25.16865349     25.00300598
S        32.10046387     23.15257263     23.33879280
S        28.64036369     22.75643158     23.18634605
S        30.22052193     25.17436218     21.55913162
S        30.10841560     25.16865349     33.48090744
P        30.23732948     24.05106926     31.75735283
S        32.10046387     23.15257263     31.81669426
S        28.64036369     22.75643158     31.66424561
S        30.22052193     25.17436218     30.03703117
S        30.22052193     34.22055817      4.60333204
P        30.23732948     33.09726334      6.32365513
S        30.10841560     34.21484756      8.04720783
S        32.10046387     32.19877243      6.38299274
S        28.64036369     31.80262947      6.23054552
S        30.22052193     34.22055817     13.08123112
S        30.10841560     34.21484756     16.52510643
S        32.10046387     32.19877243     14.86089230
S        28.64036369     31.80262947     14.70844555
P        30.23732948     33.09726334     14.80155468
S        30.10841560     34.21484756     25.00300598
P        30.23732948     33.09726334     23.27945328
S        32.10046387     32.19877243     23.33879280
S        28.64036369     31.80262947     23.18634605
S        30.22052193     34.22055817     21.55913162
S        30.10841560     34.21484756     33.48090744
S        30.22052193     34.22055817     30.03703117
P        30.23732948     33.09726334     31.75735283
S        32.10046387     32.19877243     31.81669426
S        28.64036369     31.80262947     31.66424561
