2048

Li        1.83780050    -70.66458130     17.61508942
Li       16.42794418      6.86069870   -113.12220001
Li      -53.46947098     37.30828094   -149.05062866
Li       32.05613708     49.54032516     80.56512451
Li      -66.41967773    -24.77099609    -20.34574127
Li      -71.27843475    -69.14333344     16.72016525
Li       84.31089020    142.10238647      4.38800621
Li        2.71381974    114.04361725     46.26541901
Li       -5.89715385    -67.20516205     54.93901443
Li       97.90443420    -87.74393463     47.37821198
Li       88.31651306     50.01633453     -8.53059101
Li      158.21188354    117.52836609     46.65174866
Li        2.86416650     33.21110535     95.56484985
Li      -19.24415779     82.26045990     37.78307724
Li     -104.80242157    -90.08607483    -42.19376755
Li      -79.74408722    -62.08444214     88.37785339
Li      -49.87601471    -27.92637444    131.57618713
Li      -62.32936096   -137.58129883   -105.39736176
Li       58.08303833      3.11095762    -26.28158760
Li       85.86539459    160.81942749    -18.86233139
Li       62.38058853    119.19188690    -16.46316719
Li       25.88990402     -7.98005915     87.20458984
Li       54.07410812      1.51993382    -89.50057983
Li     -114.30730438    -83.07353973    143.33195496
Li      124.04987335     81.20697784    -46.77733994
Li       79.79940796     85.97014618    101.75144196
Li       83.65880585     45.09796524     16.72403336
Li       28.54855347     92.49471283    174.15679932
Li        6.44651747     37.10640717     29.33153152
Li     -110.18841553    -64.30824280    -12.26054668
Li      -74.71057892     -6.33086777    -11.73553658
Li        7.12680674     73.42456818     20.35532761
Li       58.53977966    -56.16773987    -21.22004890
Li      -29.18737602     96.86213684     10.80427551
Li       15.33192825     97.43449402     46.81449127
Li      -40.95544052    -27.77706337    -29.69586754
Li       54.40866852    102.03043365    -88.05903625
Li       53.72964096     44.06689835    160.54556274
Li      -32.34783554     92.31383514      3.63889194
Li      -54.47210312    -35.77076340     -8.31742954
Li      -79.49347687    -44.35527420     42.76581573
Li      -36.74783707     57.12322235     33.65266418
Li      177.23908997    -36.30231476    107.76551056
Li        6.32081413    -23.60661507     24.98899841
Li       53.75016022     55.77877045      9.32179070
Li       40.51042175     84.69239044   -161.44879150
Li      105.38486481    109.94229889     93.79339600
Li       58.57663727     79.03871155     67.36146545
Li       -1.82646990     55.80384445   -157.74496460
Li       11.03802872    -87.82490540    -54.99879837
Li        2.33789492     -6.96355247     80.88134003
Li      149.45709229     38.84109116     29.99324226
Li       -2.34983158     76.07310486    -80.36460114
Li       83.79202271      3.78879476     97.51063538
Li      106.33907318    -60.75619125    123.37367249
Li       36.26343536    -67.40472412     59.70200729
Li       67.23985291     27.81442642    -50.88711548
Li       22.57987976     60.38841248    -23.37088966
Li        2.16983652     -7.70724678    -59.15068436
Li       75.22465515    -33.06182861    211.42710876
Li      -93.18292999    -40.31895447    122.73484039
Li       10.26226330     -4.55208635   -110.21626282
Li       75.57582855     78.68360138    -75.89500427
Li       -6.03470469     66.06267548     64.38602448
Li      -79.65141296      9.78476238    -55.46483612
Li      -32.66675568    -91.33287048      4.67892027
Li      110.00467682      6.13179350     76.44716644
Li      127.39774323      3.42002583     33.06590652
Li      -11.26253986     49.09653473    106.32324982
Li       36.35888290    -37.28886414    -29.46093559
Li       -6.89537287     43.51787949     32.95349121
Li       76.02317810     18.61019707    -59.01914978
Li      -27.92481232     69.64990997    -29.75148773
Li      115.05891418    136.09822083     88.53929901
Li      -54.18497086     99.74082947    135.69978333
Li      -15.45009995     26.03973007    109.98322296
Li      -40.95165253    119.79070282    -21.62331390
Li      -93.31867218    -31.29611206    110.45172882
Li       97.87117767    120.00248718    -45.82159042
Li       58.67761993    190.70175171     42.50835419
Li       20.46548080     23.51081085     46.07105637
Li      -14.50170612    -30.76894760    -38.48798370
Li        1.94781208    -37.88473129     -0.65925270
Li        6.56493044    -35.51187134    -33.44704819
Li       15.01208115     93.78730011   -127.72778320
Li      114.95542908     11.57834911     81.02816772
Li       45.76538086     47.58650970     55.66746902
Li     -135.99325562    -87.88018799    -76.16596985
Li      127.89494324    181.93009949      3.57740951
Li        1.98850203     44.00844574    -93.72693634
Li       -6.02289772      8.60339069     97.55548859
Li       32.05183792    189.77072144    -93.26674652
Li      -19.88648415    -68.40666199    -80.36020660
Li      -23.34492683     68.77635956    -89.11540222
Li     -226.65989685    -92.88877869      4.06766605
Li      -15.20856762     28.73330879    144.64236450
Li      -24.84441376    -61.37467957   -108.72753143
Li       68.01026917    113.16101837     -8.32701683
Li       75.92840576     52.63522720     63.91061401
Li      -53.51435089     34.05450821     89.44047546
Li       79.62693787     19.71623993    -58.75110626
Li      140.38272095     61.90784454     41.80577087
Li      122.71772003     59.06399918    -25.57121086
Li       40.82796097    -14.72852421     29.85415649
Li       23.31174088     -2.58336806     26.27235222
Li      -21.13446999    -11.73005772   -218.88758850
Li      -63.01716614    -33.11337280     -0.63028026
Li       36.84383774    132.34896851    -75.89488983
Li     -132.17648315     42.29247665     68.49282074
Li       41.63603973    125.17799377    -46.06571579
Li       36.58981705    -61.52281952    187.28808594
Li       19.27199364    -24.05141640    -34.38114548
Li        7.05600214      7.53099489    114.69293213
Li       23.36921501    126.68030548     42.46720886
Li       75.27562714     36.14398193   -127.18446350
Li       24.46091652    -46.57372665     80.83626556
Li       36.83183289    -18.92509460    -55.16443253
Li       32.31108093     21.70286751     -4.28273153
Li       10.47486401     80.24491882     84.25323486
Li       15.80570316    101.33986664    130.09481812
Li       79.97681427     77.54232788    186.99871826
Li       -1.81846583    -92.64202881     55.80786896
Li      -23.40835381     77.91875458   -131.65759277
Li       32.40639496     97.49434662    -54.85846710
Li       18.99457550      2.12865710    -67.20430756
Li      149.00109863     56.52725601    -42.67002487
Li      -15.56166744     67.79695892     42.43669510
Li       40.55718231     45.08883286    -76.47497559
Li      -41.25960159    -82.33472443    -29.50382042
Li      -79.48853302     27.88492775     97.04437256
Li      -80.68611908     -2.92547989    -32.97779465
Li       28.97334671     68.98877716     79.72479248
Li       49.25492859    121.07442474     50.24636459
Li       -7.09097815     40.42335129     -8.66706562
Li       10.59644222    122.39296722    -46.88562775
Li       70.99760437    -73.29178619    118.41069794
Li       32.36191559     -2.79518485    -42.04107285
Li       44.93115616    107.46724701     42.30685043
Li      -18.76298332     46.12466431    -89.52798462
Li      219.44700623     56.48610306    175.16606140
Li      127.84541321    119.33132935    -73.29913330
Li      -93.02932739     50.13363647     25.51764107
Li      -54.17327881     12.51597404    -42.81198502
Li       -6.24010372     41.52813721    114.20761871
Li       -6.19233084    -12.93805790    135.82604980
Li     -169.41593933    -33.85983658   -188.86230469
Li      109.92390442     48.80844879    -17.06564331
Li      -54.54240799    -24.54731941     66.88663483
Li       80.62365723    108.49311066    -29.80817795
Li      -47.77549362    -70.32323456     23.29681587
Li       28.24338913     19.50383186     42.80777740
Li       40.68354034      2.66732955     92.25926971
Li      -26.91824532    -74.80560303   -111.98636627
Li       10.53104877     26.27718353     63.73677444
Li       11.18742371     87.34951782    -29.96831131
Li       -2.85070658     30.68919182     67.62397003
Li       -6.41847038     12.45423889   -139.77238464
Li       11.23551464     59.63866425     34.26335907
Li       66.98897552    -59.84922409     63.38073730
Li        2.46236682     92.81955719     81.28648376
Li       37.34821320     11.55573654    -63.04845047
Li       54.10760117    102.13767242      4.78475714
Li      -27.70515633      4.22896957     80.52152252
Li      114.20728302     10.65404034    -50.28641510
Li      -49.08586502     51.21215439     69.09331512
Li       62.45779037    110.15034485     -8.25793839
Li      -19.75872040    -11.89164066   -160.51367188
Li        6.18136978      9.42497730    -25.02476120
Li       45.69640350    -12.60502434      8.56723881
Li       71.60506439     50.51992035    -59.04008865
Li       10.72059917     56.56019974    -67.84559631
Li        2.06245756    -64.61807251    -17.47900391
Li       27.93171501    -19.14646721    -34.37483978
Li       -1.94168985    -38.72204590    106.09744263
Li      153.28479004     75.88305664     38.15786743
Li      -15.28479099     13.10334969     42.00117874
Li      -19.48600578    132.49508667      3.71100044
Li        2.58705807    -49.07033920     29.37575531
Li       58.04022980    -20.89453506   -118.17156982
Li      -37.06398010     96.43595123    152.82897949
Li      -40.77622223     86.86374664     80.42110443
Li      166.74737549      5.52246332     63.12194443
Li       79.40587616    130.87869263     84.55464935
Li      127.22090912     49.19969559     63.60779572
Li       -1.72666311     28.19620514    -13.25796318
Li      -23.71252823   -136.07148743    105.77814484
Li       10.35171890     83.15220642    -33.47699356
Li      -23.35537338     45.56995010     -8.37949848
Li       83.87480927     57.60033035     -9.25866127
Li      -14.82993984    -12.75341988    -30.15119743
Li       75.18061066    102.84332275    126.54325867
Li        1.91749728     10.92395210    110.64128876
Li      -14.67536736    -96.94371796     30.52022934
Li      -32.72072601   -110.02419281     -9.00701141
Li       10.88968468    -70.88244629    254.61119080
Li       14.88513660     66.18509674     75.52647400
Li       -5.22381639     74.63259125   -146.68107605
Li      -11.28868580    -77.86791229    -25.77980614
Li       -6.72115421     98.26895905      8.05051994
Li       -6.45330191     29.34528732     46.38657379
Li      -37.24799728    -63.49726486     84.90409851
Li     -140.66337585     33.35893250     42.67208099
Li       92.69458008     94.39884949     89.17621613
Li      115.26197815     59.67823410     63.04454422
Li       11.30150509     -4.14746523   -101.50123596
Li       31.99080276     57.99193573    114.90871429
Li      101.14656067     21.37354469      7.96440554
Li      -54.36848068    112.00376892     67.56706238
Li       10.33967495    101.19022369     25.88065338
Li      -23.31202316     56.99528122     -3.50930047
Li       32.37607574     73.09136963    169.58346558
Li       41.05125427    124.58287048    -88.98950195
Li      -36.52577209    -47.74337006    -98.02079010
Li       61.48571014     25.65284729     92.04740143
Li        2.53143787    -12.82759953     12.03192711
Li      132.62060547     51.48339462    -73.34922791
Li       -2.05657291     15.46863651    -42.21607971
Li      -18.65634918     -2.02659988     64.23008728
Li       71.39790344    143.81988525     -3.74174762
Li      -96.50705719    -35.65996170      4.11467934
Li      -66.27623749      5.88756657    206.53814697
Li       49.80516052     85.09760284   -182.12266541
Li       63.52653503    -48.66545105    122.64045715
Li       54.80180359     77.71308136     46.00986099
Li     -148.43060303     -8.98197842    -67.78363800
Li      -97.41490936    -78.38201904     49.92501450
Li       32.39115906     18.41147232    110.26878357
Li       23.25985718     50.99962234      8.60903072
Li      136.96623230     67.48135376    -21.23335266
Li     -105.97889709     42.76334000     68.01828766
Li       71.32569885    183.61193848    -29.73310280
Li       17.55849648   -101.28190613    134.19949341
Li      -10.48067474      4.00032425    -55.08408737
Li       36.45489120     52.87808990     50.34197235
Li       22.63184547     56.10517883   -103.43569183
Li       -6.60181332     59.01343155     51.05004883
Li       57.92588806    -50.68071747     84.57730103
Li      -79.90721130     45.89898300   -101.84066010
Li       54.13179779     32.55492020    -21.74678993
Li       27.53455544     34.94447327    143.47587585
Li       53.58232498    -43.48410797   -185.89279175
Li      -28.04386711    -20.88025665    161.17390442
Li      -41.09150314    -15.69554806     33.44406509
Li       62.54869843     64.88462067      0.35880095
Li       19.68940163     72.03775787    106.01583862
Li       11.01621056     -9.89876080     72.26838684
Li       19.90931511     -0.11308499    122.82769012
Li       -2.54443932     36.50345612    127.19890594
Li       32.85186005     34.41839218    -88.88866425
Li       54.27916336    -15.37793064    -29.29882050
Li        2.51118493     82.96368408   -106.21125031
Li     -106.06572723     48.55619431    -97.26931763
Li       -6.20966053     53.85904694    114.33966827
Li      -32.88756943     52.94672012    135.15596008
Li       27.61606026     89.67732239     50.43220139
Li      127.92034912    164.11451721     -4.70224953
Li       19.20266342      7.91173267    173.78372192
Li      -84.38850403     26.14994812    -20.88620567
Li       -5.70106792   -148.97175598     50.94906998
Li      -49.64422226     84.49616241     80.64517212
Li        6.40644264    -38.76585770    -24.37872696
Li      -53.40546799     55.56438828    -72.94161987
Li       53.60111618    -31.66189194     42.38237000
Li       84.82415771    -10.47507763     63.79690933
Li       84.24027252     39.02085876     41.42589951
Li       -1.95193970     73.52069855     29.41893959
Li       32.21003342    130.38531494     59.07296371
Li      -80.07111359    114.47801971   -143.90953064
Li     -101.24829865    -39.80279541    -50.67325211
Li      -32.17550659     32.35260010    -21.35905266
Li      -96.92755127     46.35034180     -4.70882130
Li      -32.29236984    -45.82324219     -0.14940839
Li       41.09875107    -68.88197327   -182.27252197
Li       23.83126068   -102.14646912    -30.03204155
Li      -63.00833511    -38.91101456      0.63887060
Li       88.91029358     38.79122162    -29.44446754
Li      -78.88481140     33.83415985     31.26940155
Li       37.18396378      5.67848158     20.92082405
Li       45.28776169      7.95461178     42.13560867
Li       62.83015823    163.99389648   -106.10849762
Li       19.80869102    -72.33537292     -4.45487785
Li       -0.04682089     28.35473251    -73.94711304
Li       19.35375786    -97.02840424     16.65566826
Li      109.99373627    105.21853638     51.17622757
Li      -14.65481186     50.66014099     -4.75944471
Li       11.29297543    -90.99797821     12.72334480
Li       75.68238068    -44.46250153     33.76445389
Li       53.70437622    149.37681580     25.65355682
Li       62.41551590     82.24790955      8.65321064
Li      -75.82662201     98.78630829     13.02050781
Li      119.34001160     64.16794586     12.54566765
Li     -100.75639343    -21.94527245     -4.70700693
Li       10.98394489     -6.31107473     38.45996094
Li        8.19392967     25.09300995     74.47032928
Li       57.94009018   -108.54931641    101.72500610
Li     -140.88270569     80.93790436    127.11547089
Li        6.16357851     60.64942551    -50.21082687
Li      -23.36897850    -12.29689598     20.73253441
Li       -2.49096656    -48.24964142    -33.51300812
Li      187.53306580    175.42778015     92.87167358
Li       58.04726028     30.74012947    -12.75817680
Li       18.89678764    -22.49971581      4.49263763
Li      -58.50767136    -55.52415085      8.05575943
Li       32.49856949    136.39595032    -33.91877365
Li       67.81185150     63.53406525    -29.68471146
Li       40.87167740    -41.65314865    -34.23704910
Li      -23.34724998      2.65105319     47.48853683
Li      -28.49091339     30.56103706     29.97279167
Li        6.17811632   -108.43735504   -144.10090637
Li      166.66365051     50.58151245    105.62238312
Li      -27.34512329    -35.77789307   -118.49762726
Li      -67.18447113    -71.18208313      0.14677887
Li       19.50659370    -55.38674545     30.12784386
Li      -41.68090057     76.92670441   -102.01045990
Li       93.54152679    -92.34580231     89.54186249
Li       93.25030518    117.85782623    -16.72962189
Li       71.96223450    131.97157288     37.72249603
Li       14.99061966    -65.98503113     59.54325104
Li      136.30683899     43.86402130      4.77048016
Li       50.01697540     58.51964951    165.27409363
Li       49.87499619     45.97630310   -109.87556458
Li      105.55171204    -28.05488396    -34.12092590
Li      -53.27909851   -152.35354614    -47.89994812
Li       49.34681702     33.31711197      9.12746620
Li       19.29333115    107.61299896   -135.85424805
Li       32.08271790    186.90167236      8.83807564
Li      104.88716125    -41.23532486    -25.12295723
Li      -62.25168991    106.53386688     13.29032803
Li       93.23619843    248.47010803     -4.56894302
Li       12.27423286    102.18968964   -146.30934143
Li      -62.41797256   -143.84117126     46.24429703
Li       -6.66214657      1.40676343   -126.78083801
Li      -24.44048119     62.08547211     -0.45944428
Li     -123.85668182    -81.63033295    -42.54187775
Li        6.18345737     15.30457687    -32.98645782
Li      -24.07529449    -52.89115906    -16.73215866
Li       36.63645935    102.06689453     33.59444427
Li       23.37284660    -27.63055420    -42.67941284
Li       50.26466751      0.67770195     71.90715790
Li       -6.87952852    -34.48428345    -16.12586212
Li      -54.56766891    -30.19117737    -25.07718658
Li      -10.42108154     19.23602295    -14.02901554
Li        2.00724816      4.30486345      8.30877399
Li      -84.45361328    -52.43599319   -174.23406982
Li       -6.91852713    -28.06925774    -17.39400482
Li       27.59165001    -19.52844048     41.62619019
Li      -49.78836060    -10.37619591     15.98144245
Li      -25.10032654    -10.80722523     23.65343475
Li       -2.45214534     30.35203934    -85.31280518
Li       49.33715057     75.56648254     50.67424774
Li       49.60922241     51.34576035   -109.73312378
Li      -36.70383072     12.85254478    123.01052094
Li      -40.61761093    -57.62824631     54.42165375
Li      -14.75792408    129.53628540    -54.80359650
Li      -14.66686440    -76.01692200    122.71797943
Li       -2.77101398     27.00794029     29.68922424
Li       54.04505920     -9.42753124     55.04353714
Li       19.99959946     41.61926270     37.57757950
Li       58.23556137     48.51473999     -8.88201523
Li       28.02555466     -0.49561942    173.76060486
Li      -18.85713577     43.24001694     47.30612946
Li      -27.80801773    -29.11708069     89.57718658
Li       92.97913361     63.66446686     37.85098648
Li      -62.28635788   -131.13258362    122.76337433
Li       63.40825653     59.69593048     12.29111481
Li      -26.50658035    110.96086121     95.25257111
Li      136.63827515     91.23824310     17.10846901
Li       76.12097168    191.04306030    -80.85293579
Li      -24.26982498   -107.05843353     68.28482819
Li      170.57699585    202.67250061   -148.03552246
Li      106.14057922     35.37332916    148.55296326
Li        1.90954292     19.86820984    110.72303772
Li       62.99653244     59.49259186    -29.85303879
Li       14.97229099    -41.54054642      4.17527723
Li       62.21997833     31.97588158   -101.83394623
Li      -14.66529846     59.57959366     63.24223709
Li      131.57687378     28.74250412    -58.99506378
Li       10.31473827     13.87277985     42.53911591
Li       45.20545578      1.66976273     76.34302521
Li      114.50887299      5.06147766     34.16136932
Li        6.22469425     -5.94778585      7.84842253
Li       32.67075348     79.44883728    -20.60326767
Li        2.07395220     26.63643074     46.87385178
Li       13.65877247     87.92971039     78.25370789
Li      114.54666138    137.17315674     34.36314011
Li       19.62822342     32.40139008    -76.27869415
Li       75.60829926     60.18922424    -63.66336060
Li      119.05888367    142.02079773     47.01775360
Li       83.61379242    121.50224304    -97.42358398
Li      -23.36249542   -112.83035278     50.99982452
Li        5.78660917     99.54138947    -76.25115204
Li      -72.03134918     51.28209686     17.66514778
Li      -71.60258484     36.27240753     17.21950912
Li       10.54734230     89.35793304     67.44236755
Li     -123.18386841   -167.89006042     46.56449509
Li      -32.23292923    129.02090454     -4.19689083
Li       45.90389633     41.76874161     29.14722252
Li      -54.17726898    -18.24168968    -67.76771545
Li       36.67546082     56.24242020     33.63036346
Li       52.79667282    -34.11535645     52.29254150
Li      -46.73900604    -11.71649170      1.53628945
Li      -53.97311783     90.72457123     50.79198456
Li      106.54217529    -84.99147034     68.18037415
Li       45.52919006     80.13902283     21.62050438
Li        2.55617309    -57.86910629    -21.47326469
Li       58.26843643     57.98225403    -59.63380814
Li       57.76191711    175.30975342    140.30667114
Li       51.87686920     97.80799866     91.27355957
Li      -28.29126167     26.86211967     76.14057159
Li       71.33447266     62.39732361    -71.85357666
Li      -19.75150299   -159.34443665     50.19437408
Li       -2.36268592     66.86076355    -97.16438293
Li       71.49089813    101.43666077    -29.53905296
Li       19.12873650    -73.73149872    118.22212219
Li       50.04825592    -37.62360764    152.00396729
Li       58.48144531     37.26853943     84.51954651
Li      -40.92847824     83.16287231   -101.76381683
Li       71.42449951    -36.29659271    -12.63278961
Li      -14.70312881    -24.71138000    123.97320557
Li       36.83913040     38.16130829     -4.39224720
Li      -18.97725487    -17.38327408   -123.25605774
Li       23.88811493     70.36314392     16.10264397
Li       32.41911316     84.67958832    -84.98675537
Li       28.08137894    143.37722778     47.50941086
Li      -11.40242672     -5.73976755     -0.61255419
Li       62.58302689     20.04291153     59.50083923
Li       -2.91044855    -36.23690796    -93.50962830
Li      -71.18111420    118.03468323    101.84485626
Li       58.69027328     16.43360710      4.66249466
Li        6.86856794    163.89265442    164.90850830
Li      -97.17279053     13.16770172    106.26745605
Li       45.34017944    153.00173950    -21.25411034
Li        6.77085257      9.55883503    -84.89430237
Li       91.46589661     24.67685699    -15.33421040
Li       36.41408157     -7.03855324    -16.25421333
Li      -40.89151001     39.44894409    -29.40356064
Li       50.29921722     55.12743378     88.40969086
Li       49.86667252     -4.99487543     97.76487732
Li       10.02556038     -5.13502598     42.32983398
Li       24.07601166    -71.46782684     12.42733860
Li      -15.30383682     52.93807983     -9.04216003
Li       53.63255692     17.38733673     21.35337257
Li       66.62111664     30.49511909    109.63605499
Li      -49.14617538     21.11905861     89.46975708
Li      -62.25357437      7.29645729    -29.05813789
Li      166.34327698    147.40318298     97.32701874
Li       46.78972244    -21.46462250     62.20273590
Li      127.66585541    250.54803467     77.20359802
Li       58.56318283     43.45362473     21.09379768
Li      -84.69976044    -68.01119995    -46.47576141
Li        1.66421890    -31.61949348    -34.15382385
Li      -71.41801453    -41.42882919    131.53236389
Li      -97.10073090     87.60009766     51.75718307
Li       92.68909454      6.04596186     76.80909729
Li      -45.61926270    -45.48624420     25.60116768
Li        6.31001854     94.13716125    -88.87296295
Li       28.57062531     -3.28474498     -4.75015783
Li      -49.88733673      1.33680379    110.31413269
Li       45.73271179    192.67431641    -71.80727386
Li       76.35707092    -83.72228241     47.57724762
Li       97.19350433     86.34884644     25.52880478
Li       10.63783264    -18.94368744     29.67751694
Li     -141.64390564    -29.70081139    -74.45928192
Li       61.83678818    176.09112549     59.15174866
Li       32.81339645      0.69012910     20.77496719
Li      -11.13437748    103.15396118     16.91435814
Li      -10.30791378    113.01594543     -4.12863159
Li      -15.30071068    -31.15431595    -67.77912903
Li      -24.08023643    -25.55927277      8.99154663
Li       49.38407516    102.87758636     84.46561432
Li      126.80545807    -23.76869392    -17.53011131
Li        6.83347845      4.70656490     97.53607178
Li        2.56276703     50.85440445    -42.06142044
Li       44.50867462     53.25400162    106.72578430
Li       11.14937115     23.86724281    -21.74691200
Li      -45.85292053     24.27825356    -41.46887589
Li       46.05783081     99.65412140     42.39587021
Li      -14.59133816     17.56029129     46.72540283
Li      131.31007385    106.98009491     66.85272980
Li       58.31534958     33.23331451     12.46513939
Li       58.67609787    -89.94677734      0.44429171
Li       15.54430580     49.15944672    -37.85512924
Li       32.04167175     32.93960953    -50.62907028
Li       33.00001526     64.53325653    114.19197845
Li      -41.08541107     -0.63319409    -12.55946732
Li       23.95062065      0.87034261    -12.89053249
Li       66.85519409     12.53033638     59.09588623
Li        2.88070345    -49.58461380     42.35932159
Li       19.29470444     91.80200958   -118.69276428
Li       41.32947159     63.82804108     20.83745766
Li      105.30704498     13.65634727     50.52721786
Li      -75.72583008     64.75648499     26.29084015
Li       27.52595520    -49.68122482    110.09008026
Li      -44.85384369     40.69519043    -84.80818939
Li       54.44293976     -3.40932345     71.79809570
Li      -70.87033844   -146.56036377    -12.07477760
Li       46.16425323    -17.99370003    -12.49705029
Li       75.48782349   -159.39642334     59.09335327
Li       83.82607269    -42.04319763    100.92229462
Li       32.52873993    -32.33262634      4.35871887
Li       92.41173553    -15.25747299     -9.46002579
Li      -32.61246872     56.22909164     88.74664307
Li       53.49102783    -13.50403881    -17.15171814
Li       48.26454544     42.58469009     18.62476730
Li       -2.25554013     63.72011185    -59.23972321
Li      -19.87075233     27.17427826   -118.54145813
Li       24.21128845     82.33158875     71.83496857
Li      -23.31105042    -79.14305878     13.38807678
Li       36.92167282      2.85191202    -12.52261353
Li      114.61065674    116.57554626    169.14242554
Li       -2.54553938    112.13207245     -0.21581282
Li       67.27856445    106.80487823     -3.98264551
Li      -15.73419285     35.29289627    -42.80682373
Li     -110.25132751      4.87443447      8.56216621
Li        5.78829908     54.12875366     16.61061096
Li      -32.05754089    -57.95529938      3.79616570
Li      -19.12982368    -46.81686020     21.35227203
Li       15.31455040     52.86828995     -3.80640030
Li       32.12550735    195.92097473     76.58625031
Li       62.53815079    116.34386444    -76.82930756
Li      -15.04190254     10.76351547    -63.66917801
Li      -71.46787262    -57.11971283   -169.21130371
Li      -27.27333069     28.40757751    -39.04814148
Li       27.83334732     89.48834991    -42.65053177
Li       -2.03547454     55.01822281     20.80479431
Li       -2.40161943     21.54709244     38.75914383
Li       75.56588745     60.93363190     -0.00550388
Li       -9.91942120      0.64506042    130.86071777
Li       66.68171692    -14.95387840    -85.28692627
Li       92.85620117     30.62383842     93.07526398
Li     -106.19433594     24.43881989     -7.46362352
Li      183.26683044     71.01903534     16.52359962
Li       10.57642269    -19.39406776     59.09247208
Li       54.38617325    111.26117706     98.07901764
Li      -15.49659729    -19.41292000     76.20298767
Li       45.24836731    -31.63147926     55.11909866
Li      -23.33631706     -3.64577222      3.94477201
Li       62.80483627      8.22407722    -21.19635963
Li       57.90602875    -72.44889832      8.53330231
Li      -32.56030273      7.62488365    -42.88842010
Li       72.04091644     87.07646179   -148.61074829
Li      -53.61026001    -62.34416962     29.40680695
Li       27.71315002    119.35712433    -42.01096344
Li       67.04251862    172.19689941    -42.17333603
Li       94.08244324     18.47313118     25.51078415
Li      -70.30621338     82.21426392     37.48154831
Li     -106.35220337    -65.97610474    -84.10070038
Li      -19.97272110    -36.51457214    -25.54765320
Li       89.06127930     62.90547180     63.59498215
Li        6.34249449    -14.53738594    -46.46610641
Li       62.05310059     61.70769882    -17.81654549
Li       41.02794266     30.95279312    -54.98204803
Li      -67.19749451     -1.42450702     41.96872330
Li       67.18200684     97.55084991    -80.31655884
Li      -10.61160851     61.62996292     21.72990227
Li       23.95019341    206.18569946    -37.23597717
Li       83.87583923    129.99418640   -102.09419250
Li      122.92211151    116.35925293    118.12801361
Li       54.48159409     50.75511932     45.55227661
Li        5.65167809    -18.25159073    169.30259705
Li      -82.96251678    -69.58557892   -120.01197052
Li       93.01380920    106.57686615    140.45028687
Li       41.03269577   -141.10116577     38.21928406
Li       10.59757328     -0.74255508     -4.24837303
Li       32.46792603    124.00137329     38.39646530
Li       18.45897102    -91.30523682     33.51132584
Li      222.54937744    106.23431396     58.72889709
Li       32.18522263    -96.32499695     75.73645020
Li      135.41552734     31.42168808     89.15135956
Li      -67.14023590    -25.46641731      0.17811851
Li       -6.77497673      1.61810899     79.82122040
Li       40.81703949    -11.74981594     93.85697937
Li        1.60122848    -10.08417320     16.35555649
Li       58.71573257     72.72528839     59.64495468
Li       19.27489662     57.93402481    -34.16589355
Li       66.48918152     18.31669998      0.50409055
Li       19.23160362    -16.55640793     -7.60372591
Li       27.78286552     55.96755981    -16.55627632
Li      -27.63887024    124.48274231    -63.15135193
Li      -92.87849426   -105.76487732     92.23461914
Li      118.54245758    105.74076080    -33.12530136
Li       23.56219673    -20.94833374     34.49228668
Li       -2.34950948    148.27168274      7.89752102
Li       80.20042419    135.45425415    -21.33909988
Li       40.26863861    -27.25470734     33.93404007
Li       14.41573715     15.55770969    -49.95800781
Li      -32.97505951    119.21802521   -109.43177032
Li      -92.57583618     71.98791504     12.44205379
Li      -45.61746216    -47.98092270      4.46635771
Li       58.95988083     58.69749832    135.70199585
Li      -54.65429688     63.45955658     42.19499207
Li      -23.32454300     57.31980133    -46.38411331
Li      -19.39991570     -5.42121410     12.99472141
Li      -49.64329529    -21.31809616     50.92107010
Li       37.25118256     69.13693237     88.26512909
Li       27.39210701      7.33343458    108.73430634
Li       -1.51281822    -17.58955574     71.95314026
Li       53.88873291    -97.89812469     59.80417633
Li      -24.13551521     -1.81518161    -68.96089935
Li       89.06691742     14.46819592    -80.97782135
Li       28.50223541     68.69614410      3.83243370
Li     -126.84450531     72.82301331    122.89474487
Li      -19.12808228     82.27603149   -114.72465515
Li      -84.36730194     35.26699448    -54.77310562
Li       -6.19328880     -9.69984245     29.74770355
Li       28.20463371    104.75945282     54.79400635
Li        6.90088177     -2.02892399     -3.96094418
Li       71.09191132    134.80924988     72.07614899
Li      -15.43069172     -7.10244942      0.67148185
Li       44.91368103    -83.22646332     15.68595791
Li       32.29700470     45.68441391    -13.03717804
Li      123.96557617     99.41036224    105.99667358
Li       15.26226234    -56.55991364     21.62034035
Li      -18.93208122    -35.49369049    114.06961060
Li      -28.58732414    -81.03290558     84.61620331
Li       33.04080200     46.20396805     29.40458679
Li       79.55831146     22.94356918     71.72251129
Li      103.68384552    133.51763916     65.68098450
Li       36.44722748    -52.45739365     17.25067902
Li       45.19002914     53.23435593    -17.22513008
Li      -75.92267609     62.45752335    -68.14185333
Li       -5.84164715    -48.88288879     29.26298714
Li       66.81148529     12.55015182    -34.40217590
Li       24.59948921    -17.23872566    -89.18144989
Li      -10.61273289     88.51955414    -71.64456177
Li      -92.99302673   -130.79147339    -84.84729004
Li       32.17098999    -41.99766159    160.81709290
Li      -16.76021385    -16.01859283     69.85891724
Li        2.05277848     30.43770218     -8.54217339
Li       40.77898788     93.76254272     84.59403992
Li       40.68067169    -51.73934937    -27.95929146
Li       93.46747589      7.48579264     64.03128815
Li       49.57068253      6.29804087      0.83083361
Li       49.39523697    -14.68038177    115.07154846
Li       58.17004013     57.79460907    114.71035767
Li      -27.87828445    -11.24740601     21.76399422
Li       68.82275391     61.13134766     91.32393646
Li       97.51872253     72.00624847     63.64966583
Li       97.17172241     13.93648624    152.92984009
Li        6.68599510     12.78623867   -135.69274902
Li      -63.15127945    -30.03139687    -50.67241287
Li      -32.03253555    -39.92922592      3.85681510
Li      -28.24826241     -5.48509455     72.21597290
Li      -16.61241531    -61.47667694    -82.91638184
Li        1.86795354     16.62896919      7.82507324
Li       71.79401398    -48.96300507    -46.94445801
Li       88.77087402     31.98037148    -16.86510086
Li     -119.40433502     10.23393726      8.68433857
Li       -6.56593657     53.26419449      4.27492523
Li      -27.96294975    -77.59355164    -46.71846008
Li      -36.61143875     90.92497253     63.26926422
Li      -10.74338627    -65.44919586     81.20804596
Li       63.77964020     59.46848679     25.59908485
Li       49.01624680      3.65431857     92.77787018
Li       -6.95935631    107.62352753     50.61113358
Li      -49.20853806    -13.04834747     93.68087006
Li       32.94531250    118.77177429     12.06389046
Li        2.88234472      5.44446898     97.23928070
Li      123.15585327     53.40514374    140.10652161
Li       57.55187988    -90.56359100    -17.29822540
Li      -19.01674271      7.01324940    -29.20817947
Li       58.98339844    -14.00916100    131.21803284
Li       41.77988815    173.53631592    -22.59480476
Li       35.80321884     85.84548187   -135.54646301
Li      -19.94106865     81.28601837     42.54616547
Li        7.47241831   -131.34210205     12.91744804
Li       31.73576927      3.65712333    -54.84120178
Li      127.23008728     48.48473358    101.04416656
Li      166.78385925     20.48669434     55.55126953
Li      -41.49727249    212.82426453    -93.10096741
Li       58.78481293     25.95090866     16.72956657
Li      -40.40475845     -6.60359764    242.24284363
Li       45.08537674     95.78839111     93.55678558
Li      101.75843811     52.23055649     -4.04077864
Li      151.50242615    106.06675720     52.79512787
Li      133.47644043     84.08039856    -86.79225159
Li       23.57551003     57.30743408     72.99060059
Li     -101.95519257    -19.09820175   -110.39744568
Li        7.15904713    -11.42420673   -139.25473022
Li      -19.64550972    -96.51548767    -94.23111725
Li      -10.77290440    -38.74531937     20.07184410
Li       84.10659027     54.96049881     -8.69909191
Li      -57.83742523     12.20285892     38.65451813
Li       84.24707031     21.87891388    156.76933289
Li      -58.15501404     86.78575897    -89.39463043
Li        6.28550625     51.52857590    -24.94655228
Li      -92.27690887    -67.20443726    114.12823486
Li       67.23076630     37.00776672      3.62258339
Li      -88.84829712     17.98411179     76.53917694
Li       14.30485153     -0.18208787     -0.21811563
Li       19.39593124    -43.72499084     59.62459183
Li      -18.49736023    -80.88226318    -30.08425140
Li      -40.90085602     11.37873840      4.45799446
Li      127.40896606    184.19418335     -8.57441425
Li       97.11167908    -73.94074249    -42.96127319
Li       75.87464905    -38.49499512    -12.87254047
Li      -96.85811615   -153.09599304    -64.19186401
Li      101.96471405    145.71298218     12.27696609
Li      140.20518494    189.36668396     89.14943695
Li      -32.66048050    -34.33449173    -58.85639572
Li       84.58531189    127.28379059   -131.54049683
Li       79.94617462    116.62059021     30.21557426
Li       61.72267151     85.62820435     67.40629578
Li       15.97573853     31.80946541     88.70565796
Li      -15.38613605    -76.51868439      0.24559404
Li       76.08968353     18.82422256    -21.29263306
Li       55.07461166    117.60195160   -101.50493622
Li        7.05408573     46.20713043     37.75876999
Li      -62.71780014    129.66130066    -33.84784317
Li       94.71958923     91.85528564      2.42096710
Li       -1.94086826      4.23530102   -106.03472900
Li      149.50723267     38.91904449      4.52124357
Li      -49.94995117    152.32673645     41.80847549
Li       37.59093094     66.12709808     -3.91544843
Li       53.68218994     35.11933517    -59.76829910
Li      -32.26417160     80.46935272    139.88209534
Li       45.43402100     29.65695953     63.62316132
Li       76.51628876     22.49488258     42.83528900
Li      -14.80276203   -115.20006561    -79.52930450
Li      -79.75868225     49.40246582    122.95405579
Li      123.39540863     96.04891968    -12.95235062
Li       45.04352570    -73.73240662     58.79695892
Li       98.04116821     42.43363571     70.79543304
Li        2.18050981     23.36827660     50.97086716
Li       15.27177048      6.63701057   -174.14231873
Li        1.83101499    113.39791870   -186.62187195
Li       59.28006744     77.06129456     55.23242569
Li      -27.57301903    -23.10145187     -4.19467592
Li       62.03566742     13.40995693   -161.28224182
Li     -101.69704437    -46.23647308    -12.57189655
Li       40.89671326    -54.49866104     59.17145538
Li       -6.65462923     62.84646988    -80.49543762
Li       49.02591324     60.58217621     60.36563110
Li       23.78284645    175.01330566     80.59037781
Li       62.90951157    -54.73086548     88.92481232
Li       20.16212463     68.45500183     29.46352005
Li       40.97676468     39.38589859    118.49778748
Li      145.17588806     55.18250275     54.44009781
Li      -23.92784691     41.82633591    -42.17106247
Li       49.41738510     87.64744568    102.05345154
Li       62.61878586     37.74980164    238.07229614
Li       36.73291397      8.12442970     12.69162750
Li       -6.76231384     40.75432205    -17.16167259
Li       -2.16790223    -39.07789612    -33.70855331
Li       46.11403275     -3.42145920     -5.14482784
Li      105.82469177     53.29741669     97.93733215
Li      -50.12068939     26.00522041    101.26729584
Li       41.59486771    -17.09153748    -30.12492752
Li      -66.97788239     -5.90507317     89.20074463
Li      -36.03079987     16.54313087     12.93765640
Li        6.98216391    -25.68595886    -55.70161438
Li       62.73405838    100.80454254     17.20931816
Li      -10.93741894    -20.79738426     59.91698837
Li      101.36310577     60.43879700      8.79738617
Li      -14.69604683    -67.18911743     85.04621887
Li       49.26239395     60.63419342     68.12798309
Li      -85.02853394    -70.62663269     -7.52068043
Li       93.02082825    -59.51461411    -20.82072449
Li      -53.68096161      0.89453471     29.13096428
Li      -58.33407211     64.95571136     85.32074738
Li       58.22003174    -68.99188995    106.22103882
Li       68.67197418    -29.22717667     56.70859528
Li       49.54478073    202.51824951    -97.45314026
Li       84.12735748     76.01098633    -55.26873779
Li     -116.25260925    -23.80503082      6.82536459
Li       19.78640747    -78.73757935    -37.63564682
Li      -69.15536499      7.42367697     99.32084656
Li      -32.67338562    125.89457703    190.89463806
P         0.13356039      7.42932034      2.05882192
S         0.07623107      6.30148792      0.33862740
S         0.38128957      6.39505672      3.81890726
S         1.71797132      8.72864056      1.96279037
S        -1.76252615      8.24726963      2.16332674
S         0.07623107      6.30148792      8.81652737
S         0.38128957      6.39505672     12.29680729
S         1.71797132      8.72864056     10.44069099
P         0.13356039      7.42932034     10.53672123
S        -1.76252615      8.24726963     10.64122677
S         1.71797132      8.72864056     18.91858864
P         0.13356039      7.42932034     19.01461983
S         0.07623107      6.30148792     17.29442787
S         0.38128957      6.39505672     20.77470589
S        -1.76252615      8.24726963     19.11912537
P         0.13356039      7.42932034     27.49251938
S         0.07623107      6.30148792     25.77232552
S         0.38128957      6.39505672     29.25260544
S         1.71797132      8.72864056     27.39648819
S        -1.76252615      8.24726963     27.59702492
S         0.38128957     15.44125652      3.81890726
S         1.71797132     17.77483940      1.96279037
P         0.13356039     16.47551918      2.05882192
S         0.07623107     15.34768772      0.33862740
S        -1.76252615     17.29347038      2.16332674
S         1.71797132     17.77483940     10.44069099
P         0.13356039     16.47551918     10.53672123
S         0.07623107     15.34768772      8.81652737
S         0.38128957     15.44125652     12.29680729
S        -1.76252615     17.29347038     10.64122677
S         0.07623107     15.34768772     17.29442787
S         0.38128957     15.44125652     20.77470589
S         1.71797132     17.77483940     18.91858864
P         0.13356039     16.47551918     19.01461983
S        -1.76252615     17.29347038     19.11912537
S         0.38128957     15.44125652     29.25260544
S         1.71797132     17.77483940     27.39648819
P         0.13356039     16.47551918     27.49251938
S         0.07623107     15.34768772     25.77232552
S        -1.76252615     17.29347038     27.59702492
P         0.13356039     25.52171898      2.05882192
S         0.07623107     24.39388657      0.33862740
S         0.38128957     24.48745537      3.81890726
S         1.71797132     26.82103920      1.96279037
S        -1.76252615     26.33966827      2.16332674
S         0.07623107     24.39388657      8.81652737
S         0.38128957     24.48745537     12.29680729
S         1.71797132     26.82103920     10.44069099
P         0.13356039     25.52171898     10.53672123
S        -1.76252615     26.33966827     10.64122677
S         1.71797132     26.82103920     18.91858864
P         0.13356039     25.52171898     19.01461983
S         0.07623107     24.39388657     17.29442787
S         0.38128957     24.48745537     20.77470589
S        -1.76252615     26.33966827     19.11912537
P         0.13356039     25.52171898     27.49251938
S         0.07623107     24.39388657     25.77232552
S         0.38128957     24.48745537     29.25260544
S         1.71797132     26.82103920     27.39648819
S        -1.76252615     26.33966827     27.59702492
S         0.38128957     33.53365326      3.81890726
S         1.71797132     35.86723709      1.96279037
P         0.13356039     34.56791687      2.05882192
S         0.07623107     33.44008636      0.33862740
S        -1.76252615     35.38586426      2.16332674
S         1.71797132     35.86723709     10.44069099
P         0.13356039     34.56791687     10.53672123
S         0.07623107     33.44008636      8.81652737
S         0.38128957     33.53365326     12.29680729
S        -1.76252615     35.38586426     10.64122677
S         0.07623107     33.44008636     17.29442787
S         0.38128957     33.53365326     20.77470589
S         1.71797132     35.86723709     18.91858864
P         0.13356039     34.56791687     19.01461983
S        -1.76252615     35.38586426     19.11912537
S         0.38128957     33.53365326     29.25260544
S         1.71797132     35.86723709     27.39648819
P         0.13356039     34.56791687     27.49251938
S         0.07623107     33.44008636     25.77232552
S        -1.76252615     35.38586426     27.59702492
S         6.88097382      8.24726963      2.16332674
P         8.77706051      7.42932034      2.05882192
S         8.71973038      6.30148792      0.33862740
S         9.02478981      6.39505672      3.81890726
S        10.36147118      8.72864056      1.96279037
S         6.88097382      8.24726963     10.64122677
S         8.71973038      6.30148792      8.81652737
S         9.02478981      6.39505672     12.29680729
S        10.36147118      8.72864056     10.44069099
P         8.77706051      7.42932034     10.53672123
S         6.88097382      8.24726963     19.11912537
S        10.36147118      8.72864056     18.91858864
P         8.77706051      7.42932034     19.01461983
S         8.71973038      6.30148792     17.29442787
S         9.02478981      6.39505672     20.77470589
S         6.88097382      8.24726963     27.59702492
P         8.77706051      7.42932034     27.49251938
S         8.71973038      6.30148792     25.77232552
S         9.02478981      6.39505672     29.25260544
S        10.36147118      8.72864056     27.39648819
S         6.88097382     17.29347038      2.16332674
S         9.02478981     15.44125652      3.81890726
S        10.36147118     17.77483940      1.96279037
P         8.77706051     16.47551918      2.05882192
S         8.71973038     15.34768772      0.33862740
S         6.88097382     17.29347038     10.64122677
S        10.36147118     17.77483940     10.44069099
P         8.77706051     16.47551918     10.53672123
S         8.71973038     15.34768772      8.81652737
S         9.02478981     15.44125652     12.29680729
S         6.88097382     17.29347038     19.11912537
S         8.71973038     15.34768772     17.29442787
S         9.02478981     15.44125652     20.77470589
S        10.36147118     17.77483940     18.91858864
P         8.77706051     16.47551918     19.01461983
S        10.36147118     17.77483940     27.39648819
S         8.71973038     15.34768772     25.77232552
S         6.88097382     17.29347038     27.59702492
P         8.77706051     16.47551918     27.49251938
S         9.02478981     15.44125652     29.25260544
S        10.36147118     26.82103920      1.96279037
S         6.88097382     26.33966827      2.16332674
S         8.71973038     24.39388657      0.33862740
S         9.02478981     24.48745537      3.81890726
P         8.77706051     25.52171898      2.05882192
S         6.88097382     26.33966827     10.64122677
S        10.36147118     26.82103920     10.44069099
S         9.02478981     24.48745537     12.29680729
P         8.77706051     25.52171898     10.53672123
S         8.71973038     24.39388657      8.81652737
S         6.88097382     26.33966827     19.11912537
S         8.71973038     24.39388657     17.29442787
S         9.02478981     24.48745537     20.77470589
S        10.36147118     26.82103920     18.91858864
P         8.77706051     25.52171898     19.01461983
S         6.88097382     26.33966827     27.59702492
S        10.36147118     26.82103920     27.39648819
S         8.71973038     24.39388657     25.77232552
P         8.77706051     25.52171898     27.49251938
S         9.02478981     24.48745537     29.25260544
P         8.77706051     34.56791687      2.05882192
S         6.88097382     35.38586426      2.16332674
S        10.36147118     35.86723709      1.96279037
S         9.02478981     33.53365326      3.81890726
S         8.71973038     33.44008636      0.33862740
S         8.71973038     33.44008636      8.81652737
S         9.02478981     33.53365326     12.29680729
P         8.77706051     34.56791687     10.53672123
S         6.88097382     35.38586426     10.64122677
S        10.36147118     35.86723709     10.44069099
S        10.36147118     35.86723709     18.91858864
S         9.02478981     33.53365326     20.77470589
S         6.88097382     35.38586426     19.11912537
P         8.77706051     34.56791687     19.01461983
S         8.71973038     33.44008636     17.29442787
S        10.36147118     35.86723709     27.39648819
S         8.71973038     33.44008636     25.77232552
S         6.88097382     35.38586426     27.59702492
P         8.77706051     34.56791687     27.49251938
S         9.02478981     33.53365326     29.25260544
P        17.42055893      7.42932034      2.05882192
S        19.00496864      8.72864056      1.96279037
S        17.36323166      6.30148792      0.33862740
S        17.66828918      6.39505672      3.81890726
S        15.52447224      8.24726963      2.16332674
S        17.66828918      6.39505672     12.29680729
S        17.36323166      6.30148792      8.81652737
S        19.00496864      8.72864056     10.44069099
P        17.42055893      7.42932034     10.53672123
S        15.52447224      8.24726963     10.64122677
S        17.66828918      6.39505672     20.77470589
P        17.42055893      7.42932034     19.01461983
S        19.00496864      8.72864056     18.91858864
S        17.36323166      6.30148792     17.29442787
S        15.52447224      8.24726963     19.11912537
P        17.42055893      7.42932034     27.49251938
S        17.66828918      6.39505672     29.25260544
S        17.36323166      6.30148792     25.77232552
S        19.00496864      8.72864056     27.39648819
S        15.52447224      8.24726963     27.59702492
S        17.36323166     15.34768772      0.33862740
S        17.66828918     15.44125652      3.81890726
P        17.42055893     16.47551918      2.05882192
S        19.00496864     17.77483940      1.96279037
S        15.52447224     17.29347038      2.16332674
S        17.36323166     15.34768772      8.81652737
S        19.00496864     17.77483940     10.44069099
P        17.42055893     16.47551918     10.53672123
S        17.66828918     15.44125652     12.29680729
S        15.52447224     17.29347038     10.64122677
P        17.42055893     16.47551918     19.01461983
S        19.00496864     17.77483940     18.91858864
S        17.36323166     15.34768772     17.29442787
S        17.66828918     15.44125652     20.77470589
S        15.52447224     17.29347038     19.11912537
S        17.66828918     15.44125652     29.25260544
S        17.36323166     15.34768772     25.77232552
S        19.00496864     17.77483940     27.39648819
P        17.42055893     16.47551918     27.49251938
S        15.52447224     17.29347038     27.59702492
P        17.42055893     25.52171898      2.05882192
S        19.00496864     26.82103920      1.96279037
S        17.36323166     24.39388657      0.33862740
S        17.66828918     24.48745537      3.81890726
S        15.52447224     26.33966827      2.16332674
S        17.66828918     24.48745537     12.29680729
S        17.36323166     24.39388657      8.81652737
S        19.00496864     26.82103920     10.44069099
P        17.42055893     25.52171898     10.53672123
S        15.52447224     26.33966827     10.64122677
S        17.66828918     24.48745537     20.77470589
P        17.42055893     25.52171898     19.01461983
S        19.00496864     26.82103920     18.91858864
S        17.36323166     24.39388657     17.29442787
S        15.52447224     26.33966827     19.11912537
P        17.42055893     25.52171898     27.49251938
S        17.66828918     24.48745537     29.25260544
S        17.36323166     24.39388657     25.77232552
S        19.00496864     26.82103920     27.39648819
S        15.52447224     26.33966827     27.59702492
S        17.36323166     33.44008636      0.33862740
S        17.66828918     33.53365326      3.81890726
P        17.42055893     34.56791687      2.05882192
S        19.00496864     35.86723709      1.96279037
S        15.52447224     35.38586426      2.16332674
S        17.36323166     33.44008636      8.81652737
S        19.00496864     35.86723709     10.44069099
P        17.42055893     34.56791687     10.53672123
S        17.66828918     33.53365326     12.29680729
S        15.52447224     35.38586426     10.64122677
P        17.42055893     34.56791687     19.01461983
S        19.00496864     35.86723709     18.91858864
S        17.36323166     33.44008636     17.29442787
S        17.66828918     33.53365326     20.77470589
S        15.52447224     35.38586426     19.11912537
S        17.66828918     33.53365326     29.25260544
S        17.36323166     33.44008636     25.77232552
S        19.00496864     35.86723709     27.39648819
P        17.42055893     34.56791687     27.49251938
S        15.52447224     35.38586426     27.59702492
S        24.16797256      8.24726963      2.16332674
P        26.06406021      7.42932034      2.05882192
S        27.64846992      8.72864056      1.96279037
S        26.00673103      6.30148792      0.33862740
S        26.31178856      6.39505672      3.81890726
S        24.16797256      8.24726963     10.64122677
S        26.31178856      6.39505672     12.29680729
S        26.00673103      6.30148792      8.81652737
S        27.64846992      8.72864056     10.44069099
P        26.06406021      7.42932034     10.53672123
S        24.16797256      8.24726963     19.11912537
S        26.31178856      6.39505672     20.77470589
P        26.06406021      7.42932034     19.01461983
S        27.64846992      8.72864056     18.91858864
S        26.00673103      6.30148792     17.29442787
S        24.16797256      8.24726963     27.59702492
P        26.06406021      7.42932034     27.49251938
S        26.31178856      6.39505672     29.25260544
S        26.00673103      6.30148792     25.77232552
S        27.64846992      8.72864056     27.39648819
S        24.16797256     17.29347038      2.16332674
S        26.00673103     15.34768772      0.33862740
S        26.31178856     15.44125652      3.81890726
P        26.06406021     16.47551918      2.05882192
S        27.64846992     17.77483940      1.96279037
S        24.16797256     17.29347038     10.64122677
S        26.00673103     15.34768772      8.81652737
S        27.64846992     17.77483940     10.44069099
P        26.06406021     16.47551918     10.53672123
S        26.31178856     15.44125652     12.29680729
S        24.16797256     17.29347038     19.11912537
P        26.06406021     16.47551918     19.01461983
S        27.64846992     17.77483940     18.91858864
S        26.00673103     15.34768772     17.29442787
S        26.31178856     15.44125652     20.77470589
S        27.64846992     17.77483940     27.39648819
S        26.00673103     15.34768772     25.77232552
S        24.16797256     17.29347038     27.59702492
P        26.06406021     16.47551918     27.49251938
S        26.31178856     15.44125652     29.25260544
S        24.16797256     26.33966827      2.16332674
S        27.64846992     26.82103920      1.96279037
S        26.00673103     24.39388657      0.33862740
S        26.31178856     24.48745537      3.81890726
P        26.06406021     25.52171898      2.05882192
S        24.16797256     26.33966827     10.64122677
S        27.64846992     26.82103920     10.44069099
S        26.00673103     24.39388657      8.81652737
P        26.06406021     25.52171898     10.53672123
S        26.31178856     24.48745537     12.29680729
S        24.16797256     26.33966827     19.11912537
S        27.64846992     26.82103920     18.91858864
S        26.00673103     24.39388657     17.29442787
S        26.31178856     24.48745537     20.77470589
P        26.06406021     25.52171898     19.01461983
S        26.00673103     24.39388657     25.77232552
S        24.16797256     26.33966827     27.59702492
S        27.64846992     26.82103920     27.39648819
P        26.06406021     25.52171898     27.49251938
S        26.31178856     24.48745537     29.25260544
S        26.31178856     33.53365326      3.81890726
P        26.06406021     34.56791687      2.05882192
S        24.16797256     35.38586426      2.16332674
S        27.64846992     35.86723709      1.96279037
S        26.00673103     33.44008636      0.33862740
S        27.64846992     35.86723709     10.44069099
S        26.31178856     33.53365326     12.29680729
P        26.06406021     34.56791687     10.53672123
S        24.16797256     35.38586426     10.64122677
S        26.00673103     33.44008636      8.81652737
S        27.64846992     35.86723709     18.91858864
S        26.00673103     33.44008636     17.29442787
S        26.31178856     33.53365326     20.77470589
S        24.16797256     35.38586426     19.11912537
P        26.06406021     34.56791687     19.01461983
S        27.64846992     35.86723709     27.39648819
S        26.00673103     33.44008636     25.77232552
S        24.16797256     35.38586426     27.59702492
P        26.06406021     34.56791687     27.49251938
S        26.31178856     33.53365326     29.25260544
S         8.59868145      2.55062222      4.59899426
P         8.62425995      1.43142736      6.32084656
S         7.03375053      0.12948570      6.23224068
S         8.50094318      2.54693842      8.04579258
S        10.49157810      0.53820163      6.38177395
P         8.62425995      1.43142736     14.79874611
S         7.03375053      0.12948570     14.71013927
S         8.50094318      2.54693842     16.52369308
S         8.59868145      2.55062222     13.07689476
S        10.49157810      0.53820163     14.85967350
S         8.50094318      2.54693842     25.00159073
S         8.59868145      2.55062222     21.55479431
P         8.62425995      1.43142736     23.27664566
S         7.03375053      0.12948570     23.18803978
S        10.49157810      0.53820163     23.33757401
S         8.59868145      2.55062222     30.03269196
P         8.62425995      1.43142736     31.75454521
S         7.03375053      0.12948570     31.66593933
S         8.50094318      2.54693842     33.47949219
S        10.49157810      0.53820163     31.81547165
S         7.03375053      9.17568493      6.23224068
S         8.50094318     11.59313869      8.04579258
S         8.59868145     11.59682274      4.59899426
P         8.62425995     10.47762680      6.32084656
S        10.49157810      9.58440113      6.38177395
S         8.50094318     11.59313869     16.52369308
S         8.59868145     11.59682274     13.07689476
P         8.62425995     10.47762680     14.79874611
S         7.03375053      9.17568493     14.71013927
S        10.49157810      9.58440113     14.85967350
P         8.62425995     10.47762680     23.27664566
S         7.03375053      9.17568493     23.18803978
S         8.50094318     11.59313869     25.00159073
S         8.59868145     11.59682274     21.55479431
S        10.49157810      9.58440113     23.33757401
S         7.03375053      9.17568493     31.66593933
S         8.50094318     11.59313869     33.47949219
S         8.59868145     11.59682274     30.03269196
P         8.62425995     10.47762680     31.75454521
S        10.49157810      9.58440113     31.81547165
S         8.59868145     20.64302254      4.59899426
P         8.62425995     19.52382660      6.32084656
S         7.03375053     18.22188568      6.23224068
S         8.50094318     20.63933945      8.04579258
S        10.49157810     18.63059998      6.38177395
P         8.62425995     19.52382660     14.79874611
S         7.03375053     18.22188568     14.71013927
S         8.50094318     20.63933945     16.52369308
S         8.59868145     20.64302254     13.07689476
S        10.49157810     18.63059998     14.85967350
S         8.50094318     20.63933945     25.00159073
S         8.59868145     20.64302254     21.55479431
P         8.62425995     19.52382660     23.27664566
S         7.03375053     18.22188568     23.18803978
S        10.49157810     18.63059998     23.33757401
S         8.59868145     20.64302254     30.03269196
P         8.62425995     19.52382660     31.75454521
S         7.03375053     18.22188568     31.66593933
S         8.50094318     20.63933945     33.47949219
S        10.49157810     18.63059998     31.81547165
S         7.03375053     27.26808357      6.23224068
S         8.50094318     29.68553925      8.04579258
S         8.59868145     29.68922234      4.59899426
P         8.62425995     28.57002640      6.32084656
S        10.49157810     27.67679977      6.38177395
S         8.50094318     29.68553925     16.52369308
S         8.59868145     29.68922234     13.07689476
P         8.62425995     28.57002640     14.79874611
S         7.03375053     27.26808357     14.71013927
S        10.49157810     27.67679977     14.85967350
P         8.62425995     28.57002640     23.27664566
S         7.03375053     27.26808357     23.18803978
S         8.50094318     29.68553925     25.00159073
S         8.59868145     29.68922234     21.55479431
S        10.49157810     27.67679977     23.33757401
S         7.03375053     27.26808357     31.66593933
S         8.50094318     29.68553925     33.47949219
S         8.59868145     29.68922234     30.03269196
P         8.62425995     28.57002640     31.75454521
S        10.49157810     27.67679977     31.81547165
S        19.13507652      0.53820163      6.38177395
S        17.24217987      2.55062222      4.59899426
P        17.26775932      1.43142736      6.32084656
S        15.67725086      0.12948570      6.23224068
S        17.14444351      2.54693842      8.04579258
S        19.13507652      0.53820163     14.85967350
P        17.26775932      1.43142736     14.79874611
S        15.67725086      0.12948570     14.71013927
S        17.14444351      2.54693842     16.52369308
S        17.24217987      2.55062222     13.07689476
S        19.13507652      0.53820163     23.33757401
S        17.14444351      2.54693842     25.00159073
S        17.24217987      2.55062222     21.55479431
P        17.26775932      1.43142736     23.27664566
S        15.67725086      0.12948570     23.18803978
S        19.13507652      0.53820163     31.81547165
S        17.24217987      2.55062222     30.03269196
P        17.26775932      1.43142736     31.75454521
S        15.67725086      0.12948570     31.66593933
S        17.14444351      2.54693842     33.47949219
S        19.13507652      9.58440113      6.38177395
S        15.67725086      9.17568493      6.23224068
S        17.14444351     11.59313869      8.04579258
S        17.24217987     11.59682274      4.59899426
P        17.26775932     10.47762680      6.32084656
S        19.13507652      9.58440113     14.85967350
S        17.14444351     11.59313869     16.52369308
S        17.24217987     11.59682274     13.07689476
P        17.26775932     10.47762680     14.79874611
S        15.67725086      9.17568493     14.71013927
S        19.13507652      9.58440113     23.33757401
P        17.26775932     10.47762680     23.27664566
S        15.67725086      9.17568493     23.18803978
S        17.14444351     11.59313869     25.00159073
S        17.24217987     11.59682274     21.55479431
S        17.24217987     11.59682274     30.03269196
S        19.13507652      9.58440113     31.81547165
S        17.14444351     11.59313869     33.47949219
P        17.26775932     10.47762680     31.75454521
S        15.67725086      9.17568493     31.66593933
S        15.67725086     18.22188568      6.23224068
S        19.13507652     18.63059998      6.38177395
S        17.14444351     20.63933945      8.04579258
P        17.26775932     19.52382660      6.32084656
S        17.24217987     20.64302254      4.59899426
S        19.13507652     18.63059998     14.85967350
S        15.67725086     18.22188568     14.71013927
S        17.24217987     20.64302254     13.07689476
S        17.14444351     20.63933945     16.52369308
P        17.26775932     19.52382660     14.79874611
S        19.13507652     18.63059998     23.33757401
S        15.67725086     18.22188568     23.18803978
S        17.24217987     20.64302254     21.55479431
S        17.14444351     20.63933945     25.00159073
P        17.26775932     19.52382660     23.27664566
P        17.26775932     19.52382660     31.75454521
S        19.13507652     18.63059998     31.81547165
S        15.67725086     18.22188568     31.66593933
S        17.24217987     20.64302254     30.03269196
S        17.14444351     20.63933945     33.47949219
S        17.14444351     29.68553925      8.04579258
P        17.26775932     28.57002640      6.32084656
S        19.13507652     27.67679977      6.38177395
S        15.67725086     27.26808357      6.23224068
S        17.24217987     29.68922234      4.59899426
S        17.24217987     29.68922234     13.07689476
P        17.26775932     28.57002640     14.79874611
S        19.13507652     27.67679977     14.85967350
S        17.14444351     29.68553925     16.52369308
S        15.67725086     27.26808357     14.71013927
S        15.67725086     27.26808357     23.18803978
S        17.24217987     29.68922234     21.55479431
S        17.14444351     29.68553925     25.00159073
S        19.13507652     27.67679977     23.33757401
P        17.26775932     28.57002640     23.27664566
S        17.24217987     29.68922234     30.03269196
S        19.13507652     27.67679977     31.81547165
S        17.14444351     29.68553925     33.47949219
P        17.26775932     28.57002640     31.75454521
S        15.67725086     27.26808357     31.66593933
S        25.88568115      2.55062222      4.59899426
S        25.78794289      2.54693842      8.04579258
P        25.91125870      1.43142736      6.32084656
S        24.32075119      0.12948570      6.23224068
S        27.77857590      0.53820163      6.38177395
S        24.32075119      0.12948570     14.71013927
S        25.78794289      2.54693842     16.52369308
P        25.91125870      1.43142736     14.79874611
S        25.88568115      2.55062222     13.07689476
S        27.77857590      0.53820163     14.85967350
S        24.32075119      0.12948570     23.18803978
S        25.88568115      2.55062222     21.55479431
S        25.78794289      2.54693842     25.00159073
P        25.91125870      1.43142736     23.27664566
S        27.77857590      0.53820163     23.33757401
P        25.91125870      1.43142736     31.75454521
S        25.88568115      2.55062222     30.03269196
S        24.32075119      0.12948570     31.66593933
S        25.78794289      2.54693842     33.47949219
S        27.77857590      0.53820163     31.81547165
P        25.91125870     10.47762680      6.32084656
S        24.32075119      9.17568493      6.23224068
S        25.88568115     11.59682274      4.59899426
S        25.78794289     11.59313869      8.04579258
S        27.77857590      9.58440113      6.38177395
S        25.78794289     11.59313869     16.52369308
P        25.91125870     10.47762680     14.79874611
S        25.88568115     11.59682274     13.07689476
S        24.32075119      9.17568493     14.71013927
S        27.77857590      9.58440113     14.85967350
S        25.88568115     11.59682274     21.55479431
S        25.78794289     11.59313869     25.00159073
P        25.91125870     10.47762680     23.27664566
S        24.32075119      9.17568493     23.18803978
S        27.77857590      9.58440113     23.33757401
S        24.32075119      9.17568493     31.66593933
S        25.78794289     11.59313869     33.47949219
P        25.91125870     10.47762680     31.75454521
S        25.88568115     11.59682274     30.03269196
S        27.77857590      9.58440113     31.81547165
S        25.88568115     20.64302254      4.59899426
S        25.78794289     20.63933945      8.04579258
P        25.91125870     19.52382660      6.32084656
S        24.32075119     18.22188568      6.23224068
S        27.77857590     18.63059998      6.38177395
S        24.32075119     18.22188568     14.71013927
S        25.78794289     20.63933945     16.52369308
P        25.91125870     19.52382660     14.79874611
S        25.88568115     20.64302254     13.07689476
S        27.77857590     18.63059998     14.85967350
S        24.32075119     18.22188568     23.18803978
S        25.88568115     20.64302254     21.55479431
S        25.78794289     20.63933945     25.00159073
P        25.91125870     19.52382660     23.27664566
S        27.77857590     18.63059998     23.33757401
P        25.91125870     19.52382660     31.75454521
S        25.88568115     20.64302254     30.03269196
S        24.32075119     18.22188568     31.66593933
S        25.78794289     20.63933945     33.47949219
S        27.77857590     18.63059998     31.81547165
P        25.91125870     28.57002640      6.32084656
S        24.32075119     27.26808357      6.23224068
S        25.88568115     29.68922234      4.59899426
S        25.78794289     29.68553925      8.04579258
S        27.77857590     27.67679977      6.38177395
S        25.78794289     29.68553925     16.52369308
P        25.91125870     28.57002640     14.79874611
S        25.88568115     29.68922234     13.07689476
S        24.32075119     27.26808357     14.71013927
S        27.77857590     27.67679977     14.85967350
S        25.88568115     29.68922234     21.55479431
S        25.78794289     29.68553925     25.00159073
P        25.91125870     28.57002640     23.27664566
S        24.32075119     27.26808357     23.18803978
S        27.77857590     27.67679977     23.33757401
S        24.32075119     27.26808357     31.66593933
S        25.78794289     29.68553925     33.47949219
P        25.91125870     28.57002640     31.75454521
S        25.88568115     29.68922234     30.03269196
S        27.77857590     27.67679977     31.81547165
S         1.84807801      0.53820163      6.38177395
S        -0.04481757      2.55062222      4.59899426
S        -0.14255774      2.54693842      8.04579258
P        -0.01924002      1.43142736      6.32084656
S        -1.60975122      0.12948570      6.23224068
S         1.84807801      0.53820163     14.85967350
S        -1.60975122      0.12948570     14.71013927
S        -0.14255774      2.54693842     16.52369308
P        -0.01924002      1.43142736     14.79874611
S        -0.04481757      2.55062222     13.07689476
S         1.84807801      0.53820163     23.33757401
S        -1.60975122      0.12948570     23.18803978
S        -0.04481757      2.55062222     21.55479431
S        -0.14255774      2.54693842     25.00159073
P        -0.01924002      1.43142736     23.27664566
S         1.84807801      0.53820163     31.81547165
P        -0.01924002      1.43142736     31.75454521
S        -0.04481757      2.55062222     30.03269196
S        -1.60975122      0.12948570     31.66593933
S        -0.14255774      2.54693842     33.47949219
S         1.84807801      9.58440113      6.38177395
P        -0.01924002     10.47762680      6.32084656
S        -1.60975122      9.17568493      6.23224068
S        -0.04481757     11.59682274      4.59899426
S        -0.14255774     11.59313869      8.04579258
S         1.84807801      9.58440113     14.85967350
S        -0.14255774     11.59313869     16.52369308
P        -0.01924002     10.47762680     14.79874611
S        -0.04481757     11.59682274     13.07689476
S        -1.60975122      9.17568493     14.71013927
S         1.84807801      9.58440113     23.33757401
S        -0.04481757     11.59682274     21.55479431
S        -0.14255774     11.59313869     25.00159073
P        -0.01924002     10.47762680     23.27664566
S        -1.60975122      9.17568493     23.18803978
S        34.52917862     11.59682274     30.03269196
S        36.42207718      9.58440113     31.81547165
S        34.43143845     11.59313869     33.47949219
P        34.55475998     10.47762680     31.75454521
S        32.96424866      9.17568493     31.66593933
S        32.96424866     18.22188568      6.23224068
S        36.42207718     18.63059998      6.38177395
S        34.43143845     20.63933945      8.04579258
P        34.55475998     19.52382660      6.32084656
S        34.52917862     20.64302254      4.59899426
S         1.84807801     18.63059998     14.85967350
S        -0.04481757     20.64302254     13.07689476
S        -0.14255774     20.63933945     16.52369308
S        -1.60975122     18.22188568     14.71013927
P        -0.01924002     19.52382660     14.79874611
S        34.43143845     20.63933945     25.00159073
S        36.42207718     18.63059998     23.33757401
S        34.52917862     20.64302254     21.55479431
S        32.96424866     18.22188568     23.18803978
P        34.55475998     19.52382660     23.27664566
S         1.84807801     18.63059998     31.81547165
S        -1.60975122     18.22188568     31.66593933
S        -0.04481757     20.64302254     30.03269196
P        -0.01924002     19.52382660     31.75454521
S        -0.14255774     20.63933945     33.47949219
S        34.43143845     29.68553925      8.04579258
S        36.42207718     27.67679977      6.38177395
S        32.96424866     27.26808357      6.23224068
P        34.55475998     28.57002640      6.32084656
S        34.52917862     29.68922234      4.59899426
S        34.52917862     29.68922234     13.07689476
P        34.55475998     28.57002640     14.79874611
S        36.42207718     27.67679977     14.85967350
S        34.43143845     29.68553925     16.52369308
S        32.96424866     27.26808357     14.71013927
S        32.96424866     27.26808357     23.18803978
S        34.43143845     29.68553925     25.00159073
S        36.42207718     27.67679977     23.33757401
P        34.55475998     28.57002640     23.27664566
S        34.52917862     29.68922234     21.55479431
S        34.52917862     29.68922234     30.03269196
S        36.42207718     27.67679977     31.81547165
S        34.43143845     29.68553925     33.47949219
P        34.55475998     28.57002640     31.75454521
S        32.96424866     27.26808357     31.66593933
S         2.55707860      3.72702479      2.16970515
S         4.68690920      1.85451043      3.81615973
S         4.40876293      1.79732180      0.33176979
P         4.44928074      2.90685177      2.06477547
S         6.03877926      4.20367098      1.98782718
S         4.40876293      1.79732180      8.80966949
S         2.55707860      3.72702479     10.64760494
P         4.44928074      2.90685177     10.54267406
S         6.03877926      4.20367098     10.46572590
S         4.68690920      1.85451043     12.29405975
S         6.03877926      4.20367098     18.94362450
S         2.55707860      3.72702479     19.12550545
S         4.68690920      1.85451043     20.77195930
S         4.40876293      1.79732180     17.28756714
P         4.44928074      2.90685177     19.02057266
S         4.40876293      1.79732180     25.76546860
S         2.55707860      3.72702479     27.60340500
P         4.44928074      2.90685177     27.49847412
S         6.03877926      4.20367098     27.42152786
S         4.68690920      1.85451043     29.24985886
P         4.44928074     11.95305157      2.06477547
S         6.03877926     13.24987030      1.98782718
S         2.55707860     12.77322483      2.16970515
S         4.68690920     10.90070915      3.81615973
S         4.40876293     10.84352207      0.33176979
S         6.03877926     13.24987030     10.46572590
S         4.68690920     10.90070915     12.29405975
S         4.40876293     10.84352207      8.80966949
S         2.55707860     12.77322483     10.64760494
P         4.44928074     11.95305157     10.54267406
S         4.40876293     10.84352207     17.28756714
P         4.44928074     11.95305157     19.02057266
S         6.03877926     13.24987030     18.94362450
S         2.55707860     12.77322483     19.12550545
S         4.68690920     10.90070915     20.77195930
P         4.44928074     11.95305157     27.49847412
S         6.03877926     13.24987030     27.42152786
S         4.68690920     10.90070915     29.24985886
S         4.40876293     10.84352207     25.76546860
S         2.55707860     12.77322483     27.60340500
S         2.55707860     21.81942558      2.16970515
S         4.68690920     19.94691086      3.81615973
S         4.40876293     19.88971901      0.33176979
P         4.44928074     20.99925041      2.06477547
S         6.03877926     22.29607010      1.98782718
S         4.40876293     19.88971901      8.80966949
S         2.55707860     21.81942558     10.64760494
P         4.44928074     20.99925041     10.54267406
S         6.03877926     22.29607010     10.46572590
S         4.68690920     19.94691086     12.29405975
S         6.03877926     22.29607010     18.94362450
S         2.55707860     21.81942558     19.12550545
S         4.68690920     19.94691086     20.77195930
S         4.40876293     19.88971901     17.28756714
P         4.44928074     20.99925041     19.02057266
S         4.40876293     19.88971901     25.76546860
S         2.55707860     21.81942558     27.60340500
P         4.44928074     20.99925041     27.49847412
S         6.03877926     22.29607010     27.42152786
S         4.68690920     19.94691086     29.24985886
P         4.44928074     30.04545021      2.06477547
S         6.03877926     31.34226990      1.98782718
S         2.55707860     30.86562538      2.16970515
S         4.68690920     28.99310875      3.81615973
S         4.40876293     28.93592072      0.33176979
S         6.03877926     31.34226990     10.46572590
S         4.68690920     28.99310875     12.29405975
S         4.40876293     28.93592072      8.80966949
S         2.55707860     30.86562538     10.64760494
P         4.44928074     30.04545021     10.54267406
S         4.40876293     28.93592072     17.28756714
P         4.44928074     30.04545021     19.02057266
S         6.03877926     31.34226990     18.94362450
S         2.55707860     30.86562538     19.12550545
S         4.68690920     28.99310875     20.77195930
P         4.44928074     30.04545021     27.49847412
S         6.03877926     31.34226990     27.42152786
S         4.68690920     28.99310875     29.24985886
S         4.40876293     28.93592072     25.76546860
S         2.55707860     30.86562538     27.60340500
S        11.20057869      3.72702479      2.16970515
S        13.33041000      1.85451043      3.81615973
S        13.05226326      1.79732180      0.33176979
P        13.09278011      2.90685177      2.06477547
S        14.68227959      4.20367098      1.98782718
S        13.05226326      1.79732180      8.80966949
S        11.20057869      3.72702479     10.64760494
P        13.09278011      2.90685177     10.54267406
S        14.68227959      4.20367098     10.46572590
S        13.33041000      1.85451043     12.29405975
S        14.68227959      4.20367098     18.94362450
S        11.20057869      3.72702479     19.12550545
S        13.33041000      1.85451043     20.77195930
S        13.05226326      1.79732180     17.28756714
P        13.09278011      2.90685177     19.02057266
S        13.05226326      1.79732180     25.76546860
S        11.20057869      3.72702479     27.60340500
P        13.09278011      2.90685177     27.49847412
S        14.68227959      4.20367098     27.42152786
S        13.33041000      1.85451043     29.24985886
P        13.09278011     11.95305157      2.06477547
S        14.68227959     13.24987030      1.98782718
S        11.20057869     12.77322483      2.16970515
S        13.33041000     10.90070915      3.81615973
S        13.05226326     10.84352207      0.33176979
S        14.68227959     13.24987030     10.46572590
S        13.33041000     10.90070915     12.29405975
S        13.05226326     10.84352207      8.80966949
S        11.20057869     12.77322483     10.64760494
P        13.09278011     11.95305157     10.54267406
S        13.05226326     10.84352207     17.28756714
P        13.09278011     11.95305157     19.02057266
S        14.68227959     13.24987030     18.94362450
S        11.20057869     12.77322483     19.12550545
S        13.33041000     10.90070915     20.77195930
S        13.05226326     10.84352207     25.76546860
S        13.33041000     10.90070915     29.24985886
S        11.20057869     12.77322483     27.60340500
P        13.09278011     11.95305157     27.49847412
S        14.68227959     13.24987030     27.42152786
S        13.05226326     19.88971901      0.33176979
S        13.33041000     19.94691086      3.81615973
P        13.09278011     20.99925041      2.06477547
S        11.20057869     21.81942558      2.16970515
S        14.68227959     22.29607010      1.98782718
S        14.68227959     22.29607010     10.46572590
S        13.33041000     19.94691086     12.29405975
S        13.05226326     19.88971901      8.80966949
P        13.09278011     20.99925041     10.54267406
S        11.20057869     21.81942558     10.64760494
S        11.20057869     21.81942558     19.12550545
S        14.68227959     22.29607010     18.94362450
P        13.09278011     20.99925041     19.02057266
S        13.05226326     19.88971901     17.28756714
S        13.33041000     19.94691086     20.77195930
P        13.09278011     20.99925041     27.49847412
S        13.33041000     19.94691086     29.24985886
S        11.20057869     21.81942558     27.60340500
S        14.68227959     22.29607010     27.42152786
S        13.05226326     19.88971901     25.76546860
S        13.05226326     28.93592072      0.33176979
S        13.33041000     28.99310875      3.81615973
S        11.20057869     30.86562538      2.16970515
S        14.68227959     31.34226990      1.98782718
P        13.09278011     30.04545021      2.06477547
S        13.05226326     28.93592072      8.80966949
S        13.33041000     28.99310875     12.29405975
P        13.09278011     30.04545021     10.54267406
S        11.20057869     30.86562538     10.64760494
S        14.68227959     31.34226990     10.46572590
P        13.09278011     30.04545021     19.02057266
S        13.33041000     28.99310875     20.77195930
S        11.20057869     30.86562538     19.12550545
S        14.68227959     31.34226990     18.94362450
S        13.05226326     28.93592072     17.28756714
S        14.68227959     31.34226990     27.42152786
S        13.05226326     28.93592072     25.76546860
S        13.33041000     28.99310875     29.24985886
S        11.20057869     30.86562538     27.60340500
P        13.09278011     30.04545021     27.49847412
S        19.84407806      3.72702479      2.16970515
S        21.97390938      1.85451043      3.81615973
S        23.32577896      4.20367098      1.98782718
S        21.69576263      1.79732180      0.33176979
P        21.73627853      2.90685177      2.06477547
S        19.84407806      3.72702479     10.64760494
P        21.73627853      2.90685177     10.54267406
S        23.32577896      4.20367098     10.46572590
S        21.97390938      1.85451043     12.29405975
S        21.69576263      1.79732180      8.80966949
P        21.73627853      2.90685177     19.02057266
S        19.84407806      3.72702479     19.12550545
S        21.97390938      1.85451043     20.77195930
S        23.32577896      4.20367098     18.94362450
S        21.69576263      1.79732180     17.28756714
S        21.97390938      1.85451043     29.24985886
S        21.69576263      1.79732180     25.76546860
S        19.84407806      3.72702479     27.60340500
P        21.73627853      2.90685177     27.49847412
S        23.32577896      4.20367098     27.42152786
S        21.69576263     10.84352207      0.33176979
P        21.73627853     11.95305157      2.06477547
S        19.84407806     12.77322483      2.16970515
S        21.97390938     10.90070915      3.81615973
S        23.32577896     13.24987030      1.98782718
S        23.32577896     13.24987030     10.46572590
S        21.97390938     10.90070915     12.29405975
S        21.69576263     10.84352207      8.80966949
S        19.84407806     12.77322483     10.64760494
P        21.73627853     11.95305157     10.54267406
S        23.32577896     13.24987030     18.94362450
S        21.69576263     10.84352207     17.28756714
P        21.73627853     11.95305157     19.02057266
S        19.84407806     12.77322483     19.12550545
S        21.97390938     10.90070915     20.77195930
P        21.73627853     11.95305157     27.49847412
S        23.32577896     13.24987030     27.42152786
S        21.97390938     10.90070915     29.24985886
S        21.69576263     10.84352207     25.76546860
S        19.84407806     12.77322483     27.60340500
S        19.84407806     21.81942558      2.16970515
S        21.97390938     19.94691086      3.81615973
S        23.32577896     22.29607010      1.98782718
S        21.69576263     19.88971901      0.33176979
P        21.73627853     20.99925041      2.06477547
S        19.84407806     21.81942558     10.64760494
P        21.73627853     20.99925041     10.54267406
S        23.32577896     22.29607010     10.46572590
S        21.97390938     19.94691086     12.29405975
S        21.69576263     19.88971901      8.80966949
P        21.73627853     20.99925041     19.02057266
S        19.84407806     21.81942558     19.12550545
S        21.97390938     19.94691086     20.77195930
S        23.32577896     22.29607010     18.94362450
S        21.69576263     19.88971901     17.28756714
S        21.97390938     19.94691086     29.24985886
S        21.69576263     19.88971901     25.76546860
S        19.84407806     21.81942558     27.60340500
P        21.73627853     20.99925041     27.49847412
S        23.32577896     22.29607010     27.42152786
S        21.69576263     28.93592072      0.33176979
P        21.73627853     30.04545021      2.06477547
S        19.84407806     30.86562538      2.16970515
S        21.97390938     28.99310875      3.81615973
S        23.32577896     31.34226990      1.98782718
S        23.32577896     31.34226990     10.46572590
S        21.97390938     28.99310875     12.29405975
S        21.69576263     28.93592072      8.80966949
S        19.84407806     30.86562538     10.64760494
P        21.73627853     30.04545021     10.54267406
S        23.32577896     31.34226990     18.94362450
S        21.69576263     28.93592072     17.28756714
P        21.73627853     30.04545021     19.02057266
S        19.84407806     30.86562538     19.12550545
S        21.97390938     28.99310875     20.77195930
P        21.73627853     30.04545021     27.49847412
S        23.32577896     31.34226990     27.42152786
S        21.97390938     28.99310875     29.24985886
S        21.69576263     28.93592072     25.76546860
S        19.84407806     30.86562538     27.60340500
S        28.48757935      3.72702479      2.16970515
S        30.61740685      1.85451043      3.81615973
S        31.96927834      4.20367098      1.98782718
S        30.33926392      1.79732180      0.33176979
P        30.37978172      2.90685177      2.06477547
S        28.48757935      3.72702479     10.64760494
P        30.37978172      2.90685177     10.54267406
S        31.96927834      4.20367098     10.46572590
S        30.61740685      1.85451043     12.29405975
S        30.33926392      1.79732180      8.80966949
P        30.37978172      2.90685177     19.02057266
S        28.48757935      3.72702479     19.12550545
S        30.61740685      1.85451043     20.77195930
S        31.96927834      4.20367098     18.94362450
S        30.33926392      1.79732180     17.28756714
S        30.61740685      1.85451043     29.24985886
S        30.33926392      1.79732180     25.76546860
S        28.48757935      3.72702479     27.60340500
P        30.37978172      2.90685177     27.49847412
S        31.96927834      4.20367098     27.42152786
S        30.33926392     10.84352207      0.33176979
P        30.37978172     11.95305157      2.06477547
S        28.48757935     12.77322483      2.16970515
S        30.61740685     10.90070915      3.81615973
S        31.96927834     13.24987030      1.98782718
S        31.96927834     13.24987030     10.46572590
S        30.61740685     10.90070915     12.29405975
S        30.33926392     10.84352207      8.80966949
S        28.48757935     12.77322483     10.64760494
P        30.37978172     11.95305157     10.54267406
S        31.96927834     13.24987030     18.94362450
S        30.33926392     10.84352207     17.28756714
P        30.37978172     11.95305157     19.02057266
S        28.48757935     12.77322483     19.12550545
S        30.61740685     10.90070915     20.77195930
S        30.33926392     10.84352207     25.76546860
S        30.61740685     10.90070915     29.24985886
S        28.48757935     12.77322483     27.60340500
P        30.37978172     11.95305157     27.49847412
S        31.96927834     13.24987030     27.42152786
S        31.96927834     22.29607010      1.98782718
S        30.33926392     19.88971901      0.33176979
S        30.61740685     19.94691086      3.81615973
P        30.37978172     20.99925041      2.06477547
S        28.48757935     21.81942558      2.16970515
S        31.96927834     22.29607010     10.46572590
S        30.61740685     19.94691086     12.29405975
S        28.48757935     21.81942558     10.64760494
P        30.37978172     20.99925041     10.54267406
S        30.33926392     19.88971901      8.80966949
S        30.61740685     19.94691086     20.77195930
S        28.48757935     21.81942558     19.12550545
S        31.96927834     22.29607010     18.94362450
P        30.37978172     20.99925041     19.02057266
S        30.33926392     19.88971901     17.28756714
S        30.33926392     19.88971901     25.76546860
P        30.37978172     20.99925041     27.49847412
S        28.48757935     21.81942558     27.60340500
S        31.96927834     22.29607010     27.42152786
S        30.61740685     19.94691086     29.24985886
P        30.37978172     30.04545021      2.06477547
S        30.61740685     28.99310875      3.81615973
S        28.48757935     30.86562538      2.16970515
S        31.96927834     31.34226990      1.98782718
S        30.33926392     28.93592072      0.33176979
S        30.33926392     28.93592072      8.80966949
S        30.61740685     28.99310875     12.29405975
P        30.37978172     30.04545021     10.54267406
S        28.48757935     30.86562538     10.64760494
S        31.96927834     31.34226990     10.46572590
S        30.33926392     28.93592072     17.28756714
P        30.37978172     30.04545021     19.02057266
S        30.61740685     28.99310875     20.77195930
S        28.48757935     30.86562538     19.12550545
S        31.96927834     31.34226990     18.94362450
S        31.96927834     31.34226990     27.42152786
S        30.33926392     28.93592072     25.76546860
S        30.61740685     28.99310875     29.24985886
S        28.48757935     30.86562538     27.60340500
P        30.37978172     30.04545021     27.49847412
S         6.16996384      5.06017256      6.38299274
S         4.29002380      7.08196259      4.60333204
S         4.17791653      7.07625246      8.04720783
S         2.70986295      4.66403198      6.23054552
P         4.30682993      5.95866919      6.32365513
S         6.16996384      5.06017256     14.86089230
S         2.70986295      4.66403198     14.70844555
P         4.30682993      5.95866919     14.80155468
S         4.29002380      7.08196259     13.08123112
S         4.17791653      7.07625246     16.52510643
P         4.30682993      5.95866919     23.27945328
S         6.16996384      5.06017256     23.33879280
S         4.29002380      7.08196259     21.55913162
S         4.17791653      7.07625246     25.00300598
S         2.70986295      4.66403198     23.18634605
S         4.29002380      7.08196259     30.03703117
S         4.17791653      7.07625246     33.48090744
S         6.16996384      5.06017256     31.81669426
S         2.70986295      4.66403198     31.66424561
P         4.30682993      5.95866919     31.75735283
S         2.70986295     13.71023178      6.23054552
P         4.30682993     15.00486851      6.32365513
S         6.16996384     14.10637188      6.38299274
S         4.29002380     16.12816238      4.60333204
S         4.17791653     16.12245369      8.04720783
P         4.30682993     15.00486851     14.80155468
S         4.29002380     16.12816238     13.08123112
S         4.17791653     16.12245369     16.52510643
S         6.16996384     14.10637188     14.86089230
S         2.70986295     13.71023178     14.70844555
S         4.17791653     16.12245369     25.00300598
S         2.70986295     13.71023178     23.18634605
P         4.30682993     15.00486851     23.27945328
S         6.16996384     14.10637188     23.33879280
S         4.29002380     16.12816238     21.55913162
S         2.70986295     13.71023178     31.66424561
P         4.30682993     15.00486851     31.75735283
S         4.29002380     16.12816238     30.03703117
S         4.17791653     16.12245369     33.48090744
S         6.16996384     14.10637188     31.81669426
S         6.16996384     23.15257263      6.38299274
S         4.29002380     25.17436218      4.60333204
S         4.17791653     25.16865349      8.04720783
S         2.70986295     22.75643158      6.23054552
P         4.30682993     24.05106926      6.32365513
S         6.16996384     23.15257263     14.86089230
S         2.70986295     22.75643158     14.70844555
P         4.30682993     24.05106926     14.80155468
S         4.29002380     25.17436218     13.08123112
S         4.17791653     25.16865349     16.52510643
P         4.30682993     24.05106926     23.27945328
S         6.16996384     23.15257263     23.33879280
S         4.29002380     25.17436218     21.55913162
S         4.17791653     25.16865349     25.00300598
S         2.70986295     22.75643158     23.18634605
S         4.29002380     25.17436218     30.03703117
S         4.17791653     25.16865349     33.48090744
S         6.16996384     23.15257263     31.81669426
S         2.70986295     22.75643158     31.66424561
P         4.30682993     24.05106926     31.75735283
S         2.70986295     31.80262947      6.23054552
P         4.30682993     33.09726334      6.32365513
S         6.16996384     32.19877243      6.38299274
S         4.29002380     34.22055817      4.60333204
S         4.17791653     34.21484756      8.04720783
P         4.30682993     33.09726334     14.80155468
S         4.29002380     34.22055817     13.08123112
S         4.17791653     34.21484756     16.52510643
S         6.16996384     32.19877243     14.86089230
S         2.70986295     31.80262947     14.70844555
S         4.17791653     34.21484756     25.00300598
S         2.70986295     31.80262947     23.18634605
P         4.30682993     33.09726334     23.27945328
S         6.16996384     32.19877243     23.33879280
S         4.29002380     34.22055817     21.55913162
S         2.70986295     31.80262947     31.66424561
P         4.30682993     33.09726334     31.75735283
S         4.29002380     34.22055817     30.03703117
S         4.17791653     34.21484756     33.48090744
S         6.16996384     32.19877243     31.81669426
S        14.81346321      5.06017256      6.38299274
S        12.93352318      7.08196259      4.60333204
S        12.82141685      7.07625246      8.04720783
S        11.35336208      4.66403198      6.23054552
P        12.95032883      5.95866919      6.32365513
S        14.81346321      5.06017256     14.86089230
S        11.35336208      4.66403198     14.70844555
P        12.95032883      5.95866919     14.80155468
S        12.93352318      7.08196259     13.08123112
S        12.82141685      7.07625246     16.52510643
P        12.95032883      5.95866919     23.27945328
S        14.81346321      5.06017256     23.33879280
S        12.93352318      7.08196259     21.55913162
S        12.82141685      7.07625246     25.00300598
S        11.35336208      4.66403198     23.18634605
S        12.93352318      7.08196259     30.03703117
S        12.82141685      7.07625246     33.48090744
S        14.81346321      5.06017256     31.81669426
S        11.35336208      4.66403198     31.66424561
P        12.95032883      5.95866919     31.75735283
S        11.35336208     13.71023178      6.23054552
P        12.95032883     15.00486851      6.32365513
S        14.81346321     14.10637188      6.38299274
S        12.93352318     16.12816238      4.60333204
S        12.82141685     16.12245369      8.04720783
P        12.95032883     15.00486851     14.80155468
S        12.93352318     16.12816238     13.08123112
S        12.82141685     16.12245369     16.52510643
S        14.81346321     14.10637188     14.86089230
S        11.35336208     13.71023178     14.70844555
S        12.82141685     16.12245369     25.00300598
S        11.35336208     13.71023178     23.18634605
P        12.95032883     15.00486851     23.27945328
S        14.81346321     14.10637188     23.33879280
S        12.93352318     16.12816238     21.55913162
S        12.93352318     16.12816238     30.03703117
P        12.95032883     15.00486851     31.75735283
S        12.82141685     16.12245369     33.48090744
S        14.81346321     14.10637188     31.81669426
S        11.35336208     13.71023178     31.66424561
S        12.93352318     25.17436218      4.60333204
P        12.95032883     24.05106926      6.32365513
S        12.82141685     25.16865349      8.04720783
S        14.81346321     23.15257263      6.38299274
S        11.35336208     22.75643158      6.23054552
S        11.35336208     22.75643158     14.70844555
S        12.82141685     25.16865349     16.52510643
S        12.93352318     25.17436218     13.08123112
S        14.81346321     23.15257263     14.86089230
P        12.95032883     24.05106926     14.80155468
S        12.82141685     25.16865349     25.00300598
S        14.81346321     23.15257263     23.33879280
S        11.35336208     22.75643158     23.18634605
P        12.95032883     24.05106926     23.27945328
S        12.93352318     25.17436218     21.55913162
S        12.82141685     25.16865349     33.48090744
P        12.95032883     24.05106926     31.75735283
S        14.81346321     23.15257263     31.81669426
S        11.35336208     22.75643158     31.66424561
S        12.93352318     25.17436218     30.03703117
S        12.93352318     34.22055817      4.60333204
P        12.95032883     33.09726334      6.32365513
S        12.82141685     34.21484756      8.04720783
S        14.81346321     32.19877243      6.38299274
S        11.35336208     31.80262947      6.23054552
S        12.93352318     34.22055817     13.08123112
S        12.82141685     34.21484756     16.52510643
S        14.81346321     32.19877243     14.86089230
S        11.35336208     31.80262947     14.70844555
P        12.95032883     33.09726334     14.80155468
S        12.93352318     34.22055817     21.55913162
P        12.95032883     33.09726334     23.27945328
S        14.81346321     32.19877243     23.33879280
S        11.35336208     31.80262947     23.18634605
S        12.82141685     34.21484756     25.00300598
S        12.82141685     34.21484756     33.48090744
S        12.93352318     34.22055817     30.03703117
P        12.95032883     33.09726334     31.75735283
S        14.81346321     32.19877243     31.81669426
S        11.35336208     31.80262947     31.66424561
S        23.45696259      5.06017256      6.38299274
P        21.59382820      5.95866919      6.32365513
S        21.57702255      7.08196259      4.60333204
S        21.46491432      7.07625246      8.04720783
S        19.99686241      4.66403198      6.23054552
S        21.46491432      7.07625246     16.52510643
S        23.45696259      5.06017256     14.86089230
S        19.99686241      4.66403198     14.70844555
P        21.59382820      5.95866919     14.80155468
S        21.57702255      7.08196259     13.08123112
S        19.99686241      4.66403198     23.18634605
S        23.45696259      5.06017256     23.33879280
P        21.59382820      5.95866919     23.27945328
S        21.57702255      7.08196259     21.55913162
S        21.46491432      7.07625246     25.00300598
S        21.57702255      7.08196259     30.03703117
S        21.46491432      7.07625246     33.48090744
S        23.45696259      5.06017256     31.81669426
S        19.99686241      4.66403198     31.66424561
P        21.59382820      5.95866919     31.75735283
S        19.99686241     13.71023178      6.23054552
S        23.45696259     14.10637188      6.38299274
P        21.59382820     15.00486851      6.32365513
S        21.57702255     16.12816238      4.60333204
S        21.46491432     16.12245369      8.04720783
P        21.59382820     15.00486851     14.80155468
S        21.57702255     16.12816238     13.08123112
S        21.46491432     16.12245369     16.52510643
S        23.45696259     14.10637188     14.86089230
S        19.99686241     13.71023178     14.70844555
S        21.57702255     16.12816238     21.55913162
S        21.46491432     16.12245369     25.00300598
S        19.99686241     13.71023178     23.18634605
S        23.45696259     14.10637188     23.33879280
P        21.59382820     15.00486851     23.27945328
S        19.99686241     13.71023178     31.66424561
P        21.59382820     15.00486851     31.75735283
S        21.57702255     16.12816238     30.03703117
S        21.46491432     16.12245369     33.48090744
S        23.45696259     14.10637188     31.81669426
S        23.45696259     23.15257263      6.38299274
P        21.59382820     24.05106926      6.32365513
S        21.57702255     25.17436218      4.60333204
S        21.46491432     25.16865349      8.04720783
S        19.99686241     22.75643158      6.23054552
S        21.46491432     25.16865349     16.52510643
S        23.45696259     23.15257263     14.86089230
S        19.99686241     22.75643158     14.70844555
P        21.59382820     24.05106926     14.80155468
S        21.57702255     25.17436218     13.08123112
S        19.99686241     22.75643158     23.18634605
S        23.45696259     23.15257263     23.33879280
P        21.59382820     24.05106926     23.27945328
S        21.57702255     25.17436218     21.55913162
S        21.46491432     25.16865349     25.00300598
S        21.57702255     25.17436218     30.03703117
S        21.46491432     25.16865349     33.48090744
S        23.45696259     23.15257263     31.81669426
S        19.99686241     22.75643158     31.66424561
P        21.59382820     24.05106926     31.75735283
S        19.99686241     31.80262947      6.23054552
S        23.45696259     32.19877243      6.38299274
P        21.59382820     33.09726334      6.32365513
S        21.57702255     34.22055817      4.60333204
S        21.46491432     34.21484756      8.04720783
P        21.59382820     33.09726334     14.80155468
S        21.57702255     34.22055817     13.08123112
S        21.46491432     34.21484756     16.52510643
S        23.45696259     32.19877243     14.86089230
S        19.99686241     31.80262947     14.70844555
S        21.57702255     34.22055817     21.55913162
S        21.46491432     34.21484756     25.00300598
S        19.99686241     31.80262947     23.18634605
S        23.45696259     32.19877243     23.33879280
P        21.59382820     33.09726334     23.27945328
S        19.99686241     31.80262947     31.66424561
P        21.59382820     33.09726334     31.75735283
S        21.57702255     34.22055817     30.03703117
S        21.46491432     34.21484756     33.48090744
S        23.45696259     32.19877243     31.81669426
S        32.10046387      5.06017256      6.38299274
P        30.23732948      5.95866919      6.32365513
S        30.22052193      7.08196259      4.60333204
S        30.10841560      7.07625246      8.04720783
S        28.64036369      4.66403198      6.23054552
S        30.10841560      7.07625246     16.52510643
S        32.10046387      5.06017256     14.86089230
S        28.64036369      4.66403198     14.70844555
P        30.23732948      5.95866919     14.80155468
S        30.22052193      7.08196259     13.08123112
S        28.64036369      4.66403198     23.18634605
S        32.10046387      5.06017256     23.33879280
P        30.23732948      5.95866919     23.27945328
S        30.22052193      7.08196259     21.55913162
S        30.10841560      7.07625246     25.00300598
S        30.22052193      7.08196259     30.03703117
S        30.10841560      7.07625246     33.48090744
S        32.10046387      5.06017256     31.81669426
S        28.64036369      4.66403198     31.66424561
P        30.23732948      5.95866919     31.75735283
S        28.64036369     13.71023178      6.23054552
S        32.10046387     14.10637188      6.38299274
P        30.23732948     15.00486851      6.32365513
S        30.22052193     16.12816238      4.60333204
S        30.10841560     16.12245369      8.04720783
P        30.23732948     15.00486851     14.80155468
S        30.22052193     16.12816238     13.08123112
S        30.10841560     16.12245369     16.52510643
S        32.10046387     14.10637188     14.86089230
S        28.64036369     13.71023178     14.70844555
S        30.22052193     16.12816238     21.55913162
S        30.10841560     16.12245369     25.00300598
S        28.64036369     13.71023178     23.18634605
S        32.10046387     14.10637188     23.33879280
P        30.23732948     15.00486851     23.27945328
S        30.22052193     16.12816238     30.03703117
P        30.23732948     15.00486851     31.75735283
S        30.10841560     16.12245369     33.48090744
S        32.10046387     14.10637188     31.81669426
S        28.64036369     13.71023178     31.66424561
S        30.22052193     25.17436218      4.60333204
S        32.10046387     23.15257263      6.38299274
P        30.23732948     24.05106926      6.32365513
S        30.10841560     25.16865349      8.04720783
S        28.64036369     22.75643158      6.23054552
S        32.10046387     23.15257263     14.86089230
S        28.64036369     22.75643158     14.70844555
S        30.22052193     25.17436218     13.08123112
S        30.10841560     25.16865349     16.52510643
P        30.23732948     24.05106926     14.80155468
P        30.23732948     24.05106926     23.27945328
S        30.10841560     25.16865349     25.00300598
S        32.10046387     23.15257263     23.33879280
S        28.64036369     22.75643158     23.18634605
S        30.22052193     25.17436218     21.55913162
S        30.10841560     25.16865349     33.48090744
P        30.23732948     24.05106926     31.75735283
S        32.10046387     23.15257263     31.81669426
S        28.64036369     22.75643158     31.66424561
S        30.22052193     25.17436218     30.03703117
S        30.22052193     34.22055817      4.60333204
P        30.23732948     33.09726334      6.32365513
S        30.10841560     34.21484756      8.04720783
S        32.10046387     32.19877243      6.38299274
S        28.64036369     31.80262947      6.23054552
S        30.22052193     34.22055817     13.08123112
S        30.10841560     34.21484756     16.52510643
S        32.10046387     32.19877243     14.86089230
S        28.64036369     31.80262947     14.70844555
P        30.23732948     33.09726334     14.80155468
S        30.10841560     34.21484756     25.00300598
P        30.23732948     33.09726334     23.27945328
S        32.10046387     32.19877243     23.33879280
S        28.64036369     31.80262947     23.18634605
S        30.22052193     34.22055817     21.55913162
S        30.10841560     34.21484756     33.48090744
S        30.22052193     34.22055817     30.03703117
P        30.23732948     33.09726334     31.75735283
S        32.10046387     32.19877243     31.81669426
S        28.64036369     31.80262947     31.66424561
