1056

Na        2.31367731      2.41146135      2.89498425
Na        2.24096966      2.67887759     12.55848694
Na        2.37746882     13.08857727      2.58473158
Na        2.63354659     13.25456905     11.79888821
Na       12.09581566      2.71156120      3.22221494
Na       16.94061089      3.39348578     13.05334949
Na       12.04262352     13.56512928      2.23751760
Na       12.13184452     12.90005779     12.66428757
Na       27.06639671      2.96476650     -1.72561443
Na       22.39603424      2.85655880     12.50111198
Na       22.27934265     13.63219452      2.26707220
Na       22.42907524     12.43481636     11.89812851
Na        2.17288971      8.49362946     13.11410141
Na        2.16797924      8.43388844     22.74528122
Na       -7.45556355     22.32880020      7.80364609
Na        1.97827661     12.58256149     17.37725639
Na       12.12339401      2.77956009      8.08805084
Na        6.54213572      7.56643867     17.33635521
Na       17.05767250     22.30450821      8.22173023
Na       12.55333614     17.44292068     17.94440651
Na       41.85279083      7.06047392      8.21104145
Na       22.12611961      2.89218926     22.74803925
Na       21.66943169     12.75499439      7.58503723
Na       21.88558006     12.68006802     17.12106895
Na        2.50123310      3.59028578      7.87846136
Na        7.06034327      3.00491595     17.74997139
Na        7.36230040     12.32258701      7.91889381
Na        7.27682686     12.33712959     18.01597786
Na       17.01815987     -2.11720061     12.72809887
Na       17.47118568     -1.55235386     17.94005775
Na       17.26927757     17.78710365      7.74543905
Na       17.66887856      8.17796707     17.92082596
Na       26.78255463     -1.49243200      8.08944798
Na       12.28904152     13.03724098     27.51002121
Na       17.03628159      7.94053221      7.84758759
Na       31.97188377     17.65876007     17.35139847
Na        7.68407583      8.32538891      1.78353822
Na        7.29852581     -2.38465476      7.58146858
Na        7.33380270     18.35619926      2.10829592
Na        7.76275444     17.81573296     12.29751873
Na       17.65800667      8.71450996      2.88317347
Na       16.76228333      8.13972092     12.36652184
Na       17.27315331     18.50826836      2.21321821
Na       27.36299324     22.43877983      8.09550858
Na       27.02130318      8.68474579      2.84092569
Na       27.00689697      3.81088662     13.00085926
Na       27.48533440     18.26474571      3.15349126
Na       27.13777161     17.96621323     12.24001026
Na        2.83723950     13.09492111      7.58821964
Na        2.66554880      2.62801957     17.76361084
Na       -2.14428902      8.42930603      7.38301754
Na       -7.97655010     17.38154030     17.86834908
Na       32.34836197      7.83506536      7.46188927
Na       12.39687538      3.20695925     17.90624428
Na       12.72205353     17.51908493      8.31668472
Na       11.83262062     13.38160038     17.80212402
Na       27.25159836      2.92913246      3.20999241
Na       22.51856232      8.39193058     17.89927864
Na       21.91901207      7.82947302      7.50646687
Na       22.63922119      2.96326303     17.50662804
Na       -2.68049335      7.92580175     -2.25749469
Na        7.56525755      7.80791521     12.92314148
Na        2.58329201     18.04568481      2.99591136
Na        2.09327531     17.99778366     12.55225086
Na       12.26030159      8.29911709      3.34834027
Na       12.26071358      7.55989790     13.22751904
Na       12.36021900     18.03342438      3.12062240
Na       12.01284504     17.85101891     12.86747360
Na       22.05078506      8.05018616      2.97990751
Na       22.48776245      7.49794340     12.80534554
Na       22.17439270     18.02291870      3.53878117
Na       21.50216103     17.96776581     12.89335442
Na        7.34330034      3.61739206      3.29532671
Na        7.03366947      3.28894138     13.23012447
Na        7.77723455     13.73086452      2.79548836
Na        7.51814985     12.97405243     12.81972599
Na       17.26922989      3.46540952      3.15978861
Na       12.19475842      3.31348324     12.93231773
Na       17.19637871     13.21057129      3.22912097
Na       17.31048012     13.12709999     13.21502781
Na       26.75281525     -1.13581300     -1.85705757
Na       27.49855614      8.77587700     12.07168484
Na       26.63439178     13.09220600      2.75107145
Na       27.06010246     12.98642540     12.71312714
Na        7.30655098      8.06377888      7.82808495
Na       12.32085705      7.39493132     17.84894562
Na        7.67617607     22.97113609      8.28934193
Na        7.25509548     17.60020447     17.36374092
Na       17.05331993     13.07546329      7.72714090
Na       17.27060509      2.62805438     17.87197495
Na       22.16123581     17.37272453      8.81533718
Na       15.55437374     11.88678741     18.43837547
Na       27.33547592     13.23375130      7.61893702
Na       31.11111259      6.71601772     18.53112411
Na       32.10163116     18.02092171      7.25435209
Na       27.59012032     12.84976196     17.66667366
B         1.31960118     18.89679909      0.12267800
H         2.50257659     20.34832001     -1.55576789
B         0.25958058     19.41895103     -1.17164159
H        -2.26351309     20.06018257     -0.40509504
B         0.09318601     21.21466255     -0.94601119
H        -0.33175683     19.31572151      2.70061779
B         1.68248141     20.37248230     -0.71849501
H         2.44700646     20.32814217      1.84828532
B        -1.12851691     20.12782288     -0.15402104
H        -0.64302635     22.01913071      1.52685559
B        -0.17394763     19.53072929      1.40453291
H        -0.82664454     17.36782265     -0.16207957
B         1.52310205     20.45330620      1.04023254
H         1.95088661     22.74420357      0.39794919
B        -0.25610498     21.18444824      0.86136353
B        -0.41269153     18.51577187      0.12036623
H         2.06385875     18.00871468      0.22660571
H        -0.30533788     19.17488861     -2.18851757
B         1.25207210     21.80220604      0.06175917
H        -0.37701595     21.77135468     -2.01077366
B         1.29277289     18.66071892     10.22372818
H         2.81685686     20.24181366      8.59606171
B         0.18965882     19.15405846      8.80476379
H        -2.22326064     20.11840439      9.83375740
B         0.18726377     20.89731026      8.99198627
H        -0.20921677     18.98810577     12.43640041
B         1.75915313     20.32049751      9.27173901
H         2.28803611     20.05131149     12.02479553
B        -1.06113660     19.84375381      9.84576607
H        -0.76942670     21.81362152     11.56071472
B        -0.07536680     19.30705261     11.27267742
H        -1.07220221     17.09397697     10.15244675
B         1.60454118     20.16507339     11.10455132
H         2.00178957     22.65505981     10.02911663
B        -0.06504963     20.99847603     10.95077801
B        -0.38357803     18.15442276     10.09411621
H         2.12516356     17.74368858     10.13006592
H         0.01347633     18.59411240      7.67234802
B         1.25800157     21.62753296     10.06118679
H        -0.16490179     21.74344444      8.09838200
B         1.36682510      9.05736446      0.31317893
H         2.70779371     10.29314041     -1.39620459
B         0.38529673      9.67530346     -1.13471174
H        -1.91412640     10.41818142     -0.26723504
B         0.26787081     11.31304932     -0.87781745
H        -0.03010821      9.17041206      2.49787211
B         1.83461654     10.47082424     -0.65825582
H         2.51090050     10.81841183      2.08053684
B        -0.80706787     10.33165169      0.01822028
H        -0.54261684     11.94886017      2.01450419
B         0.17054388      9.69825649      1.39020169
H        -0.97846866      7.71814871      0.00977172
B         1.58555913     10.73625755      1.24550784
H         1.70039749     13.09871292      0.01596211
B         0.00102380     11.43873978      1.10198307
B        -0.24424614      8.67991447      0.15710264
H         2.26602745      8.41434097      0.63322556
H         0.16547363      9.14381790     -2.26093912
B         1.36674404     11.95333290      0.20972423
H        -0.03426768     11.76698017     -1.84735465
B         1.29344034      9.08628368      9.99157810
H         2.80653882     10.44953442      8.36826134
B         0.35080782      9.61257458      8.44257355
H        -2.11030221     10.50110245      9.68474293
B         0.16176909     11.43743038      8.88093472
H        -0.05574776      9.62006569     12.54541206
B         1.73355544     10.62798405      8.95470524
H         2.27056384     10.58384132     11.75229836
B        -0.90322363     10.28373241      9.64090633
H        -0.46021134     12.15105152     11.46712875
B         0.03726250      9.78732014     11.13005447
H        -0.93295723      7.65554428      9.61516666
B         1.57727432     10.72457218     10.83933735
H         1.83693695     13.17364502      9.92798042
B        -0.01409387     11.50469303     10.58604240
B        -0.29579729      8.69885921      9.79592609
H         2.07741809      8.23514175      9.88855743
H         0.30791050      8.95861053      7.40056801
B         1.35404682     12.12052250      9.90679932
H         0.01614769     12.02257824      7.82320547
B        11.12616348     18.57243156      0.30252457
H        12.46702766     20.16048241     -1.25398040
B        10.11947155     19.24338722     -0.94059736
H         7.65116358     19.99314499      0.00931759
B         9.79865170     20.97431946     -0.77958941
H         9.58814526     18.97726440      2.71763706
B        11.52152824     20.15270996     -0.55835938
H        12.28359032     20.07923126      2.35154676
B         8.75543022     19.85528564     -0.04105785
H         8.93437386     21.84899712      1.66671097
B         9.80516720     19.28377914      1.56949961
H         8.85640240     17.26895905      0.48045942
B        11.37185955     20.26415825      1.41969097
H        11.51939869     22.59580421      0.34779975
B         9.69359016     21.04425812      1.10101628
B         9.41062737     18.27901840      0.33884227
H        11.91019154     17.70214081      0.47955751
H         9.99250412     18.90555191     -2.13642788
B        11.12614250     21.51349640      0.29259929
H         9.51944542     21.66939354     -1.67196703
B        11.22235203     18.64070511     10.58269787
H        12.79177094     20.15280151      8.87067318
B        10.25897408     19.20956802      9.05875397
H         7.79187632     20.03715134     10.07582855
B         9.92902851     21.03425598      9.42147160
H         9.72857380     19.19682312     12.83433342
B        11.79431915     20.17998505      9.49693871
H        12.46217442     20.42890549     12.17821121
B         8.91677570     19.90328407     10.09340191
H         9.16822147     21.76224327     11.74575615
B         9.86172485     19.27318954     11.66032410
H         9.04574871     17.38994598     10.25210571
B        11.60325432     20.23130989     11.33358383
H        11.59182644     22.73059082     10.50632858
B         9.88570976     20.95907974     11.14167976
B         9.60277748     18.41165924     10.32114124
H        11.72846222     17.56205368     10.68965626
H        10.14745045     18.55413628      8.05321884
B        11.18001556     21.58476830     10.34584427
H         9.41378975     21.76894379      8.48652840
B        11.34695435      8.87486267      0.35312477
H        12.75875187     10.14678288     -1.58208346
B        10.43950081      9.46193027     -1.12872660
H         7.73789692     10.30873489      0.26850224
B        10.17294693     11.15695572     -0.91000956
H         9.81389523      9.34062195      2.58772945
B        11.84813976     10.38390541     -0.70806485
H        12.38758945     10.62557793      1.95468783
B         9.05292225     10.08225346     -0.00333749
H         9.48612309     11.93567276      1.66009951
B        10.07638073      9.48759174      1.43343508
H         9.03711128      7.65114641     -0.30363610
B        11.60393333     10.48300743      1.15324879
H        11.86516666     12.91425514      0.04294765
B        10.05070210     11.23295784      1.01733530
B         9.68653107      8.52311611      0.08759982
H        12.25815201      8.15168571      0.30954123
H        10.63549519      8.91043568     -2.32044172
B        11.36572933     11.82031727      0.21335179
H         9.77949619     11.57449341     -2.04844618
B        11.31561279      8.74254036     10.49925613
H        12.51035595     10.17332935      8.78454494
B        10.16830635      9.28466797      9.15376854
H         7.75084925      9.84836388      9.96316624
B        10.09603691     11.11954117      9.31741619
H         9.81186008      8.91289616     12.78179550
B        11.63478851     10.16379070      9.59251785
H        12.40455151     10.44274998     12.12050533
B         8.91735458      9.95701599     10.16531754
H         9.36304474     11.92030239     11.88612938
B         9.95331478      9.35603142     11.65861607
H         9.13930321      7.17720079     10.22034836
B        11.41932869     10.34919834     11.36458683
H        11.88976288     12.77353001     10.43835831
B         9.79694939     11.01616192     11.13323212
B         9.57397079      8.36866760     10.34511280
H        11.86855412      7.70390129     10.56252098
H        10.17335129      9.13489151      7.89158821
B        11.26735210     11.61842251     10.36464024
H         9.67988873     11.66027927      8.30551815
H        19.36763763      2.21201134     18.05466080
B        20.99487877     -0.59940451     20.07451248
H        22.61531639      0.83865094     18.48462296
B        19.93724251     -0.14189894     18.58057022
H        17.42908478      0.66216862     19.74366379
B        19.77729416      1.66902649     18.95691490
H        19.39285851     -0.22502980     22.39792633
B        21.55901909      0.89589131     19.10800552
H        22.05037880      0.76550049     21.92214012
B        18.61362648      0.41678286     19.80680847
H        18.97055054      2.54885268     21.55406380
B        19.60919189     -0.04902880     21.22658539
H        18.75154495     -2.29995871     20.02610970
B        21.26315880      0.88431174     21.00442886
H        21.68860054      3.28350234     19.81047058
B        19.65843964      1.72665763     20.68638420
B        19.33589554     -1.10974789     19.85786629
H        21.82621956     -1.48002863     20.16659927
H        19.87122345     -0.65299278     17.38900757
B        21.08804512      2.25761008     19.89850426
H        19.32859993      1.92786479      8.30031681
B        20.68214417     -1.05510211     10.52807999
H        21.94338799      0.45567736      8.66706657
B        19.51010323     -0.38946089      9.06593132
H        17.13248825      0.19811542     10.17388344
B        19.48043060      1.31502450      9.33293438
H        19.10175133     -0.74603409     12.71699810
B        21.09656334      0.43701676      9.47934818
H        21.77188492      0.69623017     12.36976242
B        18.25767136      0.12319982     10.16336727
H        18.66312408      2.04718161     11.86800385
B        19.32872963     -0.37566909     11.64255524
H        18.67467117     -2.53933239     10.44816875
B        20.90545273      0.51489675     11.40641403
H        21.32888603      2.89070940     10.37195587
B        19.18304825      1.40306413     11.11102962
B        19.08406258     -1.45510495     10.29882717
H        21.60321236     -1.74652004     10.65883350
H        19.69228363     -0.92616218      7.88913298
B        20.74172211      1.81225204     10.39962101
H        19.56328773     12.17229652     18.24172211
B        21.06337547      9.05283928     20.13775444
H        22.35266304     10.44364357     18.48972702
B        20.01365471      9.59292889     18.70611763
H        17.69267845     10.35050106     19.58047867
B        19.91490746     11.37290573     19.01243973
H        19.72523117      9.52503490     22.63688850
B        21.41622543     10.53044510     19.27635193
H        22.05835533     10.56351948     21.98936462
B        18.82697296     10.30595303     19.87930107
H        19.00519753     12.34747410     21.52519798
B        19.80878448      9.66814232     21.27919006
H        18.72170639      7.63551235     20.08082199
B        21.27836037     10.65901947     21.09272003
H        21.39610100     13.08417797     19.90786171
B        19.60942650     11.50219917     20.83095741
B        19.34475899      8.65943241     20.05803680
H        21.90002060      8.13530350     20.09546280
H        19.96090698      9.05741215     17.67064476
B        20.99360085     11.99109173     20.13136482
H        18.80694199     11.82789898      8.42542171
B        20.60776711      8.77282333     10.54048157
H        22.20139503     10.39379215      9.01567173
B        19.66688728      9.15783882      9.01628876
H        17.06906891     10.43973446     10.09407806
B        19.25191689     11.04788113      9.41195393
H        18.77415466      9.10821915     12.68990135
B        21.05875778     10.21569538      9.54924297
H        21.55067062     10.34967899     12.36572456
B        18.24655151      9.93930340     10.18288040
H        18.50695419     11.82532597     11.89338207
B        19.28626060      9.42726135     11.55977249
H        18.32391548      7.33597469     10.18603325
B        20.82097816     10.29132748     11.36442280
B        20.56978989     11.67953205     10.31703663
H        21.32860947     12.63741970     10.26852322
B        19.34549332     11.17430401     11.24178410
B        18.96856117      8.35838127     10.24442196
H        21.31315994      7.81627035     10.50855064
H        19.36951065      8.62017536      7.91535044
B        10.53857899      4.62445927      3.98202372
H         7.98843765      5.03354979      4.70390701
B        10.17363358      6.31853104      4.50156736
H         9.91000938      3.81984520      7.54861832
B        11.92568493      5.51325321      4.59635925
H        12.56162739      5.17815495      7.03788710
B         9.16671276      5.02409220      5.02718925
H         9.16900063      7.07633829      6.87934732
B        10.16907024      4.32766390      6.51656961
H         9.46650887      2.45285797      5.02074146
B        11.60474205      5.39082527      6.31934595
H        11.85381317      7.84763336      5.80802250
B         9.88974953      6.18584061      6.24429846
H        12.33865261      3.07343936      5.36872435
B         9.89069843      3.52977157      5.05500174
H        10.79641438      4.42265272      2.80205655
B        11.35056210      6.83355188      5.63781643
H         9.63120079      7.12387657      3.66498566
B        11.53501034      3.96010137      5.35199261
H        12.95641899      5.68562984      4.17769480
B        10.07825470      4.49424982     14.00993729
H         7.57710695      5.14471006     14.94978333
B         9.70704269      6.20564938     14.50706673
H         9.21841145      4.05083084     17.61784363
B        11.50528908      5.41705990     14.69180012
H        12.03018665      5.38757086     17.28711319
B         8.72858620      4.88114738     15.12946987
H         8.91647625      6.55494308     17.11277390
B         9.76598740      4.22381353     16.56913376
H         8.79147339      2.36667514     14.76504135
B        11.12439728      5.26248121     16.44021034
H        11.18297768      7.75441313     15.96758270
B         9.48470020      5.98391008     16.28684998
B         9.36794662      3.33536220     15.01303101
H        11.95596790      3.18684959     15.48587513
H        10.13452148      4.05276775     12.97593403
B        10.86752129      6.69015265     15.62946320
H         9.63221741      6.97592306     13.57557011
B        11.07058620      3.88859725     15.41169357
H        12.34929371      5.42604399     13.79645824
B        10.03223038     14.69088173      3.83705020
H         7.57259178     15.02580166      5.20624828
B         9.76298618     16.29231453      4.33186817
H         9.37288094     14.07261848      7.57652760
B        11.55673027     15.51855850      4.53394556
H        12.02369976     15.22947598      7.33758020
B         8.75023937     14.91899204      4.98242235
H         8.91151333     16.40611649      7.00597334
B         9.84192371     14.40382957      6.46405029
H         9.10292530     12.28247261      5.00646496
B        11.17109776     15.38431454      6.47873497
H        11.45765495     17.82907867      5.86353683
B         9.56484699     15.99535179      6.05521345
B         9.52266026     13.43391323      4.97866297
H        12.00245667     13.18544292      5.25227404
H         9.89288044     14.43233871      2.63860393
B        11.01061344     16.79637337      5.61603165
H         9.47883415     17.02912331      3.53236794
B        11.04267216     13.92856789      5.36504698
H        12.63835907     15.42498207      4.00560856
B        10.16898632     14.55134106     13.68949509
H         7.58445501     15.14797974     14.93673992
B         9.92100620     16.27984238     14.29436779
H         9.43116760     14.08823204     17.46428680
B        11.58690166     15.59969330     14.47919655
H        11.98006439     15.29624844     17.15793419
B         8.86105919     14.99782753     14.90141201
H         8.92027283     16.39820862     16.92461014
B         9.76254559     14.38084984     16.36958885
H         9.01548576     12.36345005     14.80428505
B        11.26946735     15.42983532     16.29564476
H        11.34179211     17.99036598     15.73775959
B         9.62112045     16.19416046     16.03684807
B         9.54842663     13.43636227     14.93559361
H        12.20584583     13.23885250     15.17455101
H        10.05016232     14.52291679     12.53028393
B        11.04757500     16.87921906     15.48069477
H         9.70204258     17.16847420     13.58578205
B        11.25393677     13.92156029     15.04536629
H        12.72569466     15.49407768     13.81923294
H        21.90978432      5.58183241      3.84097624
B        19.71566772      4.78820705      3.89602733
H        17.12672424      5.24400377      4.95774841
B        19.27994347      6.47258997      4.38476276
H        19.04866409      4.15966797      7.64074898
B        21.00501442      5.63986683      4.57765961
H        21.61680412      5.57344675      7.26369286
B        18.31235313      5.09158516      5.11875296
H        18.29853439      6.81680775      6.92397356
B        19.13880920      4.30831909      6.42368793
H        18.73666763      2.42819166      4.86976957
B        20.76495361      5.45505571      6.37031794
H        20.77066231      8.00667191      5.45992565
B        19.06187248      6.18614912      6.12353325
B        19.01504707      3.55575109      4.98777533
H        21.50459671      3.10266209      5.36073351
H        19.94584656      4.63634253      2.74835563
B        20.48705673      6.86363077      5.46981239
H        18.74843597      7.27771854      3.58008099
B        20.59149170      3.98946548      5.34268999
H        22.80114746      5.63797474     13.99334812
B        20.24968910      4.53389549     13.82703304
H        17.73913574      5.32382107     14.68892860
B        20.10360718      6.27312231     14.35920906
H        19.53688812      3.79519343     17.47419167
B        21.68741608      5.56622458     14.54802895
H        22.24462891      5.14820766     17.18063736
B        18.95799065      5.08384943     14.96335220
H        18.81317329      6.62823582     16.73580170
B        19.84406471      4.38126945     16.37476921
H        19.30875397      2.34869981     14.73217297
B        21.41458893      5.43493080     16.32880783
H        21.48617554      8.05618382     15.53821373
B        19.76352119      6.15103817     16.15708351
H        22.48200035      3.35089564     15.13821983
B        19.71882057      3.37775278     14.94237328
H        20.23742867      4.39030409     12.54805851
B        21.14863396      6.90810871     15.44606590
H        19.68247414      7.13303423     13.49835300
B        21.33833313      3.94902396     15.05552578
H        22.36096954     15.72701931      4.04776382
B        19.96844101     14.64666271      4.04413795
H        17.42927742     15.18785095      4.77869511
B        19.72426414     16.51438332      4.47916842
H        19.08308792     14.34801579      7.55006218
B        21.34700394     15.72913265      4.68275642
H        21.94494629     15.34618473      7.15776014
B        18.62009048     15.07171345      5.09538364
H        18.58170128     16.53363419      7.10544682
B        19.58157730     14.46804905      6.41567278
H        19.19020081     12.29108143      5.34379053
B        21.08033943     15.49832916      6.39959145
H        21.68831253     18.11408615      5.73885012
B        19.42975426     16.23248863      6.36348963
H        21.97180367     13.24839211      5.27955151
B        19.35525894     13.46825123      5.11336327
H        20.26155090     14.37646675      2.87246180
B        20.90155220     17.04026222      5.68723249
H        19.33158302     17.24549675      3.58646941
B        20.98724556     13.98666859      5.34818602
H        22.58865547     15.58126068     13.53739834
B        20.21591949     14.50797176     13.40026283
H        17.56583405     14.83762455     14.75348473
B        19.89005661     16.16156769     13.97463989
H        19.65509033     13.86527252     17.22472000
B        21.58277702     15.36893082     14.16752243
H        21.80651093     15.23857689     17.07524490
B        18.84787369     14.83336926     14.64301586
H        18.82682037     16.53334045     16.40068245
B        19.84189606     14.28878784     16.09138870
H        19.08513260     12.22535324     14.54644775
B        21.28782082     15.25220490     15.97240448
H        21.50565529     17.72398949     15.55900574
B        19.65952492     16.08299828     15.76751995
B        19.60224533     13.30737019     14.52139473
H        22.02533531     13.06069660     14.87251759
H        20.34880257     14.27881908     12.18983078
B        21.04847527     16.72971535     15.18260384
H        19.37196922     16.86159134     13.23632908
B        21.13065720     13.81499481     14.85037041
B         1.34838152      4.01861572      5.00430536
H         2.75501370      5.99340868      3.72780132
B         0.22302163      4.64321375      3.63216066
H        -2.29599643      5.38684845      4.51020241
B         0.08702897      6.28691912      4.08323240
H        -0.57786870      4.05925560      7.16326904
B         1.64531255      5.60593367      4.22291279
H         2.29493856      5.39809179      6.96230841
B        -1.15298772      5.02257729      4.64959764
H        -0.95419919      6.84581709      6.34468269
B        -0.08372222      4.38371706      6.16312695
H        -0.74464053      2.43284035      4.63250208
B         1.37436450      5.34897614      6.09874821
H         1.59696877      7.92853117      5.24564838
B        -0.27168274      6.02602720      5.89438772
B        -0.29928628      3.57536769      4.71732235
H         2.31321669      3.31209946      4.97802353
H         0.01645572      4.25168276      2.54915261
B         1.14160085      6.83446503      5.28794241
H        -0.45225456      7.04997587      3.32522798
B         1.15809739      4.18100405     14.93327332
H         2.37102795      6.00346470     13.32617378
B         0.18570960      4.82654572     13.61009693
H        -2.40662694      5.38862753     14.47030640
B        -0.19794787      6.59254265     14.02333546
H        -0.48044184      4.25774717     17.14042282
B         1.55870986      5.85688734     14.23988438
H         1.98371744      5.36268759     16.89408302
B        -1.23644698      5.33623600     14.70880890
H        -1.00584519      7.26377010     16.55693054
B        -0.24180643      4.59461164     16.02698135
H        -0.74113542      2.59436440     14.39513397
B         1.29118252      5.55831623     15.87544727
H         1.56857896      7.98854494     15.66979122
B        -0.53622907      6.47698212     15.77762127
B        -0.43393540      3.73477721     14.62592602
H         1.92762852      3.25476837     14.88934803
H         0.39213172      4.73963404     12.37983990
B         0.93891484      7.07903242     15.17310810
H        -0.61019135      7.23133802     13.01485538
B         1.23080385     13.73578262      4.79567480
H         2.64934707     15.48823833      3.54162455
B         0.19824329     14.55424213      3.45089078
H        -2.36058831     14.82244015      4.62015009
B        -0.07276964     16.27440262      3.98577070
H        -0.68771780     13.86782742      7.06124783
B         1.60276818     15.38247108      4.16412687
H         2.00378084     15.47190380      6.91727591
B        -1.18836021     14.94425964      4.56546068
H        -1.16044950     16.65677261      6.61601925
B        -0.07129885     14.30443478      6.02767944
H        -0.99040455     12.34253311      4.43615961
B         1.27494907     15.33485699      5.91781139
H         1.63919997     17.79987526      5.36826324
B        -0.41814587     16.12700272      5.79539585
B        -0.33867258     13.37152290      4.55133390
H         2.25399995     13.17445278      4.81278515
H         0.28757933     14.20795250      2.24862266
B         1.05335939     16.79603004      5.14700222
H        -0.46431103     16.92288971      3.13853860
B         1.39022493     13.93358326     14.94365311
H         2.76161385     15.65709114     13.47396088
B         0.24668992     14.65196705     13.27584839
H        -2.19124842     15.50902939     14.41902447
B         0.13368145     16.28156090     13.94348145
H        -0.16395728     13.87652493     17.03991318
B         1.74258888     15.56122112     14.09993839
H         2.22068477     15.37589073     16.66049194
B        -1.06724381     15.02203941     14.45326424
H        -0.84009320     16.85141754     16.74014854
B        -0.06133166     14.43812752     15.95046234
H        -0.55753082     12.40517616     14.24502468
B         1.43416941     15.52231503     15.81664181
H         1.62873542     18.04271317     15.24847794
B        -0.19429521     16.23636627     15.82275391
B        -0.23008761     13.52124977     14.47364616
H         2.34950757     13.22143459     15.04284191
H        -0.11688181     14.78753471     12.09417820
B         1.12923515     16.98369598     15.11430168
H        -0.17410363     17.06439018     13.13605785
H         2.96552610     10.25230598      4.63213682
B         5.28364420     11.59177303      4.30139399
H         5.01225471      9.32765293      7.49607563
B         6.92404032     10.82133007      4.45888329
H         7.38852644     10.47250271      7.24924946
B         4.17986917     10.14052296      4.93152142
H         4.17435217     11.97408772      6.64942598
B         5.19340944      9.54532909      6.37357521
H         4.42196369      7.68146563      4.50486565
B         6.65262747     10.59151554      6.33943224
H         6.97517204     13.05292892      5.58290386
B         5.02645826     11.34682178      6.16177320
B         4.98461056      8.63110542      4.85001421
H         7.58186531      8.51019669      5.29811096
H         5.52118111      9.37621021      2.71705651
B         6.35990667     12.12392807      5.45755386
H         4.73095369     12.09908581      3.39244938
B         6.54491520      9.14515591      5.26646900
H         7.96152449     11.03530788      3.82550311
B         5.49340677      9.88560772      3.87034225
H         3.00384474     10.14481926     14.50485229
B         5.22112083     11.23796082     14.36887646
H         4.88763952      8.69133186     17.46858597
B         6.90779829     10.54480743     14.54769707
H         7.10554457     10.08417606     17.21478462
B         4.07675076      9.91646385     14.97940826
H         4.01129913     11.62144279     17.01071930
B         5.14684582      9.30236435     16.41779518
H         4.60201788      7.12507153     14.93513107
B         6.48354483     10.38438034     16.20178223
H         6.69831610     13.02125168     15.71746254
B         4.82065153     11.11033821     16.13365746
B         4.83275509      8.31093311     14.94376564
H         7.29936743      8.17374897     15.16544914
H         5.52798843      9.28076363     12.63636875
B         6.27246332     11.88765430     15.54490280
H         4.72861004     11.93469048     13.49407387
B         6.36526060      8.91931343     15.10383606
H         7.98105145     10.49123669     14.03011513
B         5.38497686      9.50518894     13.82461166
H         2.90526414      0.14611854      4.50643015
B         5.09894133      1.56134129      4.21984291
H         4.73382187     -0.76804817      7.37688875
B         6.76473951      1.00006056      4.41066360
H         7.31760263      0.57763934      6.97210121
B         4.08591366      0.34403515      4.73473740
H         4.19661999      2.18665528      6.82826138
B         5.03856897     -0.27126646      6.26692486
H         4.15337658     -2.36084270      4.79082108
B         6.51350498      0.69464320      6.13439417
H         6.52500582      3.34602547      5.49888468
B         4.75323105      1.52698207      5.95235062
B         4.80834293     -1.26358974      4.86673021
H         7.32067633     -1.48333597      4.78538275
B         6.22753859      2.15462828      5.48550606
H         5.50049686     -0.19209212      2.49249911
H         4.88018179      2.33792019      3.28389001
B         6.41952753     -0.75115192      4.92922688
H         7.67877483      1.02801323      3.70464754
B         5.38407707     -0.16984217      3.68144989
H         2.36010337      0.41563302     14.47885323
B         4.67556143      1.74157774     14.08257103
H         4.30292416     -1.02640331     16.93385315
B         6.31008291      0.90206480     14.27657032
H         6.95722675      0.77864951     17.00434113
B         3.56012654      0.29466829     14.78101730
H         3.75088573      2.36381745     16.16580582
B         4.68951607     -0.28516006     16.13173485
H         4.11336422     -2.22091699     14.56257153
B         6.14334059      0.78176540     16.11968422
H         6.04001236      3.47840190     15.38051510
B         4.37560463      1.48731565     15.80294991
B         4.33220911     -1.13156688     14.65942287
H         6.62265062     -1.62150776     15.22960472
B         5.74562168      2.26960921     15.31906319
H         5.13809299     -0.03171980     12.39851856
H         4.12891960      2.54879308     13.39558792
B         5.97753286     -0.66546017     15.07964134
H         7.18775272      0.75149578     13.52807140
B         4.92565918      0.04730189     13.55152321
B        15.18101215      9.41070557      3.73801517
H        12.68026447     10.00164413      4.67722750
B        14.99618816     11.22816944      4.15944767
H        14.60385036      8.60483837      7.26598644
B        16.49821472     10.43056679      4.56067801
H        17.27040672     10.18503380      7.01825857
B        13.86397934      9.77319717      4.93219137
H        13.89665508     11.53316689      6.83928537
B        14.90018654      9.17679977      6.30853224
H        14.34815693      7.12823629      4.76158381
B        16.33781052     10.23892593      6.21181154
H        16.49659348     12.76319981      5.56284189
B        14.68535614     11.06523228      6.19879246
B        14.65303993      8.28008747      4.81763268
H        17.00418663      7.88626003      5.00903368
H        15.36251926      9.28746414      2.65099883
B        15.95832443     11.73705578      5.40722895
H        14.59653950     11.93696880      3.22910500
B        16.21128273      8.75419140      5.18603373
H        17.74511909     10.46929741      4.21196032
B        14.91969013      9.25971889     13.68322659
H        12.34266949      9.62585926     14.39949799
B        14.53607178     10.96216488     14.17865276
H        13.92633724      8.68110847     17.20904350
B        16.28263855     10.26866531     14.21778297
H        16.90332031      9.72436047     16.96510124
B        13.49548340      9.66703892     14.71723175
H        13.58708286     11.24328995     16.86082268
B        14.54416561      9.01143932     16.21347427
H        13.62549019      7.13952971     14.76515484
B        15.89569759     10.07392406     16.15991592
H        16.06857491     12.63815212     15.61578941
B        14.31803417     10.72514915     15.93436146
B        14.25227070      8.06042767     14.77524853
H        16.85381317      7.85276985     14.92764473
H        14.84143639      8.96969128     12.39479542
B        15.67158127     11.50482941     15.36780262
H        14.07013893     11.62421513     13.27043152
B        15.86037731      8.55976391     15.08767509
H        17.06434059     10.44513416     13.39044189
B        14.98758411     19.42392159      3.95722842
H        12.49051094     19.71926689      4.98837423
B        14.63191128     21.17150688      4.49938583
H        14.52421284     18.65829849      7.59542227
B        16.41973305     20.35012627      4.59739256
H        16.80566406     20.19273949      7.49806786
B        13.60780621     19.79705620      5.13825941
H        13.72408390     21.60330772      6.99028444
B        14.56094360     19.23725319      6.41730595
H        14.21947861     17.08440781      5.14756727
B        16.09695816     20.17676926      6.40824747
H        16.37457275     22.61565208      5.61773396
B        14.36291599     20.97235107      6.29231024
B        14.39886093     18.22464371      4.97009659
H        16.98628044     17.79437065      5.52932453
H        14.81887913     19.11543846      2.80659199
B        15.78003311     21.65129852      5.65837049
H        14.26875019     21.96409607      3.51442289
B        16.07488441     18.70455551      5.40132189
H        17.40126991     20.63165855      4.02070999
B        14.81953430     19.67194557     13.73926926
H        12.24842358     19.97682381     14.69694901
B        14.58011532     21.43339157     14.27708912
H        14.20371056     18.95107841     17.42138672
B        16.24294281     20.60655022     14.43417168
H        16.73551178     20.56224060     17.15649033
B        13.49761868     20.04447746     14.86258602
H        14.01869488     21.79639626     16.91107750
B        14.45266438     19.33434296     16.28599739
H        13.95783806     17.45886803     14.61628056
B        15.98214340     20.47822762     16.25632477
H        16.27548790     23.24990082     15.62404728
B        14.36365223     21.09775352     16.02752113
H        16.85505104     18.30797577     15.40495682
B        14.21820354     18.52717400     14.85841942
H        14.95945168     19.52650070     12.57125950
B        15.68352222     22.09231186     15.41632843
H        14.20440292     22.23949051     13.29808617
B        15.94004059     19.07798576     15.20385551
H        17.26803970     20.64918518     13.74575043
B        24.74023819      9.76276588      3.63717437
H        22.17291260     10.20568180      4.77036142
B        24.54890633     11.50743008      4.09240437
H        24.07465363      9.23043728      7.46795273
B        26.22616386     10.82884979      4.32819653
H        26.70085526     10.68277073      7.06923771
B        23.32933426     10.14580441      4.89676046
H        23.52262115     11.81837177      6.60978270
B        24.45376205      9.52912998      6.31139374
H        24.00620079      7.42751360      4.64950848
B        25.88597679     10.62008953      6.22450542
H        25.80924416     13.17657852      5.65722990
B        24.17440224     11.20362282      5.84863997
B        24.17562866      8.60767365      4.71757126
H        26.61282539      8.30264568      4.98248959
H        24.76668930      9.21010685      2.49719238
B        25.64967346     11.99726772      5.44503880
H        24.26284981     12.45505142      3.30444908
B        25.78251266      9.14050388      4.98345613
H        27.25043106     10.60891628      3.64915013
B        25.20783424      9.63989735     13.39106083
H        22.55163193     10.18410873     14.30951977
B        24.80135536     11.44054794     13.85262012
H        24.34959602      8.84846592     16.89654922
B        26.55184937     10.77981663     14.09112835
H        27.11447144     10.27812862     16.67574120
B        23.77730560     10.12927914     14.50819778
H        23.91661453     11.66789246     16.62820244
B        24.79443932      9.49669456     15.97657681
H        24.10777283      7.46636581     14.37551689
B        26.29341888     10.50338459     15.82779694
H        26.19084167     13.22098732     15.45593739
B        24.52497101     11.16576385     15.73660946
B        24.54111099      8.60545063     14.49534035
H        26.90946579      8.28981304     14.82218266
H        25.35342598      9.22255135     12.25708866
B        25.98277664     11.98937988     14.99761677
H        24.52750206     12.28524685     13.08312130
B        26.07024384      9.08167839     14.75042248
H        27.57448959     10.77116680     13.49126911
B        25.10650253     19.56962776      3.91288424
H        22.43865204     20.17487144      4.73181915
B        24.71975899     21.27795029      4.40494871
H        24.54947472     18.74695587      7.51545477
B        26.47448921     20.54542542      4.53525686
H        26.86462402     20.41185188      7.36157656
B        23.65650558     19.97918701      5.06956530
H        23.96815681     21.75755119      7.16948128
B        24.61450768     19.25982285      6.41528034
H        23.81035805     17.36080170      5.03114510
B        26.06407738     20.32378960      6.32842588
H        26.48209572     22.86138916      5.93231249
B        24.47072411     21.06949425      6.23272896
B        24.51828575     18.35021400      5.02244234
H        27.09479141     18.12485504      5.38262653
H        25.12241554     19.11783409      2.65468907
B        25.91550064     21.83275032      5.55841494
H        24.21727180     22.13046265      3.57561684
B        26.16652679     18.91244507      5.30893803
H        27.49025345     20.57806587      3.85005903
B        25.28923225     19.71244812     13.22683716
H        22.81977272     20.28422737     14.15376377
B        25.03217888     21.45036125     13.73684216
H        24.68089104     18.87344742     16.95360947
B        26.57099152     20.69655418     13.91911125
H        27.06390953     20.50258255     16.73255920
B        24.02820206     20.13684464     14.38021374
H        23.95906067     21.72548676     16.40144348
B        24.99328804     19.44363785     15.89457607
H        24.07734871     17.40061569     14.22714615
B        26.40645218     20.47399902     15.78554535
H        26.59637260     22.91552734     15.39398479
B        24.63528442     21.18398857     15.55776691
B        24.65113258     18.46328735     14.36944962
H        27.13870049     18.13562202     14.73573589
H        25.13671112     19.18657684     12.10607338
B        26.05735779     21.93173027     14.98880386
H        24.47693253     22.05552673     12.85391235
B        26.34343719     19.00431061     14.71667480
H        27.51088715     20.69103432     13.08180618
B         4.86470604      6.22100878      9.04802704
H         4.53868580      4.55862570     12.48048019
B         6.48657942      5.56324911      9.47238064
H         6.87924242      5.96796274     12.42730999
B         3.74987864      5.03501701      9.86080551
H         3.65515614      7.15718126     11.37072754
B         4.70172501      4.76890802     11.40804291
H         4.07372379      2.38482666     10.49324226
B         6.28601313      5.75721359     11.35523605
H         6.33003855      8.21324158     10.21936321
B         4.47560024      6.42473793     10.87876606
B         4.46254969      3.55470920     10.13572407
H         6.88262939      3.28325772     10.72790051
H         5.47528744      3.89295959      7.75780916
B         5.90901995      7.08972788     10.15693855
H         4.56968212      7.01055527      8.11922741
B         6.03739691      4.13690615     10.46502686
H         7.50684595      5.38548517      8.76945972
B         5.20728397      4.46310663      8.81176472
H         2.57803726      5.45878363      9.59005547
B         4.77875137      6.26444960     18.94149208
H         4.42360401      4.43571663     22.39921761
B         6.63904333      5.54042721     19.36043167
H         6.79704666      6.13044691     22.12298012
B         3.73518562      5.07931089     19.67005348
H         3.90975308      7.44118071     21.27634811
B         4.70231152      4.68436241     21.30573654
H         4.27160692      2.45873404     20.07468987
B         6.18398285      5.71655321     21.20071220
H         6.22457123      8.10899067     19.80972862
B         4.51892710      6.47294044     20.76614189
B         4.53848124      3.58252335     19.99886894
H         6.85785913      3.36015534     20.70888138
H         5.30511475      3.89020061     17.65472221
B         5.92587996      6.91390228     20.06215668
H         4.38033724      6.89251757     18.01328659
B         6.12449503      4.13897800     20.36778831
H         7.66652346      5.40853024     18.67720985
B         5.12974930      4.44635057     18.81074524
H         2.49213481      5.17265177     19.51911926
B         5.14862967     16.07991791      8.85047722
H         4.64319801     14.24704266     12.48143482
B         6.75964975     15.26276588      9.30644512
H         6.93116474     15.86656475     12.10583591
B         3.96930289     14.81587887      9.74552155
H         3.96949816     17.06219101     11.05935574
B         5.07857704     14.34751701     11.29814625
H         4.31406546     12.20097637      9.98717213
B         6.36230612     15.51966763     11.09136963
H         6.67504883     17.94844818      9.98222828
B         4.79531670     16.19791794     10.70253181
B         4.77110338     13.31495476     10.00100040
H         7.20008326     12.94737339     10.61911201
H         5.28651237     13.86868954      7.76176596
B         6.24733591     16.80846024     10.02960873
H         4.79731226     16.49032402      7.69319916
B         6.40851879     13.79625511     10.31193829
H         7.90079927     15.18699551      8.89420605
B         5.50385904     14.27100754      8.86157036
H         2.84513640     14.89705944      9.24195766
B         5.21478701     16.30034828     18.75342369
H         4.30464220     14.67018414     21.95299530
B         6.86146259     15.67222500     19.18615723
H         7.07116508     15.97936916     21.93001938
B         3.86784720     15.06523895     19.64098930
H         3.93124366     17.09997177     21.30126572
B         4.98266125     14.87110710     21.01496696
H         4.23410988     12.47723198     19.83344460
B         6.38591814     15.82602882     20.90282822
H         6.72380447     18.22540283     19.70161247
B         4.80844593     16.53378868     20.47651672
B         4.77497005     13.56580925     19.80566025
H         7.20442820     13.28449631     20.48865128
B         6.18709707     17.21093750     19.88216591
H         5.56195927     14.18150902     17.47720146
H         4.84826183     16.73130417     17.64049911
B         6.33229399     14.18502998     20.17672157
H         7.80718184     15.37532520     18.44896889
B         5.36526442     14.62680626     18.55321121
H         2.67068768     14.97597408     19.69288445
B        14.74548912      6.01159906      9.14877605
H        14.23537064      4.40187788     12.87460899
B        16.41264915      5.36933517      9.64198780
H        16.68943977      5.54303265     12.40567112
B        13.68146610      4.91314507     10.09246445
H        13.71260834      6.99416780     11.55077267
B        14.50322151      4.44353819     11.66867352
H        14.03626728      2.26532006      9.94481564
B        16.04393578      5.53592205     11.37688923
H        15.93408966      7.97922897     10.17674732
B        14.34115601      6.15788937     11.00759983
B        14.38013363      3.36348915     10.25887108
H        16.77786446      3.04885364     10.73834515
B        15.78464222      6.81991482     10.22243977
H        14.93696880      3.77105904      8.15151405
H        14.57369804      6.78477287      8.29219913
B        15.90696239      3.85969520     10.59065533
H        17.28036690      5.17459869      8.86673164
B        15.13787842      4.29267645      9.16942215
H        12.58107758      4.96830273      9.60596561
B        14.91509819      6.14712048     18.87000847
H        14.79167557      4.35917282     22.32549667
B        16.51013756      5.47745991     19.43294334
H        16.95331383      5.67069530     22.03771019
B        13.72060490      5.06197643     19.73309898
H        13.53853321      6.85693979     21.37074661
B        14.66983986      4.68365574     21.24315453
H        14.04390621      2.45321918     20.05569839
B        16.28470993      5.66213369     21.02874374
H        16.23514175      8.10558796     19.93962669
B        14.40985394      6.36360359     20.82615280
B        14.52747536      3.56993818     20.07291222
H        16.91698837      3.16739941     20.58761787
B        15.88558292      6.95199680     19.99885559
H        15.31991196      3.91410685     17.58499908
H        14.99573135      6.90215969     17.94599915
B        16.15283585      4.02002668     20.24919128
H        17.73202896      5.34434986     18.90704918
B        15.28202343      4.30541706     18.75871277
H        12.48406982      5.29561853     19.49728012
B        14.75310421     15.84058952      9.16746807
H        14.17199612     14.10385132     12.67905045
B        16.49911118     15.33020592      9.54984188
H        16.72335625     15.19881821     12.63891220
B        13.81278038     14.77272797     10.02122974
H        13.73156261     17.09665871     11.53837299
B        14.55254459     14.39258862     11.58581543
H        14.26142502     12.09897327     10.45685387
B        16.11727715     15.36381435     11.43427753
H        16.37045097     17.74263000     10.37173271
B        14.32637596     16.15294266     10.92396355
B        14.45190620     13.24707031     10.32675076
H        16.60665131     12.71404076     10.82722378
B        15.86117077     16.64685059     10.38649559
H        14.81531715     13.51672363      7.93246269
H        14.52121449     16.36166382      8.14538956
B        16.08555984     13.79913044     10.66190147
H        17.44918060     15.25836182      8.77866077
B        14.99577808     14.17580128      8.99576664
H        12.62960243     14.66662407      9.76841545
B        14.97001457     16.24868202     19.03117752
H        14.35908413     14.49765491     22.43299294
B        16.59268761     15.59050179     19.35587311
H        17.04692268     15.67058754     22.04160690
B        13.91612053     14.99633980     19.78465080
H        13.77342796     17.15145111     21.31093788
B        14.67033482     14.72163010     21.38589859
H        13.92654037     12.47720909     20.14263916
B        16.20244980     15.68736649     21.13821030
H        16.00112152     18.29914284     20.18591881
B        14.59983063     16.45855141     20.88206863
B        14.49313641     13.54482746     20.15326881
H        17.05340004     13.32585335     20.85008621
H        15.27390671     14.05299568     17.72221756
B        15.92969990     17.05685234     20.10388756
H        14.80761623     16.83470154     18.06335640
B        16.13809013     14.06549549     20.39974213
H        17.56074715     15.82826233     18.75063705
B        15.20357227     14.41370010     18.93103790
H        12.85618973     15.13432217     19.26676941
H        22.57466698      5.49487686      9.32066059
B        24.65217590      6.36607552      8.83220577
H        24.22201538      4.38649416     12.26886463
B        26.43069839      5.76546907      9.16586494
H        26.78737450      5.94651794     12.00578213
B        23.75183678      5.29763842      9.63007069
H        23.75811005      7.59452248     11.23319530
B        24.52606773      4.77640772     11.17066288
H        23.86035919      2.58647728      9.95410442
B        25.98665810      5.88857317     10.98171616
H        26.36023140      8.24913979      9.63547611
B        24.56979179      6.76966381     10.63255119
B        24.46310806      3.68736386      9.78944111
H        26.84818459      3.49672651     10.41357136
H        25.22425461      4.20451736      7.58239079
B        25.86327934      7.23957396      9.77184200
H        24.42443466      7.08766937      7.86662579
B        26.04048157      4.32517624     10.25420380
H        27.57784081      5.57084084      8.71019268
B        25.23502541      4.62450743      8.64427948
H        22.74484062      5.06453180     19.38635445
B        25.10005760      6.19521523     18.96420670
H        24.54261017      4.82678986     22.47808266
B        26.74556351      5.67572069     19.37968254
H        27.07763100      5.82957935     22.03613472
B        23.91941833      5.02959871     19.77824974
H        24.11902428      7.33153009     21.21582413
B        24.81441498      4.80982304     21.28197479
H        24.37792778      2.39936709     20.02906418
B        26.30509567      5.67897415     21.18143654
H        26.45305634      8.16581917     19.89596367
B        24.60428238      6.35837603     20.69187737
B        24.67841530      3.55344200     20.10358238
H        27.21416473      3.30459976     20.50422478
B        26.15700340      7.06474113     20.05075073
H        25.33425140      4.16076136     17.64474297
H        24.83857727      7.05297661     18.18054008
B        26.25624275      4.13652849     20.32365227
H        27.71119690      5.51638603     18.58244133
B        25.24442482      4.51023149     18.79253006
H        22.29712677     15.04278183      9.51203060
B        24.64017296     16.15314674      8.73699474
H        24.04062843     14.46714211     12.29546165
B        26.29703522     15.51574707      9.10327721
H        26.57988739     15.86907005     11.87287998
B        23.62286949     14.95307159      9.50724697
H        23.52678871     17.15586090     11.08608723
B        24.46428871     14.68827152     11.15489578
H        23.59147072     12.34162045      9.86426449
B        25.92896271     15.68471336     10.88499641
H        26.30730247     17.96985245     10.01596737
B        24.26600075     16.34062195     10.60875988
B        24.26214027     13.41370106      9.88626003
H        26.59874916     13.01171494     10.76265049
B        25.66017914     16.90851593      9.90858078
H        25.02197838     13.71798992      7.49204159
H        24.09261131     16.90269470      7.91765451
B        25.85987282     13.93700695     10.23847485
H        27.37433434     15.55507565      8.58275318
B        24.96346092     14.44387341      8.51996613
H        22.28352928     15.02612782     19.15930367
B        24.51573944     16.25670624     18.63090515
H        24.03640556     14.75898838     22.25757027
B        26.23072052     15.56863689     19.00645828
H        26.36019325     15.82180119     22.00195503
B        23.49683380     15.06469536     19.51269150
H        23.40870285     17.02552605     20.72060013
B        24.32341576     14.68033695     21.05447388
H        23.82751274     12.41554928     19.67367172
B        25.76753616     15.66571808     20.91072464
H        26.09467697     18.08864594     19.77492905
B        24.22696114     16.36468315     20.36688995
B        24.12081337     13.58558655     19.76759148
H        26.90885735     13.48599911     20.13730812
B        25.68351173     16.94265747     19.64217377
H        24.96059227     13.78669167     17.50914383
H        24.08917427     16.96205711     17.69782257
B        25.80496216     14.16637802     19.94649696
H        27.24866676     15.64895916     18.49760246
B        24.93290520     14.49832439     18.44990540
