1056

Na        7.82488966      3.53897357      2.94661212
Na       12.98216724     -6.27659273      7.61554909
Na        2.39512515     12.92004204      2.87794709
Na        7.24693966      8.88583279     12.05331516
Na       12.61879539      2.83571553      2.37805367
Na       12.35670948      2.78693485     12.58554649
Na       12.52562237     12.84027767      2.57295728
Na       12.57988262     13.16364288     12.81641865
Na       22.37787819      3.46565866      2.52728844
Na       22.84902000      2.41902018     12.27735806
Na       22.27648163     13.50626755      2.56769681
Na       27.09351540     13.16633606     12.96536541
Na        2.52693558      8.36955357      7.59281683
Na        2.60932350      3.45790577     17.67397881
Na        2.14406443     13.09323502      7.93568993
Na        2.53241777     17.44690132     17.63977623
Na       17.48564911      7.87090397      8.09341240
Na       11.52983856      3.74025202     17.59242630
Na        7.40984869     13.69792557     13.20907497
Na       12.95304585     17.34358597     17.96150208
Na       22.23413277      3.42677760      7.79108000
Na       22.02486992      7.37264633     18.39468956
Na       22.99895859     13.14594173      7.56022549
Na       27.67763710     22.99273491     17.93514061
Na       17.54126740      2.66384435      6.96964931
Na        2.79923129      7.94995213     17.50564384
Na        2.67802715     12.83696842     12.80460072
Na        7.41379642     12.28332043     18.20655823
Na       12.09623909      3.21389437      8.15559292
Na       17.12758636      2.83145404     17.27385712
Na       12.09179688      7.85633183      7.66591978
Na       13.08095360     12.67834377     18.06417847
Na       27.25808334      2.12940669      8.29597950
Na       22.16478729      2.94298387     17.32009888
Na       32.43303299     18.03318214      7.51310635
Na       27.16144371      7.53627586     17.65733337
Na        6.72745514     13.22739887      3.31508923
Na        7.50254917      2.83264613     17.98320198
Na        7.69114780     18.37067795      2.83521318
Na        7.17983150     18.07496452     12.74686813
Na       17.03978157      2.98800182      2.72986007
Na       17.53005981      8.51371002     12.49262905
Na       17.40429878     17.56817245      2.87283254
Na       17.21689034     18.35682106     12.38091087
Na       27.23261833      8.34766483      2.69870663
Na       26.82444000      8.39294910     11.78897285
Na       26.92701340     17.29779816      2.91339755
Na       27.13887978     17.67340088     12.74436569
Na        8.11367893      7.77975368      2.45858693
Na        2.95995426     -1.45606351     12.86838818
Na       -2.23368168     18.02392960      8.33718681
Na        2.90849304     12.95088196     18.22416306
Na        7.52227449      2.78403687      7.96022511
Na       17.12728310      7.76493263     17.78705978
Na       12.03331089     17.69636917      7.98925447
Na       12.84946156      8.07798481     17.54559517
Na       22.28741455     -2.26829743      7.81760788
Na       22.21667290     -2.60325241     17.98972130
Na       22.37556458     27.28338623      8.03149605
Na       17.44859695     18.15136909     17.78189850
Na        2.61716914      8.01428413      3.23652649
Na        2.78844762      3.41336036     12.29218006
Na        1.90743184     18.24836540      3.22057199
Na       -2.51501012      7.37841368      7.72756243
Na       12.73437405      8.27067852      3.04554510
Na       12.56444550      8.14995861     12.92216778
Na       12.36172199     17.92917633      2.49238157
Na       12.64272976     17.95216179     13.01192093
Na       21.90809631      8.08815956      3.13880467
Na       21.98731804      7.90277004     13.17775345
Na       22.07868385     17.99563789      2.69172072
Na       21.91570091     18.03824806     13.04200935
Na        2.66635013      3.20244217      2.91892910
Na        7.57383871      3.62700438     13.16405296
Na        7.31388617      8.02274609      7.80806351
Na        2.12138295      7.79072618     12.62512302
Na       17.81802368      7.79007292      2.61022067
Na       17.42805290      3.46033740     12.80817604
Na       17.48013878     13.03388214      3.79986548
Na       17.42233658     13.26759434     13.01587772
Na       27.04208183      3.39771080      3.32937336
Na       26.74761581      2.79709578     12.64250660
Na       26.73348427     13.24240875      2.94748759
Na       22.71924400     12.86008453     12.50341702
Na        7.35348511     12.74255371      7.93190193
Na        7.47465658      8.10782146     17.47775269
Na        7.75372219     17.91948700      8.32037735
Na        7.41083479     17.94885063     17.50271797
Na       17.29221916     12.71860409      7.39088869
Na       22.28625107     12.64706612     18.52032089
Na       17.70135880     18.18806839      8.50134659
Na       17.96296120     12.82010651     17.30362129
Na       27.19508171     12.33958721      7.16706181
Na       27.48916245     12.51388550     17.56175041
Na       32.12833786     22.90669632      7.88395882
Na       27.43869781     17.80642891     17.98369217
B         1.30459702     18.95592880      0.11071748
H         2.67227364     20.48184395     -1.69009173
B         0.36642560     19.49371910     -1.39439464
H        -2.00249767     20.47194290     -0.35644877
B         0.14764868     21.26100731     -1.08786929
H        -0.30855060     19.32040977      2.45283413
B         1.77847886     20.46627617     -0.85106099
H         2.28230023     20.80034256      1.91389894
B        -0.87161291     20.24395180     -0.11074773
H        -0.73858577     22.15950012      1.43566632
B        -0.05704469     19.57539177      1.27642250
H        -0.81484884     17.56271172     -0.10810068
B         1.59627593     20.45938110      0.94464386
H         1.79147148     22.93373489      0.09948702
B        -0.04396563     21.33090782      0.86004072
B        -0.25532177     18.63022423     -0.09100189
H         2.35039663     18.30929184      0.05702274
H         0.34189498     18.83080292     -2.38825822
B         1.30682278     21.86451721     -0.06802467
H        -0.15038326     21.73112679     -2.17830825
B         1.44712019     18.91125679     10.18952370
H         2.98730659     20.31305695      8.72319984
B         0.41838771     19.40395546      8.86441135
H        -2.12800264     20.11376381      9.84163380
B         0.26345521     21.11488533      9.14234734
H        -0.11940548     19.47244835     12.52091217
B         1.85816872     20.34719658      9.31474113
H         2.18256998     20.38949585     12.42093468
B        -0.90940630     20.13465881     10.06127357
H        -0.63239527     21.87177277     11.63466358
B         0.12829573     19.44692993     11.35361195
H        -0.91311163     17.48420715     10.24696541
B         1.59427929     20.40749741     11.17486668
H         1.78560853     22.84139442     10.15688133
B         0.04677309     21.27284813     10.96338654
B        -0.25240889     18.41148758     10.18515778
H         2.11459017     17.87863541     10.30423260
H         0.28672141     18.93420219      7.74754047
B         1.32736540     21.69394875     10.16221333
H         0.05351755     21.86304474      8.15478611
B         1.28114450      8.84362888      0.49301237
H         2.76804209     10.40689754     -1.03553998
B         0.28512815      9.35237598     -0.87585562
H        -2.20739245     10.13479996      0.23316824
B         0.17380449     11.23900986     -0.58638167
H        -0.40857545      9.40770817      2.67369390
B         1.80327773     10.39813042     -0.41380590
H         2.34912968     10.45716953      2.24603271
B        -0.92432636     10.00309277      0.25112131
H        -0.78770369     12.06713390      1.73226202
B         0.13098872      9.49076176      1.62678528
H        -0.82450747      7.30047607      0.25982857
B         1.50824046     10.38849068      1.42029464
H         1.58293939     13.04627895      0.58205062
B         0.00805628     11.31301498      1.19289422
B        -0.37581059      8.47076225      0.40808538
H         2.16057897      8.04891109      0.74969685
H         0.13503487      8.92902756     -2.02307153
B         1.32432723     11.87804127      0.40157545
H         0.24953687     11.90631866     -1.50955415
B         1.19013715      8.87754631     10.48592567
H         2.91983342     10.34296513      8.91159153
B         0.36175460      9.35442638      9.00416374
H        -2.28920650     10.08058071     10.08658695
B         0.08964472     11.10793877      9.22607899
H         0.00109208      9.09248924     12.72721291
B         1.86827409     10.34118366      9.55163574
H         2.26287770     10.46424580     12.32510185
B        -1.04675412      9.94903469     10.19904804
H        -0.59685731     12.10220146     11.70056820
B         0.12601055      9.41736412     11.59538269
H        -0.96752280      7.44714069     10.05700684
B         1.54408693     10.36559582     11.27218533
H         1.53400230     12.92961788     10.35340214
B        -0.03772860     11.27912712     11.18815804
B        -0.41399658      8.47547913     10.11772537
H         2.05020642      7.93837786     10.56187916
H         0.27385360      8.92737865      7.86783791
B         1.35291290     11.75041199     10.21736813
H        -0.39085457     11.55353737      8.26787949
B        11.15069389     19.08797073      0.12820338
H        12.53830433     20.60067558     -1.44258535
B        10.12224770     19.57413101     -1.24726498
H         7.68940258     20.48956490     -0.25955215
B        10.05949783     21.41663742     -1.03925431
H         9.72422981     19.75404549      2.60206246
B        11.59831524     20.65617180     -0.75369728
H        12.11743164     20.53798294      1.97657967
B         8.92313576     20.30046463     -0.12117007
H         9.52383614     22.24852371      1.60542822
B         9.82242870     19.78453636      1.37428486
H         9.29528904     17.47617722      0.17014119
B        11.43283081     20.66197014      1.01329422
H        11.55177021     23.14528847      0.22537513
B         9.81242466     21.41356087      0.84242004
B         9.52045727     18.65349007      0.02939996
H        11.78980064     18.06324959      0.33514670
H         9.85719776     19.03359222     -2.34575891
B        11.14444923     22.04551315      0.21392168
H         9.67578506     21.88217163     -1.97440779
B        11.05823421     18.71663094     10.22150421
H        12.74855995     20.11531639      9.06406689
B         9.97200298     19.29378128      8.78961468
H         7.53601408     20.17817307     10.05487633
B         9.84204674     21.05351257      9.15958691
H         9.42634010     19.10411263     12.61601448
B        11.54805756     20.18620872      9.34548473
H        12.04138184     20.29648018     11.96501255
B         8.74026966     19.85210609     10.01455784
H         9.07658100     22.01157188     11.48675632
B         9.69457912     19.38296318     11.41919041
H         8.89004040     17.15946960     10.24866772
B        11.23800182     20.23416328     11.11923504
H        11.70286751     22.71767235      9.96980858
B         9.67508602     21.16055107     10.94562531
B         9.46489811     18.22311020     10.11578846
H        11.98595715     17.73650360     10.34455204
H        10.04564857     18.95779800      7.68513060
B        11.07116222     21.59989166     10.18443489
H         9.36164188     21.47076988      8.02981377
B        11.13556671      8.88083935      0.39184454
H        12.83295059     10.36393261     -1.01029360
B        10.15483761      9.51100445     -1.00249672
H         7.71909475     10.30843830     -0.22715086
B        10.00397491     11.20766258     -0.72424889
H         9.45590401      9.67755890      2.62570429
B        11.65772629     10.48192501     -0.54320252
H        12.34210682     10.65304661      2.16096234
B         8.84960938     10.06116486      0.07231201
H         8.94684410     12.12388229      1.75569510
B         9.87750816      9.66906071      1.59898007
H         8.94640923      7.46033382      0.36290050
B        11.49929619     10.44437218      1.26059711
H        11.74768734     12.76881695      0.33609623
B         9.75628853     11.33253002      1.17101490
B         9.50380039      8.44905853      0.29798359
H        11.76410389      7.88067865      0.19040217
H        10.01226616      9.06320190     -2.05223775
B        11.09550953     11.80375481      0.35547945
H         9.56436729     11.82551003     -1.56544054
B        11.16895676      8.93904114     10.39917564
H        12.54955959     10.46297646      8.49173260
B        10.17247581      9.38598633      8.94906807
H         7.71991158     10.29539013      9.81201172
B        10.02935791     11.17270374      9.27576447
H         9.77991295      9.30079079     12.63004780
B        11.63576889     10.22407246      9.37294292
H        12.28998756     10.42021751     12.15262127
B         8.89330673     10.06143761     10.09642220
H         9.17974186     12.23735332     11.79718971
B         9.91593361      9.49032402     11.45534134
H         8.99062729      7.33832836     10.12673283
B        11.46908474     10.49889374     11.29830551
H        11.68686867     12.91300678     10.16911602
B         9.67724323     11.27457714     11.10244751
B         9.53988647      8.38452339     10.20312691
H        12.00593853      7.98889017     10.54956150
H        10.05896568      8.80386066      7.89632034
B        11.26939678     11.73855019     10.36728001
H         9.52703381     11.78285694      8.32549381
H        19.32716370      2.26430464     18.10321617
B        21.05221939     -0.75375050     20.05583572
H        22.43402481      0.71573168     18.27582359
B        20.08966637     -0.29387057     18.65732765
H        17.64768028      0.66499174     19.40887260
B        19.92637253      1.61583591     18.94018555
H        19.54240608     -0.40263548     22.37730980
B        21.49929810      0.70083058     19.03157616
H        21.93817139      1.00408053     21.98584366
B        18.88070297      0.43644819     19.74320602
H        19.14948654      2.36977768     21.39375305
B        19.75801659     -0.14528599     21.14870453
H        19.11295319     -2.47116160     19.61206627
B        21.37891388      0.77465945     20.92587090
H        21.73883057      3.10318255     19.76034164
B        19.70795822      1.65586209     20.68796539
B        19.48260307     -1.24822032     19.80186081
H        21.84328461     -1.66558933     20.06711197
H        20.04418945     -0.67584294     17.52376556
B        21.12184715      2.13524747     19.86127472
H        19.66123962      2.08267665      8.09066582
B        21.12511635     -0.92702562     10.21006107
H        22.65626526      0.64250004      8.63253117
B        20.13716316     -0.39988014      8.82704067
H        17.74924850      0.53918397      9.50075722
B        19.96808243      1.42105377      9.08211040
H        19.91888046     -0.54599839     12.65545654
B        21.62198257      0.52640247      9.29027176
H        22.17682648      0.50936025     11.95013142
B        18.78326607      0.28358218      9.91558075
H        18.98743439      2.21286964     11.80569458
B        19.89695930     -0.30988982     11.45855331
H        18.81790161     -2.44134665     10.23098469
B        21.26127434      0.61587512     11.13153267
H        21.59021378      3.06681991     10.00196171
B        19.66659927      1.47595298     11.02442169
B        19.39564896     -1.28962755     10.18258667
H        21.84337425     -1.89464879     10.42618370
H        19.80435753     -0.81737417      7.87376690
B        21.04561043      2.05408764     10.18972015
H        19.65028381     11.72641468     18.28775215
B        21.11713409      8.83188248     20.39918327
H        22.54785347     10.26322842     18.90308189
B        20.20140457      9.42245865     19.00729561
H        17.60243034      9.94343758     20.00634193
B        19.95229530     11.17854118     19.26988983
H        19.37310791      9.29618549     22.69379425
B        21.47172737     10.32375622     19.48990822
H        22.28126526     10.27638340     22.04921913
B        18.81742477      9.96953583     20.14927864
H        19.27772331     11.81532955     22.13705063
B        19.79419327      9.58715057     21.61423302
H        18.70461082      7.53742790     20.23453522
B        21.31603241     10.34485340     21.30061913
H        21.50249100     12.85390186     20.29428291
B        19.73415565     11.20471764     21.13416862
B        19.46654701      8.47745705     20.28440475
H        21.91379547      7.91467857     20.57403183
H        19.92393303      8.83642292     18.07246208
B        21.07797050     11.75305462     20.31671524
H        19.44719887     12.08714581      8.41856480
B        21.01899147      8.84971714     10.27744579
H        22.43757057     10.19416714      8.53384781
B        20.13323784      9.44377136      8.87529182
H        17.62354279     10.04843807      9.56765366
B        19.83868217     11.16934776      9.15139675
H        19.65073204      9.35003185     12.62042999
B        21.48924446     10.37694740      9.29270935
H        22.03377724     10.46713257     12.21723843
B        18.67630005     10.07332706      9.97203255
H        19.39263725     11.86280251     11.88211346
B        19.82710457      9.48529625     11.39864063
H        19.14866447      7.25560665     10.18077850
B        21.23602486     10.41911793     11.25463581
B        21.16240501     11.76263523     10.18170547
H        21.74334908     12.74743748     10.15382671
B        19.65198708     11.18929482     10.90778446
B        19.42390633      8.46062088     10.23638630
H        21.77717209      7.98743677     10.45335770
H        19.97709465      8.99420547      7.83865595
B        10.17062569      4.79655313      3.72223854
H         7.74219131      5.20104790      4.65069199
B         9.82442665      6.61514854      4.32644749
H         9.34128857      4.05210590      7.34075594
B        11.62483883      5.80651665      4.50151682
H        12.04275799      5.49939251      7.23055840
B         8.86738777      5.18106842      4.90795469
H         9.10914326      6.94233990      6.96077490
B         9.82865047      4.56192064      6.35202408
H         9.04517174      2.55544090      4.94151735
B        11.28429890      5.49624729      6.37115479
H        11.51686192      8.17498589      5.31477642
B         9.68931007      6.31796408      6.13844538
H        12.07068920      3.29403687      5.40546465
B         9.59805965      3.67330408      4.91330814
H        10.01432419      4.08026743      2.63688993
B        10.99459362      7.09710312      5.44654179
H         9.60133553      7.26430893      3.42553306
B        11.20042229      4.10822344      5.20207691
H        12.71503639      5.78859568      3.84941483
B        10.17955017      5.05971384     13.69661236
H         7.50543213      5.45131779     14.69281769
B         9.74508286      6.82880878     14.20762157
H         9.07309914      4.50770521     17.23050880
B        11.63548565      6.05212927     14.39113426
H        11.87899590      5.63904142     17.10825539
B         8.79860592      5.46419096     14.92759037
H         8.92183018      7.21304750     16.68454552
B         9.65482903      4.84681702     16.26987457
H         9.23094368      2.89085150     14.51698589
B        11.22104740      5.80384493     16.23660088
H        11.33759785      8.26435852     15.82309723
B         9.63875771      6.54165506     15.98984241
B         9.60415363      3.96264720     14.89092159
H        11.98847103      3.56003046     14.98634243
H        10.15876198      4.68251753     12.51122284
B        11.05392647      7.27620411     15.31515789
H         9.06276894      7.70098495     13.58711910
B        11.13205910      4.47548819     15.12408829
H        12.53632164      6.10824442     13.55216885
B        10.48406506     14.43556213      3.56603813
H         7.77208376     14.96493530      4.88813257
B        10.16688538     15.99605942      4.10464668
H         9.67259979     13.66178226      7.12320471
B        11.77766037     15.36679554      4.22074223
H        12.36000156     15.28370667      6.99564743
B         9.06976318     14.84247494      4.85843134
H         9.23693562     16.75284576      6.51997709
B        10.05741310     14.09478378      6.10965967
H         9.20614147     12.32509041      4.17699242
B        11.41094398     15.21910095      6.18801022
H        11.72562599     17.75176430      5.41007519
B         9.82054996     15.93924713      5.84294796
B         9.84386063     13.16314125      4.69002008
H        12.35542393     13.02887821      5.02956104
H        10.79023647     14.14851093      2.38687539
B        11.32606792     16.60532188      5.21687794
H         9.59772587     16.74475288      3.39735007
B        11.39725780     13.62720871      4.91060638
H        12.73372269     15.43838787      3.46438479
B        10.24301243     14.50059700     13.81371593
H         7.61896181     15.30333424     14.80505371
B         9.87561321     16.16269493     14.27436829
H         9.47658730     13.79656124     17.46477127
B        11.58007622     15.51684952     14.56705570
H        12.20335865     15.04973602     16.99852943
B         8.76889133     14.92677689     14.92325878
H         8.97051334     16.64288330     16.88772774
B         9.90040398     14.27229404     16.34540367
H         8.92483902     12.33620548     14.65182972
B        11.30344486     15.25713348     16.23741150
H        11.32985401     17.98049545     15.55873775
B         9.59362411     16.05731392     16.13506508
B         9.44634533     13.36281681     14.90255833
H        12.00803661     12.99233437     15.07448959
H        10.36304474     13.99552155     12.63252544
B        10.92772198     16.81601334     15.49112701
H         9.60881901     17.03023529     13.51824284
B        11.19287109     13.80895996     15.23838043
H        12.42746449     15.59115314     13.85154247
H        22.43486023      5.73448181      3.97488618
B        20.07383728      4.53860474      3.72678089
H        17.44503212      5.11164951      4.57403660
B        19.71601105      6.33431530      4.31972790
H        19.55103111      3.89076281      7.50804663
B        21.35932922      5.53141546      4.36524105
H        21.80027580      5.40424490      7.23477840
B        18.62504387      4.99797106      4.88069296
H        18.70365143      6.82583380      6.67984247
B        19.57796478      4.37609911      6.29502583
H        19.00026512      2.42291355      4.67349529
B        21.12480736      5.43100643      6.23311424
H        21.54989052      7.79188061      5.53058624
B        19.43144989      6.06274748      6.04001617
B        19.38993835      3.52216434      4.88704491
H        21.86872864      3.12723565      5.19062519
H        19.89252472      4.40301609      2.59485126
B        20.86308098      6.86196089      5.45308590
H        19.33539963      7.06201792      3.54944181
B        21.00589943      3.97998071      5.10085964
H        22.31143379      5.65937042     13.41611290
B        19.93173409      4.47283936     13.47901058
H        17.27776146      5.05767632     14.52294540
B        19.68930626      6.33438110     13.99991703
H        19.10074997      3.68752170     16.90836716
B        21.26129532      5.53148842     14.04972649
H        22.09312057      5.38432789     16.79372978
B        18.51830864      5.03434277     14.49535751
H        18.75955391      6.71160555     16.71133995
B        19.59468651      4.42963505     16.04336166
H        18.74486923      2.50488138     14.28169441
B        21.08245850      5.40917063     16.02982140
H        20.98125267      7.96463633     15.16913700
B        19.32135201      6.06733179     15.89482212
H        21.92991829      3.28396010     14.97645187
B        19.30245590      3.45907688     14.57956123
H        20.21269417      4.17288971     12.30493736
B        20.74669075      6.83105898     15.20082855
H        19.41975975      7.22137642     13.22578907
B        20.89747429      3.93724370     14.90211678
H        22.62219429     15.63956642      4.14279985
B        20.11045647     14.80005455      3.84672999
H        17.70607376     14.90058613      5.01329470
B        19.96302605     16.44737053      4.35683632
H        19.60506630     13.93705845      7.45273542
B        21.62534523     15.68564606      4.66148090
H        22.14218330     15.17798710      7.25710058
B        18.83166695     15.07769108      5.06128120
H        18.91407394     16.87029839      6.99494314
B        19.78361511     14.47008991      6.44365883
H        19.24978638     12.46539116      5.00287485
B        21.30482292     15.49921799      6.36757565
H        21.46700096     18.00694656      5.68114090
B        19.61030006     16.23524284      6.19066381
H        21.99779701     13.09334469      5.25208712
B        19.57331085     13.58213806      5.05209255
H        20.33495903     14.27510166      2.66168189
B        21.03418350     16.92877579      5.54156399
H        19.43069458     17.25137901      3.65754104
B        21.22918510     14.09315777      5.30701065
H        22.55356407     15.83474731     13.98060703
B        20.12191582     14.61986637     13.71396255
H        17.61397171     15.11458015     14.76619530
B        19.92556190     16.30413437     14.25640297
H        19.42407036     14.22711468     17.45123100
B        21.51681900     15.59886456     14.46938133
H        22.18146706     15.19668865     17.19910812
B        18.71746254     14.99474049     14.94281101
H        18.83823586     16.64195633     17.00000000
B        19.80187798     14.37910652     16.26268578
H        19.09025574     12.57469082     14.59862518
B        21.23808479     15.41872883     16.26187515
H        21.63447952     17.88102531     15.48702812
B        19.57487869     16.14702225     16.06991005
B        19.55969238     13.52495861     14.90698147
H        21.93529510     13.06076431     15.43032169
H        20.05739403     14.38566875     12.59278584
B        20.93380547     16.88608360     15.45317268
H        19.46669388     17.13679504     13.48042870
B        21.17059326     13.88800335     15.16791916
B         1.23685718      3.98731685      5.08470869
H         2.82240462      5.77483082      3.91312504
B         0.27804548      4.78996277      3.75195813
H        -2.31096601      5.18033886      4.65500832
B        -0.09392446      6.45061302      4.17710543
H        -0.60908222      4.11837530      7.21689224
B         1.67739356      5.74815416      4.39937592
H         2.06093359      5.51577663      6.97613907
B        -1.10003793      5.18269491      4.86316299
H        -0.46207473      6.85155439      7.12367487
B        -0.13905220      4.60415506      6.16907358
H        -0.70611948      2.57212520      4.41464186
B         1.27771926      5.42879248      6.15753555
H         1.48239446      8.18111610      5.37135172
B        -0.25605941      6.26343966      6.01865339
B        -0.30499804      3.63608360      4.85781670
H         1.79657447      2.99604702      5.32761097
H         0.23671263      4.35067558      2.56287909
B         0.97340697      7.07987881      5.35224342
H        -0.66659904      7.27420235      3.47361159
B         1.62928975      3.96604967     15.00014019
H         2.90379786      5.62403917     13.52442741
B         0.70834064      4.60945749     13.60153675
H        -1.74916661      5.35886335     14.25207615
B         0.31521478      6.23043489     14.06540489
H         0.17602655      3.89999509     17.18862724
B         2.00867558      5.59789371     14.34642315
H         2.92297840      5.22570992     16.73323059
B        -0.72092807      5.00679255     14.57640457
H        -0.54545200      6.67716932     16.61952591
B         0.20545171      4.27198505     16.11171150
H        -0.63338286      2.44078851     14.59454536
B         1.92324328      5.37716675     15.99146175
H         1.68371451      8.09029198     15.66416168
B         0.15622872      6.05359221     15.88051796
B        -0.03061918      3.46473455     14.69430828
H         2.48865533      3.11330581     14.95752907
H         0.80836809      4.26489401     12.45915985
B         1.46031630      6.92127419     15.16707706
H         0.20428680      7.06328106     13.24687767
B         1.14557207     13.90437126      5.06969166
H         2.53501463     15.67136574      3.86501241
B         0.18344426     14.50564003      3.71107745
H        -2.32802844     15.23848724      4.76351786
B        -0.13348673     16.31981659      4.31671715
H        -0.74930215     13.91182327      7.39521217
B         1.56659007     15.52496910      4.46782589
H         2.18271637     15.17786503      7.08610535
B        -1.14778137     14.95794201      4.95562410
H        -1.19436467     16.66164398      6.75892925
B        -0.33244580     14.27249527      6.37695789
H        -0.96264678     12.27209282      4.89668655
B         1.21888804     15.34652138      6.25199175
H         1.29091060     17.96100807      5.75159121
B        -0.42336318     16.05295181      6.10051107
B        -0.46896389     13.33571529      4.92233610
H         2.22411466     13.07619667      5.12213469
H         0.10772613     14.41532040      2.51146388
B         1.01583004     16.82710457      5.37034988
H        -0.36809990     16.97865105      3.26089573
B         1.55264330     13.96636868     15.11006069
H         3.10271788     15.44553566     13.73970413
B         0.50273848     14.71960068     13.61362457
H        -1.98246920     15.10496521     14.77996540
B         0.11053685     16.32098961     14.25231934
H        -0.33012843     13.81539154     17.32439423
B         2.00629377     15.57596302     14.38453007
H         2.28103471     15.31673050     17.00754929
B        -0.89438146     15.01637363     14.79982090
H        -0.62903756     16.86483002     16.76598549
B         0.06127466     14.32295799     16.27551651
H        -0.48477277     12.57738400     14.36206818
B         1.58018970     15.35788727     16.10718918
H         1.74283135     17.98107719     15.66299534
B        -0.11249572     16.28325272     15.96117592
B        -0.10236002     13.60014439     14.85847092
H         2.47218132     13.18822670     15.07939148
H         0.39452741     14.31782436     12.56886673
B         1.32480848     16.90621758     15.28361511
H        -0.47876564     17.07222366     13.44268894
H         2.70310998     10.07533360      5.21041870
B         4.93455458     11.49009418      4.52454424
H         4.56070948      9.28517342      7.76254702
B         6.50185299     10.65481758      4.57474041
H         6.64336205     10.44087029      7.53769684
B         3.81957412     10.04376316      5.19901323
H         3.87770176     11.93341541      6.91219568
B         4.85888386      9.56772327      6.54917431
H         4.05046844      7.56714058      4.89234591
B         6.26077509     10.58931923      6.49030161
H         6.63083982     13.01502705      5.91569853
B         4.57304811     11.30579567      6.27364635
B         4.74639177      8.59875870      5.03218222
H         7.11758137      8.22203636      5.50001621
H         5.60566044      9.69073200      2.79358578
B         6.10754633     11.96152020      5.67358923
H         4.64581633     12.44472599      3.83274078
B         6.30418682      9.07981777      5.42286348
H         7.52489805     10.59449005      3.86506367
B         5.16884947      9.81851101      3.81952333
H         2.62285447      9.86911964     14.61841202
B         4.90231466     11.27295780     14.06560612
H         4.69266319      8.92052364     17.25056458
B         6.48886538     10.56772995     14.35764313
H         6.99242353     10.33199120     17.06458855
B         3.80662942     10.04311752     14.75006485
H         4.08022547     11.58904171     16.85983658
B         4.80753899      9.35166740     16.17138100
H         4.11667681      7.27743340     14.67417622
B         6.22682810     10.43778419     16.17138100
H         6.75059223     12.80390739     15.37398529
B         4.58599567     11.14076519     15.89358425
B         4.57746220      8.45750237     14.78676033
H         7.19042063      8.38597679     14.97838020
H         5.16843987      9.57566166     12.41979408
B         5.94519663     11.94491196     15.36120510
H         4.77598429     12.04668427     13.12632179
B         6.14345551      8.99035740     14.90454578
H         7.35450411     10.78511047     13.57545757
B         5.15868235      9.62521458     13.61227417
H         2.78621387      0.22587779      4.40000963
B         5.11184692      1.51376820      4.36277437
H         4.76608992     -0.73414779      7.52014685
B         6.64783478      0.81745273      4.44093704
H         7.42955685      0.65033543      7.08329535
B         3.99514031      0.20564312      4.73278999
H         3.86160660      1.94625938      6.52123356
B         5.03378105     -0.52488112      6.36743212
H         4.53566360     -2.48820353      4.77521563
B         6.54672432      0.59018546      6.26460075
H         6.52267361      3.20884013      5.69546604
B         4.80136251      1.39551282      6.18057203
B         4.77983665     -1.32428992      4.97606659
H         7.09972906     -1.74025917      5.13185072
B         6.24612570      2.06403446      5.50292778
H         5.20246363     -0.51449209      2.66795731
H         4.75641727      2.37821913      3.51964927
B         6.42675018     -0.78755724      5.22646952
H         7.67119551      0.94356155      3.80661368
B         5.37194014     -0.18429022      3.77909136
H         2.62382054      0.76956910     14.72651958
B         4.93768549      1.69120753     14.19540977
H         4.57046700     -0.70288438     17.36225128
B         6.61062050      1.08350492     14.40757751
H         7.07416344      0.70087826     17.29155731
B         3.87111497      0.37378237     14.84302807
H         3.99898982      2.24173450     16.60236168
B         4.94587135     -0.23713283     16.36310577
H         4.25481367     -2.19216299     14.79825020
B         6.39527369      0.81443948     16.11457634
H         6.45668364      3.31050348     15.74072742
B         4.67237282      1.52099371     15.87051868
B         4.64121914     -1.14211774     14.78240299
H         7.03859568     -1.42039347     15.23817062
B         6.05101252      2.16048336     15.38061428
H         5.43363857     -0.16889158     12.42616653
H         4.56732130      2.59279847     13.44986439
B         6.17962027     -0.63933682     15.09197521
H         7.56717253      1.40266991     13.54933548
B         5.31063080      0.05764947     13.64079475
B        15.18899727      9.53143978      3.65723181
H        12.55067062     10.03909016      4.77862930
B        14.91679096     11.26754951      4.14923525
H        14.36226463      8.84662342      7.25492954
B        16.60058975     10.51786804      4.43966150
H        17.11198044     10.17848873      7.07250166
B        13.81217098      9.86883926      4.80385733
H        13.99063778     11.53424168      6.83285189
B        14.89741802      9.30698204      6.28969955
H        14.25411415      7.41422081      4.83061600
B        16.29834938     10.23160934      6.17905474
H        16.21021652     12.95934296      5.58437729
B        14.66374588     11.00936127      5.89658165
B        14.64119339      8.45111561      4.85866976
H        17.07399368      8.06817532      4.87301302
H        15.20261955      9.14344215      2.56627321
B        15.96373272     11.79766846      5.36028433
H        14.66538429     11.99333382      3.17896700
B        16.23519516      8.83466053      4.97611618
H        17.77519417     10.66009903      3.95493293
B        15.52761459      9.55297565     13.71623135
H        12.82418346     10.31186199     14.44976902
B        15.24398422     11.28321362     14.19076347
H        14.78840351      8.82819939     17.27559090
B        16.84885979     10.65412045     14.32786465
H        17.35495186     10.22531033     17.15678978
B        14.06288052     10.06661987     14.75507069
H        14.13920403     11.63739586     16.70315170
B        15.21756744      9.26834583     16.23421669
H        14.51190281      7.32817411     14.73616314
B        16.63211632     10.38594818     16.14497948
H        16.66544533     12.92748165     15.79132938
B        14.85783577     11.05508709     15.95636654
B        14.79026890      8.46479416     14.92634964
H        17.30822372      8.08317661     15.20816612
H        15.51558113      9.26959991     12.45020008
B        16.26941872     11.85751534     15.43662453
H        14.70790672     11.90870380     13.24195004
B        16.50451851      9.01311302     15.05759048
H        17.81395912     10.71029949     13.55759239
B        15.10729218     19.35580444      3.58556962
H        12.59231186     19.88253593      4.36112404
B        14.74837494     21.10957527      4.03784323
H        14.50609589     18.70416451      7.22171926
B        16.36685562     20.41798401      4.21362925
H        17.02659225     20.30303574      6.94413376
B        13.73086071     19.78672791      4.70152617
H        13.80030346     21.53311157      6.60326862
B        14.72251320     19.10061073      6.08601236
H        14.11823559     17.00936890      4.52784443
B        16.23775291     20.20818901      6.06755686
H        16.35821915     22.82103539      5.30480814
B        14.55875015     20.88198662      5.83250237
B        14.43961143     18.23545074      4.63439322
H        16.92117310     17.99772644      5.32567310
H        15.32813549     19.09851074      2.47159672
B        15.97119522     21.61787033      5.33770323
H        14.34136581     21.95648956      3.32387233
B        16.11659622     18.77028847      4.99303007
H        17.39606667     20.50488091      3.52636456
B        15.10149956     19.52783012     13.42976952
H        12.66411686     19.86097527     14.42405510
B        14.94716644     21.31288338     13.96402359
H        14.49734879     18.82559967     17.04162216
B        16.55979919     20.37519646     14.18364429
H        16.87248993     20.46970749     17.00722885
B        13.88786125     19.83493805     14.66242027
H        13.78664398     21.09458351     16.77086639
B        14.88085175     19.23917961     16.00698853
H        13.94724751     17.32449722     14.49911594
B        16.23962975     20.20005989     15.97315693
H        16.54930115     22.81005859     15.28907108
B        14.51301003     21.01834297     15.77776527
H        17.39005089     18.00259781     15.03062916
B        14.65560436     18.28006935     14.58467960
H        14.90141869     19.19244957     12.32987499
B        15.96363163     21.74068451     15.13092422
H        14.38724422     21.94875908     13.09879208
B        16.28977585     18.63381767     14.93099213
H        17.46703148     20.42202950     13.40635872
B        24.80107689      9.18464088      3.46921182
H        22.11809731     10.23516941      4.74750662
B        24.36898804     11.00664425      4.12081861
H        24.00035477      8.51713848      7.13522243
B        26.02424240     10.33867645      4.36526775
H        26.65859604      9.98638916      7.07435608
B        23.23935890      9.74844265      4.84793758
H        23.26076317     11.32196522      6.68224192
B        24.33119392      9.12709141      6.13862228
H        23.76099586      7.09775448      4.46078539
B        25.84366226     10.15097046      6.16825199
H        26.22682571     12.66770363      5.05651379
B        24.12186813     10.94286060      5.97211409
B        24.07279968      8.26460075      4.59477758
H        26.61106682      7.85264826      4.96287727
H        24.89902115      8.97138596      2.25547433
B        25.46508026     11.75225067      5.26905394
H        23.81352806     11.81492615      3.41057467
B        25.69561005      8.69085503      4.99693108
H        27.08325577     10.55545044      3.60695267
B        24.89935875      9.49278355     13.41305637
H        22.42670822      9.64316559     14.46013355
B        24.63791847     11.18945408     13.96963596
H        24.20267487      8.85190296     17.04280090
B        26.34175491     10.45919228     14.17711544
H        26.88446808     10.06644630     16.89263916
B        23.55774117      9.71189785     14.60770988
H        23.61502647     11.49661446     16.74217606
B        24.59934616      9.34890175     15.98537636
H        24.21131516      7.24686098     14.32773495
B        26.10045052     10.24676895     15.95265579
H        26.25934601     12.94496059     15.41504860
B        24.39666176     11.02337170     15.83735275
B        24.38149071      8.29175568     14.57150364
H        26.93332291      8.12878990     15.04346848
H        25.02822495      9.05763054     12.25571442
B        25.87777519     11.72931194     15.20745850
H        24.37162971     11.88875484     13.02655411
B        25.92491341      8.78368664     14.93042755
H        27.28440475     10.76102924     13.58036041
B        24.85486984     19.24520111      3.61783051
H        22.50881195     19.72010612      4.50587130
B        24.67340851     21.16601562      4.14994907
H        24.35920334     18.65595055      7.38494015
B        26.43225479     20.18689728      4.42473888
H        26.85029984     20.05816078      7.05730772
B        23.64470863     19.77179146      4.86239195
H        23.82309532     21.32361412      6.91066122
B        24.58541298     19.05609512      6.26017284
H        24.14195442     16.98601532      4.43546629
B        25.97690773     20.05402374      6.14640236
H        26.37670898     22.60973930      5.73173761
B        24.37127495     20.83189583      5.99144840
B        24.45143700     18.11178970      4.85877991
H        27.03969955     18.03642464      5.40579176
H        24.70889664     18.88211060      2.46748662
B        25.73603439     21.62962151      5.37497377
H        24.10053635     21.75013351      3.17819977
B        26.06704140     18.65462875      4.96850681
H        27.56107712     20.36010551      3.95124125
B        25.09193802     19.60311699     13.83855915
H        22.59576416     19.87917328     15.10219669
B        24.86569786     21.22382164     14.25672340
H        24.38682747     18.88423538     17.32824326
B        26.55797005     20.53178596     14.45156097
H        26.92560768     20.40415001     17.43198776
B        23.79267883     19.90050316     14.95277786
H        23.96908569     21.66792297     16.78846169
B        24.75774765     19.21502686     16.32951546
H        24.18382835     17.19367981     14.70801353
B        26.25992775     20.32782745     16.38913155
H        26.33340263     22.85339546     15.98796368
B        24.63254356     21.05823708     16.02501106
B        24.46982384     18.35852432     14.90434551
H        26.79835129     17.99128914     15.28678608
H        25.13322639     19.40692139     12.61871147
B        25.92534637     21.81908226     15.45181942
H        24.44678116     22.06357574     13.55384731
B        26.23219681     18.97390747     15.22420692
H        27.43831062     20.59483719     13.58564949
B         4.94483662      6.51030111      8.84311867
H         4.57507992      4.61749268     12.56185913
B         6.79463243      5.87313318      9.23548603
H         6.96086025      6.44791794     12.08660889
B         3.87357140      5.32416439      9.72392559
H         4.06827784      7.67354774     11.08199692
B         4.86026716      5.02860546     11.31824875
H         4.13923883      2.75240135     10.10000801
B         6.38115311      6.03138113     11.14549160
H         6.14531136      8.46840954      9.96536636
B         4.67929697      6.69546080     10.67633533
B         4.65944767      3.87163544      9.96155453
H         7.00927877      3.29869175     10.38736439
H         5.31045437      4.28168011      7.63113976
B         6.05110979      7.31395197     10.08473301
H         4.47944117      7.07619429      7.92227221
B         6.18834066      4.27256870     10.34656715
H         7.97586536      5.73167086      8.98461819
B         5.37006569      4.76098633      8.74880791
H         2.84483385      5.44997263      9.26372337
B         5.24045801      6.53719425     19.10184669
H         4.66211939      4.58630276     22.44166946
B         6.92691517      5.74211073     19.56276703
H         7.06103659      5.99955893     22.34428978
B         4.05884647      5.28489542     20.02002335
H         4.46264839      7.45317936     21.59708214
B         5.00680685      4.87694216     21.36648750
H         4.39098597      2.70623064     20.20085716
B         6.43364191      5.90621233     21.26357651
H         6.62827492      8.42747116     20.10770607
B         4.83832979      6.59209585     20.96677399
B         4.88699102      3.73173237     20.24586105
H         7.30846453      3.45774651     20.68611526
H         5.71127033      4.09692001     17.81993866
B         6.29129362      7.24160385     20.16217613
H         4.99562645      6.98238325     17.99658012
B         6.41382456      4.31012964     20.49958229
H         7.95863724      5.80310917     18.96639633
B         5.53383446      4.55801010     19.03667068
H         2.86385369      5.05718756     19.77468681
B         4.87810421     15.97950840      9.00905514
H         4.18710470     14.22693634     12.60721302
B         6.51831055     15.35833454      9.52792072
H         7.00147963     15.50879192     12.14283466
B         3.59897208     14.78584099      9.88563538
H         3.84045196     16.90663719     11.48048115
B         4.64888477     14.48805523     11.41898060
H         4.47877979     12.10603905     10.26378822
B         6.17477131     15.37974358     11.30724144
H         6.55297613     17.84519005     10.06782246
B         4.41810751     16.09066010     10.81105804
B         4.46422482     13.29104328     10.25402832
H         6.87803698     12.93831158     10.70662022
H         5.33987665     13.64236641      7.94100380
B         5.97224426     16.79103470     10.13339233
H         4.34375381     16.83171082      8.18865490
B         6.06173563     13.88151360     10.39503479
H         7.60261393     15.43833351      9.01381779
B         5.19589472     14.22161007      8.94300556
H         2.30937672     14.92622280      9.68399906
B         5.19572449     16.20387840     19.02352524
H         4.51265669     14.63598824     22.59848976
B         6.75692749     15.49887848     19.44582176
H         7.10089493     15.74379063     22.18995476
B         3.98459315     15.00153255     19.88587761
H         4.19514990     17.19596672     21.49856377
B         4.83707476     14.74641228     21.42716408
H         4.47707701     12.45623970     20.16378784
B         6.43957663     15.71504116     21.24765205
H         6.86225462     18.09797096     20.20886230
B         4.79080153     16.38551712     20.86782837
B         4.87207365     13.59537029     20.14834976
H         7.27923727     13.49975014     20.86821938
B         6.28648615     17.06659889     20.14684296
H         5.69830465     14.16539001     17.62840462
H         4.66349316     16.92621422     18.19969177
B         6.44275379     14.17745972     20.37917709
H         7.84071302     15.21980286     18.96307755
B         5.46305132     14.36371040     18.74797058
H         2.83248234     15.07294369     19.73916817
B        14.90624714      6.09662199      9.07463932
H        14.53229523      4.37348127     12.76004887
B        16.45871925      5.46063948      9.50574493
H        16.81821823      5.95057249     12.33752155
B        13.67048168      4.82528782      9.89574528
H        13.69152832      6.88576365     11.67075443
B        14.61771107      4.55749559     11.57796764
H        14.03483868      2.16721845     10.09635448
B        15.99616146      5.68900204     11.37647820
H        16.35996819      7.81297064      9.95395565
B        14.44942188      6.22336006     10.92351341
B        14.31696796      3.36730671     10.13084507
H        16.78966141      3.13567472     10.52134895
B        15.89072704      6.85972404     10.10178661
H        15.15707779      4.07305145      7.76999283
H        14.77613449      6.75507736      8.12022305
B        15.97094345      4.04223680     10.53734493
H        17.43203926      5.46818638      8.80776787
B        15.05876255      4.35337782      8.90621662
H        12.51248646      4.99582911      9.83361340
B        14.87507248      6.19911671     18.80417442
H        14.09502029      4.42631006     22.16675758
B        16.45093918      5.48609686     19.09852982
H        17.01035500      5.69323921     21.90997696
B        13.75173378      5.07963085     19.49657440
H        13.66985893      7.06713247     21.13097572
B        14.73854542      4.72991610     21.29627609
H        13.99271488      2.48275661     19.96607590
B        16.21168518      5.68055105     20.99423409
H        15.98160744      8.15684795     19.85803223
B        14.42219448      6.28567791     20.55928230
B        14.48806763      3.57167959     19.82020378
H        17.03271675      3.51573610     20.28408241
B        15.89612103      6.92250776     19.93996429
H        15.30063057      4.05717278     17.65305710
H        14.47041035      6.73757935     17.76607513
B        16.04394341      4.08445454     20.31105804
H        17.33011818      5.36756849     18.32858658
B        15.17359257      4.45441628     18.68887138
H        12.67177010      5.24554014     19.08706284
B        15.10542774     16.14591599      9.04103374
H        14.51512241     14.26928806     12.61468029
B        16.72244644     15.44093704      9.39777946
H        17.20728493     15.85197926     12.16898060
B        13.98548317     14.86564064      9.69889164
H        13.90046692     16.96399498     11.32635689
B        14.88250160     14.57346249     11.39883041
H        14.07542419     12.44569302     10.28534508
B        16.47345352     15.61021042     11.14283562
H        16.70816994     17.82742119     10.21400642
B        14.70767021     16.22878265     10.69655991
B        14.78478718     13.44717312     10.16903877
H        16.98133469     12.94200039     10.67455196
B        16.09018898     16.82992554     10.18554497
H        15.42782402     13.77253056      7.75739717
H        14.60328579     16.90648651      8.18255997
B        16.31256294     13.83350277     10.42559147
H        17.66253853     15.39108658      8.69713783
B        15.34110069     14.29047585      8.86526680
H        12.86204243     14.81264877      9.23739338
B        15.21882248     15.94762993     18.78895187
H        14.68675613     14.25935841     22.64049149
B        16.82378960     15.24975872     19.33240318
H        17.25484276     15.54408646     21.88748741
B        14.02671432     14.80289936     19.66232491
H        13.95349598     16.90488434     21.24550056
B        14.91716766     14.43624687     21.42194366
H        14.25853348     12.26933002     20.17327499
B        16.49965858     15.32714748     20.93251610
H        16.61659431     17.83245850     20.12653542
B        14.72728920     16.05055237     20.72152328
B        14.80868340     13.29235172     20.10958099
H        17.31122971     13.02926064     20.55700111
H        15.46658993     13.64688683     17.64992142
B        16.07901955     16.68779564     20.07283401
H        15.24829769     16.49639320     17.67547417
B        16.36655426     13.81318760     20.27116013
H        17.94810104     15.49593830     18.86546326
B        15.48764992     14.25235271     18.70427513
H        12.89415073     14.93890572     19.50105667
H        22.55266571      5.24732351      9.32145309
B        24.69762611      6.11033344      8.72344303
H        24.03983498      4.55519772     12.20887089
B        26.26861763      5.53883600      9.11458397
H        26.42581749      5.99010277     11.98629761
B        23.61456108      5.00383806      9.55248451
H        23.85736847      7.21270180     11.17416859
B        24.48494339      4.69610500     11.05801582
H        23.72407150      2.45353937      9.69119835
B        25.96907234      5.74664879     10.97484016
H        26.15087700      8.14484787      9.68075848
B        24.32660484      6.32532454     10.55485153
B        24.30902290      3.47264481      9.84122658
H        26.67913628      3.17904449     10.33709145
H        25.03444862      4.14388895      7.52717543
B        25.75542641      6.97662830      9.86459351
H        24.42611504      6.80010223      7.72719812
B        25.88328552      4.07479715     10.12807751
H        27.24864197      5.52109194      8.42689991
B        24.99541092      4.43597794      8.60103130
H        22.80089188      4.94813585     19.16750145
B        24.93401718      6.37045717     18.76877594
H        24.29887009      4.41711140     22.30591583
B        26.60351562      5.55001736     19.20513153
H        27.15970421      5.95752335     21.86800385
B        23.90976715      5.07331371     19.58425903
H        23.93841171      7.17197895     21.43079948
B        24.72505760      4.73232460     21.21516991
H        24.49010658      2.38134408     19.71681404
B        26.28568268      5.77520180     21.04689598
H        26.39128494      8.21221924     19.54032135
B        24.60813332      6.51536465     20.63809586
B        24.61224556      3.51972985     19.93172264
H        26.94743919      3.25275064     20.71012878
B        26.03548431      7.09149313     19.91017532
H        25.00010490      4.12365484     17.56013870
H        24.34362030      7.03289461     17.86945152
B        26.16998100      4.07007980     20.30838394
H        27.84775162      5.52734327     18.81805229
B        25.24697304      4.52123833     18.64253807
H        22.39898682     15.37248039      9.42040634
B        24.79415512     16.12646103      8.89582539
H        24.46603775     14.24680138     12.56029987
B        26.35861778     15.52931309      9.33491898
H        26.44540787     15.76202583     12.22902966
B        23.52129173     15.01556969      9.75213146
H        23.67386055     17.10906792     11.26707745
B        24.57753944     14.57493877     11.41225529
H        23.92409134     12.36815262      9.91608715
B        25.85673714     15.74815369     11.19894886
H        26.19826508     18.01339531     10.24177742
B        24.31626320     16.30368042     10.69017029
B        24.30218887     13.55286980     10.17556381
H        26.93687057     13.27265739     10.49453545
B        25.68644714     16.91498375     10.11567116
H        24.88113785     14.00981331      7.65567732
H        24.43365860     16.67286110      7.87047863
B        25.89174080     13.97505093     10.33554935
H        27.35449219     15.37328911      8.65382099
B        24.94097710     14.43934536      8.81844521
H        22.22028160     15.06601620     19.46489716
B        24.57948875     16.12728691     18.86849785
H        24.14583015     14.62594414     22.39205170
B        26.21463776     15.45446682     19.24446869
H        26.63896751     15.61202526     22.00004196
B        23.37018585     14.98148346     19.62115669
H        23.63161850     17.06329727     21.26111031
B        24.32753944     14.58797741     21.16662788
H        23.91859818     12.30189991     19.83828354
B        25.85472107     15.62459850     21.05364799
H        26.18028069     18.01289177     19.98207664
B        24.14121437     16.36802864     20.52978706
B        24.30335236     13.42764664     19.91527176
H        26.79920387     13.28298759     20.42891693
B        25.70985413     16.86094093     19.93579292
H        25.04063988     13.83703709     17.58768654
H        24.45927811     16.63811493     17.74648666
B        25.87056541     14.03024292     20.21727562
H        27.06319618     15.49717426     18.50278091
B        24.79417801     14.31271458     18.63044548
