1056

Na       -2.34557772     -1.73895860     -2.19069052
Na       12.14738178     12.53170586      7.32870436
Na       -2.33291316      7.75852585      7.65294790
Na       12.55835247     12.77706814      2.63713670
Na        7.66511726      3.00027943      2.93432021
Na       12.49868488      2.95935321     12.26224613
Na        7.51596451     17.52591705     12.41883850
Na       22.43612289     22.86565590      7.77823067
Na       22.46665192      3.09643865      2.27855134
Na       22.33086586     -1.82325351     17.75099564
Na       22.16472626     17.36902618      2.76095557
Na       22.23196220     12.76836872     12.33973503
Na       -2.32202959     -2.39865208      7.88997269
Na        2.05252910      7.95050383     17.86954117
Na        7.39641953     23.20741844      7.44561958
Na        7.39217854     17.85628319     22.07240677
Na       22.76943588      7.82968855      6.86811876
Na       12.05525398     12.81779861     17.88554001
Na       12.79946232     23.39126968      7.20717239
Na       17.27040100     17.83814240     22.00553131
Na        7.19703293    -11.74641418      7.99277163
Na       17.26725006     12.64606571     22.85709953
Na       27.09034538     23.10610771     12.94443703
Na       21.94360352     12.60632324     17.26989937
Na       12.31004620      8.54584122     13.02783394
Na        2.46613169     -2.60067344     17.68764687
Na       17.25753021      7.78172779      7.46645164
Na       -2.73086095     12.88886642     17.63956261
Na       21.82856941     -2.51009703      8.09149742
Na       21.78893661      2.98367620     12.07751465
Na       22.41676521     12.98540783      2.68589687
Na       17.53177261      8.32154846     17.77463531
Na       31.50817108      3.18492031      7.64554977
Na       27.57590866      2.58490252     16.91486740
Na       17.05800247      3.07671833     17.72108459
Na       32.43836594     12.96372890     22.32508469
Na        7.26992130      8.11294365      2.66812634
Na        7.65749550      7.92801428     12.80330944
Na       12.41409588     17.05769157     -1.51480603
Na        7.49939299     13.36978436     13.14432621
Na       17.14050484      8.19883347      2.21970630
Na       18.10719109      7.67783403     11.98689651
Na       16.99508286     23.18784904      2.90511560
Na       17.20380020     18.04273987     12.17508411
Na       36.71004486     18.10091591     -2.08717966
Na       31.84641457      8.21228790     13.42143440
Na       31.96608734     23.12480164     -2.06019330
Na       27.00434685     17.77849960     12.61451149
Na        2.20583987      7.96377182      7.90633392
Na        2.31636596      2.92643428     12.49021816
Na        2.70989323     13.02654266      7.59176207
Na        7.13932657      7.75080061     17.40958023
Na       12.74060249      3.17209697      2.09818029
Na        2.33954287     -6.43108130     17.66637421
Na       12.11185455     17.92148781      7.58850336
Na       11.58339500      1.79454052     16.54218864
Na       31.95339394      8.25633621      3.03060985
Na       22.18533897      3.05245662     17.57624626
Na       17.54381752     12.34374046      7.58292294
Na       27.45470428     13.16870403     22.82576180
Na        2.57855749      2.47944427      2.75120401
Na        7.64166498     12.97938824     17.30505753
Na        2.98631787     18.07597923      3.08142829
Na        2.46486044     17.74380302     12.84897232
Na       12.26400566      8.02946472     -2.42273307
Na       12.34513950     13.24426079     12.28046799
Na       11.82850552     18.12386513      3.18783665
Na       12.17880249     18.28908157     13.16175938
Na       22.35503960      7.42459726     -1.61503768
Na       22.21790695      8.27258492     12.66112614
Na       22.46967316     13.03211689      8.09931469
Na       22.17388153     18.22503471     13.09658146
Na       12.05571747      8.49234486      2.96305084
Na        7.01236773      3.45255446     13.02235508
Na        7.64747715     12.89880276      3.25619626
Na        3.77684975     11.49410152     11.49224472
Na       12.40517902      7.63968134      8.09126472
Na       17.55296707      2.87330389      7.33227205
Na       17.22745514     12.53236485     -2.54533029
Na       17.15855026     13.05512524     13.04422951
Na       27.37654686      3.03665423      2.89319825
Na       26.54230690      2.33228374      8.17803097
Na       27.37061310     18.16967201      2.48548436
Na       26.74940681     12.86952591     13.29843521
Na       -2.61217833      7.87334251     13.11210823
Na        7.47375393      3.46233296     17.70844078
Na        1.87563968     17.42159271      7.95401382
Na        7.26123667     18.04009056     27.78272057
Na       21.77114105      8.57318974      3.10018849
Na        7.10177612     12.77775669     27.33037949
Na       17.34225464     22.99628067     13.30285072
Na       17.33252907     18.19766998     17.61994553
Na       17.07477188     -1.51292145      7.83272505
Na       27.20119667      8.60347748     22.33211136
Na       27.07937622     12.67756271      8.19114876
Na       27.49839973     27.78870773     17.72735786
B         1.11989105     18.49038315      0.12424739
H         2.51214528     19.98586464     -1.42008209
B         0.08837821     19.08818626     -1.38991463
H        -2.39517546     19.79164314     -0.28404528
B        -0.10623591     20.77580452     -1.03910172
H        -0.23127389     19.02334595      2.29540300
B         1.55975413     19.91171455     -0.75469625
H         1.90245271     20.10516548      2.05424404
B        -1.23675752     19.66629410     -0.14557971
H        -0.73105365     21.58146667      1.57837141
B        -0.19371405     19.10466385      1.18467581
H        -1.09906912     17.09664917     -0.15147659
B         1.39040458     20.10504723      0.96961969
H         1.70045626     22.57045746      0.08241002
B        -0.22920772     20.85192490      0.75557810
B        -0.55709881     18.13008308     -0.04941357
H         1.86123312     17.54955673      0.31597969
H         0.04556743     18.51467323     -2.39625621
B         1.06812227     21.42667770     -0.03179324
H        -0.42208606     21.48736191     -1.90557444
B         1.12237978     18.64018631     10.14422035
H         2.64851737     19.93509293      8.50071812
B         0.05888006     19.24312401      8.72750378
H        -2.16871095     19.97888565      9.49419975
B         0.00068656     20.93318939      9.08096313
H        -0.48921344     18.88806725     12.43693638
B         1.64724576     20.08474350      9.29758453
H         2.30529475     20.18213081     11.89264774
B        -1.07385647     19.77188110      9.83638000
H        -0.95180798     21.82580566     11.51418209
B        -0.13445210     19.28761482     11.36251163
H        -0.48071527     17.00252533      9.77597427
B         1.38300741     20.19733047     11.06073380
H         1.67007935     22.62594986     10.03354073
B        -0.25894773     21.03262901     10.87523746
B        -0.49893919     18.16565704     10.12903976
H         1.87278128     17.72355080     10.23561859
H        -0.20724325     18.69738007      7.62925148
B         1.18471622     21.50833321     10.06456470
H        -0.45433253     21.54799843      8.23617840
B         1.27645457      9.16989040      0.27144143
H         2.74875736     10.51045418     -1.24232900
B         0.16821446      9.57647228     -1.13176727
H        -2.13963628     10.67532825     -0.11955097
B         0.06157034     11.36089039     -0.80328721
H        -0.30871034      9.71139908      2.78041172
B         1.78192520     10.59561539     -0.59946966
H         2.30533266     10.47893715      2.10741806
B        -1.08323050     10.21726418     -0.00667141
H        -0.72690177     12.42077351      1.45847380
B        -0.12729183      9.72307968      1.46891713
H        -0.84594506      7.56317949      0.04484503
B         1.51152599     10.58858681      1.16056764
H         1.76462841     13.21870899      0.19553179
B        -0.15643719     11.41853142      0.94235492
B        -0.39224261      8.64794731      0.22210272
H         2.10343170      8.35399151      0.18646657
H        -0.17121848      9.16969109     -2.14171338
B         1.32601559     12.05618286      0.27183747
H        -0.37904128     12.10715103     -1.68787360
B         1.06395888      8.81423378     10.49163055
H         2.55991411     10.17209435      8.87693596
B         0.17393930      9.32060623      9.13133717
H        -2.34966707     10.09349632     10.15672112
B        -0.09404127     11.10464287      9.34758854
H        -0.16958034      9.11943245     13.05717659
B         1.57328486     10.22457314      9.63602638
H         2.31551814     10.22275448     12.37201118
B        -1.17633665      9.82356834     10.18981934
H        -0.85411942     11.87798786     11.97336674
B        -0.16266067      9.47046280     11.77180195
H        -0.78719378      7.21073341     10.30217075
B         1.32482469     10.28010082     11.46685982
H         1.81222224     12.64581680     10.36789417
B        -0.25163692     11.08994293     11.27058125
B        -0.53878641      8.33388710     10.44490242
H         1.93614745      7.97028637     10.62933540
H         0.16005301      9.34528065      7.98342228
B         1.20774567     11.62582874     10.39318466
H        -0.33733669     11.81049156      8.37601185
B        10.93245602     18.74798965      0.23438931
H        12.36539650     20.05794525     -1.23870027
B         9.95757866     19.25003433     -1.20434439
H         7.55954790     19.69745636     -0.16671297
B         9.79445171     21.06479836     -0.88256443
H         9.47583103     19.34284782      2.58920884
B        11.30102921     20.18909836     -0.70591891
H        12.02203369     20.35989380      2.01582384
B         8.67328358     20.00245094     -0.10802096
H         9.13091850     21.68896866      1.87912858
B         9.71662521     19.43735123      1.32514632
H         9.04167557     17.23804855      0.15935120
B        11.21113873     20.38266182      1.13097489
H        11.73844814     22.49268532     -0.13095346
B         9.61049557     21.18414688      0.99137855
B         9.37075901     18.31971359      0.02654548
H        11.93552685     18.02888489      0.56182307
H        10.04864788     19.05334473     -2.39528036
B        10.97017384     21.62065697      0.17449296
H         9.59888268     21.80638123     -1.85890841
B        11.12078667     18.54448128     10.25744820
H        12.55298805     19.95643425      8.60264874
B        10.02167130     19.19556427      8.67932701
H         7.54460335     19.89981461      9.90867615
B         9.87031555     20.92573166      9.01122570
H         9.39679050     18.90073204     12.42336655
B        11.53193092     20.12829208      9.17559719
H        12.06479359     20.19610023     11.95151711
B         8.72039509     19.76979637      9.89836788
H         9.19851589     21.83206177     11.71979618
B         9.72569656     19.23009872     11.30812454
H         8.82151031     17.19445992     10.12725163
B        11.28284550     20.09786987     11.04504395
H        11.76244736     22.68684769      9.90669346
B         9.66329479     21.01099777     10.84997654
B         9.47351360     18.19773865     10.03813553
H        11.76833344     17.57066917     10.52374935
H        10.04096985     18.82874298      7.57641602
B        11.07506084     21.57943916     10.06424904
H         9.49512482     21.69850922      8.04936886
B        11.01757240      8.79848957      0.38187093
H        12.48050213     10.37194443     -1.28382969
B        10.07251549      9.37016392     -1.14053774
H         7.56473398     10.29363632     -0.06591005
B         9.72543430     11.07133293     -0.89787674
H         9.45643616      9.30521297      2.66247010
B        11.44165707     10.28237915     -0.68048942
H        12.02930450     10.49040222      2.09341311
B         8.72774696      9.91912937      0.02127585
H         9.19456291     12.13898087      1.55110657
B         9.67063713      9.47205639      1.50611711
H         8.56892300      7.30031729     -0.00710166
B        11.27284336     10.36606503      1.22236121
H        11.65157986     12.60309792      0.46595934
B         9.71817112     11.13258362      1.00174332
B         9.36069298      8.35055351      0.05623182
H        11.93989754      8.03292847      0.37052956
H         9.92988110      8.95326042     -2.26790428
B        11.03736401     11.66038132      0.15052901
H         9.37135792     11.95205975     -1.60344303
B        11.22015858      8.83265686     10.05570698
H        12.53658676     10.40025520      8.57182407
B        10.08513927      9.36149693      8.60473919
H         7.55922413     10.20067310      9.78013802
B         9.98830318     11.11703968      8.98155022
H         9.60962772      9.19588089     12.32541466
B        11.49113178     10.23415375      9.18296432
H        11.89314270     10.67736530     12.17697525
B         8.78233051      9.97367096      9.82171726
H         9.38315868     12.09219074     11.59481144
B         9.81688309      9.52041912     11.20085526
H         8.93010139      7.49202871      9.73598480
B        11.40054607     10.50802517     11.00463009
H        11.88000584     12.79576397      9.98194408
B         9.76007080     11.21566296     10.78018188
B         9.45930767      8.42283440      9.95256424
H        11.88534260      7.90753555     10.29502869
H        10.04589367      8.89695358      7.48620844
B        11.15636539     11.74126530     10.06580639
H         9.38574409     11.71020603      8.08718204
H        19.20098305      2.19272280     17.93368721
B        20.83384514     -0.72932947     19.88982582
H        22.23937225      0.89129955     18.31410789
B        19.81911087     -0.19443804     18.52338409
H        17.39888382      0.80223030     19.50664902
B        19.62601280      1.59244990     18.84022331
H        19.32824898     -0.51129311     22.20347214
B        21.21758080      0.69670838     19.00408745
H        21.91359520      0.92311323     21.62039375
B        18.53417206      0.47514170     19.59357262
H        18.63121223      2.36417985     21.10663986
B        19.50461960     -0.00719009     21.07906151
H        18.69582939     -2.27241778     19.64204597
B        21.09381104      0.86504894     20.78936958
H        21.48788071      3.24200892     19.75641823
B        19.46179199      1.69830370     20.57590103
B        19.22640038     -1.12979400     19.77737045
H        21.57366562     -1.63707948     19.85135841
H        19.84532166     -0.64954454     17.39575958
B        20.86394882      2.24253464     19.88324547
H        19.32466316      1.89151359      8.03332329
B        20.91373062     -1.19454229     10.06978703
H        22.70618248      0.21458261      8.79344559
B        19.91507339     -0.61549401      8.66303349
H        17.44983673      0.28878799      9.54742241
B        19.64648438      1.19377673      8.91314793
H        19.41695023     -0.90694857     12.36841869
B        21.50324059      0.27537087      9.17857075
H        22.03433990      0.40246204     11.80135727
B        18.58047485      0.01289990      9.79063702
H        18.92298889      1.69933915     11.70573425
B        19.64935112     -0.48623762     11.25601006
H        18.63402176     -2.56756210     10.09956360
B        21.25796700      0.37530166     10.92103004
H        21.20092773      2.89237404      9.90664482
B        19.52784920      1.33524311     10.82017136
B        19.24261856     -1.59218216      9.95567417
H        21.55525017     -2.13375521     10.47398853
H        20.03903961     -0.88436663      7.60269213
B        20.86407852      1.82181120     10.02430630
H        19.44655228     12.02064323     18.08859634
B        20.97802353      8.96595764     20.05005264
H        22.38233566     10.18785667     18.41236496
B        19.92553520      9.56152916     18.64976501
H        17.33812141     10.19911289     19.61369133
B        19.80543137     11.23937607     18.91869926
H        19.26705551      9.63429356     22.42022133
B        21.46754837     10.49809551     19.17350960
H        21.94835854     10.75569630     21.91596031
B        18.56788635     10.04920673     19.75275040
H        19.19646835     12.16883755     21.32595062
B        19.65986443      9.60330391     21.28158951
H        19.03194618      7.52510691     20.13594246
B        21.26984787     10.46724606     20.96150970
H        21.51558876     12.82889366     20.10941505
B        19.55653572     11.27526569     20.72318649
B        19.34989357      8.62236595     19.94206619
H        21.72295189      7.97197390     20.05035973
H        19.73619652      9.17065144     17.47306252
B        20.97884369     11.78713322     19.97235489
H        19.42026711     11.80415535      7.85127068
B        21.14494896      8.70825577      9.81151199
H        22.35931396     10.09442139      7.96054411
B        20.06318855      9.33215904      8.31614017
H        17.57764816     10.01896954      9.23404217
B        19.85639572     11.04243851      8.68386459
H        19.14725494      9.23665905     11.78024006
B        21.47686958     10.15523529      8.82549000
H        22.02542686     10.33123684     11.66589165
B        18.75849915      9.86738396      9.44562817
H        19.08297348     11.90350628     10.98294067
B        19.82708740      9.34833145     10.85582256
H        18.78835869      7.36523104      9.61680317
B        21.36827469     10.32764626     10.68013000
B        21.14422417     11.60919094      9.60034752
H        21.43938828     12.70199871      9.90176582
B        19.71753693     11.04992962     10.37786961
B        19.43092346      8.31827927      9.60849571
H        21.92479134      7.69596291     10.01922607
H        19.84383011      8.90588379      7.25716877
B        10.06290436      5.08381414      3.56955028
H         7.52655697      5.59322739      4.62568092
B         9.80667877      6.74151993      4.02948523
H         9.41476822      4.40927458      7.14136505
B        11.43820858      6.11902142      4.20387793
H        11.97027683      5.77684450      6.95348072
B         8.73513603      5.47613239      4.71095037
H         8.76286507      7.19850492      6.57257128
B         9.71393967      4.89392042      6.04476261
H         9.15417862      2.84304428      4.76981115
B        11.24049950      5.85052633      6.02538395
H        11.49316978      8.42173290      5.72356510
B         9.54019547      6.63483238      5.90916109
H        11.81955051      3.46896982      5.29496908
B         9.50781727      3.99217510      4.64669180
H        10.13117886      5.09116507      2.40686607
B        10.96494579      7.32858753      5.30486441
H         9.13700294      7.53667974      3.46079421
B        11.07069683      4.37447834      5.13745403
H        12.51184559      6.38401270      3.51082730
B        10.05359554      4.63408518     13.33625603
H         7.59121990      5.15111828     14.24513817
B         9.90229130      6.39805365     13.76614189
H         9.44291115      3.78123641     16.85107613
B        11.60318947      5.57588434     14.04045773
H        12.13390446      5.36721706     16.67592812
B         8.81254768      5.00203705     14.40369987
H         8.97336388      6.79288864     16.36713028
B         9.77931595      4.30326080     15.86744308
H         9.06258583      2.36132550     14.38859081
B        11.36961555      5.40469456     15.79617977
H        11.36544228      8.04454994     15.06459999
B         9.60829544      6.17551756     15.64440632
B         9.60983753      3.45110226     14.44493866
H        12.15405083      3.18392992     14.62874508
H        10.16771698      4.38885641     12.00933266
B        10.97469997      6.90252304     14.98713493
H         9.82575226      7.19553900     12.95682716
B        11.12426090      4.05726242     14.72689152
H        12.67975998      5.33465052     13.57646275
B        10.40360641     14.56089783      3.64290190
H         7.72259045     15.11731243      4.90178585
B        10.02026749     16.32472992      4.30951214
H         9.51333714     13.84374237      7.28373241
B        11.83221722     15.54576969      4.46550369
H        12.14799881     15.24153519      7.00454760
B         8.93243313     14.99220657      4.87976694
H         9.16368771     16.85803795      6.81418705
B         9.99601269     14.40200043      6.29774761
H         9.37988758     12.47577095      5.03903723
B        11.36286736     15.35707951      6.20618105
H        11.60286236     17.93053055      5.44542360
B         9.77536297     16.18600655      5.92694712
B         9.62987518     13.54530525      4.80543184
H        12.11437893     13.13412762      4.98672104
H        10.43260860     14.66180420      2.46109891
B        11.17636871     16.86014175      5.32364035
H         9.28690052     16.97878647      3.40339208
B        11.40825558     14.03730869      5.01713181
H        12.90339947     15.88174915      3.96960258
B         9.98150921     14.53116703     13.72357368
H         7.58320141     14.97615528     14.65831566
B         9.78581524     16.23673630     14.23820019
H         9.37629986     13.80803490     17.36812782
B        11.41561604     15.49864960     14.35773754
H        11.85114002     15.24509621     17.14197350
B         8.66806030     14.91388893     14.83902454
H         8.82209492     16.59686279     16.90160751
B         9.60020924     14.18922138     16.26970100
H         9.38694954     12.06823826     14.52112389
B        11.15392399     15.31343651     16.17758369
H        11.57296848     17.78673744     15.60487938
B         9.43486023     15.98370743     16.09992599
B         9.42430496     13.35693359     14.81877995
H        11.66840553     13.00461197     15.66791534
H        10.15077400     14.16935158     12.61148930
B        10.87416172     16.70787430     15.31970119
H         9.36856842     16.97820663     13.46111870
B        10.95647526     13.91430855     15.17774963
H        12.35001183     15.50318813     13.54082870
H        22.55974579      5.95381498      3.78429079
B        20.03609848      4.89797783      3.61922979
H        17.63337135      5.23929691      4.47579002
B        19.89543724      6.50061989      3.99481654
H        19.34989738      4.19562674      7.36278868
B        21.50694466      5.72105932      4.30064487
H        21.95358849      5.58397245      7.01657104
B        18.78451157      5.14075804      4.82607317
H        18.82310104      6.69506454      6.71813297
B        19.71301079      4.50402975      6.21044254
H        19.13396835      2.53255892      4.40946913
B        21.21229744      5.55906487      6.08240557
H        21.41315079      8.10330677      5.39463758
B        19.62399292      6.31439829      5.94854593
B        19.57556725      3.65990925      4.67399645
H        21.78800392      3.27974319      5.06905508
H        19.92244720      4.49519444      2.48363638
B        20.91123390      7.06723738      5.24838543
H        19.65906334      7.59009123      3.38781953
B        21.06603622      4.18947411      5.10136509
H        22.60263443      5.99949694     13.50486279
B        20.21502113      4.70317316     13.51803398
H        17.60134697      5.25583076     14.26864624
B        19.94096375      6.38316107     13.91845512
H        19.50716972      4.04636717     17.00559998
B        21.61728287      5.77426291     14.17462063
H        22.27626610      5.54214716     16.92522430
B        18.80298615      5.13887072     14.62579060
H        18.76005173      6.73992682     16.66047096
B        19.78920746      4.46054077     16.03667450
H        19.08790588      2.44090796     14.67383575
B        21.36024094      5.50719595     15.92905807
H        21.78297806      7.87732029     15.29213524
B        19.60101700      6.22487068     15.77480507
H        22.05237961      3.21118140     14.90737247
B        19.55905724      3.57710695     14.67410660
H        20.29360580      4.62464714     12.26895237
B        21.04456520      6.96378469     15.21410942
H        19.83217049      7.13365984     13.03972721
B        21.22591782      4.05334091     14.77233982
H        22.48656464     15.59783363      3.87535834
B        20.05189896     14.41512489      3.86685634
H        17.50790215     15.07046032      4.88846302
B        19.89940643     16.19984245      4.38200140
H        19.41861725     13.86739540      7.39161444
B        21.55059242     15.51453590      4.55408287
H        22.36182404     15.22232437      7.12389278
B        18.77269554     14.99976540      5.02185965
H        18.74906349     16.81012535      6.64296818
B        19.78772545     14.19832611      6.40404129
H        19.22424316     12.14937592      4.50214481
B        21.35038757     15.31031990      6.38724375
H        21.38767624     17.90932274      5.57870817
B        19.52996254     15.98588467      6.17590714
H        21.98863602     13.05135441      5.46753168
B        19.55017471     13.29401112      4.95809364
H        20.08860970     14.39742184      2.50925255
B        20.94986725     16.70136642      5.58843803
H        19.50952339     16.97439766      3.51838112
B        21.04472351     13.86668110      5.37019587
H        22.54900932     15.72876549     13.93113899
B        19.84002304     14.71669006     13.62757492
H        17.32046509     15.38786125     14.62283516
B        19.62259483     16.36889458     14.16992950
H        19.32445717     13.95816803     17.16983223
B        21.40284729     15.69006062     14.34929848
H        21.67266846     15.70280647     17.22089005
B        18.64398384     15.15336990     14.73028564
H        18.94510651     17.08201981     16.67446899
B        19.58515167     14.36306572     16.11693192
H        18.99488640     12.51971245     14.63089848
B        21.02972221     15.53084183     16.09864426
H        21.22200775     18.18793869     15.22965908
B        19.40426064     16.31929207     15.82758427
B        19.36583710     13.61081600     14.63107491
H        22.01765251     13.36497211     14.93950272
H        19.85123634     14.51466656     12.49041271
B        20.85848999     16.95910454     15.21821690
H        19.12620735     17.24187469     13.46347427
B        20.97273254     14.09196091     15.00611973
B         1.34806979      3.95953751      5.20699215
H         2.68396091      5.62367868      3.58763480
B         0.29777575      4.59678555      3.74500465
H        -2.22443295      4.84671736      4.67460585
B         0.10362176      6.24468708      4.21751261
H        -0.59332258      3.56348658      7.23613644
B         1.82292187      5.53818560      4.45560694
H         2.37034512      5.37428236      7.07163811
B        -1.05458772      4.97277451      4.91679001
H        -0.73947543      6.61147308      6.93709230
B        -0.10616963      4.32803440      6.29646254
H        -0.75912201      2.35009694      4.72080183
B         1.49835670      5.31950188      6.22174597
H         1.83526826      7.88122129      5.70128250
B        -0.16667953      6.04923201      6.06876373
B        -0.16841394      3.37434149      4.83355618
H         2.33797669      3.23998952      5.21348715
H         0.27382323      4.32459831      2.54700685
B         1.22958040      6.83187103      5.39812899
H        -0.29338074      6.88151169      3.17324066
B         1.23751783      4.08758926     15.33008862
H         2.59671974      5.73477554     13.73553753
B         0.31248447      4.77634764     13.89987373
H        -2.24608016      5.08716774     14.91990948
B         0.05337640      6.48406792     14.47773552
H        -0.12755369      3.90429235     17.27284050
B         1.76276994      5.76949310     14.55468845
H         2.19972754      5.57324791     17.38592911
B        -1.04184926      5.12867069     14.94457626
H        -0.94573277      6.86522770     16.91206741
B        -0.02051942      4.58943224     16.38458061
H        -0.83245254      2.62824416     14.98744011
B         1.42906678      5.57992601     16.44120979
H         1.66607523      8.13096619     15.54107857
B        -0.19003353      6.27400827     16.25377655
B        -0.27054572      3.68762684     15.04174614
H         2.01891565      3.24086237     15.39329338
H         0.56420064      4.32946587     12.83341885
B         1.15537739      7.01853895     15.59902287
H        -0.58579636      7.27747869     13.67930222
B         1.39807451     14.01380634      5.12257910
H         2.90693402     15.60857391      3.97598433
B         0.51414424     14.65238667      3.61810446
H        -2.26081491     15.33886814      4.78802776
B         0.03514793     16.31444740      4.23115206
H        -0.40754259     14.07805252      7.27444220
B         1.76310802     15.58985996      4.44550991
H         2.34394264     15.51339817      7.00024080
B        -1.01779294     15.10693073      4.83457899
H        -0.58354539     16.73713875      6.84837866
B         0.10708147     14.49564171      6.15969944
H        -0.76642764     12.47435570      4.72615671
B         1.53948474     15.44338226      6.10158539
H         1.45205486     18.01084518      5.56174231
B        -0.11212499     16.16668892      5.94387341
B        -0.28555012     13.61938953      4.73340559
H         2.14075208     13.11370659      5.10682821
H         0.43606973     14.34877300      2.37565565
B         1.13589859     16.91305351      5.38343573
H        -0.49981201     16.89536095      3.27065349
B         1.23418140     13.74524593     15.20474052
H         2.58566236     15.25373173     13.63313770
B         0.11427457     14.41397095     13.71533680
H        -2.40233874     14.74940109     14.60794735
B        -0.16291551     16.18999290     14.23460484
H        -0.79579419     13.66792774     17.21889305
B         1.57215512     15.29916668     14.46103191
H         2.24513388     15.21429825     16.98690414
B        -1.18367553     14.87390518     14.81425285
H        -1.00570297     16.27639771     17.04745483
B        -0.23193477     14.16398144     16.22364426
H        -1.04039633     12.11447048     14.90410614
B         1.42842519     15.34137154     16.16668701
H         1.31705272     17.81663322     15.59898376
B        -0.38775843     16.00840950     16.06528664
B        -0.48034623     13.18748283     14.72355938
H         2.13613677     12.87883568     15.36976624
H         0.15915322     14.19813347     12.56741047
B         0.99698043     16.73213768     15.45253086
H        -0.43244615     16.90176582     13.38009357
H         2.58639669     10.20805264      4.99876070
B         4.82199621     11.34744930      4.40573120
H         4.67609215      8.78576374      7.54663372
B         6.59153843     10.59606743      4.56739378
H         7.13729429     10.65043640      7.23416424
B         3.75833941      9.97365379      4.91410255
H         3.87171578     11.65970230      6.98908520
B         4.75063705      9.31890678      6.42459440
H         4.14497662      7.53627920      4.77855825
B         6.24404049     10.45670891      6.48245335
H         6.39336872     13.04029083      5.61397314
B         4.63801003     11.16540432      6.20862913
B         4.64393139      8.50069141      4.95287085
H         7.13883352      8.47194481      5.52586842
H         4.97281933      9.32421589      2.60755873
B         6.09230852     11.89123154      5.50397158
H         4.41978598     11.87130833      3.51297355
B         6.15827322      9.01373005      5.21333218
H         7.66259384     10.68925476      3.94198298
B         5.11384201      9.60466480      3.83571243
H         2.82338190     10.19421673     14.70133400
B         5.05593777     11.53444195     14.35960960
H         4.67894125      8.98829937     17.56581497
B         6.67318630     10.79368305     14.46461391
H         7.28436041     10.50777531     17.19182205
B         3.92524266     10.18226242     15.05303097
H         3.98580909     11.86685371     16.96777916
B         4.88611126      9.46330643     16.35560989
H         4.06106901      7.55608940     14.83994389
B         6.40190601     10.62813187     16.34459114
H         6.19003725     13.22609901     15.60969448
B         4.71160650     11.42711067     16.10910988
B         4.66838598      8.60708427     14.96799374
H         7.24578142      8.40532207     15.20427608
H         5.56838179      9.70960999     12.73449898
B         6.14634562     12.05414581     15.48085976
H         4.83033800     12.43458271     13.59073734
B         6.32114124      9.25204086     15.16403484
H         7.70488548     10.94569683     13.83390808
B         5.38302851      9.82709694     13.90852737
H         2.99935293      0.07177229      4.56690216
B         5.19947672      1.48974681      4.20631218
H         4.87950277     -0.84322917      7.37299156
B         6.86151600      0.79977828      4.34656572
H         7.47941160      0.53835398      6.98602581
B         4.21255207      0.14359802      4.89393950
H         4.22980833      2.20078349      6.37918711
B         5.11572218     -0.56474239      6.30396366
H         4.81100225     -2.54121447      4.46559429
B         6.55810118      0.50927734      6.18649340
H         6.74647236      3.04395628      5.67665720
B         4.91082859      1.35499930      5.95755482
B         4.91104078     -1.33800077      4.75340414
H         7.33969021     -1.74517262      5.08481550
B         6.28660631      2.01626205      5.34008408
H         5.45118427     -0.64016891      2.59112000
H         4.57700157      2.39166522      3.67080092
B         6.41868782     -0.87065059      5.12899065
H         7.85581589      0.89663178      3.92397094
B         5.48297262     -0.20426598      3.75345063
H         2.50220156      0.07571250     14.54356194
B         4.80041647      1.32250929     14.02981663
H         4.26252794     -1.18745613     17.06910324
B         6.44196701      0.60794783     14.15232372
H         6.98693037      0.24585593     16.91394424
B         3.71780753     -0.12078587     14.70012665
H         3.87970829      1.69167006     16.54872894
B         4.65107918     -0.65903467     16.09671211
H         4.12636900     -2.69008899     14.41415596
B         6.13335991      0.32710671     16.07368469
H         6.35594654      2.86974835     15.44528389
B         4.52284479      1.01521528     15.86660480
B         4.48324728     -1.61149120     14.73229885
H         6.91059828     -1.88860488     14.87195206
B         5.89586687      1.81270754     15.17273140
H         5.14487123     -0.66919643     12.38010406
H         4.54477787      2.22889423     13.31209946
B         6.11827421     -1.03950953     14.98367977
H         7.52815199      0.60638154     13.56635571
B         5.07269144     -0.36260971     13.58147144
B        15.13894939      9.58271027      3.54409599
H        12.36883068      9.84988594      4.70312738
B        14.74125481     11.25218773      4.18416119
H        14.42866993      8.60038757      7.15397644
B        16.44147682     10.47869492      4.30349970
H        17.05684090     10.31727409      6.85477829
B        13.62741661      9.93523502      4.62271786
H        13.84270382     11.62017345      6.91524935
B        14.66348267      9.36354446      6.21714306
H        14.15109730      7.35202980      4.61826038
B        16.15848923     10.32098293      6.03040314
H        16.47207451     13.05677223      5.35896158
B        14.43313599     11.16371536      5.98490477
B        14.45812988      8.49011898      4.72332430
H        17.20201111      8.29338837      5.12358427
H        15.03022385      9.29508400      2.35507727
B        15.87557220     11.90982437      5.24341965
H        14.52517033     12.10766792      3.39763141
B        16.10427666      8.98884964      4.95086861
H        17.53040123     10.42348385      3.72524333
B        14.84843636      9.80304146     13.84349728
H        12.27264500     10.17859745     14.79475784
B        14.51258850     11.42012119     14.37528801
H        14.16268635      8.92574978     17.62084579
B        16.17717743     10.64028358     14.55016899
H        16.39253426     10.27353954     17.49993515
B        13.45548725     10.18902397     15.10435390
H        13.72358799     11.70957279     17.31357002
B        14.40835857      9.39914417     16.46574020
H        13.73004723      7.64260387     14.72223091
B        15.82750988     10.48696709     16.41135406
H        16.19166565     13.03166485     15.52041531
B        14.15387535     11.29279995     16.28106308
B        14.24633980      8.61941719     15.05630779
H        16.73812675      8.41000175     15.49421883
H        14.46253586      9.49180794     12.71992397
B        15.48925304     12.06436253     15.55190659
H        13.86853886     11.90899277     13.50977993
B        15.78230762      9.03188705     15.32115459
H        17.15621948     10.78233337     13.89479923
B        14.89503574     19.64097595      3.65045619
H        12.47553825     20.06741333      4.41117620
B        14.76741886     21.39878845      4.13367033
H        14.21391010     19.03748131      7.16636467
B        16.32779312     20.60007477      4.42427588
H        17.00272942     20.48462486      7.07720709
B        13.65050793     20.12682724      4.80123425
H        13.45251465     21.25496674      6.85362673
B        14.66722107     19.46375465      6.20926523
H        13.97131634     17.49827576      4.71263981
B        16.20311928     20.45957184      6.20785952
H        15.77319527     23.14015961      5.62712479
B        14.38841438     21.26313782      6.04040337
B        14.45628071     18.55495834      4.82076025
H        16.95152092     18.32704926      5.16166925
H        14.89571190     19.32517815      2.54620624
B        15.81578064     21.93374443      5.42754459
H        14.44332314     22.04311752      3.15804076
B        16.04589653     19.07514000      5.02248240
H        17.28589630     20.64234161      3.67004085
B        14.88299274     19.57451630     13.85209370
H        12.19682789     19.85942459     15.03351784
B        14.62690639     21.24768066     14.41454029
H        14.53765202     18.58203125     17.41123581
B        16.34844017     20.46627998     14.60527229
H        16.60241127     20.52807999     17.38944435
B        13.48925495     19.89196968     15.05851364
H        13.74546719     21.72785950     16.88303566
B        14.61919308     19.19145584     16.32155991
H        13.80298042     17.26606178     14.54894924
B        15.92871380     20.46471214     16.36990166
H        16.15616035     23.02756119     15.43736649
B        14.34840775     21.08014488     16.13892937
H        16.73428917     18.01678658     15.19555187
B        14.22554111     18.35889435     14.89812088
H        14.96746445     19.13575363     12.66543865
B        15.75084019     21.87850189     15.50997162
H        14.12867737     22.02357674     13.64829922
B        15.87697792     18.88242340     15.32376385
H        17.36286354     20.64019966     13.88903236
B        25.26532745      9.62707138      3.89272976
H        22.55711365     10.14528751      5.14661121
B        25.01061058     11.30786133      4.36675596
H        24.71642494      8.79426193      7.49950314
B        26.65740395     10.60297394      4.58837891
H        27.14413071     10.18640423      7.25017834
B        23.83296013      9.95610428      5.02311325
H        23.89173126     11.92296886      6.73456144
B        24.90649796      9.40628624      6.42516756
H        24.19958305      7.32819271      4.64924145
B        26.40956879     10.39921761      6.34467554
H        26.36008072     12.91593933      5.75584173
B        24.60083580     11.19917107      6.12223864
B        24.62792015      8.44426727      5.01008892
H        27.30245018      8.30966663      5.10719967
H        25.15064049      9.33277893      2.71350503
B        25.99935722     11.79248810      5.56612301
H        24.77556992     12.37207413      3.77005816
B        26.26752853      9.00203419      5.24310589
H        27.72399902     10.80035686      3.94561148
B        24.78397369      9.51511669     13.62232113
H        22.19996262     10.17701721     14.61626339
B        24.32358170     11.28274727     14.15922356
H        24.03967094      8.65999413     17.12237930
B        26.05728531     10.49667835     14.27130413
H        26.58405876     10.25603485     17.02346039
B        23.38825417      9.90194893     14.70960426
H        23.45943832     11.64984131     16.55286217
B        24.26257706      9.22042274     16.12868118
H        23.59591293      7.35388470     14.65175056
B        25.92855453     10.32511234     16.05550385
H        25.95896530     12.90743923     15.28084564
B        24.24105835     10.98557281     15.93772316
B        24.07486153      8.38452530     14.61447239
H        26.63631630      8.12743187     15.51589012
H        24.70027924      9.10687733     12.36061478
B        25.48230743     11.81560326     15.22809982
H        23.72914124     12.06398010     13.34750462
B        25.73255348      8.89843845     15.10343552
H        27.21353340     10.60672474     13.74406147
B        25.14473534     19.12134171      3.89230776
H        22.60922623     19.58364105      4.91886663
B        24.80660439     20.83739662      4.34662151
H        24.50982857     18.13720131      7.40308571
B        26.57967758     20.08485222      4.53363609
H        26.82679367     19.95935631      7.42190647
B        23.83021927     19.41543770      4.97697496
H        24.06196404     21.20697021      7.11182594
B        24.80519485     18.80542183      6.33492613
H        24.20817566     16.85527039      4.55752134
B        26.18924904     19.86041451      6.31925106
H        26.38913918     22.44783020      5.78027964
B        24.65067482     20.58620644      6.11787605
B        24.60361290     17.89150238      4.92863798
H        27.12835503     17.63983154      5.44583035
H        24.95477295     18.73590660      2.64152336
B        26.04870224     21.31032181      5.42423105
H        24.46557999     21.57690620      3.39775157
B        26.20335007     18.39001083      5.28824091
H        27.55921364     20.09097862      3.85084534
B        25.07608223     19.52523994     13.53390121
H        22.50878906     20.04655457     14.31577396
B        24.70540428     21.34976387     14.20631123
H        24.30794334     18.85363770     17.20248985
B        26.44154549     20.51386261     14.24681377
H        26.89574623     20.31998062     17.03204155
B        23.66996765     20.00859642     14.62863064
H        23.73790550     21.57866478     16.61520004
B        24.63960266     19.31490326     16.07996368
H        23.93881226     17.24504662     14.37142658
B        26.22083282     20.39441681     16.01883316
H        26.32204628     22.96054649     15.36768723
B        24.48384094     21.06049728     15.83475399
B        24.48405838     18.31528854     14.69441223
H        26.81654739     18.00150108     14.87056637
H        25.10685730     19.38591194     12.30711555
B        25.88270378     21.86074638     15.11985397
H        24.35755920     22.10207558     13.31889343
B        26.07629013     18.98302841     14.93434143
H        27.56000137     20.78769684     13.61119461
B         4.78631353      6.22451878      9.05666256
H         4.27941990      4.35204220     12.49240875
B         6.35079288      5.41489172      9.33844280
H         6.77921486      5.97445250     12.15857124
B         3.66834211      5.03358126      9.75550365
H         3.94052601      7.24359083     11.41962814
B         4.53341866      4.57234812     11.34322071
H         4.19978857      2.21442795      9.86485672
B         6.05396891      5.55924749     11.28491592
H         6.44395876      7.86662674     10.38858700
B         4.37252808      6.30322790     10.78790951
B         4.52407646      3.38425303     10.20112991
H         7.05580044      3.19961476     10.83447552
H         4.94065714      4.03218460      7.71863890
B         5.91275930      6.83763027     10.07118130
H         4.17753649      6.56516790      8.09902191
B         6.07178450      3.99971366     10.50538540
H         7.34783792      5.43983841      8.66027927
B         5.12720776      4.28673887      8.82988071
H         2.46823454      5.13648129      9.60015488
B         4.88635111      6.02532673     18.72951317
H         4.28904772      4.19656515     22.33716583
B         6.43443298      5.26092529     19.16671181
H         6.92262316      5.67840004     22.11720848
B         3.84408760      4.82219505     19.70161819
H         3.66651630      6.81957817     21.24778175
B         4.66256332      4.33336401     21.22155190
H         3.90442061      2.16221142     19.98727417
B         6.14724779      5.47981739     20.99738503
H         6.42329884      7.90146112     19.75849915
B         4.48784876      6.14414597     20.52668953
B         4.56271029      3.23679042     19.85481262
H         6.92461824      2.98233962     20.46641541
H         5.20453501      3.67314672     17.55618477
B         5.95515919      6.74307346     19.91405106
H         4.33707762      6.53714848     17.78608131
B         6.04900360      3.79192066     20.34279823
H         7.56060362      5.36628580     18.79370117
B         5.14965010      4.25587845     18.63029099
H         2.64857078      4.94019556     19.35104942
B         4.85865402     16.04919052      8.71763992
H         4.31532145     14.50909710     12.50417519
B         6.42768908     15.45359612      9.15201092
H         6.91903019     15.83053017     11.86567974
B         3.62151837     14.92433834      9.55881882
H         3.86739564     17.07034111     11.13350105
B         4.42471600     14.49489689     11.17023754
H         4.30157471     12.19342613      9.69262028
B         6.18729830     15.52927208     10.95736599
H         6.14693975     18.03599358      9.87525368
B         4.43071032     16.17702293     10.46939754
B         4.46257782     13.39233208      9.89579010
H         7.00859451     12.94157696     10.50461197
H         5.03438807     13.66245270      7.60399199
B         5.92020845     16.84366608      9.85428333
H         4.31625605     16.63733482      7.82891083
B         6.12122393     13.88243771     10.12318420
H         7.51245070     15.49696827      8.49564743
B         5.12596035     14.35138702      8.64691639
H         2.50077081     15.08849239      9.21106339
B         5.13268757     15.84623432     18.71544838
H         4.59332800     14.44238949     22.40640640
B         6.88704491     15.25886440     19.09607124
H         7.03430796     15.28321934     22.15966415
B         3.93709946     14.69550896     19.72289658
H         3.79971027     16.51111031     21.33395767
B         4.86066580     14.32045078     21.12598801
H         4.34432077     12.04214954     19.92368126
B         6.38561773     15.31756401     21.06365204
H         6.49870825     17.78810310     19.84465981
B         4.69444323     16.04989433     20.57018089
B         4.75704813     13.17634583     19.92922592
H         7.24217415     13.12221718     20.43434715
B         6.22172070     16.65045166     19.96847153
H         5.16839981     13.50906372     17.62108612
H         4.72629309     16.61609840     17.85710526
B         6.26095104     13.80044937     20.21536255
H         8.02924728     15.15540504     18.70395851
B         5.34140921     14.09851742     18.72274780
H         2.91409230     14.49689484     19.21879768
B        15.04144669      5.97382259      8.92192078
H        14.76179218      4.54984188     12.52818489
B        16.81919861      5.36186886      9.37524891
H        16.80418777      5.75514841     12.35231781
B        13.95291710      4.84721661      9.78875256
H        14.03454018      6.87673712     11.25686836
B        14.90484619      4.53236246     11.28705597
H        14.05612755      2.41497397     10.17926884
B        16.32552338      5.48412895     11.18046665
H        16.61769295      7.78889942     10.04705334
B        14.68522930      6.10465336     10.66673851
B        14.75353241      3.39611387     10.06757450
H        17.05115891      2.91235232     10.56090355
B        16.14100075      6.70747805     10.01907158
H        15.23323345      3.89169455      7.58137894
H        14.62955379      6.80020189      8.13437748
B        16.31546593      3.88238120     10.36915970
H        17.63496971      5.30105543      8.46799850
B        15.39621639      4.30562449      8.69900513
H        12.76602936      4.73274899      9.41454315
B        14.78392506      6.35586643     18.95428848
H        14.28136539      4.49593830     22.45433807
B        16.45250130      5.54916191     19.29132462
H        16.57797813      5.92329788     22.22505760
B        13.67537117      5.12537622     19.73748016
H        13.59349537      7.04177237     21.31399155
B        14.63320732      4.75726366     21.34389496
H        13.97506046      2.41760135     19.93783188
B        16.06900024      5.86380434     21.15243340
H        16.06805420      8.20196247     19.93018723
B        14.38831425      6.52225208     20.61360931
B        14.38621902      3.56655049     19.96677780
H        16.86127472      3.41788507     20.41371155
B        15.89943123      7.06746674     20.00558853
H        15.10397148      4.19217587     17.62017822
H        14.38455296      6.69739342     17.95022392
B        15.96706009      4.18726921     20.24652481
H        17.44559288      5.45811224     18.58029175
B        15.15890121      4.45950794     18.73101616
H        12.46722126      5.22557306     19.44921303
B        14.83909035     15.83683777      9.12252808
H        14.31219673     14.21574688     12.62636375
B        16.55926514     15.11739922      9.54051495
H        16.95929909     15.41647911     12.30429173
B        13.71805096     14.67730427      9.85153484
H        13.69488049     16.81224060     11.55435944
B        14.62274170     14.28460026     11.48472786
H        13.94424248     12.03316402     10.43756866
B        16.13636780     15.23618126     11.34302425
H        16.15032387     17.64211845     10.24036503
B        14.52851391     16.03392982     10.99783039
B        14.51516438     13.08448410     10.25022411
H        16.99407387     12.92456627     10.56342888
B        15.86363316     16.56880951     10.13345814
H        15.45448589     13.42462921      8.00283527
H        14.34434605     16.62215042      8.25526714
B        16.02021217     13.68789482     10.52068329
H        17.43775749     15.55391693      8.88623333
B        15.23744965     14.02197552      9.02674294
H        12.50883102     14.90920162      9.86751652
B        14.83985519     15.90530586     18.68499374
H        14.29570007     14.03089428     22.20683479
B        16.42927361     15.08589745     19.02386665
H        16.58392143     15.27065277     21.94692421
B        13.64235210     14.62724018     19.48404884
H        13.71333599     16.62220764     21.12063217
B        14.43046856     14.24831009     21.04900742
H        13.86492825     12.02010059     20.18983650
B        16.06840515     15.25571442     20.87455368
H        16.35495377     17.69844246     19.88059998
B        14.37840176     15.91273022     20.40391731
B        14.49177551     12.96270180     19.88901901
H        17.08575058     13.07671547     20.31498909
H        15.10438347     13.55099964     17.48925591
B        15.84046078     16.57400513     19.84100151
H        14.53640270     16.47984123     17.75947952
B        16.01327896     13.65853405     20.12969208
H        17.36427879     15.37405968     18.23587227
B        14.96201420     13.99561882     18.53721237
H        12.49507713     14.84898949     19.17728615
H        22.28051758      5.15322399      9.44539261
B        24.54559708      6.00413656      8.88195801
H        23.95531082      4.49381495     12.40499973
B        26.32278824      5.45689249      9.30661678
H        26.50948524      5.82248259     11.92757034
B        23.43517494      4.91549540      9.68391800
H        23.48768806      7.24621487     11.31336594
B        24.44351959      4.57119560     11.33450031
H        24.25187874      2.06388783      9.93478489
B        25.81999207      5.45940018     11.07373714
H        26.06046486      7.90031338     10.39573669
B        24.20376396      6.28509235     10.76183414
B        24.22836304      3.34289718     10.02629662
H        26.56398582      2.94196939     10.37177277
H        25.04399872      3.65852022      7.77156353
B        25.63103294      6.81274605     10.04447079
H        24.12553978      6.49792719      7.92433357
B        25.78070641      3.89238048     10.38190746
H        27.30588150      5.25861549      8.67659950
B        24.86581993      4.30832624      8.79300785
H        22.83857727      5.08558559     19.52612686
B        25.06135178      6.25577068     18.89513397
H        24.49214745      4.36447001     22.36299515
B        26.68787956      5.55882978     19.37362862
H        27.00147247      5.86150169     22.02902603
B        24.02779388      5.21486425     19.75230217
H        24.15650368      7.11274576     21.25422478
B        24.87334251      4.66030169     21.32896996
H        24.47495079      2.28723550     19.95907784
B        26.39537811      5.68740034     21.10034752
H        26.36800385      8.23221779     19.99781227
B        24.75296402      6.35367537     20.75657654
B        24.73557472      3.54256678     20.08546066
H        27.05174446      3.24514103     20.68226814
B        26.08358955      7.01128531     20.00826836
H        25.52447319      4.16424131     17.72870445
H        24.79519844      6.95787525     18.01829147
B        26.26331329      4.10521269     20.47484589
H        27.76101685      5.75008869     18.89374161
B        25.35929298      4.48236704     18.86937332
H        22.55505180     14.57443523     10.10060787
B        24.77002716     15.75676918      9.50370312
H        24.11606407     13.79347992     12.93659878
B        26.53289795     15.01185036      9.81371212
H        26.68014526     15.46139431     12.60058689
B        23.69147873     14.54686737     10.30196095
H        23.58288383     16.76055908     11.40850258
B        24.58086014     14.21112251     11.86014557
H        23.78658676     11.97037792     10.83317184
B        25.95131302     15.33724308     11.62461472
H        26.39035034     17.62412453     10.30852890
B        24.36758804     15.94385815     11.14684963
B        24.33754349     13.01173782     10.49503613
H        26.83508110     12.68915939     10.91996193
B        25.84925079     16.52941132     10.56456566
H        25.28831100     13.84348202      7.90799141
H        23.98705292     16.29689407      8.66152382
B        26.00852585     13.62442398     10.79492474
H        27.62739182     14.97135162      9.31557369
B        25.03236198     13.94779778      9.17290020
H        22.15673065     15.10820961     19.28660965
B        24.55417824     16.24432755     18.72319984
H        24.07250023     14.45354271     22.27131844
B        26.26059151     15.61083031     19.12251663
H        26.68015862     16.01710129     21.87339592
B        23.46481895     15.05935287     19.42543602
H        23.63941193     17.23041725     21.02437973
B        24.44973183     14.72899055     21.07239723
H        24.13489723     12.51355362     19.91837883
B        25.91390610     15.78288269     20.91263199
H        25.97685623     18.19598579     19.96376228
B        24.23078918     16.36619186     20.43482971
B        24.23674202     13.65791702     19.80345345
H        26.51664543     13.21561432     20.22058296
B        25.74114227     16.96653557     19.81281662
H        24.95176125     13.88699150     17.55715179
H        24.11036491     17.00984383     17.83604622
B        25.77383041     14.12716770     20.11318016
H        27.24758148     15.46971798     18.53801346
B        24.93136978     14.46364021     18.56738853
