1056

Na        2.41271400      2.70604444      2.85043859
Na        2.41271400      2.70604444     12.72043800
Na        2.41271400     12.57604504      2.85043859
Na        2.41271400     12.57604504     12.72043800
Na       12.28271389      2.70604444      2.85043859
Na       12.28271389      2.70604444     12.72043800
Na       12.28271389     12.57604504      2.85043859
Na       12.28271389     12.57604504     12.72043800
Na       22.15271378      2.70604444      2.85043859
Na       22.15271378      2.70604444     12.72043800
Na       22.15271378     12.57604504      2.85043859
Na       22.15271378     12.57604504     12.72043800
Na        2.63140273      7.60386992      7.89614487
Na        2.63140273      7.60386992     17.76614571
Na        2.63140273     17.47387123      7.89614487
Na        2.63140273     17.47387123     17.76614571
Na       12.50140190      7.60386992      7.89614487
Na       12.50140190      7.60386992     17.76614571
Na       12.50140190     17.47387123      7.89614487
Na       12.50140190     17.47387123     17.76614571
Na       22.37140274      7.60386992      7.89614487
Na       22.37140274      7.60386992     17.76614571
Na       22.37140274     17.47387123      7.89614487
Na       22.37140274     17.47387123     17.76614571
Na        7.38354063      2.55938554      8.26159859
Na        7.38354063      2.55938554     18.13159943
Na        7.38354063     12.42938519      8.26159859
Na        7.38354063     12.42938519     18.13159943
Na       17.25354195      2.55938554      8.26159859
Na       17.25354195      2.55938554     18.13159943
Na       17.25354195     12.42938519      8.26159859
Na       17.25354195     12.42938519     18.13159943
Na       27.12353897      2.55938554      8.26159859
Na       27.12353897      2.55938554     18.13159943
Na       27.12353897     12.42938519      8.26159859
Na       27.12353897     12.42938519     18.13159943
Na        7.60278893      7.96927214      2.77654552
Na        7.60278893      7.96927214     12.64654446
Na        7.60278893     17.83927155      2.77654552
Na        7.60278893     17.83927155     12.64654446
Na       17.47278976      7.96927214      2.77654552
Na       17.47278976      7.96927214     12.64654446
Na       17.47278976     17.83927155      2.77654552
Na       17.47278976     17.83927155     12.64654446
Na       27.34278870      7.96927214      2.77654552
Na       27.34278870      7.96927214     12.64654446
Na       27.34278870     17.83927155      2.77654552
Na       27.34278870     17.83927155     12.64654446
Na        2.19404674      2.99772859      7.75010633
Na        2.19404674      2.99772859     17.62010765
Na        2.19404674     12.86772919      7.75010633
Na        2.19404674     12.86772919     17.62010765
Na       12.06404686      2.99772859      7.75010633
Na       12.06404686      2.99772859     17.62010765
Na       12.06404686     12.86772919      7.75010633
Na       12.06404686     12.86772919     17.62010765
Na       21.93404770      2.99772859      7.75010633
Na       21.93404770      2.99772859     17.62010765
Na       21.93404770     12.86772919      7.75010633
Na       21.93404770     12.86772919     17.62010765
Na        2.48598886      8.18790150      3.07115269
Na        2.48598886      8.18790150     12.94115257
Na        2.48598886     18.05790138      3.07115269
Na        2.48598886     18.05790138     12.94115257
Na       12.35598755      8.18790150      3.07115269
Na       12.35598755      8.18790150     12.94115257
Na       12.35598755     18.05790138      3.07115269
Na       12.35598755     18.05790138     12.94115257
Na       22.22598648      8.18790150      3.07115269
Na       22.22598648      8.18790150     12.94115257
Na       22.22598648     18.05790138      3.07115269
Na       22.22598648     18.05790138     12.94115257
Na        7.16514301      3.43629003      3.28957391
Na        7.16514301      3.43629003     13.15957355
Na        7.16514301     13.30628967      3.28957391
Na        7.16514301     13.30628967     13.15957355
Na       17.03514099      3.43629003      3.28957391
Na       17.03514099      3.43629003     13.15957355
Na       17.03514099     13.30628967      3.28957391
Na       17.03514099     13.30628967     13.15957355
Na       26.90514183      3.43629003      3.28957391
Na       26.90514183      3.43629003     13.15957355
Na       26.90514183     13.30628967      3.28957391
Na       26.90514183     13.30628967     13.15957355
Na        7.45747662      8.18696404      7.60576248
Na        7.45747662      8.18696404     17.47576332
Na        7.45747662     18.05696487      7.60576248
Na        7.45747662     18.05696487     17.47576332
Na       17.32747650      8.18696404      7.60576248
Na       17.32747650      8.18696404     17.47576332
Na       17.32747650     18.05696487      7.60576248
Na       17.32747650     18.05696487     17.47576332
Na       27.19747543      8.18696404      7.60576248
Na       27.19747543      8.18696404     17.47576332
Na       27.19747543     18.05696487      7.60576248
Na       27.19747543     18.05696487     17.47576332
B         1.26176059     18.71159935      0.34014827
H         2.69425631     20.15889740     -1.29822564
B         0.25821814     19.23883247     -1.08659208
H        -2.22057652     20.02920723     -0.08634590
B         0.09332020     21.00102043     -0.79152894
H        -0.27690825     19.10170937      2.62224150
B         1.72093976     20.18776512     -0.58951968
H         2.33871961     20.26576233      2.10185909
B        -1.03196847     19.87420654      0.04563323
H        -0.70851833     21.84161949      1.73153687
B        -0.02553688     19.35579681      1.47411859
H        -0.87866724     17.21756363      0.17431682
B         1.52062249     20.25808334      1.21204269
H         1.79001772     22.70857811      0.27270630
B        -0.11550842     21.08685875      1.01689398
B        -0.38068327     18.30009270      0.18911134
H         2.06148958     17.81914330      0.46967658
H         0.21507834     18.84368896     -2.22254968
B         1.29222071     21.62225723      0.23709650
H        -0.29581392     21.67586136     -1.70776379
B         1.26176059     18.71159935     10.21014786
H         2.69425631     20.15889740      8.57177353
B         0.25821814     19.23883247      8.78340816
H        -2.22057652     20.02920723      9.78365421
B         0.09332020     21.00102043      9.07847118
H        -0.27690825     19.10170937     12.49224186
B         1.72093976     20.18776512      9.28047943
H         2.33871961     20.26576233     11.97185898
B        -1.03196847     19.87420654      9.91563320
H        -0.70851833     21.84161949     11.60153580
B        -0.02553688     19.35579681     11.34411907
H        -0.87866724     17.21756363     10.04431629
B         1.52062249     20.25808334     11.08204269
H         1.79001772     22.70857811     10.14270592
B        -0.11550842     21.08685875     10.88689327
B        -0.38068327     18.30009270     10.05911160
H         2.06148958     17.81914330     10.33967686
H         0.21507834     18.84368896      7.64744997
B         1.29222071     21.62225723     10.10709667
H        -0.29581392     21.67586136      8.16223431
B         1.26176059      8.84159851      0.34014827
H         2.69425631     10.28889751     -1.29822564
B         0.25821814      9.36883259     -1.08659208
H        -2.22057652     10.15920639     -0.08634590
B         0.09332020     11.13102245     -0.79152894
H        -0.27690825      9.23170853      2.62224150
B         1.72093976     10.31776714     -0.58951968
H         2.33871961     10.39576054      2.10185909
B        -1.03196847     10.00420856      0.04563323
H        -0.70851833     11.97162151      1.73153687
B        -0.02553688      9.48579788      1.47411859
H        -0.87866724      7.34756279      0.17431682
B         1.52062249     10.38808155      1.21204269
H         1.79001772     12.83857727      0.27270630
B        -0.11550842     11.21685886      1.01689398
B        -0.38068327      8.43009186      0.18911134
H         2.06148958      7.94914389      0.46967658
H         0.21507834      8.97368908     -2.22254968
B         1.29222071     11.75225639      0.23709650
H        -0.29581392     11.80586243     -1.70776379
B         1.26176059      8.84159851     10.21014786
H         2.69425631     10.28889751      8.57177353
B         0.25821814      9.36883259      8.78340816
H        -2.22057652     10.15920639      9.78365421
B         0.09332020     11.13102245      9.07847118
H        -0.27690825      9.23170853     12.49224186
B         1.72093976     10.31776714      9.28047943
H         2.33871961     10.39576054     11.97185898
B        -1.03196847     10.00420856      9.91563320
H        -0.70851833     11.97162151     11.60153580
B        -0.02553688      9.48579788     11.34411907
H        -0.87866724      7.34756279     10.04431629
B         1.52062249     10.38808155     11.08204269
H         1.79001772     12.83857727     10.14270592
B        -0.11550842     11.21685886     10.88689327
B        -0.38068327      8.43009186     10.05911160
H         2.06148958      7.94914389     10.33967686
H         0.21507834      8.97368908      7.64744997
B         1.29222071     11.75225639     10.10709667
H        -0.29581392     11.80586243      8.16223431
B        11.13176060     18.71159935      0.34014827
H        12.56425571     20.15889740     -1.29822564
B        10.12821770     19.23883247     -1.08659208
H         7.64942360     20.02920723     -0.08634590
B         9.96331978     21.00102043     -0.79152894
H         9.59309101     19.10170937      2.62224150
B        11.59093952     20.18776512     -0.58951968
H        12.20871925     20.26576233      2.10185909
B         8.83803177     19.87420654      0.04563323
H         9.16148186     21.84161949      1.73153687
B         9.84446239     19.35579681      1.47411859
H         8.99133205     17.21756363      0.17431682
B        11.39062119     20.25808334      1.21204269
H        11.66001797     22.70857811      0.27270630
B         9.75449181     21.08685875      1.01689398
B         9.48931694     18.30009270      0.18911134
H        11.93148994     17.81914330      0.46967658
H        10.08507729     18.84368896     -2.22254968
B        11.16222000     21.62225723      0.23709650
H         9.57418537     21.67586136     -1.70776379
B        11.13176060     18.71159935     10.21014786
H        12.56425571     20.15889740      8.57177353
B        10.12821770     19.23883247      8.78340816
H         7.64942360     20.02920723      9.78365421
B         9.96331978     21.00102043      9.07847118
H         9.59309101     19.10170937     12.49224186
B        11.59093952     20.18776512      9.28047943
H        12.20871925     20.26576233     11.97185898
B         8.83803177     19.87420654      9.91563320
H         9.16148186     21.84161949     11.60153580
B         9.84446239     19.35579681     11.34411907
H         8.99133205     17.21756363     10.04431629
B        11.39062119     20.25808334     11.08204269
H        11.66001797     22.70857811     10.14270592
B         9.75449181     21.08685875     10.88689327
B         9.48931694     18.30009270     10.05911160
H        11.93148994     17.81914330     10.33967686
H        10.08507729     18.84368896      7.64744997
B        11.16222000     21.62225723     10.10709667
H         9.57418537     21.67586136      8.16223431
B        11.13176060      8.84159851      0.34014827
H        12.56425571     10.28889751     -1.29822564
B        10.12821770      9.36883259     -1.08659208
H         7.64942360     10.15920639     -0.08634590
B         9.96331978     11.13102245     -0.79152894
H         9.59309101      9.23170853      2.62224150
B        11.59093952     10.31776714     -0.58951968
H        12.20871925     10.39576054      2.10185909
B         8.83803177     10.00420856      0.04563323
H         9.16148186     11.97162151      1.73153687
B         9.84446239      9.48579788      1.47411859
H         8.99133205      7.34756279      0.17431682
B        11.39062119     10.38808155      1.21204269
H        11.66001797     12.83857727      0.27270630
B         9.75449181     11.21685886      1.01689398
B         9.48931694      8.43009186      0.18911134
H        11.93148994      7.94914389      0.46967658
H        10.08507729      8.97368908     -2.22254968
B        11.16222000     11.75225639      0.23709650
H         9.57418537     11.80586243     -1.70776379
B        11.13176060      8.84159851     10.21014786
H        12.56425571     10.28889751      8.57177353
B        10.12821770      9.36883259      8.78340816
H         7.64942360     10.15920639      9.78365421
B         9.96331978     11.13102245      9.07847118
H         9.59309101      9.23170853     12.49224186
B        11.59093952     10.31776714      9.28047943
H        12.20871925     10.39576054     11.97185898
B         8.83803177     10.00420856      9.91563320
H         9.16148186     11.97162151     11.60153580
B         9.84446239      9.48579788     11.34411907
H         8.99133205      7.34756279     10.04431629
B        11.39062119     10.38808155     11.08204269
H        11.66001797     12.83857727     10.14270592
B         9.75449181     11.21685886     10.88689327
B         9.48931694      8.43009186     10.05911160
H        11.93148994      7.94914389     10.33967686
H        10.08507729      8.97368908      7.64744997
B        11.16222000     11.75225639     10.10709667
H         9.57418537     11.80586243      8.16223431
H        19.44418526      1.93586290     18.03223610
B        21.00176048     -1.02840066     20.08014870
H        22.43425560      0.41889748     18.44177437
B        19.99821854     -0.50116754     18.65340614
H        17.51942444      0.28920743     19.65365219
B        19.83331871      1.26102257     18.94847107
H        19.46308899     -0.63829064     22.36224174
B        21.46093941      0.44776776     19.15048027
H        22.07871819      0.52576184     21.84185982
B        18.70803261      0.13420865     19.78563118
H        19.03148270      2.10162234     21.47153664
B        19.71446037     -0.38420317     21.21411896
H        18.86133194     -2.52243638     19.91431427
B        21.26062202      0.51808262     20.95204353
H        21.53001595      2.96857786     20.01270676
B        19.62449265      1.34685946     20.75689125
B        19.35931778     -1.43990731     19.92910957
H        21.80148888     -1.92085660     20.20967674
H        19.95507812     -0.89631104     17.51745033
B        21.03221893      1.88225722     19.97709656
H        19.44418526      1.93586290      8.16223431
B        21.00176048     -1.02840066     10.21014786
H        22.43425560      0.41889748      8.57177353
B        19.99821854     -0.50116754      8.78340816
H        17.51942444      0.28920743      9.78365421
B        19.83331871      1.26102257      9.07847118
H        19.46308899     -0.63829064     12.49224186
B        21.46093941      0.44776776      9.28047943
H        22.07871819      0.52576184     11.97185898
B        18.70803261      0.13420865      9.91563320
H        19.03148270      2.10162234     11.60153580
B        19.71446037     -0.38420317     11.34411907
H        18.86133194     -2.52243638     10.04431629
B        21.26062202      0.51808262     11.08204269
H        21.53001595      2.96857786     10.14270592
B        19.62449265      1.34685946     10.88689327
B        19.35931778     -1.43990731     10.05911160
H        21.80148888     -1.92085660     10.33967686
H        19.95507812     -0.89631104      7.64744997
B        21.03221893      1.88225722     10.10709667
H        19.44418526     11.80586243     18.03223610
B        21.00176048      8.84159851     20.08014870
H        22.43425560     10.28889751     18.44177437
B        19.99821854      9.36883259     18.65340614
H        17.51942444     10.15920639     19.65365219
B        19.83331871     11.13102245     18.94847107
H        19.46308899      9.23170853     22.36224174
B        21.46093941     10.31776714     19.15048027
H        22.07871819     10.39576054     21.84185982
B        18.70803261     10.00420856     19.78563118
H        19.03148270     11.97162151     21.47153664
B        19.71446037      9.48579788     21.21411896
H        18.86133194      7.34756279     19.91431427
B        21.26062202     10.38808155     20.95204353
H        21.53001595     12.83857727     20.01270676
B        19.62449265     11.21685886     20.75689125
B        19.35931778      8.43009186     19.92910957
H        21.80148888      7.94914389     20.20967674
H        19.95507812      8.97368908     17.51745033
B        21.03221893     11.75225639     19.97709656
H        19.44418526     11.80586243      8.16223431
B        21.00176048      8.84159851     10.21014786
H        22.43425560     10.28889751      8.57177353
B        19.99821854      9.36883259      8.78340816
H        17.51942444     10.15920639      9.78365421
B        19.83331871     11.13102245      9.07847118
H        19.46308899      9.23170853     12.49224186
B        21.46093941     10.31776714      9.28047943
H        22.07871819     10.39576054     11.97185898
B        18.70803261     10.00420856      9.91563320
H        19.03148270     11.97162151     11.60153580
B        19.71446037      9.48579788     11.34411907
H        18.86133194      7.34756279     10.04431629
B        21.26062202     10.38808155     11.08204269
B        21.03221893     11.75225639     10.10709667
H        21.53001595     12.83857727     10.14270592
B        19.62449265     11.21685886     10.88689327
B        19.35931778      8.43009186     10.05911160
H        21.80148888      7.94914389     10.33967686
H        19.95507812      8.97368908      7.64744997
B        10.36772633      4.69010592      3.72524405
H         7.80772781      5.23076439      4.73136330
B        10.07192898      6.38366699      4.24266815
H         9.66005421      3.99510694      7.34070492
B        11.73469639      5.64954567      4.41533852
H        12.23272514      5.39732027      7.13291979
B         8.99483299      5.08452463      4.87430048
H         9.11983967      6.80205917      6.82559061
B         9.96723938      4.44540596      6.27005291
H         9.29853439      2.45494676      4.67091942
B        11.45988941      5.47243166      6.20910788
H        11.63385963      8.03552914      5.56901646
B         9.79299641      6.21136856      6.03301477
H        12.22126007      3.22023964      5.20010281
B         9.73564911      3.55332685      4.83785725
H        10.39539433      4.44287872      2.54866672
B        11.19123554      6.93442583      5.39690208
H         9.67253113      7.15392733      3.41624594
B        11.33917141      4.04313374      5.12865877
H        12.72890663      5.74952650      3.75096250
B        10.36772633      4.69010592     13.59524345
H         7.80772781      5.23076439     14.60136223
B        10.07192898      6.38366699     14.11266708
H         9.66005421      3.99510694     17.21070290
B        11.73469639      5.64954567     14.28533745
H        12.23272514      5.39732027     17.00292015
B         8.99483299      5.08452463     14.74429989
H         9.11983967      6.80205917     16.69559097
B         9.96723938      4.44540596     16.14005280
H         9.29853439      2.45494676     14.54091930
B        11.45988941      5.47243166     16.07910728
H        11.63385963      8.03552914     15.43901539
B         9.79299641      6.21136856     15.90301418
B         9.73564911      3.55332685     14.70785618
H        12.22126007      3.22023964     15.07010174
H        10.39539433      4.44287872     12.41866684
B        11.19123554      6.93442583     15.26690197
H         9.67253113      7.15392733     13.28624535
B        11.33917141      4.04313374     14.99865818
H        12.72890663      5.74952650     13.62096214
B        10.36772633     14.56010532      3.72524405
H         7.80772781     15.10076332      4.73136330
B        10.07192898     16.25366783      4.24266815
H         9.66005421     13.86510754      7.34070492
B        11.73469639     15.51954556      4.41533852
H        12.23272514     15.26732063      7.13291979
B         8.99483299     14.95452404      4.87430048
H         9.11983967     16.67205811      6.82559061
B         9.96723938     14.31540585      6.27005291
H         9.29853439     12.32494640      4.67091942
B        11.45988941     15.34243107      6.20910788
H        11.63385963     17.90552902      5.56901646
B         9.79299641     16.08136940      6.03301477
B         9.73564911     13.42332649      4.83785725
H        12.22126007     13.09023952      5.20010281
H        10.39539433     14.31287861      2.54866672
B        11.19123554     16.80442429      5.39690208
H         9.67253113     17.02392769      3.41624594
B        11.33917141     13.91313362      5.12865877
H        12.72890663     15.61952591      3.75096250
B        10.36772633     14.56010532     13.59524345
H         7.80772781     15.10076332     14.60136223
B        10.07192898     16.25366783     14.11266708
H         9.66005421     13.86510754     17.21070290
B        11.73469639     15.51954556     14.28533745
H        12.23272514     15.26732063     17.00292015
B         8.99483299     14.95452404     14.74429989
H         9.11983967     16.67205811     16.69559097
B         9.96723938     14.31540585     16.14005280
H         9.29853439     12.32494640     14.54091930
B        11.45988941     15.34243107     16.07910728
H        11.63385963     17.90552902     15.43901539
B         9.79299641     16.08136940     15.90301418
B         9.73564911     13.42332649     14.70785618
H        12.22126007     13.09023952     15.07010174
H        10.39539433     14.31287861     12.41866684
B        11.19123554     16.80442429     15.26690197
H         9.67253113     17.02392769     13.28624535
B        11.33917141     13.91313362     14.99865818
H        12.72890663     15.61952591     13.62096214
H        22.59890556      5.74952650      3.75096250
B        20.23772430      4.69010592      3.72524405
H        17.67772865      5.23076439      4.73136330
B        19.94192886      6.38366699      4.24266815
H        19.53005219      3.99510694      7.34070492
B        21.60469437      5.64954567      4.41533852
H        22.10272408      5.39732027      7.13291979
B        18.86483192      5.08452463      4.87430048
H        18.98983955      6.80205917      6.82559061
B        19.83723831      4.44540596      6.27005291
H        19.16853523      2.45494676      4.67091942
B        21.32988930      5.47243166      6.20910788
H        21.50385857      8.03552914      5.56901646
B        19.66299438      6.21136856      6.03301477
B        19.60564995      3.55332685      4.83785725
H        22.09125900      3.22023964      5.20010281
H        20.26539230      4.44287872      2.54866672
B        21.06123352      6.93442583      5.39690208
H        19.54253006      7.15392733      3.41624594
B        21.20917130      4.04313374      5.12865877
H        22.59890556      5.74952650     13.62096214
B        20.23772430      4.69010592     13.59524345
H        17.67772865      5.23076439     14.60136223
B        19.94192886      6.38366699     14.11266708
H        19.53005219      3.99510694     17.21070290
B        21.60469437      5.64954567     14.28533745
H        22.10272408      5.39732027     17.00292015
B        18.86483192      5.08452463     14.74429989
H        18.98983955      6.80205917     16.69559097
B        19.83723831      4.44540596     16.14005280
H        19.16853523      2.45494676     14.54091930
B        21.32988930      5.47243166     16.07910728
H        21.50385857      8.03552914     15.43901539
B        19.66299438      6.21136856     15.90301418
H        22.09125900      3.22023964     15.07010174
B        19.60564995      3.55332685     14.70785618
H        20.26539230      4.44287872     12.41866684
B        21.06123352      6.93442583     15.26690197
H        19.54253006      7.15392733     13.28624535
B        21.20917130      4.04313374     14.99865818
H        22.59890556     15.61952591      3.75096250
B        20.23772430     14.56010532      3.72524405
H        17.67772865     15.10076332      4.73136330
B        19.94192886     16.25366783      4.24266815
H        19.53005219     13.86510754      7.34070492
B        21.60469437     15.51954556      4.41533852
H        22.10272408     15.26732063      7.13291979
B        18.86483192     14.95452404      4.87430048
H        18.98983955     16.67205811      6.82559061
B        19.83723831     14.31540585      6.27005291
H        19.16853523     12.32494640      4.67091942
B        21.32988930     15.34243107      6.20910788
H        21.50385857     17.90552902      5.56901646
B        19.66299438     16.08136940      6.03301477
H        22.09125900     13.09023952      5.20010281
B        19.60564995     13.42332649      4.83785725
H        20.26539230     14.31287861      2.54866672
B        21.06123352     16.80442429      5.39690208
H        19.54253006     17.02392769      3.41624594
B        21.20917130     13.91313362      5.12865877
H        22.59890556     15.61952591     13.62096214
B        20.23772430     14.56010532     13.59524345
H        17.67772865     15.10076332     14.60136223
B        19.94192886     16.25366783     14.11266708
H        19.53005219     13.86510754     17.21070290
B        21.60469437     15.51954556     14.28533745
H        22.10272408     15.26732063     17.00292015
B        18.86483192     14.95452404     14.74429989
H        18.98983955     16.67205811     16.69559097
B        19.83723831     14.31540585     16.14005280
H        19.16853523     12.32494640     14.54091930
B        21.32988930     15.34243107     16.07910728
H        21.50385857     17.90552902     15.43901539
B        19.66299438     16.08136940     15.90301418
B        19.60564995     13.42332649     14.70785618
H        22.09125900     13.09023952     15.07010174
H        20.26539230     14.31287861     12.41866684
B        21.06123352     16.80442429     15.26690197
H        19.54253006     17.02392769     13.28624535
B        21.20917130     13.91313362     14.99865818
B         1.46917188      4.04313374      5.12865877
H         2.85890675      5.74952650      3.75096250
B         0.49772698      4.69010592      3.72524405
H        -2.06227207      5.23076439      4.73136330
B         0.20192900      6.38366699      4.24266815
H        -0.20994505      3.99510694      7.34070492
B         1.86469698      5.64954567      4.41533852
H         2.36272502      5.39732027      7.13291979
B        -0.87516528      5.08452463      4.87430048
H        -0.75015956      6.80205917      6.82559061
B         0.09723999      4.44540596      6.27005291
H        -0.57146585      2.45494676      4.67091942
B         1.58989000      5.47243166      6.20910788
H         1.76385999      8.03552914      5.56901646
B        -0.07700287      6.21136856      6.03301477
B        -0.13435112      3.55332685      4.83785725
H         2.35125971      3.22023964      5.20010281
H         0.52539498      4.44287872      2.54866672
B         1.32123590      6.93442583      5.39690208
H        -0.19746909      7.15392733      3.41624594
B         1.46917188      4.04313374     14.99865818
H         2.85890675      5.74952650     13.62096214
B         0.49772698      4.69010592     13.59524345
H        -2.06227207      5.23076439     14.60136223
B         0.20192900      6.38366699     14.11266708
H        -0.20994505      3.99510694     17.21070290
B         1.86469698      5.64954567     14.28533745
H         2.36272502      5.39732027     17.00292015
B        -0.87516528      5.08452463     14.74429989
H        -0.75015956      6.80205917     16.69559097
B         0.09723999      4.44540596     16.14005280
H        -0.57146585      2.45494676     14.54091930
B         1.58989000      5.47243166     16.07910728
H         1.76385999      8.03552914     15.43901539
B        -0.07700287      6.21136856     15.90301418
B        -0.13435112      3.55332685     14.70785618
H         2.35125971      3.22023964     15.07010174
H         0.52539498      4.44287872     12.41866684
B         1.32123590      6.93442583     15.26690197
H        -0.19746909      7.15392733     13.28624535
B         1.46917188     13.91313362      5.12865877
H         2.85890675     15.61952591      3.75096250
B         0.49772698     14.56010532      3.72524405
H        -2.06227207     15.10076332      4.73136330
B         0.20192900     16.25366783      4.24266815
H        -0.20994505     13.86510754      7.34070492
B         1.86469698     15.51954556      4.41533852
H         2.36272502     15.26732063      7.13291979
B        -0.87516528     14.95452404      4.87430048
H        -0.75015956     16.67205811      6.82559061
B         0.09723999     14.31540585      6.27005291
H        -0.57146585     12.32494640      4.67091942
B         1.58989000     15.34243107      6.20910788
H         1.76385999     17.90552902      5.56901646
B        -0.07700287     16.08136940      6.03301477
B        -0.13435112     13.42332649      4.83785725
H         2.35125971     13.09023952      5.20010281
H         0.52539498     14.31287861      2.54866672
B         1.32123590     16.80442429      5.39690208
H        -0.19746909     17.02392769      3.41624594
B         1.46917188     13.91313362     14.99865818
H         2.85890675     15.61952591     13.62096214
B         0.49772698     14.56010532     13.59524345
H        -2.06227207     15.10076332     14.60136223
B         0.20192900     16.25366783     14.11266708
H        -0.20994505     13.86510754     17.21070290
B         1.86469698     15.51954556     14.28533745
H         2.36272502     15.26732063     17.00292015
B        -0.87516528     14.95452404     14.74429989
H        -0.75015956     16.67205811     16.69559097
B         0.09723999     14.31540585     16.14005280
H        -0.57146585     12.32494640     14.54091930
B         1.58989000     15.34243107     16.07910728
H         1.76385999     17.90552902     15.43901539
B        -0.07700287     16.08136940     15.90301418
B        -0.13435112     13.42332649     14.70785618
H         2.35125971     13.09023952     15.07010174
H         0.52539498     14.31287861     12.41866684
B         1.32123590     16.80442429     15.26690197
H        -0.19746909     17.02392769     13.28624535
H         2.80461121     10.13539886      4.71494579
B         5.05282784     11.34707928      4.24701166
H         4.70025873      8.94478607      7.35118484
B         6.72917366     10.63431263      4.41792154
H         7.23596430     10.41695786      7.12375164
B         3.99511027     10.03022957      4.87616301
H         4.10765553     11.76847172      6.82848549
B         4.97847033      9.39856434      6.27353811
H         4.35188246      7.40158892      4.66870356
B         6.45296478     10.44992542      6.20620728
H         6.60063410     13.00398159      5.61356497
B         4.77619028     11.16605568      6.03859711
B         4.76185799      8.50894547      4.83979988
H         7.23073292      8.18771935      5.17742157
H         5.40233994      9.40164661      2.55217791
B         6.16479111     11.90809631      5.40582657
H         4.63946867     12.11876965      3.42564440
B         6.35548019      9.01947498      5.12511158
H         7.72637892     10.75892448      3.75904846
B         5.37518358      9.65531158      3.72797918
H         2.80461121     10.13539886     14.58494663
B         5.05282784     11.34707928     14.11701107
H         4.70025873      8.94478607     17.22118378
B         6.72917366     10.63431263     14.28792095
H         7.23596430     10.41695786     16.99375153
B         3.99511027     10.03022957     14.74616241
H         4.10765553     11.76847172     16.69848442
B         4.97847033      9.39856434     16.14353943
H         4.35188246      7.40158892     14.53870296
B         6.45296478     10.44992542     16.07620811
H         6.60063410     13.00398159     15.48356438
B         4.77619028     11.16605568     15.90859604
B         4.76185799      8.50894547     14.70979881
H         7.23073292      8.18771935     15.04742050
H         5.40233994      9.40164661     12.42217731
B         6.16479111     11.90809631     15.27582645
H         4.63946867     12.11876965     13.29564476
B         6.35548019      9.01947498     14.99511051
H         7.72637892     10.75892448     13.62904835
B         5.37518358      9.65531158     13.59797955
H         2.80461121      0.26539999      4.71494579
B         5.05282784      1.47707999      4.24701166
H         4.70025873     -0.92521304      7.35118484
B         6.72917366      0.76431298      4.41792154
H         7.23596430      0.54695797      7.12375164
B         3.99511027      0.16023000      4.87616301
H         4.10765553      1.89847195      6.82848549
B         4.97847033     -0.47143579      6.27353811
H         4.35188246     -2.46841073      4.66870356
B         6.45296478      0.57992601      6.20620728
H         6.60063410      3.13398170      5.61356497
B         4.77619028      1.29605591      6.03859711
B         4.76185799     -1.36105561      4.83979988
H         7.23073292     -1.68227971      5.17742157
B         6.16479111      2.03809690      5.40582657
H         5.40233994     -0.46835348      2.55217791
H         4.63946867      2.24877095      3.42564440
B         6.35548019     -0.85052514      5.12511158
H         7.72637892      0.88892448      3.75904846
B         5.37518358     -0.21468756      3.72797918
H         2.80461121      0.26539999     14.58494663
B         5.05282784      1.47707999     14.11701107
H         4.70025873     -0.92521304     17.22118378
B         6.72917366      0.76431298     14.28792095
H         7.23596430      0.54695797     16.99375153
B         3.99511027      0.16023000     14.74616241
H         4.10765553      1.89847195     16.69848442
B         4.97847033     -0.47143579     16.14353943
H         4.35188246     -2.46841073     14.53870296
B         6.45296478      0.57992601     16.07620811
H         6.60063410      3.13398170     15.48356438
B         4.77619028      1.29605591     15.90859604
B         4.76185799     -1.36105561     14.70979881
H         7.23073292     -1.68227971     15.04742050
B         6.16479111      2.03809690     15.27582645
H         5.40233994     -0.46835348     12.42217731
H         4.63946867      2.24877095     13.29564476
B         6.35548019     -0.85052514     14.99511051
H         7.72637892      0.88892448     13.62904835
B         5.37518358     -0.21468756     13.59797955
B        15.24518394      9.65531158      3.72797918
H        12.67461109     10.13539886      4.71494579
B        14.92282772     11.34707928      4.24701166
H        14.57025909      8.94478607      7.35118484
B        16.59917450     10.63431263      4.41792154
H        17.10596466     10.41695786      7.12375164
B        13.86510944     10.03022957      4.87616301
H        13.97765446     11.76847172      6.82848549
B        14.84847069      9.39856434      6.27353811
H        14.22188187      7.40158892      4.66870356
B        16.32296562     10.44992542      6.20620728
H        16.47063255     13.00398159      5.61356497
B        14.64619064     11.16605568      6.03859711
B        14.63185692      8.50894547      4.83979988
H        17.10073090      8.18771935      5.17742157
H        15.27234077      9.40164661      2.55217791
B        16.03479195     11.90809631      5.40582657
H        14.50946808     12.11876965      3.42564440
B        16.22547913      9.01947498      5.12511158
H        17.59637642     10.75892448      3.75904846
B        15.24518394      9.65531158     13.59797955
H        12.67461109     10.13539886     14.58494663
B        14.92282772     11.34707928     14.11701107
H        14.57025909      8.94478607     17.22118378
B        16.59917450     10.63431263     14.28792095
H        17.10596466     10.41695786     16.99375153
B        13.86510944     10.03022957     14.74616241
H        13.97765446     11.76847172     16.69848442
B        14.84847069      9.39856434     16.14353943
H        14.22188187      7.40158892     14.53870296
B        16.32296562     10.44992542     16.07620811
H        16.47063255     13.00398159     15.48356438
B        14.64619064     11.16605568     15.90859604
B        14.63185692      8.50894547     14.70979881
H        17.10073090      8.18771935     15.04742050
H        15.27234077      9.40164661     12.42217731
B        16.03479195     11.90809631     15.27582645
H        14.50946808     12.11876965     13.29564476
B        16.22547913      9.01947498     14.99511051
H        17.59637642     10.75892448     13.62904835
B        15.24518394     19.52531052      3.72797918
H        12.67461109     20.00539780      4.71494579
B        14.92282772     21.21707916      4.24701166
H        14.57025909     18.81478691      7.35118484
B        16.59917450     20.50431252      4.41792154
H        17.10596466     20.28695869      7.12375164
B        13.86510944     19.90022850      4.87616301
H        13.97765446     21.63847160      6.82848549
B        14.84847069     19.26856232      6.27353811
H        14.22188187     17.27158928      4.66870356
B        16.32296562     20.31992531      6.20620728
H        16.47063255     22.87397957      5.61356497
B        14.64619064     21.03605652      6.03859711
B        14.63185692     18.37894249      4.83979988
H        17.10073090     18.05772018      5.17742157
H        15.27234077     19.27164459      2.55217791
B        16.03479195     21.77809715      5.40582657
H        14.50946808     21.98876953      3.42564440
B        16.22547913     18.88947487      5.12511158
H        17.59637642     20.62892342      3.75904846
B        15.24518394     19.52531052     13.59797955
H        12.67461109     20.00539780     14.58494663
B        14.92282772     21.21707916     14.11701107
H        14.57025909     18.81478691     17.22118378
B        16.59917450     20.50431252     14.28792095
H        17.10596466     20.28695869     16.99375153
B        13.86510944     19.90022850     14.74616241
H        13.97765446     21.63847160     16.69848442
B        14.84847069     19.26856232     16.14353943
H        14.22188187     17.27158928     14.53870296
B        16.32296562     20.31992531     16.07620811
H        16.47063255     22.87397957     15.48356438
B        14.64619064     21.03605652     15.90859604
H        17.10073090     18.05772018     15.04742050
B        14.63185692     18.37894249     14.70979881
H        15.27234077     19.27164459     12.42217731
B        16.03479195     21.77809715     15.27582645
H        14.50946808     21.98876953     13.29564476
B        16.22547913     18.88947487     14.99511051
H        17.59637642     20.62892342     13.62904835
B        25.11518288      9.65531158      3.72797918
H        22.54461098     10.13539886      4.71494579
B        24.79282570     11.34707928      4.24701166
H        24.44025803      8.94478607      7.35118484
B        26.46917343     10.63431263      4.41792154
H        26.97596359     10.41695786      7.12375164
B        23.73510933     10.03022957      4.87616301
H        23.84765625     11.76847172      6.82848549
B        24.71846962      9.39856434      6.27353811
H        24.09188271      7.40158892      4.66870356
B        26.19296455     10.44992542      6.20620728
H        26.34063339     13.00398159      5.61356497
B        24.51618958     11.16605568      6.03859711
B        24.50185585      8.50894547      4.83979988
H        26.97073364      8.18771935      5.17742157
H        25.14233971      9.40164661      2.55217791
B        25.90478897     11.90809631      5.40582657
H        24.37946701     12.11876965      3.42564440
B        26.09547806      9.01947498      5.12511158
H        27.46637726     10.75892448      3.75904846
B        25.11518288      9.65531158     13.59797955
H        22.54461098     10.13539886     14.58494663
B        24.79282570     11.34707928     14.11701107
H        24.44025803      8.94478607     17.22118378
B        26.46917343     10.63431263     14.28792095
H        26.97596359     10.41695786     16.99375153
B        23.73510933     10.03022957     14.74616241
H        23.84765625     11.76847172     16.69848442
B        24.71846962      9.39856434     16.14353943
H        24.09188271      7.40158892     14.53870296
B        26.19296455     10.44992542     16.07620811
H        26.34063339     13.00398159     15.48356438
B        24.51618958     11.16605568     15.90859604
B        24.50185585      8.50894547     14.70979881
H        26.97073364      8.18771935     15.04742050
H        25.14233971      9.40164661     12.42217731
B        25.90478897     11.90809631     15.27582645
H        24.37946701     12.11876965     13.29564476
B        26.09547806      9.01947498     14.99511051
H        27.46637726     10.75892448     13.62904835
B        25.11518288     19.52531052      3.72797918
H        22.54461098     20.00539780      4.71494579
B        24.79282570     21.21707916      4.24701166
H        24.44025803     18.81478691      7.35118484
B        26.46917343     20.50431252      4.41792154
H        26.97596359     20.28695869      7.12375164
B        23.73510933     19.90022850      4.87616301
H        23.84765625     21.63847160      6.82848549
B        24.71846962     19.26856232      6.27353811
H        24.09188271     17.27158928      4.66870356
B        26.19296455     20.31992531      6.20620728
H        26.34063339     22.87397957      5.61356497
B        24.51618958     21.03605652      6.03859711
B        24.50185585     18.37894249      4.83979988
H        26.97073364     18.05772018      5.17742157
H        25.14233971     19.27164459      2.55217791
B        25.90478897     21.77809715      5.40582657
H        24.37946701     21.98876953      3.42564440
B        26.09547806     18.88947487      5.12511158
H        27.46637726     20.62892342      3.75904846
B        25.11518288     19.52531052     13.59797955
H        22.54461098     20.00539780     14.58494663
B        24.79282570     21.21707916     14.11701107
H        24.44025803     18.81478691     17.22118378
B        26.46917343     20.50431252     14.28792095
H        26.97596359     20.28695869     16.99375153
B        23.73510933     19.90022850     14.74616241
H        23.84765625     21.63847160     16.69848442
B        24.71846962     19.26856232     16.14353943
H        24.09188271     17.27158928     14.53870296
B        26.19296455     20.31992531     16.07620811
H        26.34063339     22.87397957     15.48356438
B        24.51618958     21.03605652     15.90859604
B        24.50185585     18.37894249     14.70979881
H        26.97073364     18.05772018     15.04742050
H        25.14233971     19.27164459     12.42217731
B        25.90478897     21.77809715     15.27582645
H        24.37946701     21.98876953     13.29564476
B        26.09547806     18.88947487     14.99511051
H        27.46637726     20.62892342     13.62904835
B         5.08836126      6.15368509      9.01877689
H         4.51171112      4.39896822     12.50142956
B         6.74172401      5.48305035      9.42035389
H         7.07607079      5.75890636     12.16843128
B         3.96896148      4.98967028      9.83041286
H         3.99750638      7.08199167     11.39049053
B         4.86660385      4.63416004     11.37674522
H         4.29289627      2.36516094     10.13858223
B         6.36359501      5.65196562     11.19682217
H         6.55556774      8.05119038     10.09923935
B         4.70863581      6.32501507     10.79452896
B         4.71214962      3.48372746     10.13062191
H         7.16395569      3.23107624     10.66257954
H         5.47664595      3.93730593      7.75416756
B         6.14079666      6.92828655     10.10235405
H         4.73876810      6.73228312      8.02429390
B         6.29951668      4.03831720     10.40934753
H         7.77640295      5.47106314      8.80798054
B         5.39784384      4.39918995      8.86198044
H         2.79180098      5.05870390      9.58562756
B         5.08836126      6.15368509     18.88877487
H         4.51171112      4.39896822     22.37142944
B         6.74172401      5.48305035     19.29035378
H         7.07607079      5.75890636     22.03842926
B         3.96896148      4.98967028     19.70041275
H         3.99750638      7.08199167     21.26048851
B         4.86660385      4.63416004     21.24674606
H         4.29289627      2.36516094     20.00858116
B         6.36359501      5.65196562     21.06682205
H         6.55556774      8.05119038     19.96923828
B         4.70863581      6.32501507     20.66452789
B         4.71214962      3.48372746     20.00062180
H         7.16395569      3.23107624     20.53257942
H         5.47664595      3.93730593     17.62416840
B         6.14079666      6.92828655     19.97235489
H         4.73876810      6.73228312     17.89429283
B         6.29951668      4.03831720     20.27934837
H         7.77640295      5.47106314     18.67798233
B         5.39784384      4.39918995     18.73198128
H         2.79180098      5.05870390     19.45562935
B         5.08836126     16.02368355      9.01877689
H         4.51171112     14.26896763     12.50142956
B         6.74172401     15.35304928      9.42035389
H         7.07607079     15.62890530     12.16843128
B         3.96896148     14.85967064      9.83041286
H         3.99750638     16.95199203     11.39049053
B         4.86660385     14.50415897     11.37674522
H         4.29289627     12.23516083     10.13858223
B         6.36359501     15.52196503     11.19682217
H         6.55556774     17.92119026     10.09923935
B         4.70863581     16.19501495     10.79452896
B         4.71214962     13.35372639     10.13062191
H         7.16395569     13.10107613     10.66257954
H         5.47664595     13.80730629      7.75416756
B         6.14079666     16.79828453     10.10235405
H         4.73876810     16.60228157      8.02429390
B         6.29951668     13.90831757     10.40934753
H         7.77640295     15.34106255      8.80798054
B         5.39784384     14.26918983      8.86198044
H         2.79180098     14.92870331      9.58562756
B         5.08836126     16.02368355     18.88877487
H         4.51171112     14.26896763     22.37142944
B         6.74172401     15.35304928     19.29035378
H         7.07607079     15.62890530     22.03842926
B         3.96896148     14.85967064     19.70041275
H         3.99750638     16.95199203     21.26048851
B         4.86660385     14.50415897     21.24674606
H         4.29289627     12.23516083     20.00858116
B         6.36359501     15.52196503     21.06682205
H         6.55556774     17.92119026     19.96923828
B         4.70863581     16.19501495     20.66452789
B         4.71214962     13.35372639     20.00062180
H         7.16395569     13.10107613     20.53257942
B         6.14079666     16.79828453     19.97235489
H         5.47664595     13.80730629     17.62416840
H         4.73876810     16.60228157     17.89429283
B         6.29951668     13.90831757     20.27934837
H         7.77640295     15.34106255     18.67798233
B         5.39784384     14.26918983     18.73198128
H         2.79180098     14.92870331     19.45562935
B        14.95836163      6.15368509      9.01877689
H        14.38171196      4.39896822     12.50142956
B        16.61172485      5.48305035      9.42035389
H        16.94606972      5.75890636     12.16843128
B        13.83896160      4.98967028      9.83041286
H        13.86750507      7.08199167     11.39049053
B        14.73660374      4.63416004     11.37674522
H        14.16289520      2.36516094     10.13858223
B        16.23359489      5.65196562     11.19682217
H        16.42556763      8.05119038     10.09923935
B        14.57863522      6.32501507     10.79452896
B        14.58214855      3.48372746     10.13062191
H        17.03395653      3.23107624     10.66257954
B        16.01079750      6.92828655     10.10235405
H        15.34664536      3.93730593      7.75416756
H        14.60876751      6.73228312      8.02429390
B        16.16951752      4.03831720     10.40934753
H        17.64640045      5.47106314      8.80798054
B        15.26784325      4.39918995      8.86198044
H        12.66180038      5.05870390      9.58562756
B        14.95836163      6.15368509     18.88877487
H        14.38171196      4.39896822     22.37142944
B        16.61172485      5.48305035     19.29035378
H        16.94606972      5.75890636     22.03842926
B        13.83896160      4.98967028     19.70041275
H        13.86750507      7.08199167     21.26048851
B        14.73660374      4.63416004     21.24674606
H        14.16289520      2.36516094     20.00858116
B        16.23359489      5.65196562     21.06682205
H        16.42556763      8.05119038     19.96923828
B        14.57863522      6.32501507     20.66452789
B        14.58214855      3.48372746     20.00062180
H        17.03395653      3.23107624     20.53257942
B        16.01079750      6.92828655     19.97235489
H        15.34664536      3.93730593     17.62416840
H        14.60876751      6.73228312     17.89429283
B        16.16951752      4.03831720     20.27934837
H        17.64640045      5.47106314     18.67798233
B        15.26784325      4.39918995     18.73198128
H        12.66180038      5.05870390     19.45562935
B        14.95836163     16.02368355      9.01877689
H        14.38171196     14.26896763     12.50142956
B        16.61172485     15.35304928      9.42035389
H        16.94606972     15.62890530     12.16843128
B        13.83896160     14.85967064      9.83041286
H        13.86750507     16.95199203     11.39049053
B        14.73660374     14.50415897     11.37674522
H        14.16289520     12.23516083     10.13858223
B        16.23359489     15.52196503     11.19682217
H        16.42556763     17.92119026     10.09923935
B        14.57863522     16.19501495     10.79452896
B        14.58214855     13.35372639     10.13062191
H        17.03395653     13.10107613     10.66257954
B        16.01079750     16.79828453     10.10235405
H        15.34664536     13.80730629      7.75416756
H        14.60876751     16.60228157      8.02429390
B        16.16951752     13.90831757     10.40934753
H        17.64640045     15.34106255      8.80798054
B        15.26784325     14.26918983      8.86198044
H        12.66180038     14.92870331      9.58562756
B        14.95836163     16.02368355     18.88877487
H        14.38171196     14.26896763     22.37142944
B        16.61172485     15.35304928     19.29035378
H        16.94606972     15.62890530     22.03842926
B        13.83896160     14.85967064     19.70041275
H        13.86750507     16.95199203     21.26048851
B        14.73660374     14.50415897     21.24674606
H        14.16289520     12.23516083     20.00858116
B        16.23359489     15.52196503     21.06682205
H        16.42556763     17.92119026     19.96923828
B        14.57863522     16.19501495     20.66452789
B        14.58214855     13.35372639     20.00062180
H        17.03395653     13.10107613     20.53257942
H        15.34664536     13.80730629     17.62416840
B        16.01079750     16.79828453     19.97235489
H        14.60876751     16.60228157     17.89429283
B        16.16951752     13.90831757     20.27934837
H        17.64640045     15.34106255     18.67798233
B        15.26784325     14.26918983     18.73198128
H        12.66180038     14.92870331     19.45562935
H        22.53180122      5.05870390      9.58562756
B        24.82836151      6.15368509      9.01877689
H        24.25170898      4.39896822     12.50142956
B        26.48172188      5.48305035      9.42035389
H        26.81607056      5.75890636     12.16843128
B        23.70895958      4.98967028      9.83041286
H        23.73750687      7.08199167     11.39049053
B        24.60660362      4.63416004     11.37674522
H        24.03289604      2.36516094     10.13858223
B        26.10359573      5.65196562     11.19682217
H        26.29556656      8.05119038     10.09923935
B        24.44863510      6.32501507     10.79452896
B        24.45214844      3.48372746     10.13062191
H        26.90395355      3.23107624     10.66257954
H        25.21664429      3.93730593      7.75416756
B        25.88079453      6.92828655     10.10235405
H        24.47876740      6.73228312      8.02429390
B        26.03951454      4.03831720     10.40934753
H        27.51640320      5.47106314      8.80798054
B        25.13784218      4.39918995      8.86198044
H        22.53180122      5.05870390     19.45562935
B        24.82836151      6.15368509     18.88877487
H        24.25170898      4.39896822     22.37142944
B        26.48172188      5.48305035     19.29035378
H        26.81607056      5.75890636     22.03842926
B        23.70895958      4.98967028     19.70041275
H        23.73750687      7.08199167     21.26048851
B        24.60660362      4.63416004     21.24674606
H        24.03289604      2.36516094     20.00858116
B        26.10359573      5.65196562     21.06682205
H        26.29556656      8.05119038     19.96923828
B        24.44863510      6.32501507     20.66452789
B        24.45214844      3.48372746     20.00062180
H        26.90395355      3.23107624     20.53257942
B        25.88079453      6.92828655     19.97235489
H        25.21664429      3.93730593     17.62416840
H        24.47876740      6.73228312     17.89429283
B        26.03951454      4.03831720     20.27934837
H        27.51640320      5.47106314     18.67798233
B        25.13784218      4.39918995     18.73198128
H        22.53180122     14.92870331      9.58562756
B        24.82836151     16.02368355      9.01877689
H        24.25170898     14.26896763     12.50142956
B        26.48172188     15.35304928      9.42035389
H        26.81607056     15.62890530     12.16843128
B        23.70895958     14.85967064      9.83041286
H        23.73750687     16.95199203     11.39049053
B        24.60660362     14.50415897     11.37674522
H        24.03289604     12.23516083     10.13858223
B        26.10359573     15.52196503     11.19682217
H        26.29556656     17.92119026     10.09923935
B        24.44863510     16.19501495     10.79452896
B        24.45214844     13.35372639     10.13062191
H        26.90395355     13.10107613     10.66257954
B        25.88079453     16.79828453     10.10235405
H        25.21664429     13.80730629      7.75416756
H        24.47876740     16.60228157      8.02429390
B        26.03951454     13.90831757     10.40934753
H        27.51640320     15.34106255      8.80798054
B        25.13784218     14.26918983      8.86198044
H        22.53180122     14.92870331     19.45562935
B        24.82836151     16.02368355     18.88877487
H        24.25170898     14.26896763     22.37142944
B        26.48172188     15.35304928     19.29035378
H        26.81607056     15.62890530     22.03842926
B        23.70895958     14.85967064     19.70041275
H        23.73750687     16.95199203     21.26048851
B        24.60660362     14.50415897     21.24674606
H        24.03289604     12.23516083     20.00858116
B        26.10359573     15.52196503     21.06682205
H        26.29556656     17.92119026     19.96923828
B        24.44863510     16.19501495     20.66452789
B        24.45214844     13.35372639     20.00062180
H        26.90395355     13.10107613     20.53257942
B        25.88079453     16.79828453     19.97235489
H        25.21664429     13.80730629     17.62416840
H        24.47876740     16.60228157     17.89429283
B        26.03951454     13.90831757     20.27934837
H        27.51640320     15.34106255     18.67798233
B        25.13784218     14.26918983     18.73198128
