1056

Na        2.07699633      2.58451629      3.02960038
Na        2.63543367      2.95017409     12.37754917
Na      -12.36581707      3.56215668     13.25891495
Na       -6.79074669     12.39110565     17.74842834
Na       12.10264301      3.50221944      2.26978731
Na       12.93919373      3.11930537     12.54084015
Na       12.20518589      8.45755768      3.40450788
Na       12.66312790     13.17838955     12.42587948
Na       27.16471291      3.38275313      3.39474010
Na       16.57493782     11.57781887      8.42564201
Na       27.10527229     13.05282974     13.10068798
Na       26.73955345     18.26292992      7.84595871
Na       12.07696247      3.53765464      8.05510235
Na        7.67482424      3.25023079     17.91665649
Na        2.10679197     17.08349609      8.28574276
Na        2.37659383     28.05786324     22.72389984
Na       12.14555359     18.25908089      7.79494238
Na       12.53952408      8.11862946     17.02540016
Na       12.89831161     13.36435318      7.74706078
Na       12.50148582     12.72120953     17.69500160
Na       26.93460655     18.05772781     12.24448872
Na       27.72204399      7.66856813     12.70717144
Na       22.67172241     12.95031834      3.10593867
Na       22.75417328     17.16992760     17.06523705
Na        2.53417659      3.09890699      8.30783653
Na       -2.24278665      3.34164691     17.74358368
Na        6.83981085     12.40338230      8.21610737
Na       12.47138214     17.42943764     17.93313408
Na       17.90415001      8.01860332     -1.34459651
Na       16.94191170      2.92141342     22.90203476
Na       17.47685623      8.02533340      2.51889086
Na       21.85855675     12.67177010     12.65524960
Na       26.76095772      2.75241089      8.04115868
Na       27.81084251     -7.43577719     18.28890800
Na       22.04044914     12.38784790      8.26187611
Na       17.45516205     12.79711246     17.49974632
Na        7.47443199      8.22186947      2.78316283
Na        7.64113331      7.58699942     12.72763634
Na        7.37160110     18.02347183      2.40369678
Na        7.67305088     12.84597683     13.01575851
Na        7.49172831     -1.86185312      8.44795799
Na       22.32383728      8.10085297      7.63829088
Na       17.77939987     16.94170570      3.00973916
Na       17.41347504     17.79407120     12.32361794
Na       27.47240829      7.52529907      2.99370933
Na       27.22570038      3.35740829     13.00833797
Na       26.77331352      7.80860281     -2.06272888
Na       32.02291489     12.50991058     12.92964649
Na        6.48102093      7.84264183      7.93540382
Na        7.72936153    -11.85755634     17.94058990
Na       11.60171890      7.84339476      7.97939253
Na        2.95460892     12.66500473     18.09690094
Na       17.08346367     13.56774235     12.88063049
Na       11.87894726      2.62608552     17.39036560
Na        2.79835606      7.84421444     13.18314075
Na        2.51581311      2.84597063     18.01773262
Na       16.07158279      6.47701406      6.57098961
Na       17.34677315     -1.95223498     17.98139381
Na       26.95631027     17.81591415      2.92154241
Na       22.65495491     27.57926750     17.90517807
Na        2.18796206     12.63458061      2.66334772
Na        2.38841152     12.61448383      7.95011282
Na        2.32080770     18.13940430      3.39913964
Na        2.75333309     17.96138954     13.05736828
Na       22.93461609     17.67820930    -11.75102234
Na       12.33500481      8.20750427     12.47084808
Na       12.97195911     18.41226578      2.79025578
Na       12.10448933     17.69983673     13.11122417
Na       22.62640190      7.79537916      3.44224906
Na       17.59508705      2.68313670     18.05958557
Na       22.14733887     17.35539627      2.82856464
Na       22.26810455     17.94705200     13.12656975
Na        6.97145271      3.29408121      3.21709299
Na        7.68838644      3.56359744     13.00382805
Na        6.81395054     13.42623806      3.46791816
Na        7.81206036     18.05232239     12.51738834
Na       22.05796814      2.52733779     -1.47948492
Na       18.10179329      2.87842011      7.66200542
Na       12.28827858     13.00859547      2.73962903
Na       22.53600502      3.39850855      8.23080254
Na       22.07732201      2.42607594      2.94357753
Na       27.16995049     -7.36899519      8.14878368
Na       26.96852493     13.16370010      3.71601892
Na       27.09961319     17.87311363     17.39728928
Na        1.68221748      7.28397226      8.03159237
Na        7.46234035     12.57002544     18.07674980
Na        7.30935049     22.55800056      8.01418400
Na        7.30483866     18.02771950     18.14880371
Na       17.25531960      8.19914722     12.23859310
Na       17.17496300     12.55609322     22.40254211
Na       18.02697754     17.30886078      8.22000122
Na       22.05855751     22.72210503     12.19788742
Na       21.77736282      7.59425163     13.06422710
Na       32.24733353     17.31958961     17.90920448
Na       27.52788162     27.48955536      7.93571043
Na       32.44478989     27.58719635     16.95970917
B         1.29425895     18.50550461      0.48860240
H         2.56959271     19.81137848     -1.33841312
B         0.18851966     19.06371117     -1.11774182
H        -2.30114484     19.83427620     -0.36962384
B         0.04366298     20.84828377     -0.74392754
H        -0.34458050     18.75000000      2.61452174
B         1.68935835     20.04527283     -0.59681571
H         2.55071306     20.10910225      2.05179906
B        -1.13208199     19.59671402      0.01425737
H        -0.56259030     21.72742844      1.80220199
B        -0.02898302     19.22140884      1.53794432
H        -0.79308003     16.94421768      0.41884884
B         1.55200768     20.05471802      1.34356058
H         1.82470357     22.50292015      0.22957702
B        -0.05293257     21.02700233      1.05999041
B        -0.39581141     18.05619049      0.16306756
H         2.24076939     17.84531975      0.53898090
H         0.42716238     18.68530846     -2.28596592
B         1.33722281     21.39638519      0.31242970
H        -0.49871063     21.55585098     -1.47943163
B         1.19548321     18.79656792     10.58019924
H         2.83953714     20.25508308      9.03626537
B         0.23677765     19.29047775      9.14518166
H        -2.15487623     20.15981865     10.30372906
B         0.01672576     21.16462326      9.47554207
H        -0.41010112     18.93535233     12.67804527
B         1.77129066     20.28560829      9.63800335
H         2.23450708     20.29834557     12.51271629
B        -0.99284631     19.89116859     10.28583241
H        -0.74414229     21.88507843     11.86586094
B         0.09577802     19.43137360     11.75130272
H        -0.69375873     17.14641380     10.63723564
B         1.44160724     20.26208878     11.56502533
H         1.62520707     22.82645798     10.40819645
B        -0.15783091     21.17905426     11.22140408
B        -0.40948156     18.31888390     10.50969982
H         1.93600070     17.87431145     10.52665138
H        -0.00086564     18.73255730      8.04676533
B         1.32336378     21.57535362     10.49504757
H        -0.08539749     21.83332825      8.40770721
B         1.25202048      8.57497311      0.19602624
H         2.85532451     10.07877254     -1.25152564
B         0.15641938      9.12023354     -1.04349577
H        -2.19882584     10.21491337     -0.36885038
B         0.19139959     10.94163704     -0.85733128
H        -0.02495455      8.91715813      2.61930990
B         1.72052085      9.99518204     -0.50875688
H         2.25002837     10.12905884      2.09571409
B        -1.12434161      9.76568890      0.05359314
H        -0.92958134     11.52108383      1.60211051
B         0.02290157      9.18107986      1.44400680
H        -0.93841070      7.12472630      0.27177551
B         1.46300578     10.17778397      1.24983644
H         1.83580279     12.62156677      0.34791243
B        -0.13050914     11.01952076      0.94396925
B        -0.35727832      8.13946819      0.21476938
H         2.17204142      7.82624578      0.06180678
H        -0.10375258      8.74009895     -2.14521503
B         1.24137342     11.62960625      0.19900645
H        -0.16393490     11.53111267     -1.90121245
B         1.31466937      8.78550243     10.40126133
H         2.59886456     10.14735126      8.76958561
B         0.15136358      9.35083294      8.96138573
H        -2.12088418     10.15745544      9.92331982
B         0.19993350     11.14569569      9.28367138
H        -0.29566008      9.52219009     12.91471195
B         1.61098289     10.28692341      9.52225113
H         2.38015676     10.54391956     12.24533653
B        -0.97792500     10.04915333     10.24301052
H        -1.01647437     11.91600132     11.77939987
B        -0.08200299      9.50668240     11.67097855
H        -0.96858221      7.37262344     10.34245110
B         1.48960102     10.40138721     11.40793991
H         1.54454553     12.98721409     10.29354572
B        -0.17019789     11.24884701     11.14853191
B        -0.33664510      8.48569012     10.31809330
H         1.95557058      7.82769823     10.51406670
H         0.15725179      9.07365799      7.66057205
B         1.22764659     11.81031799     10.43993568
H        -0.26785418     11.76343441      8.50742722
B        11.12760735     18.85149002      0.42638993
H        12.65396023     20.28952026     -1.00270474
B         9.95761204     19.32045555     -1.15939152
H         7.46706295     20.29077530      0.01348185
B         9.90066338     21.04662132     -0.79669142
H         9.27474594     19.18072701      2.55731940
B        11.54355431     20.23435211     -0.60943693
H        12.11297321     20.62758255      2.11100483
B         8.69699669     19.92270660     -0.03588661
H         9.37481880     21.86368752      1.85592961
B         9.87681675     19.40504837      1.55084574
H         8.98321724     17.29536057      0.46539149
B        11.28175354     20.26720238      1.38394618
H        11.74645805     22.72309494      0.21715489
B         9.79361439     21.18730354      1.11060965
B         9.48946762     18.40875626      0.21567695
H        11.97829723     17.95002556      0.62499493
H         9.88535213     18.80864143     -2.27176285
B        11.04624844     21.67710686      0.27445552
H         9.57519627     21.88680077     -1.57069421
B        11.40885925     19.07118034     10.27369881
H        12.86497021     20.36745644      8.89163685
B        10.27868176     19.46757126      8.79337025
H         7.89187479     20.43155861      9.81198978
B        10.26755238     21.31773376      9.23956490
H         9.82669163     19.12545776     12.53105927
B        11.75222492     20.41724205      9.34984016
H        12.52619839     20.59662056     12.16319752
B         9.08869076     20.08616829     10.04872036
H         9.23832703     21.96356392     11.57113552
B         9.94465446     19.70284843     11.51310921
H         9.42909622     17.34000778     10.52376461
B        11.62616539     20.46750259     11.23305416
H        11.96789837     23.02581215     10.20430088
B         9.99481201     21.34360504     10.99419212
B         9.84157276     18.51419640     10.22086334
H        12.23633289     18.09608269     10.58220577
H         9.98978233     18.87191582      7.77474451
B        11.50914097     21.90185738     10.32748699
H         9.72325706     21.91084671      8.23745060
B        11.14642239      8.87954617      0.53424627
H        12.62515450     10.27161407     -1.00811374
B        10.12295437      9.30462551     -0.87728167
H         7.72194672     10.36889362      0.35798869
B         9.99342632     11.08200645     -0.55172652
H         9.60552025      9.07102394      2.88656259
B        11.70428467     10.27222919     -0.35181820
H        12.28051281     10.37541294      2.28888893
B         8.92627621     10.02586555      0.25231010
H         9.00093651     11.95481873      1.82711029
B         9.84650421      9.41988087      1.65381610
H         8.97408581      7.40971041      0.19348975
B        11.48867512     10.51285648      1.34286082
H        11.62611961     12.76129723      0.57037216
B         9.75207710     11.20115280      1.29579771
B         9.46883678      8.41233921      0.33305058
H        12.08288479      8.12471199      0.68345135
H        10.26796913      8.96868515     -2.02049327
B        11.19712543     11.69137001      0.38327512
H         9.61717701     11.70514202     -1.55503452
B        10.91855526      9.12758827     10.16636753
H        12.30530071     10.49781990      8.34299469
B         9.96045113      9.62590313      8.61985302
H         7.35423708     10.24106121      9.60741806
B         9.76696014     11.42716217      8.89151478
H         9.56976795      9.43932915     12.48019218
B        11.31535625     10.69986916      9.08740425
H        12.07310295     10.81317997     11.81949139
B         8.56273842     10.25879669      9.71477222
H         9.22643185     12.48014832     11.30114365
B         9.60425472      9.73781872     11.21535397
H         8.67813396      7.65683508      9.65163708
B        11.26489162     10.65193748     10.92300892
H        11.33712101     13.19852829      9.93849277
B         9.56234550     11.47671223     10.68057442
B         9.29650974      8.75580978      9.84462261
H        11.71505260      8.20334530     10.08951759
H         9.95617771      9.25928593      7.42348576
B        11.07682037     12.07743645      9.94841480
H         9.19492054     12.10550976      8.23992634
H        19.27518272      1.53279459     18.45030785
B        20.97864342     -1.45634675     20.39020538
H        22.40913391      0.08898052     18.81262779
B        19.93793106     -0.96692526     19.06812668
H        17.59305382     -0.26525787     19.63829041
B        19.81688881      0.85735917     19.34616470
H        19.38044167     -0.98948795     22.79527473
B        21.44720078      0.02699769     19.46129227
H        21.88278389      0.14968893     22.23287392
B        18.67546463     -0.37458345     20.09559441
H        18.88607788      1.51962292     21.95067215
B        19.68080521     -0.81965113     21.55768013
H        18.58012390     -2.89599800     20.40458870
B        21.23134995      0.05317641     21.21333122
H        21.34243393      2.52998233     20.58019829
B        19.51477623      0.90500879     21.03916550
B        19.17736816     -1.85674357     20.27560234
H        21.79924583     -2.36933827     20.31136894
H        19.88893318     -1.40987003     18.01697350
B        20.97054863      1.41989970     20.29458427
H        19.86585808      1.87132907      7.91963530
B        21.05866623     -1.10587347     10.05635929
H        22.62439537      0.41460860      8.36680222
B        20.07436562     -0.57818526      8.66107082
H        17.56788826     -0.26908717      9.61291695
B        19.88469696      1.31337667      8.93626881
H        19.46862221     -0.89656192     12.41425133
B        21.57819557      0.40767327      9.12871552
H        22.09361839      0.57008344     11.87332916
B        18.77939606     -0.03447974      9.79891682
H        19.50033760      2.35964274     11.40092182
B        19.83054161     -0.46738419     11.36507225
H        19.03222847     -2.59908271      9.69865131
B        21.30095863      0.46086070     10.93663788
H        21.93916702      2.73168850     10.00934982
B        19.65709114      1.30239820     10.73662472
B        19.46080971     -1.53618479      9.81289196
H        21.73533821     -2.02622676     10.19217110
H        20.10032272     -1.00852180      7.56129789
B        21.22141457      1.82468832      9.87648487
H        19.73274422     11.75966072     18.27547455
B        21.38951111      8.63502312     20.22014999
H        22.69800758     10.01528645     18.68087959
B        20.27448082      9.21543121     18.88800430
H        17.78290558     10.06161308     19.71613312
B        20.19515228     11.05811405     19.09732437
H        19.82553101      9.14718246     22.57016945
B        21.71525383     10.15042686     19.34901047
H        22.21807098     10.14860249     22.17458534
B        18.99094582      9.72975826     19.99147224
H        19.58999634     11.88884544     21.84863853
B        19.96044540      9.33131599     21.45514870
H        19.15170288      7.14334249     20.37232018
B        21.54872513     10.27434826     21.27519989
H        21.92986870     12.47612572     20.29060555
B        19.87245178     10.98509693     20.99866867
B        19.69824600      8.18632317     20.31242752
H        22.07556343      7.70276499     20.33318329
H        20.00436401      8.72239494     17.74711800
B        21.37066078     11.45098495     20.28691673
H        19.11783218     11.82874680      8.58734608
B        20.78125000      8.92519760     10.64665794
H        22.13065338     10.09581375      8.91855717
B        19.79667282      9.38838673      9.18377209
H        17.16132355     10.47043610     10.46170235
B        19.59041595     11.08270073      9.45467949
H        19.29814339      9.20102215     12.76986122
B        21.24279976     10.31482887      9.64290905
H        21.74755478     10.44861794     12.51170444
B        18.43741035     10.01762390     10.30365849
H        18.88706779     11.99182224     12.01230145
B        19.53077888      9.50035667     11.70689297
H        18.68291855      7.39835691     10.12345600
B        21.01902580     10.39866352     11.51117516
B        20.88550949     11.78932190     10.43936062
H        21.48341751     12.94873810     10.64619255
B        19.46871376     11.27686310     11.24646282
B        19.24658966      8.45226765     10.33852100
H        21.64670372      8.12684441     10.69979858
H        19.73369408      8.96589756      7.98477650
B         9.86450481      4.85103273      3.47720361
H         7.32700729      5.19903946      4.59071589
B         9.64920807      6.43758726      4.04333973
H         9.27419949      4.01686716      7.23218822
B        11.32057762      5.75987434      4.26908779
H        11.67815590      5.51031780      6.95114803
B         8.51143074      5.11372519      4.79220819
H         8.72538853      6.81450510      6.56689787
B         9.43889427      4.47752905      6.05470419
H         8.89413166      2.42455530      4.70470715
B        10.99391747      5.49758530      5.99567890
H        11.41895199      7.87652397      5.54081535
B         9.44237518      6.20676947      5.90253687
H        11.84746838      3.34476686      5.40345573
B         9.30222511      3.60310984      4.64080954
H         9.79721928      4.45216513      2.31137085
B        10.75184822      7.02330780      5.16143751
H         9.30187988      7.08498096      3.14694762
B        10.95529270      4.08553171      5.09268856
H        12.32134438      5.91766071      3.69443583
B        10.29411411      4.57214451     13.71180916
H         7.70558453      4.95720482     14.81527424
B        10.15225601      6.17757034     14.15341759
H         9.79139900      3.81102610     17.48822403
B        11.74091530      5.54676008     14.38545609
H        12.36684608      5.31147194     17.01002121
B         9.06461239      4.94295120     14.78073025
H         9.07718563      6.62686014     16.90989685
B         9.97609615      4.27535963     16.27107048
H         9.46939373      2.30857086     14.35769939
B        11.48944092      5.21032143     16.18655205
H        11.86045742      7.74614096     15.24921894
B         9.69694519      6.16163731     16.08302879
B         9.78164673      3.46655679     14.80466843
H        12.32190895      2.96437120     14.99022675
H        10.31860924      4.23988819     12.50668240
B        11.12291622      6.87058353     15.37827969
H         9.67883778      6.84662485     13.16207886
B        11.36921406      3.77227449     15.11187935
H        12.80352974      5.37679148     13.73818016
B        10.14840412     14.92815590      3.73498917
H         7.65567350     15.55663204      4.72405863
B         9.91770840     16.61092186      4.26421976
H         9.49677086     14.30673313      7.54471064
B        11.57299900     15.91671753      4.46136093
H        11.83085537     15.88385010      7.21467543
B         8.80794048     15.34050941      4.90453863
H         8.93511963     17.08206367      6.67736864
B         9.79388523     14.63742733      6.34041691
H         9.28989983     12.58131123      4.83083963
B        11.25827694     15.80687332      6.30335617
H        11.52047062     18.36326218      5.54936743
B         9.69232464     16.43790627      6.08192778
B         9.53245258     13.76398373      4.75924969
H        11.98313236     13.22989559      5.16072702
H        10.05059052     14.81640530      2.51758504
B        11.01205826     17.27242851      5.40538120
H         9.45644951     17.24500847      3.38070655
B        11.14102077     14.20202351      5.11606789
H        12.58870411     16.01923370      3.75888777
B        10.34614849     14.19997787     13.75239849
H         7.82089901     14.65699959     14.43644047
B        10.05347061     15.91761303     14.19638252
H         9.53989887     13.67895126     17.13408661
B        11.73762703     15.18343258     14.35218048
H        12.29411793     14.91404057     17.08898735
B         9.00025368     14.59215832     14.72585011
H         9.22401333     16.52531242     16.61814117
B         9.94722843     14.02700710     16.13335419
H         9.39108181     11.98197556     14.74032116
B        11.49940777     15.05708218     16.18366814
H        11.61131382     17.56651306     15.56209373
B         9.85084152     15.66933155     16.04718018
B         9.77998734     13.03448200     14.92720127
H        12.41720009     12.78331280     14.85393906
H        10.46709442     14.10816383     12.57257080
B        11.25506020     16.41943359     15.39990711
H         9.77847290     16.87585258     13.46715736
B        11.35535145     13.54035187     15.01834011
H        12.82276821     15.26916218     13.79471493
H        22.70045662      5.67563057      3.81261969
B        20.38681221      4.65357399      3.53328586
H        17.66937447      5.30223942      4.63149548
B        19.86966515      6.17938995      4.20409203
H        19.61595535      3.95563936      7.24401855
B        21.63089371      5.54692221      4.26000452
H        22.08436775      5.46431780      6.89317799
B        18.85708237      5.03904295      4.78936625
H        18.96947861      6.69726467      6.74235535
B        19.93415070      4.42408562      6.16623545
H        19.04495621      2.35545349      4.36047840
B        21.37464142      5.47792530      6.11167431
H        21.31050110      7.97933674      5.43090010
B        19.69198418      6.11183739      5.91960287
B        19.54996490      3.52690935      4.71134043
H        21.94913292      3.12435818      5.15252018
H        20.61436081      4.54781294      2.31665182
B        21.09354019      6.86680031      5.29268360
H        19.52712822      7.04619360      3.38197947
B        21.13891029      3.98263288      5.03963280
H        22.48069000      5.56632280     13.98099995
B        20.00792313      4.46240616     13.77398396
H        17.37405396      4.98809719     14.83494759
B        19.79052162      6.07518101     14.31546783
H        19.62053490      3.73385739     17.54815292
B        21.37112808      5.30724192     14.53352356
H        21.88222122      5.26228380     17.23528862
B        18.71573639      4.78128719     14.91347218
H        18.81367874      6.70926332     16.51316833
B        19.71325493      4.16166496     16.30241203
H        19.20175171      2.12019300     14.60976982
B        21.19462967      5.10333824     16.23219109
H        21.47618866      7.56280088     15.22246170
B        19.50594902      5.87348843     15.95085716
H        21.77830887      2.78734803     15.09495640
B        19.51019478      3.26488876     14.84608746
H        19.94862366      4.24026918     12.46521568
B        20.95091057      6.59269714     15.46469307
H        19.50408936      6.75751925     13.29078102
B        21.13699532      3.79577303     15.20992470
H        22.74375725     15.30706120      3.77176809
B        20.40419960     14.17338181      3.93209529
H        17.98358154     14.51044655      4.81250381
B        20.21640587     16.03106689      4.41106653
H        19.88897896     13.49326706      7.47147560
B        21.84560966     15.32275963      4.62205601
H        22.33870125     14.96393967      7.38921976
B        19.14435196     14.59726906      5.03480768
H        19.10341835     16.34295082      7.00896740
B        20.11145973     14.01547527      6.41650295
H        19.47877693     12.01788139      5.02405357
B        21.66624069     14.94714451      6.34749794
H        21.88705254     17.42411995      5.90727711
B        19.86648178     15.80003071      6.33358765
H        22.28568077     12.64155293      5.54801083
B        19.92838669     13.08852196      5.08342552
H        20.41827202     14.10957527      2.69896770
B        21.32829475     16.40132523      5.63122940
H        20.02386475     16.88416862      3.52847099
B        21.46855927     13.49495220      5.50300598
H        22.11747360     15.75158882     13.44327641
B        19.85734940     14.57124424     13.49781418
H        17.40657043     15.21913528     14.45114803
B        19.61691093     16.37192345     14.13136673
H        19.17022133     13.84626484     17.06881905
B        21.18126106     15.51398563     14.17982674
H        21.72493172     15.39692593     16.89114761
B        18.58054543     14.99928474     14.68042183
H        18.47702599     16.63711548     16.65718269
B        19.43036652     14.35966587     16.10047531
H        18.74674416     12.41120625     14.65753555
B        20.90919876     15.41810513     15.98727131
H        21.13170624     17.95293999     15.21979237
B        19.30410576     16.14901924     15.92169189
B        19.27995872     13.49353981     14.70982838
H        21.48330879     12.90338993     15.02085972
H        20.22766876     14.50518227     12.28937626
B        20.67130852     16.86440659     15.26597404
H        19.16533089     16.87427902     13.18567181
B        20.84521103     13.98081684     14.95255184
B         1.45690906      4.06607056      5.09475040
H         2.66691089      5.76630068      3.58097100
B         0.41276595      4.65662479      3.75886869
H        -1.88581002      5.17667484      4.50653028
B         0.15083928      6.31694174      4.32724333
H        -0.14112698      3.96405149      7.29503775
B         1.78101027      5.68923283      4.30307150
H         2.31497502      5.38491297      7.04542732
B        -0.84679073      5.07674837      4.84571457
H        -0.75011373      7.02665854      6.81608009
B        -0.04936391      4.50125551      6.25139284
H        -0.47647259      2.35150480      4.72405958
B         1.44821489      5.41783333      6.28240776
H         1.44382632      7.96986485      5.63664532
B        -0.12052986      6.27063560      6.10857439
B        -0.16107151      3.50167346      4.87712145
H         2.28806758      3.14455223      5.26504803
H         0.46215123      4.44370556      2.52267051
B         1.31435049      6.84271669      5.41842508
H        -0.15549096      7.15788221      3.49030042
B         1.52753556      3.58683896     15.13031864
H         2.97883391      5.50806475     13.83809090
B         0.52136993      4.29177904     13.72736549
H        -2.10476232      4.60730886     14.77736187
B         0.32598522      6.00180244     14.17873955
H        -0.06582863      3.51809788     17.30644226
B         1.89161253      5.29201317     14.52020836
H         2.13905907      5.10815287     17.26035500
B        -0.91897804      4.70024395     14.91113281
H        -0.85260779      6.31470919     16.97875977
B         0.24358851      4.01229477     16.27248001
H        -0.46459168      2.09250331     14.64368725
B         1.65021825      5.00475502     16.20328903
H         1.65025342      7.74989080     15.37727737
B        -0.08181638      5.97618866     16.09246445
B        -0.12052643      3.19779253     14.83162117
H         2.32012057      2.66186166     14.84107876
H         0.74857837      3.90517497     12.61681557
B         1.37479341      6.61090994     15.36789608
H        -0.16042963      6.74397326     13.32248878
B         1.62651467     13.42272472      5.24768496
H         2.89056802     15.21520901      3.89539599
B         0.66203916     14.14499092      3.81970406
H        -1.89261806     14.78944302      4.74762440
B         0.40900302     15.88406277      4.36439848
H         0.15648890     13.10026932      7.47601175
B         2.10958028     15.02727032      4.73990011
H         2.46506953     14.66870689      7.43997574
B        -0.71778101     14.47888184      5.06686878
H        -0.77583247     16.27930069      6.95421362
B         0.35656860     13.86952972      6.55326557
H        -0.47315595     11.86377716      4.95775032
B         1.81758261     14.97819614      6.46748400
H         1.93807018     17.47196007      5.86246920
B         0.08706953     15.61236763      6.24580860
B        -0.02535165     12.99709320      5.05741167
H         2.68447685     12.56403255      5.17734623
H         0.67207235     13.67270660      2.79459214
B         1.46870410     16.42017174      5.55030251
H        -0.11583991     16.42562675      3.51519537
B         1.29843032     13.58393002     15.23435974
H         2.45132446     15.22119522     13.65883160
B         0.19053103     14.25969982     13.95118809
H        -2.27903533     14.49331665     14.79683495
B        -0.05889362     16.04967308     14.38350201
H        -0.61625582     13.58701134     17.40292358
B         1.62777829     15.16961575     14.49574471
H         1.86350179     14.82262230     17.27892303
B        -1.14355814     14.63034916     14.93443394
H        -1.08765852     16.29441643     16.81831932
B        -0.30104035     14.00523567     16.35877991
H        -0.79479134     12.04014587     14.77929020
B         1.39727533     14.99300194     16.24693871
H         1.41463244     17.51558685     15.79868126
B        -0.26468384     15.78801823     16.22257805
B        -0.35597327     13.08566189     14.98969364
H         2.11884022     12.71873283     15.43814087
H         0.29558772     13.78596592     12.76604652
B         0.97045678     16.45614433     15.51114178
H        -0.39286372     16.69911575     13.36318779
H         2.72153592     10.11805058      5.13939667
B         4.91195583     11.16190243      4.51870489
H         4.57188988      8.85929585      7.54003096
B         6.72997427     10.48348141      4.56637621
H         7.10254765     10.21559906      7.42924500
B         3.92845821      9.82535744      5.14140368
H         4.03392792     11.48622990      7.01411152
B         4.91586542      9.35198975      6.39468050
H         4.50217962      7.21659279      4.55096865
B         6.50330496     10.21220493      6.48693323
H         6.74062538     12.71575737      5.78155661
B         4.71030521     11.04483509      6.24279261
B         4.76593828      8.29063129      5.12360525
H         7.12246323      8.12546635      5.66727018
H         5.52794647      9.27494526      2.77272868
B         6.16047812     11.65234375      5.59651661
H         4.62310791     11.88843822      3.57695603
B         6.32933235      8.90045357      5.32329750
H         7.91131783     10.44366264      4.06596231
B         5.39113331      9.58018875      3.95133901
H         2.79053688     10.22559643     14.58857918
B         5.10948038     11.39877796     14.19385624
H         4.76528740      8.90726471     17.09383774
B         6.78099632     10.53162956     14.31636143
H         7.28801107     10.63095570     17.03385162
B         4.05160904     10.03028393     14.84558487
H         4.07254171     11.79625797     16.45493698
B         4.98712349      9.39831448     16.06671906
H         4.15423298      7.50199270     14.57316399
B         6.48489904     10.46037292     16.10794830
H         6.31526661     12.92901039     15.36985779
B         4.76049662     11.13569641     15.90160656
B         4.73804188      8.49323750     14.65615177
H         7.25654697      8.13502884     14.92600822
H         5.17450857      9.15121555     12.46698952
B         6.04891777     11.84802818     15.30209351
H         4.64117002     12.20145226     13.45633602
B         6.41731548      8.96719551     15.00944042
H         7.50519085     10.69139767     13.40985870
B         5.41388416      9.55827141     13.65244770
H         3.04337621      0.00395804      4.36606026
B         5.17515039      1.24596858      4.13886929
H         4.70850515     -1.27098608      7.34178734
B         6.81816196      0.56641370      4.25501490
H         7.17124128      0.14400765      6.95628691
B         4.07780027     -0.08542437      4.74198818
H         3.91542983      1.73632443      6.26012373
B         5.10990429     -0.85346031      6.26163578
H         4.39077711     -2.79563189      4.42256451
B         6.48655701      0.27050781      6.03822231
H         6.69705248      2.93752074      5.57700109
B         4.77427864      1.05187666      5.84320402
B         4.79884195     -1.69175243      4.75330162
H         7.28510952     -1.90070367      4.78397131
B         6.26058197      1.83294272      5.31369448
H         5.15724707     -0.77111000      2.41574740
H         4.69185972      1.75415981      3.09595132
B         6.36586523     -1.16503441      5.01761961
H         7.72403717      0.80740952      3.48462582
B         5.40935278     -0.44737780      3.68113112
H         2.98626280     -0.02312985     14.94920444
B         5.18844604      1.40378618     14.40820026
H         4.78508282     -0.73400205     17.54031181
B         7.01211739      0.71082914     14.49521923
H         7.42414951      0.54234296     17.39561844
B         4.25403690      0.04027032     14.93780518
H         4.31990671      1.68178046     16.87860489
B         5.16238260     -0.60364091     16.42533302
H         4.63400984     -2.69959569     14.72762966
B         6.64676952      0.48889375     16.42544174
H         6.65205097      3.07005548     15.75427151
B         4.98561907      1.22491539     16.07815742
B         4.93773079     -1.53281319     15.00125885
H         7.11767435     -1.78903496     15.36346340
B         6.46130514      1.91088402     15.45677280
H         5.58461905     -0.34901756     12.46318436
H         4.65877581      2.26524687     13.71451569
B         6.47033644     -0.89350802     15.22624111
H         7.90419722      1.01240075     13.63458538
B         5.56270933     -0.24538130     13.81511307
B        15.31754398      9.56896687      3.67953038
H        12.82117558     10.00454903      4.67983103
B        15.11799145     11.35946083      4.22881794
H        14.48950672      9.06683445      7.49128628
B        16.76885414     10.56111717      4.39960003
H        17.35743904     10.16575432      7.11691141
B        14.06930923     10.08301067      4.86415148
H        14.22007561     11.62125969      6.96965647
B        14.86495590      9.45390320      6.26478291
H        14.44064045      7.26130581      4.55183458
B        16.53509903     10.40827370      6.23469067
H        16.67603874     12.92591763      5.30445194
B        14.88208008     11.14622307      6.12802792
B        14.86933327      8.34013462      4.81270981
H        17.43358421      8.36528111      5.40019846
H        15.28311920      9.28658962      2.54513597
B        16.11040115     11.93422318      5.45450115
H        14.63040829     12.11090946      3.37131500
B        16.47509766      9.02555752      5.05919790
H        17.84915733     10.57425213      3.89728403
B        15.17206573      9.69338703     13.64473248
H        12.76743603     10.13421822     14.29474640
B        14.79881191     11.34013081     14.05611801
H        14.48670101      8.89421558     17.06487465
B        16.65149498     10.68645954     14.32048988
H        17.09858704     10.28408051     17.03996658
B        13.79065609      9.94994164     14.76375484
H        14.08850384     12.15181637     16.59751701
B        14.81397915      9.36922550     16.10853767
H        14.13267517      7.60134888     14.10727119
B        16.22698975     10.46646404     16.16235733
H        16.38080788     13.18314552     15.38976192
B        14.67456722     11.25577641     15.92260075
B        14.57059479      8.57282925     14.58485985
H        17.14850616      8.02744865     14.79191017
H        15.31420040      9.38629532     12.45450687
B        16.02136803     11.98672485     15.08389187
H        14.11428738     11.72468853     13.27689075
B        16.19725609      8.93147278     14.92210484
H        17.59012032     10.78685760     13.71643829
B        15.14874077     19.45595932      3.87193418
H        12.57710552     20.37957191      4.74991512
B        14.81599998     21.28261185      4.30357599
H        14.40622902     18.62984467      7.44108725
B        16.59357071     20.54384613      4.55089378
H        16.98373222     20.36771011      7.29925251
B        13.66168118     19.91931534      5.01470470
H        13.99161911     21.57376862      7.09155750
B        14.69818211     19.21182823      6.36546230
H        14.11702824     17.36031914      4.59892702
B        16.34558868     20.32523346      6.36142635
H        16.10560799     22.92942810      5.68239594
B        14.54530430     21.03337288      6.21371651
B        14.50570679     18.36511993      5.00067425
H        16.94137001     18.02882195      5.03828287
H        15.12260628     19.11683083      2.76109815
B        15.85890484     21.81583595      5.49152756
H        14.57850742     21.97559357      3.36022377
B        16.10943031     18.93420219      5.24786425
H        17.56931496     20.67797661      3.93057513
B        15.17833996     19.39344978     13.57737732
H        12.55259609     19.87406349     14.66592312
B        14.87766552     21.03375626     14.15501308
H        14.83098984     18.70429802     17.26696205
B        16.50639343     20.31403732     14.26297379
H        17.19562912     20.50556564     16.82912827
B        13.76675797     19.73278046     14.85108280
H        13.68280792     21.51877975     16.48650742
B        14.72321415     19.07077980     16.11935997
H        14.22696304     17.09462929     14.29087448
B        16.19485474     20.16138649     16.08198166
H        16.32368660     22.70688629     15.76241016
B        14.54005814     20.92169762     15.87082005
H        16.89614487     17.90256310     15.40684605
B        14.55516243     18.18171501     14.73764706
H        14.84401226     19.28095245     12.31237316
B        16.00768852     21.62768745     15.35693455
H        14.35485554     21.87445641     13.38730812
B        16.12859344     18.70156288     15.09081841
H        17.41362190     20.65047455     13.48835373
B        25.05548859      9.54855633      4.11048841
H        22.84307861     10.04062748      4.76419783
B        24.92081070     11.15948009      4.48987007
H        24.51301003      8.70588875      7.71029186
B        26.57568932     10.40592766      4.75113010
H        26.86166763     10.23668194      7.40732956
B        23.84374809      9.80259705      5.23282290
H        23.97117424     11.37134838      7.43163395
B        24.87055397      9.17329216      6.58079433
H        24.10766983      7.17825794      5.02821159
B        26.10459900     10.26068497      6.52555513
H        26.62709427     12.66460133      5.91050434
B        24.54348946     11.03709126      6.40502357
B        24.57233047      8.29300308      5.21069431
H        26.86613083      8.09230804      5.72691965
H        25.02361488      9.48553276      2.90122724
B        25.96121025     11.61978245      5.79125309
H        24.46749115     11.73317623      3.47350717
B        26.17813110      8.97118092      5.47844744
H        27.36267471     10.58095932      3.78913260
B        25.44093513      9.30959225     13.55379486
H        22.64077568     10.00033188     14.51621151
B        24.96728134     11.11952877     14.06032848
H        24.77749252      8.54865456     17.14758873
B        26.64048004     10.35595798     14.25677490
H        27.39472961     10.15737343     16.86770630
B        23.96450233      9.75123882     14.72410202
H        24.18655586     11.75367546     16.60330009
B        24.91898537      9.07008743     16.04673386
H        24.52120590      7.14022493     14.43447304
B        26.60049629     10.13568401     16.07983398
H        26.55723381     12.65660000     15.70200253
B        24.85884476     10.89311886     15.81254959
B        24.72461510      8.31726170     14.64642143
H        27.23372650      7.89567471     15.00307178
H        25.97109604      9.23704720     12.47402668
B        26.19435310     11.66704273     15.18618774
H        24.46907997     11.68662643     13.15993404
B        26.37343025      8.83425236     14.99875355
H        27.70614624     10.49579811     13.70302391
B        25.19422340     19.71146965      3.59824371
H        22.55563736     20.08277893      4.62302399
B        24.85716820     21.43097496      4.15224791
H        24.59198380     18.88090897      7.25433493
B        26.51745415     20.72871780      4.27805996
H        27.16735458     20.41701889      6.95707083
B        23.71353912     20.08630943      4.67400551
H        23.88379288     21.85982132      6.77660894
B        24.82016754     19.40894127      6.20754862
H        24.32650757     17.36565399      4.63107491
B        26.28136063     20.53601456      6.18691778
H        26.22566032     23.27071953      5.48045063
B        24.64962006     21.29487610      6.03991365
B        24.60062599     18.50070381      4.73124743
H        27.02741432     18.10380936      5.16858435
H        25.11679840     19.25705910      2.40094471
B        26.08907318     22.03899956      5.37128782
H        24.29513741     22.32482529      3.53539801
B        26.18362045     18.99240685      5.16653681
H        27.49962807     20.59256744      3.66735125
B        24.99593353     19.71924210     13.35575485
H        22.53557205     20.17480469     14.21717644
B        24.78109360     21.27408791     13.82229424
H        24.21877670     18.88351822     16.87676811
B        26.34948921     20.62296867     14.00509262
H        26.97110176     20.41717529     16.85873985
B        23.75092697     19.88717079     14.45960522
H        23.86568451     21.85092163     16.27631950
B        24.62265968     19.28744888     15.82544231
H        24.09190750     17.18714142     14.55576706
B        26.20936012     20.45908737     15.81271839
H        26.30562401     23.06444931     15.10644054
B        24.49056435     21.10962677     15.61721897
B        24.46200562     18.33079147     14.43062019
H        26.82887840     18.24466705     14.83495140
H        24.85843277     19.43228149     12.24114895
B        25.94707489     21.91121864     15.06154633
H        24.54589844     22.06129265     12.95819283
B        25.98623085     18.99533463     14.73644543
H        27.35539246     20.58667755     13.40921879
B         4.92639017      6.01500034      9.17303658
H         4.56443262      4.34395027     12.56108379
B         6.61383820      5.39147425      9.61131001
H         6.94868231      5.57789993     12.35566235
B         3.89022064      4.92510557      9.94449806
H         3.67465568      7.02270317     11.42332649
B         4.79461145      4.67822409     11.50285053
H         4.22988605      2.38143969     10.59068775
B         6.31952381      5.50531340     11.36458778
H         6.12269211      8.01506233     10.30794525
B         4.52541304      6.29440403     11.04345894
B         4.55103493      3.46524644     10.28498173
H         7.12268066      3.01183534     10.65203094
H         5.19143009      3.88670826      7.81915379
B         5.97248888      6.79397869     10.29331303
H         4.50098515      6.55371761      8.28553581
B         6.21610546      3.86783576     10.66011047
H         7.56659174      5.43813372      8.90070248
B         5.33397007      4.32941866      8.94078732
H         2.61590719      4.96553469      9.59802628
B         5.10561705      6.44465637     19.08902931
H         4.32692575      4.78952694     22.51947784
B         6.70719671      5.80125237     19.58482742
H         7.16706562      5.77720165     22.07950401
B         3.97407532      5.35883665     19.92984581
H         3.98442841      7.56767893     21.40840912
B         4.90358925      4.91705704     21.46697807
H         4.14666605      2.74822187     19.92910576
B         6.38903332      5.92092085     21.25989532
H         6.09524632      8.44320869     19.80472374
B         4.72328329      6.70394039     20.89684868
B         4.65769386      3.76800060     20.21840286
H         7.36615562      3.70233750     20.56310272
H         5.60148096      4.43019581     17.90304184
B         6.01921177      7.28451681     20.09336090
H         4.82323265      7.08446312     18.09913063
B         6.30960560      4.22848558     20.45953178
H         7.82559395      5.81701756     19.02688408
B         5.42717361      4.76848221     19.05309868
H         2.90845895      5.39733458     19.44803047
B         5.07004118     16.19775581      9.38015842
H         4.48394203     14.18629932     12.92057705
B         6.70658827     15.48769379      9.76972294
H         6.88686466     15.35968494     12.81677914
B         3.87346315     14.94667816     10.15741062
H         3.84000325     16.88182831     11.64519405
B         4.81583405     14.59128380     11.85968876
H         3.92314172     12.49239445     10.81631184
B         6.27439308     15.53666973     11.69934654
H         6.44443941     18.20305061     10.62001610
B         4.60825253     16.21587563     11.14470291
B         4.55814362     13.45003128     10.69388199
H         7.09586000     13.15061569     11.04386616
H         5.38279581     13.80364132      8.28666019
B         5.97454119     17.00247765     10.52388763
H         4.79593611     16.81331635      8.32223988
B         6.26353121     14.07129669     10.80810547
H         7.52086687     15.42118073      8.91536522
B         5.24850607     14.42725754      9.30223560
H         2.71509314     15.20390224     10.05072689
B         4.90814161     15.94040680     19.18976784
H         4.43015671     13.97549915     22.71223640
B         6.48197889     15.29498196     19.65772629
H         7.01147175     15.36085701     22.41645622
B         3.74940491     14.69472218     20.01992607
H         3.79167223     16.86526680     21.46604538
B         4.58882475     14.43895626     21.66822815
H         3.92751241     12.19293118     20.23705101
B         6.17108345     15.41421890     21.42204285
H         6.12064409     17.79401779     20.27444458
B         4.45469093     16.08120155     20.92779350
B         4.49437284     13.21607971     20.47736931
H         7.13161087     13.18405819     20.61253166
B         5.97615623     16.63574028     20.37158775
H         5.05313921     13.88830566     18.01160622
H         4.52515078     16.56865501     18.24633980
B         6.00025177     13.85493279     20.60191345
H         7.53279257     15.51033878     19.05429459
B         5.12288046     14.25488758     19.10177231
H         2.72212815     14.75013542     19.61150169
B        14.72502327      6.40328884      8.84865189
H        13.97000980      4.68490696     12.17652988
B        16.57324409      5.72888756      9.16192818
H        16.94949341      6.15810776     11.72789288
B        13.70918465      5.28147316      9.59661198
H        13.66756916      7.42290688     10.98497486
B        14.58708477      4.92370081     11.13072586
H        14.12196541      2.70983100      9.43168545
B        16.19121552      5.91941690     10.84858227
H        16.19889259      8.35035038      9.84020996
B        14.53435421      6.58091545     10.61252117
B        14.41404915      3.80052924      9.75944328
H        16.81550217      3.68892622     10.88419437
B        15.82606792      7.22533464      9.83564377
H        15.30346203      3.98400784      7.68767118
H        14.20921326      7.10267973      7.94931030
B        16.05150414      4.25848818     10.25828743
H        17.40382767      5.66908979      8.23423672
B        15.23114967      4.65883207      8.65697002
H        12.56299114      5.36027861      9.06817055
B        15.14674377      5.99698687     19.05368996
H        14.67407322      4.39823580     22.72741127
B        16.66119194      5.27289820     19.54046249
H        17.02724838      5.41669798     22.22487640
B        13.92085743      4.74041462     20.00390625
H        13.94877148      6.89811230     21.52419090
B        14.90968704      4.39051104     21.51645660
H        14.52956295      2.17337608     20.05907440
B        16.33115005      5.38793564     21.28359413
H        16.63932037      7.83343315     20.17458725
B        14.64931393      6.09288692     20.86065483
B        14.66185951      3.31489062     20.31569481
H        17.02526474      2.94842029     20.80833244
B        16.05901146      6.71810770     20.27583504
H        15.55448723      3.63173032     17.90581512
H        15.11498260      6.65009212     18.01224709
B        16.25108337      3.83887291     20.49925804
H        17.70807648      5.39822149     18.94296455
B        15.40001488      4.17037535     18.95876694
H        12.76473331      4.94918060     19.80491257
B        15.05564213     15.90897846      8.85343170
H        14.44992065     14.14517879     12.44501781
B        16.59534073     15.21707630      9.23255157
H        16.81793404     15.58565521     12.31256294
B        13.94691181     14.81620598      9.67742729
H        13.82184410     16.82961655     11.19665623
B        14.81496811     14.29132080     11.34164047
H        14.02622128     12.24899960      9.76422787
B        16.18315125     15.31991005     11.22464180
H        16.38316154     17.73420525     10.13810253
B        14.59267139     16.02606392     10.79864120
B        14.67606258     13.15158272     10.24268913
H        17.25234795     13.14315128     10.59896088
B        16.17327118     16.62157822     10.11868668
H        15.47035503     13.41707039      7.91097307
H        14.60881519     16.41240501      7.85232592
B        16.21741104     13.78333378     10.29946232
H        17.53507996     15.22105217      8.36839485
B        15.30601406     14.13540268      8.86081505
H        12.77261829     14.49637699      9.75946522
B        14.76704121     15.87129021     18.64450264
H        13.88056564     14.39791012     22.10030937
B        16.47174263     15.25752163     19.00787926
H        16.56261635     15.41709423     21.89421654
B        13.70212650     14.72235584     19.52241325
H        13.65053177     16.71928596     21.15150642
B        14.51051807     14.31523991     20.99586105
H        13.85573673     12.12564659     19.67248535
B        15.99676037     15.33848953     20.82478714
H        16.01997757     17.78420830     19.82923317
B        14.50422382     16.17654610     20.50295258
B        14.50689507     13.17904854     19.77306175
H        16.80557823     12.94081402     20.13268852
H        15.14601707     13.79466724     17.46344948
B        15.86434174     16.60092735     19.74561691
H        14.53499985     16.40871811     17.52823257
B        16.01341629     13.80998993     20.13269424
H        17.42516708     15.28546715     18.20579338
B        15.11184883     14.09879971     18.52145004
H        12.47341156     14.90047264     19.46436501
H        22.32027245      5.09131670      9.78893089
B        24.67733765      6.26154804      9.05048943
H        24.15450859      4.66791868     12.60812664
B        26.35341072      5.54051256      9.32315540
H        26.94159889      5.57914543     12.03381443
B        23.52769279      5.09740543      9.84967136
H        23.53459167      7.13674450     11.47850895
B        24.40968895      4.74428034     11.39079285
H        23.94150925      2.39097118     10.15698814
B        25.95619202      5.66318560     11.24710464
H        25.75525284      8.07584286     10.20421696
B        24.17262268      6.39817715     10.77990532
B        24.34920120      3.62300110     10.14336872
H        26.87869644      3.25322843     10.77399349
H        24.96844673      4.08943605      7.88622952
B        25.70766449      6.91176605     10.13632202
H        24.09604454      6.89998341      8.20681381
B        25.86330223      4.03657627     10.54718304
H        27.42930794      5.62887812      8.77244854
B        25.02043724      4.49764681      8.91661072
H        22.62025261      5.28635168     19.21299553
B        24.86258888      6.13593292     18.81475258
H        24.41495323      4.52357864     22.43971825
B        26.55087852      5.60007620     19.26588058
H        27.09153175      5.72624063     21.91833878
B        23.70038986      5.01170015     19.64382553
H        23.86369896      7.16427803     21.38374710
B        24.65818596      4.63569593     21.33052635
H        24.21854210      2.33336544     19.71635818
B        26.16801453      5.61463881     21.04859734
H        26.46992493      8.02545261     20.02728653
B        24.48845482      6.29021502     20.60511589
B        24.47920990      3.50179315     20.03985977
H        26.80856514      3.05292225     20.42855263
B        25.90314102      7.00076532     19.96279335
H        25.28009415      4.03268242     17.80071259
H        24.53583527      6.58198309     17.76947594
B        26.05091858      4.03728628     20.27154732
H        27.58256340      5.51846027     18.69544029
B        25.20287895      4.47620249     18.78090668
H        22.47419357     15.20451164      9.52078629
B        24.77729034     16.26136208      9.02687550
H        24.17663574     14.21286678     12.33453655
B        26.46340370     15.58283043      9.40908909
H        26.51541138     15.70832539     12.34430504
B        23.71015167     15.13877392      9.91941738
H        23.75716591     17.33087540     11.23524857
B        24.58603287     14.67376328     11.35767555
H        23.61990356     12.71648598      9.91376209
B        26.02508163     15.85552597     11.22572422
H        26.40242958     18.12089920      9.77582932
B        24.42055130     16.49878693     10.78214169
B        24.40413284     13.63066959     10.08647537
H        26.90771294     13.39507103     10.73719406
B        25.83913994     17.11652374     10.07150269
H        25.33535194     14.23909855      7.75867844
H        24.30861282     16.56569672      7.96077299
B        26.03746414     14.18261337     10.39043140
H        27.45178795     15.53067303      8.60451984
B        25.09790421     14.52015495      8.85152817
H        22.57430649     14.82182503     19.33495140
B        24.84150887     15.75550175     18.71122551
H        24.46011734     14.11617661     22.35735893
B        26.66469383     15.19054890     19.13561821
H        27.07493210     15.15092850     21.81739807
B        23.74977493     14.62258434     19.45236015
H        23.71331596     16.61863518     21.12867546
B        24.63430405     14.29382420     21.08052826
H        24.10011101     12.02854729     19.77573013
B        26.24548149     15.19876194     20.85053444
H        26.38634872     17.62046623     20.06008339
B        24.41591835     15.94540024     20.44318390
B        24.49325371     13.00546360     19.77757645
H        26.92668152     12.85287094     20.35172844
B        25.92065620     16.54817963     19.77981758
H        25.52351379     13.41369724     17.54383659
H        24.39217949     16.20222092     17.72557068
B        26.07618141     13.62739372     20.13266182
H        27.49566269     15.16740513     18.36067772
B        25.08644676     13.93591404     18.55207062
