648

Na       22.24349213     11.23248577    -18.04856873
Na        3.01739287      0.46662182     36.69622421
Na       -3.10554361      7.58644056     30.96516991
Na       23.57251930     40.07744980    -15.30265713
Na       58.64388657     13.59423733      6.12007093
Na      -10.23950481     10.36720467      9.98354721
Na       -5.77394342     30.54190445      0.69443375
Na      -11.86272907     42.01554489      5.39407825
Na       60.44729614     44.26974106      4.78400612
Na        2.37991261     15.84666538      5.67608023
Na       10.64535713     14.51836491     10.39463043
Na        5.00805616    -14.31654072     16.05568886
Na       13.96827984     11.38811302     -1.41015804
Na        1.51800811     10.75142670      5.59737110
Na       23.82346153     39.97672272     19.03336906
Na        6.79547548     14.68416595      1.81934094
Na       25.61900902     10.53967762     13.20563030
Na        9.92337513     18.78650284     13.80323219
Na       24.58062935    -11.36374378     14.56768513
Na       22.49576950     -0.73786712     30.61752892
Na       15.45462036      1.86709857      1.68283367
Na        0.24883071      2.07918811      4.65766859
Na       43.11000061     10.60437202     21.81347847
Na       32.34331512     23.31227684     10.97001839
Na        1.60564029     10.59742928     22.84823608
Na       22.04729652     35.92414856     -9.71437836
Na        5.24003315     16.51604652     22.44852829
Na      -10.71038246      5.95402193     18.61618996
Na      -18.50903511     -2.16170979     -6.76094866
Na       11.80654621      0.50686657     19.38572884
Na      -11.79197979     24.82423592      5.61699820
Na        1.74589968      6.61532640     14.80020237
Na       15.28280735     31.57346725     10.59475994
Na        1.07039845     27.61895180    -11.53824139
Na        7.97921848     10.76485729     10.36874676
Na       39.65747833     16.34518814     22.50821877
Na        1.83295941     -1.93596625     14.93432713
Na       10.95523453     14.67103577      1.60776496
Na        7.68442822      4.86908293     14.40964508
Na       49.08187485     14.62808037      1.97387433
Na      -18.94422150      6.11709452     10.02148247
Na       17.53440285     19.35350418     13.11847591
Na       19.94054413     30.96545982     -7.41580486
Na       54.20555496     34.94571304     -6.25496864
Na        7.16585350      5.63904667     23.03418350
Na        2.34758139     13.95015144     -6.73636198
Na       21.85550117     -5.62884378      7.51936245
Na       41.07748795     -2.76101923     39.87197495
Na        2.58859754      5.83222818     -7.13796854
Na       11.34682178     26.64300537     10.77332020
Na       15.98744869    -14.82155514     26.93352127
Na       20.46523094     17.56822777      2.29355574
Na       27.76514816     22.41449738     10.12309074
Na       17.54846764     27.57225990     12.86530876
Na        2.26762605     -3.04638648     -6.67843199
Na       31.92679024      6.39852095     -6.56193829
Na      -11.93172264     19.67907906      7.27382135
Na       30.16843987     19.45728111      7.42692089
Na      -29.54911423     11.35590267     24.35013390
Na       -9.89552402      1.83058190     18.60044098
Na      -23.21501350     13.80017185     10.47359562
Na       11.63620186     17.90475845     19.39918137
Na      -26.88536072     10.45116138     18.65702057
Na        3.09990835     26.53606033      2.16280961
Na       38.99789429      2.32363176      7.51074791
Na       20.67043686      9.20236492     10.88073730
Na       49.28775406     -6.13844395    -15.46448040
Na        5.64297485     24.50772476      5.74556160
Na       18.89256096      2.23044515      6.37825871
Na        9.50299454     36.10012436     -3.53789067
Na       20.37211990     26.27565765     19.20047379
Na       31.72608376     14.44975185     10.00220108
Na        1.79331934    -18.68117142      6.21210527
Na       43.46803665     10.76500034     30.74794197
Na       -7.10345221     10.44112301     13.93373489
Na       13.84322453     -0.14282940     13.85868549
Na        6.98072529      5.91195345      2.07147527
Na        7.77395487     -3.40561771     39.99036407
Na       -6.94623995     27.74337959     -2.96137881
Na       -6.01620913     39.56263351     10.19658375
Na       14.84364796     14.72639465      9.83985424
Na      -10.15703297     -2.38226557     10.32572556
Na        2.32630825     13.53343105      1.51295984
Na       11.09372807      2.86304235     15.00800133
Na       -9.71327686     23.24534035     -6.19406509
Na        6.86580896     15.09813881     19.13897705
Na       -6.05464077     -1.71557641     14.66194630
Na       30.64174080     50.16004562     -2.56375074
Na        5.58475304     24.89848709     14.09850311
Na       -0.86606175     19.04544258     18.92634773
Na       32.27767563      1.87600529      9.96782017
Na       56.44944000      8.10337734     39.49166107
Na       37.32294083      9.08579445     27.83195686
Na        7.10803509     14.27694798     14.72880650
Na       40.38566208     40.05452347     18.69198036
Na       11.74019909     39.59890747     17.37309456
Na       37.09529877     26.03337860      2.24028325
Na       -1.97297752     31.66146660     10.04697800
Na       36.06343842     23.76467896     31.56398201
Na       72.71021271     19.48813057     -1.23312640
Na       24.31592369      1.95228410     18.69708443
Na      -28.52446175     -5.72252846     15.82140350
Na       20.14888000     26.01913643     10.81486988
Na       44.89130020     13.92137051     18.42586899
Na       -3.24665523     -9.19177532     31.07761955
Na       41.11740875      5.16508627     14.52698421
Na       30.88722801     36.86223602     -1.44968891
Na       36.18202591     21.92046738      1.55728197
Na       10.50672054    -10.43451500      6.33564281
Na       33.54381180      5.52999258      5.91849232
Na       23.62629128      6.38087940     18.49143791
Na      -18.74136353     23.74972534      2.04361224
Na       44.45808792    -10.57150459     14.87736511
Na       19.38882446     14.14505959     27.11782837
Na      -14.45298195     30.56118965     -6.91864157
Na      -28.51820946      7.80352831     22.57751465
Na       18.70033073     32.24328995     31.71346283
Na        2.26665139      5.58865881     10.34589767
Na       27.23157310     -1.73722303     31.45788193
Na       13.69663811     -0.35579303     22.74183273
Na      -20.30580711     10.95818615      7.07839060
Na       19.92422676     26.53889084      2.26769662
Na       15.25430202     18.22495842     19.03454399
Na       -6.10529518     22.32788849     -6.93938589
Na        5.19431591      7.92758989     22.57401466
Na        1.51278365     18.51942635     22.89995575
Na       69.31105804     19.00657272      5.34201002
Na       44.84101868      5.79073143      9.82914162
Na        2.86319566      0.53224504     19.79278755
Na      -14.35061455      3.05276203     -1.06443989
Na       64.61344147     19.83806419     23.82835960
Na       25.01270294     22.19472122     22.80581856
Na       34.09032440     27.61369514     -4.30108690
Na       30.69635773      2.54539323     24.25243950
Na       23.78590584     27.24651146     10.52019119
Na      -23.96107101      2.43386555     22.91184998
Na      -28.13532448     16.11376381     22.43220711
Na       -3.37487555     24.62086868     -2.67951703
Na        5.21779585     19.84778404     -0.78393912
Na       42.24286652     13.72570610      5.95408773
Na       19.04838753     22.64537811     35.65020752
Na        1.49783790     14.84344578     -2.24348998
Na       -5.46102762     34.82065582      2.52274799
Na      -14.99863243     23.50396729     23.25585747
Na        7.43904018     -3.34800959      6.14598417
Na       35.48502731     10.56900024     13.93615341
Na       11.80027008      5.43447828      8.74607944
Na       28.54203796     15.92524910    -11.02716923
Na       10.94615269     47.67052841     10.14610386
Na      -31.56609726     22.09584427     27.22983170
Na       40.97701645     31.74601173      2.19126368
Na       23.48561287     23.05440712     18.72089386
Na       28.07856941     22.40860176     26.35847473
Na       19.64856720     -7.41658974     19.44176865
Na       15.34507847     10.08083630     18.86277771
Na       41.04481125     14.74108505     27.53118324
Na       24.84595680      5.50725794     22.84324074
Na        8.86150742      2.08961892     30.05247879
Na       35.76188660     15.17149830     23.42170715
Na       25.67464828     19.27987099     30.17309570
Na       -1.86847615     23.01980972     10.46741295
Na       15.12424374     18.87589645     27.08667183
Na      -32.13768768     -6.04010010     -2.85876417
Na      -35.13004684    -19.97131538     22.90257072
Na        5.37202883      7.76574421     31.02344894
Na       20.12433815      9.50454903     -5.97252417
Na      -32.52325821     -2.11340785     23.28721046
Na      -22.12753296      9.31073380     27.82894516
Na      -31.91485977      6.78549433     -2.20527053
Na        5.03138351     19.45033836     -9.41785240
Na       -3.13953614     16.54069901     13.91844368
Na       50.05548859    -11.79104614      5.93067217
Na        3.51046228     17.59699821     -6.39796591
Na        8.65056419     -6.44137144     21.43031502
Na       19.64751053     18.55483055    -14.37844086
Na       11.38196087      5.81357956     26.88198280
Na       23.44389725     22.85591316     26.95158577
Na        5.25382137     27.98995972     16.00402832
Na        6.67741299     18.68799400     10.35530376
Na       23.87448311     10.66304779     26.89311028
Na       36.79999161      9.46134090     10.63988590
Na       27.99718857      2.08380294      6.55952311
Na      -16.34510612     11.30498123     27.52482986
Na       -3.35440540      2.77662206     41.34763336
Na       26.34655762     19.51367760     13.87618637
Na       36.40532684      6.83423424     40.08027267
Na       14.77408314     18.57713890    -15.37620926
Na       28.94544411     17.84134102     27.43767166
Na       54.14782715     43.09431076     11.18760395
Na      -12.07843781     -5.61187792     15.78029251
Na       -2.89196897     -0.81975871     13.99930573
Na        2.89540052      5.78222561     26.29770660
Na       18.77604294     14.69637585     -2.03936315
Na      -14.76833534     -2.79452014     18.81030083
Na      -14.83349705      7.02292585     23.14905739
Na       -1.35578716      5.57461786    -10.94569397
Na        8.35150051     10.98019600     18.89408302
Na       40.78666687     13.17652225     14.93292618
Na        7.28348064     -2.93449831     -2.28019357
Na       15.18070698     -2.11278224     27.71807480
Na      -13.54909039    -16.29925156     18.99547386
Na       23.61558723      2.33112025      1.47990620
Na       28.63756752      9.26156902     11.23970222
Na       13.48670197      8.04086208     30.98180771
Na       13.66911411     16.31542206     14.22488594
Na       10.86227608     11.08433056     32.61008835
Na       15.90332603     22.25580215     31.45366478
Na       -1.67935407      6.16745281      1.92859268
Na        5.66616297     -8.93431473      5.78161907
Na       15.88603497      5.58620405     31.80526733
Na      -14.80700207     -0.80592626    -11.27429008
Na       10.33501816     15.35763359     14.32228279
Na       64.77585602      8.25935078     14.04188347
Na       -6.33670807      6.82851458     14.96428871
Na       24.36411095     30.52099037      6.22189283
Na       18.95183754     23.73360252     31.58365250
S         8.84733009     25.35968399     10.83870792
P         9.20138359     24.92457390      8.89905071
S         8.09020901     25.10030174      5.67799377
S         5.89370441     25.41163254      8.26865101
S         8.78744221     22.91117668      8.54266262
P         7.70453310     25.95690918      7.53427696
S         8.05258656     27.94945145      7.52153826
S        11.06363583     25.41575241      8.26248169
S         8.84733009     25.35968399     19.31410980
P         9.20138359     24.92457390     17.37444878
S         8.09020901     25.10030174     14.15339375
S         5.89370441     25.41163254     16.74405289
P         7.70453310     25.95690918     16.00967789
S         8.78744221     22.91117668     17.01806259
S         8.05258656     27.94945145     15.99693871
S        11.06363583     25.41575241     16.73787880
S        11.06363583     25.41575241     25.21328163
P         9.20138359     24.92457390     25.84985161
S         5.89370441     25.41163254     25.21945000
S         8.09020901     25.10030174     22.62879181
S         8.05258656     27.94945145     24.47233772
S         8.78744221     22.91117668     25.49346161
P         7.70453310     25.95690918     24.48507500
S         8.84733009     25.35968399     27.78950691
S         5.89370441      8.46083260      8.26865101
S        11.06363583      8.46495152      8.26248169
S         8.09020901      8.14950085      5.67799377
S         8.78744221      5.96037912      8.54266262
S         8.84733009      8.40888214     10.83870792
P         7.70453310      9.00610733      7.53427696
P         9.20138359      7.97377396      8.89905071
S         8.05258656     10.99865246      7.52153826
S         5.89370441      8.46083260     16.74405289
S        11.06363583      8.46495152     16.73787880
S         8.09020901      8.14950085     14.15339375
S         8.78744221      5.96037912     17.01806259
S         8.84733009      8.40888214     19.31410980
P         7.70453310      9.00610733     16.00967789
P         9.20138359      7.97377396     17.37444878
S         8.05258656     10.99865246     15.99693871
S        11.06363583      8.46495152     25.21328163
S         8.09020901      8.14950085     22.62879181
S         8.78744221      5.96037912     25.49346161
P         7.70453310      9.00610733     24.48507500
S         8.84733009      8.40888214     27.78950691
P         9.20138359      7.97377396     25.84985161
S         8.05258656     10.99865246     24.47233772
S         5.89370441      8.46083260     25.21945000
P         9.20138359     16.44917488      8.89905071
S         8.05258656     19.47405052      7.52153826
S         5.89370441     16.93623352      8.26865101
S        11.06363583     16.94035149      8.26248169
S         8.09020901     16.62489891      5.67799377
S         8.78744221     14.43577957      8.54266262
S         8.84733009     16.88428307     10.83870792
P         7.70453310     17.48150826      7.53427696
P         9.20138359     16.44917488     17.37444878
S         8.05258656     19.47405052     15.99693871
S         5.89370441     16.93623352     16.74405289
S        11.06363583     16.94035149     16.73787880
S         8.09020901     16.62489891     14.15339375
S         8.78744221     14.43577957     17.01806259
S         8.84733009     16.88428307     19.31410980
P         7.70453310     17.48150826     16.00967789
P         7.70453310     17.48150826     24.48507500
S         8.05258656     19.47405052     24.47233772
S         5.89370441     16.93623352     25.21945000
S        11.06363583     16.94035149     25.21328163
S         8.09020901     16.62489891     22.62879181
S         8.78744221     14.43577957     25.49346161
S         8.84733009     16.88428307     27.78950691
P         9.20138359     16.44917488     25.84985161
P        16.17993355      0.53070819      7.53427696
S        16.52798653      2.52325249      7.52153826
S        17.26284218     -2.51502109      8.54266262
S        19.53903580     -0.01044759      8.26248169
S        17.32273102     -0.06651601     10.83870792
P        17.67678452     -0.50162607      8.89905071
S        16.56560898     -0.32589823      5.67799377
S        14.36910343     -0.01456746      8.26865101
P        16.17993355      0.53070819     16.00967789
S        16.52798653      2.52325249     15.99693871
S        17.26284218     -2.51502109     17.01806259
S        19.53903580     -0.01044759     16.73787880
S        17.32273102     -0.06651601     19.31410980
P        17.67678452     -0.50162607     17.37444878
S        16.56560898     -0.32589823     14.15339375
S        14.36910343     -0.01456746     16.74405289
S        16.52798653      2.52325249     24.47233772
P        16.17993355      0.53070819     24.48507500
S        17.26284218     -2.51502109     25.49346161
S        17.32273102     -0.06651601     27.78950691
S        19.53903580     -0.01044759     25.21328163
P        17.67678452     -0.50162607     25.84985161
S        14.36910343     -0.01456746     25.21945000
S        16.56560898     -0.32589823     22.62879181
S        17.32273102      8.40888214     10.83870792
P        16.17993355      9.00610733      7.53427696
P        17.67678452      7.97377396      8.89905071
S        16.52798653     10.99865246      7.52153826
S        14.36910343      8.46083260      8.26865101
S        19.53903580      8.46495152      8.26248169
S        16.56560898      8.14950085      5.67799377
S        17.26284218      5.96037912      8.54266262
S        17.32273102      8.40888214     19.31410980
P        16.17993355      9.00610733     16.00967789
P        17.67678452      7.97377396     17.37444878
S        16.52798653     10.99865246     15.99693871
S        14.36910343      8.46083260     16.74405289
S        19.53903580      8.46495152     16.73787880
S        16.56560898      8.14950085     14.15339375
S        17.26284218      5.96037912     17.01806259
S        17.32273102      8.40888214      2.36330938
P        17.67678452      7.97377396      0.42365089
S        16.52798653     10.99865246     -0.95386219
P        16.17993355      9.00610733     -0.94112307
S        14.36910343      8.46083260     -0.20674810
S        19.53903580      8.46495152     -0.21291836
S        16.56560898      8.14950085     -2.79740620
S        17.26284218      5.96037912      0.06726237
S        17.26284218     14.43577957      8.54266262
S        17.32273102     16.88428307     10.83870792
P        16.17993355     17.48150826      7.53427696
P        17.67678452     16.44917488      8.89905071
S        16.52798653     19.47405052      7.52153826
S        14.36910343     16.93623352      8.26865101
S        19.53903580     16.94035149      8.26248169
S        16.56560898     16.62489891      5.67799377
S        17.26284218     14.43577957     17.01806259
S        17.32273102     16.88428307     19.31410980
P        16.17993355     17.48150826     16.00967789
P        17.67678452     16.44917488     17.37444878
S        16.52798653     19.47405052     15.99693871
S        14.36910343     16.93623352     16.74405289
S        19.53903580     16.94035149     16.73787880
S        16.56560898     16.62489891     14.15339375
S        17.26284218     14.43577957      0.06726237
S        17.32273102     16.88428307      2.36330938
P        17.67678452     16.44917488      0.42365089
P        16.17993355     17.48150826     -0.94112307
S        16.52798653     19.47405052     -0.95386219
S        14.36910343     16.93623352     -0.20674810
S        19.53903580     16.94035149     -0.21291836
S        16.56560898     16.62489891     -2.79740620
P        24.65533257      0.53070819      7.53427696
S        25.00338554      2.52325249      7.52153826
S        25.73824120     -2.51502109      8.54266262
S        28.01443672     -0.01044759      8.26248169
S        25.04100990     -0.32589823      5.67799377
S        25.79812813     -0.06651601     10.83870792
S        22.84450340     -0.01456746      8.26865101
P        26.15218353     -0.50162607      8.89905071
P        24.65533257      0.53070819     16.00967789
S        25.00338554      2.52325249     15.99693871
S        25.73824120     -2.51502109     17.01806259
S        28.01443672     -0.01044759     16.73787880
S        25.04100990     -0.32589823     14.15339375
S        25.79812813     -0.06651601     19.31410980
S        22.84450340     -0.01456746     16.74405289
P        26.15218353     -0.50162607     17.37444878
S         2.58823633     25.41575241     25.21328163
P        -0.77086735     25.95690918     24.48507500
S        -0.42281252     27.94945145     24.47233772
S         0.31204274     22.91117668     25.49346161
S         0.37193090     25.35968399     27.78950691
S        -2.58169460     25.41163254     25.21945000
S        -0.38519007     25.10030174     22.62879181
P         0.72598386     24.92457390     25.84985161
S         0.31204274      5.96037912      8.54266262
P        -0.77086735      9.00610733      7.53427696
S        -0.42281252     10.99865246      7.52153826
S         0.37193090      8.40888214     10.83870792
S        -2.58169460      8.46083260      8.26865101
P         0.72598386      7.97377396      8.89905071
S         2.58823633      8.46495152      8.26248169
S        -0.38519007      8.14950085      5.67799377
S         0.31204274      5.96037912     17.01806259
P        -0.77086735      9.00610733     16.00967789
S        -0.42281252     10.99865246     15.99693871
S         0.37193090      8.40888214     19.31410980
S        -2.58169460      8.46083260     16.74405289
P         0.72598386      7.97377396     17.37444878
S         2.58823633      8.46495152     16.73787880
S        -0.38519007      8.14950085     14.15339375
S         0.31204274      5.96037912      0.06726237
S        -0.42281252     10.99865246     -0.95386219
P        -0.77086735      9.00610733     -0.94112307
S        -2.58169460      8.46083260     -0.20674810
S         0.37193090      8.40888214      2.36330938
P         0.72598386      7.97377396      0.42365089
S         2.58823633      8.46495152     -0.21291836
S        -0.38519007      8.14950085     -2.79740620
S         0.31204274     14.43577957      8.54266262
P        -0.77086735     17.48150826      7.53427696
S        -0.42281252     19.47405052      7.52153826
S         0.37193090     16.88428307     10.83870792
S        -2.58169460     16.93623352      8.26865101
P         0.72598386     16.44917488      8.89905071
S         2.58823633     16.94035149      8.26248169
S        -0.38519007     16.62489891      5.67799377
S         0.31204274     14.43577957     17.01806259
P        -0.77086735     17.48150826     16.00967789
S        -0.42281252     19.47405052     15.99693871
S         0.37193090     16.88428307     19.31410980
S        -2.58169460     16.93623352     16.74405289
P         0.72598386     16.44917488     17.37444878
S         2.58823633     16.94035149     16.73787880
S        -0.38519007     16.62489891     14.15339375
S         0.31204274     14.43577957      0.06726237
P        -0.77086735     17.48150826     -0.94112307
S        -0.42281252     19.47405052     -0.95386219
S        -2.58169460     16.93623352     -0.20674810
S         0.37193090     16.88428307      2.36330938
P         0.72598386     16.44917488      0.42365089
S         2.58823633     16.94035149     -0.21291836
S        -0.38519007     16.62489891     -2.79740620
S         4.34570980      6.74648380      3.33225846
S         4.48441505      5.35045958      6.41132498
P         4.93625259      3.38130617      3.57265472
S         6.90091324      3.87533736      3.67948604
P         3.83550787      5.12242985      4.48324537
S         4.20585394      3.27720547      1.68169951
S         4.24302483      1.87340367      4.75444221
S         1.83150578      4.76883507      4.33800030
S         4.34570980      6.74648380     11.80765820
S         4.48441505      5.35045958     14.88672447
P         4.93625259      3.38130617     12.04805470
S         6.90091324      3.87533736     12.15488529
P         3.83550787      5.12242985     12.95864487
S         4.20585394      3.27720547     10.15709972
S         4.24302483      1.87340367     13.22984123
S         1.83150578      4.76883507     12.81340027
S         4.34570980      6.74648380     20.28305817
S         4.48441505      5.35045958     23.36212349
P         4.93625259      3.38130617     20.52345467
S         6.90091324      3.87533736     20.63028526
P         3.83550787      5.12242985     21.43404579
S         4.20585394      3.27720547     18.63249969
S         4.24302483      1.87340367     21.70524216
S         1.83150578      4.76883507     21.28879929
S         4.34570980     15.22188377      3.33225846
S         4.48441505     13.82585907      6.41132498
P         4.93625259     11.85670662      3.57265472
S         6.90091324     12.35073757      3.67948604
P         3.83550787     13.59782982      4.48324537
S         4.20585394     11.75260544      1.68169951
S         4.24302483     10.34880257      4.75444221
S         1.83150578     13.24423409      4.33800030
S         1.83150578     13.24423409     12.81340027
S         4.34570980     15.22188377     11.80765820
S         4.48441505     13.82585907     14.88672447
P         4.93625259     11.85670662     12.04805470
S         6.90091324     12.35073757     12.15488529
P         3.83550787     13.59782982     12.95864487
S         4.20585394     11.75260544     10.15709972
S         4.24302483     10.34880257     13.22984123
S         1.83150578     13.24423409     21.28879929
S         4.34570980     15.22188377     20.28305817
S         4.48441505     13.82585907     23.36212349
P         4.93625259     11.85670662     20.52345467
S         6.90091324     12.35073757     20.63028526
P         3.83550787     13.59782982     21.43404579
S         4.20585394     11.75260544     18.63249969
S         4.24302483     10.34880257     21.70524216
S         1.83150578     21.71963501      4.33800030
S         4.34570980     23.69728470      3.33225846
S         4.48441505     22.30125809      6.41132498
P         4.93625259     20.33210564      3.57265472
S         6.90091324     20.82613754      3.67948604
P         3.83550787     22.07322884      4.48324537
S         4.20585394     20.22800255      1.68169951
S         4.24302483     18.82420349      4.75444221
S         1.83150578     21.71963501     12.81340027
S         4.34570980     23.69728470     11.80765820
S         4.48441505     22.30125809     14.88672447
P         4.93625259     20.33210564     12.04805470
S         6.90091324     20.82613754     12.15488529
P         3.83550787     22.07322884     12.95864487
S         4.20585394     20.22800255     10.15709972
S         4.24302483     18.82420349     13.22984123
S         1.83150578     21.71963501     21.28879929
S         4.34570980     23.69728470     20.28305817
S         4.48441505     22.30125809     23.36212349
P         4.93625259     20.33210564     20.52345467
S         6.90091324     20.82613754     20.63028526
P         3.83550787     22.07322884     21.43404579
S         4.20585394     20.22800255     18.63249969
S         4.24302483     18.82420349     21.70524216
S        12.71842480      1.87340367      4.75444221
S        10.30690575      4.76883507      4.33800030
S        12.82110882      6.74648380      3.33225846
S        12.95981503      5.35045958      6.41132498
P        13.41165257      3.38130617      3.57265472
S        15.37631226      3.87533736      3.67948604
P        12.31090641      5.12242985      4.48324537
S        12.68125343      3.27720547      1.68169951
S        12.71842480      1.87340367     13.22984123
S        10.30690575      4.76883507     12.81340027
S        12.82110882      6.74648380     11.80765820
S        12.95981503      5.35045958     14.88672447
P        13.41165257      3.38130617     12.04805470
S        15.37631226      3.87533736     12.15488529
P        12.31090641      5.12242985     12.95864487
S        12.68125343      3.27720547     10.15709972
S        12.71842480      1.87340367     21.70524216
S        10.30690575      4.76883507     21.28879929
S        12.82110882      6.74648380     20.28305817
S        12.95981503      5.35045958     23.36212349
P        13.41165257      3.38130617     20.52345467
S        15.37631226      3.87533736     20.63028526
P        12.31090641      5.12242985     21.43404579
S        12.68125343      3.27720547     18.63249969
S        12.71842480     10.34880257      4.75444221
S        10.30690575     13.24423409      4.33800030
S        12.82110882     15.22188377      3.33225846
S        12.95981503     13.82585907      6.41132498
P        13.41165257     11.85670662      3.57265472
S        15.37631226     12.35073757      3.67948604
P        12.31090641     13.59782982      4.48324537
S        12.68125343     11.75260544      1.68169951
S        12.71842480     10.34880257     13.22984123
S        10.30690575     13.24423409     12.81340027
S        12.82110882     15.22188377     11.80765820
S        12.95981503     13.82585907     14.88672447
P        13.41165257     11.85670662     12.04805470
S        15.37631226     12.35073757     12.15488529
P        12.31090641     13.59782982     12.95864487
S        12.68125343     11.75260544     10.15709972
S        12.68125343     11.75260544     18.63249969
S        12.71842480     10.34880257     21.70524216
S        10.30690575     13.24423409     21.28879929
S        12.82110882     15.22188377     20.28305817
S        12.95981503     13.82585907     23.36212349
P        13.41165257     11.85670662     20.52345467
S        15.37631226     12.35073757     20.63028526
P        12.31090641     13.59782982     21.43404579
S        12.68125343     20.22800255      1.68169951
S        12.71842480     18.82420349      4.75444221
S        10.30690575     21.71963501      4.33800030
S        12.82110882     23.69728470      3.33225846
S        12.95981503     22.30125809      6.41132498
P        13.41165257     20.33210564      3.57265472
S        15.37631226     20.82613754      3.67948604
P        12.31090641     22.07322884      4.48324537
S        12.68125343     20.22800255     10.15709972
S        12.71842480     18.82420349     13.22984123
S        10.30690575     21.71963501     12.81340027
S        12.82110882     23.69728470     11.80765820
S        12.95981503     22.30125809     14.88672447
P        13.41165257     20.33210564     12.04805470
S        15.37631226     20.82613754     12.15488529
P        12.31090641     22.07322884     12.95864487
S        12.68125343     20.22800255     18.63249969
S        12.71842480     18.82420349     21.70524216
S        10.30690575     21.71963501     21.28879929
S        12.82110882     23.69728470     20.28305817
S        12.95981503     22.30125809     23.36212349
P        13.41165257     20.33210564     20.52345467
S        15.37631226     20.82613754     20.63028526
P        12.31090641     22.07322884     21.43404579
P        20.78630829      5.12242985      4.48324537
S        21.15665245      3.27720547      1.68169951
S        21.19382477      1.87340367      4.75444221
S        18.78230667      4.76883507      4.33800030
S        21.29650879      6.74648380      3.33225846
S        21.43521500      5.35045958      6.41132498
P        21.88705063      3.38130617      3.57265472
S        23.85171127      3.87533736      3.67948604
S        23.85171127      3.87533736     12.15488529
P        20.78630829      5.12242985     12.95864487
S        21.15665245      3.27720547     10.15709972
S        21.19382477      1.87340367     13.22984123
S        18.78230667      4.76883507     12.81340027
S        21.29650879      6.74648380     11.80765820
S        21.43521500      5.35045958     14.88672447
P        21.88705063      3.38130617     12.04805470
S        23.85171127      3.87533736     20.63028526
P        20.78630829      5.12242985     21.43404579
S        21.15665245      3.27720547     18.63249969
S        21.19382477      1.87340367     21.70524216
S        18.78230667      4.76883507     21.28879929
S        21.29650879      6.74648380     20.28305817
S        21.43521500      5.35045958     23.36212349
P        21.88705063      3.38130617     20.52345467
S        23.85171127     12.35073757      3.67948604
P        20.78630829     13.59782982      4.48324537
S        21.15665245     11.75260544      1.68169951
S        21.19382477     10.34880257      4.75444221
S        18.78230667     13.24423409      4.33800030
S        21.29650879     15.22188377      3.33225846
S        21.43521500     13.82585907      6.41132498
P        21.88705063     11.85670662      3.57265472
S        23.85171127     12.35073757     12.15488529
P        20.78630829     13.59782982     12.95864487
S        21.15665245     11.75260544     10.15709972
S        21.19382477     10.34880257     13.22984123
S        18.78230667     13.24423409     12.81340027
S        21.29650879     15.22188377     11.80765820
S        21.43521500     13.82585907     14.88672447
P        21.88705063     11.85670662     12.04805470
P        21.88705063     11.85670662     20.52345467
S        23.85171127     12.35073757     20.63028526
P        20.78630829     13.59782982     21.43404579
S        21.15665245     11.75260544     18.63249969
S        21.19382477     10.34880257     21.70524216
S        18.78230667     13.24423409     21.28879929
S        21.29650879     15.22188377     20.28305817
S        21.43521500     13.82585907     23.36212349
P        21.88705063     20.33210564      3.57265472
S        23.85171127     20.82613754      3.67948604
P        20.78630829     22.07322884      4.48324537
S        21.15665245     20.22800255      1.68169951
S        21.19382477     18.82420349      4.75444221
S        18.78230667     21.71963501      4.33800030
S        21.29650879     23.69728470      3.33225846
S        21.43521500     22.30125809      6.41132498
P        21.88705063     20.33210564     12.04805470
S        23.85171127     20.82613754     12.15488529
P        20.78630829     22.07322884     12.95864487
S        21.15665245     20.22800255     10.15709972
S        21.19382477     18.82420349     13.22984123
S        18.78230667     21.71963501     12.81340027
S        21.29650879     23.69728470     11.80765820
S        21.43521500     22.30125809     14.88672447
S        21.43521500     22.30125809     23.36212349
P        21.88705063     20.33210564     20.52345467
S        23.85171127     20.82613754     20.63028526
P        20.78630829     22.07322884     21.43404579
S        21.15665245     20.22800255     18.63249969
S        21.19382477     18.82420349     21.70524216
S        18.78230667     21.71963501     21.28879929
S        21.29650879     23.69728470     20.28305817
