648

Na      -44.08849716      1.07305205     -4.67752218
Na       22.37291908     16.46181488     14.16246986
Na       15.85834599      4.77789402     40.13629532
Na       -6.19019794     30.64035416     10.49859047
Na       39.19004440     19.60674858     32.73279190
Na       13.57501984      2.79497838     24.11589432
Na       22.23292351     24.84508705     -2.93279362
Na       30.56269646     25.04668999     14.14972305
Na       -7.86540842     27.48941231     13.03153706
Na       18.64458847     15.15890598      6.03852224
Na       31.07323456      7.92142773      5.54980707
Na       22.09114075      7.88692045     22.82752800
Na       27.33292389     23.43194389     15.11059666
Na       28.29018784     31.22729874      9.81955433
Na        7.25935984     -3.15299797     22.95981026
Na        9.24822521     27.29235649      4.76099777
Na        3.21304464      9.63271713     19.42335701
Na       -1.74104929     14.67478180     10.48414707
Na       27.52936554    -10.44769669     14.97151852
Na       15.10209084      6.23727846      1.67573678
Na      -11.37782478     -9.21708012     39.75312424
Na       38.99549103     11.33524990     16.08540154
Na       19.41077042     13.91310883     -6.97271490
Na       22.13184738     -0.52182037     31.19627762
Na       36.73331833     14.21566296      1.31858885
Na       16.04097748     22.58687592     31.27057266
Na       -3.45073056     10.75086212     41.14751053
Na       19.99968719     -7.79004049      2.55233240
Na        6.80736494     14.79654694     10.78564930
Na       12.01215458     17.56314850      2.17176366
Na       13.16675472     19.41135979     16.21754837
Na        8.62925911     11.38803196     27.26848412
Na       15.15059757    -10.91600323     18.94911766
Na       19.85971069      0.62030053     27.94728279
Na       -1.59737611     23.43068886     10.20162392
Na        4.98227501     24.80156517      5.94354630
Na      -14.89184761    -18.71739388     14.95492840
Na       24.52667618     13.73233318     14.36748219
Na        6.69101381    -10.90842724     22.23765755
Na       13.79219532      7.99604511      5.62339544
Na      -26.70304108      5.57839537      6.28717947
Na       30.67217636     19.74343491     32.58645630
Na        6.90672302     32.08057404     11.09201813
Na        8.80755711     18.75506210     13.22792053
Na       30.54174232     41.77299118     14.18946266
Na        0.92639166    -14.84102154     -3.69844365
Na       10.56880379     -2.89419675     10.26564789
Na       31.92687988    -11.22602940     27.06855392
Na       11.00625420     13.68487358      9.56764030
Na       22.15521622     16.14533997      5.53360653
Na       46.85083008     27.85431480     16.00436020
Na       57.48131943      6.21904707     27.38961601
Na       19.28319740     11.00020599      6.45816374
Na        3.33259177     17.70194435     19.42424965
Na      -13.72450924      0.87389737     18.98252106
Na        5.03592587      8.04963398     14.42636108
Na       11.74205589     -8.07405663     19.39221382
Na       -3.87579465      2.39316440      7.35874653
Na       11.90147018      0.70050675     10.78782082
Na      -10.05750370      2.30824018     43.84113312
Na        3.14659977      9.09242535      2.73224592
Na       14.08846378     16.67866135      5.29554033
Na       35.43833160     27.45833206     22.78373528
Na      -24.15238571     -6.30798960      5.19076777
Na      -40.97797012    -15.06234837     20.07854271
Na        4.54495621     -6.17228842     24.27707863
Na       45.38320160      9.24792385      2.59291935
Na      -12.01725864     11.30170155     -1.58385921
Na      -14.74657249      7.42885828     22.54921341
Na      -30.38378906     26.12220764    -14.59364605
Na       13.98111439     24.57088661     22.76974869
Na       -3.78715539     19.69001198     49.78613663
Na       18.28015327      2.13316274      4.98086882
Na        3.16397214     17.34267807      2.17672396
Na       18.63165474    -18.93878555     23.17056847
Na       32.60897827     -3.56536174     14.61904049
Na       30.75841522     16.29885292      5.39956474
Na       47.98742676     24.66521835     14.19921780
Na        5.21062946     11.13016891     -1.23012376
Na       28.36322212      9.33549881     10.75475597
Na       45.48659134     22.68824959     17.65664864
Na       -7.66597605     10.75564671     13.65163326
Na       19.85552216      5.89951563     17.50326347
Na       11.77852631     -7.86631680     36.16342163
Na       23.80820656     23.04570580     18.94104195
Na       23.61801720     10.83363724     18.36682129
Na       -9.19169807     19.54077148      9.95110226
Na       51.90383530     27.18917084     -3.60235572
Na       11.17187881     22.52779198     18.42795944
Na        6.55541134     15.01221752     18.92893600
Na       -5.60291576     13.99681187      9.66205502
Na       13.68180847     -0.50293201     39.51918793
Na       21.77608681     19.51605988     32.91149139
Na       19.46700859      5.71997499      1.60347068
Na       -4.91709852      9.21518993     10.73781681
Na       41.16330338     27.30456924     27.20134163
Na        3.12833786     26.36260605    -14.32333374
Na      -32.38891602     18.99756050     14.00701904
Na       23.89252281     31.81609154     10.47390652
Na       47.45548248     -5.93980408     16.02886772
Na       53.48203278     13.89867878     18.44410324
Na       32.61906052     13.17733097      6.20527458
Na       -5.37899303      0.53954744     -5.90398645
Na       41.00417709     19.12779808     18.61951828
Na       22.49216080     11.21630669     24.56982803
Na       24.23218727     22.22989082      6.19518328
Na      -30.81076622     17.98011780     -6.30245161
Na       28.11065292     14.48823166     35.21895218
Na       -1.75054216     -2.42981958     27.39192963
Na      -18.15402031    -12.06534576     14.79824448
Na       39.38464737     16.51691818     22.50819778
Na       15.66060829     10.47102451     10.11974812
Na        3.08686566     31.29137993     25.63360405
Na       10.30957222     -9.87212563     65.49140167
Na       11.42027664     30.97306442     26.59965515
Na       15.30321693     31.62270355     10.45909882
Na        6.70743227     19.16213799     27.00982857
Na       27.03526497     -1.56840408      6.21445751
Na        6.63110209     10.45812321     18.40581131
Na       17.59436989      2.57865977     21.96065331
Na       35.79608536     -1.87229991      6.26113367
Na       53.13317108     22.51118660     18.68696976
Na       35.16168594     28.08622742     26.82842827
Na      -14.32561016     13.83615971     18.49645424
Na       35.43227768     35.47888565      6.31039429
Na        4.39297390     24.89148140     22.75606918
Na       22.21808624    -17.41675758     13.77264595
Na       10.60361385     15.16938496      6.50009012
Na        6.40356922      5.90683603     18.62053680
Na       10.05515003     19.08504486     -3.31014919
Na       24.37092590     36.09177399      1.80893350
Na       -5.42430019      9.17464447     44.67863083
Na       66.65559387     47.65955353     14.48765659
Na       41.96685791     36.41461945      1.69513094
Na       35.77430344     23.78535843     23.23863983
Na      -26.19608498     22.29538345     -2.18520594
Na      -18.25779343      5.04779339      6.08517647
Na       13.82411861     -0.52915961     30.80519676
Na      -32.36275482     14.96774673     14.81508923
Na       23.71966934     26.92777824      1.98697174
Na       27.66016579     31.32107735     18.96445656
Na       14.15994167     36.80560684      7.31101799
Na        2.70952988     26.76096153      2.34298038
Na        7.10414982     10.48865128     35.48503113
Na      -14.33468151      5.45901251     -7.44937086
Na       19.66362762      7.29670572     31.18744659
Na       30.79789162      7.98169756     22.42405891
Na        3.35900688     17.72122955     10.90455627
Na       32.41686630     19.21746063     -7.18024588
Na       35.17599869     10.18004704     39.28988647
Na       29.45094490     53.81041718      7.61343479
Na      -31.47305107     23.89242172     14.45367908
Na        3.14321899     26.22314072     19.06425667
Na       -1.35869789      5.52897358     14.23549747
Na       22.05492020     -9.03635120     22.72564125
Na       58.17192078      5.45381689     22.58245087
Na       47.41911697     27.69739914     -1.35451961
Na      -10.00948334     -2.01499867     19.34594536
Na       18.58560944     15.25288010     23.44729614
Na       20.21456337     17.31800652     10.72854519
Na        6.76907301     23.24835396     10.32630062
Na        4.87989616     27.85151100     24.55138397
Na       35.03984451     18.86619186      4.85610342
Na      -23.29854774     -5.96941185     14.81663227
Na      -13.18866825      2.62848496     32.60248566
Na       27.49298477     -9.99598885     -2.31552744
Na       13.84935665      8.01125240     22.46808624
Na       27.61861992      6.31498718     15.18599510
Na      -27.05660629      1.80629468     18.76565361
Na      -32.93417358     19.00154495     30.31297302
Na       19.51947212     22.55957031     27.16537285
Na       24.32304764     19.04689980      1.57195616
Na       23.84326363      6.40483713     18.99934387
Na       27.93745232     13.99307251     27.00511360
Na       24.65981674      4.74686289     -2.46031570
Na       10.54242420     28.14797401     14.52715397
Na       -6.15315914     13.76345539     27.09888458
Na       28.12075043     22.37903595      1.24599838
Na       16.18123627     10.68103695     18.83956337
Na       13.78727341     19.67677307     24.76544380
Na       27.19087982     11.01463795      5.99385023
Na       30.22281837      2.47280574     16.01759911
Na       19.64092827     -2.54742312     35.01908493
Na       13.84160900      7.72754622     14.18064308
Na       42.14355087     18.89745331     21.65778351
Na       -6.64168978     -2.34383893     23.37052536
Na       26.97042465     27.36661911      5.30528975
Na       11.87074471      9.24302483     10.93300629
Na       32.25621033     23.40028572     27.25759125
Na       11.58743954      9.07990456      2.54625821
Na       41.24090195      5.31914759     32.06906509
Na       -1.94458544    -10.67721844     26.94047737
Na       35.64159775     -1.94552064     14.83411407
Na        1.68624032     32.16750717      5.94708729
Na      -35.63398361      6.04901361     19.09654427
Na       15.40744972     14.60290813      2.06973767
Na      -18.72668648     -1.97302127     18.76624489
Na      -32.16695786     10.53406143     22.63625908
Na        2.89731026     -2.92722750      9.51439953
Na       15.91825771     -2.17470932      2.41978908
Na       49.39714813    -11.83915520     31.80560112
Na       -1.45444191      6.32512283      2.35932636
Na       24.07257271     -6.53190899     10.23983765
Na       24.46388817     10.76978970     35.62676239
Na       23.71990204     39.70684052     -6.78551960
Na       26.61755371     44.39079666     -3.73323345
Na       52.89240265     40.73748016      6.04158640
Na       40.68968582     -2.04965162     10.73075485
Na       15.30429935    -10.70759106     10.54249001
Na       11.02320862     -3.11313486     27.21774292
Na       10.22772980     14.86105251     -2.06044030
Na      -17.24499321      2.67656183     10.00256157
Na       11.46843624      6.15213251     34.66743469
Na       51.98104477     26.98612976     13.82878971
Na       53.02109146     11.25768375     14.91384697
Na       -1.90342832     18.46299362     18.91222000
S         8.84733009     25.35968399     10.83870792
P         9.20138359     24.92457390      8.89905071
S         8.09020901     25.10030174      5.67799377
S         5.89370441     25.41163254      8.26865101
S         8.78744221     22.91117668      8.54266262
P         7.70453310     25.95690918      7.53427696
S         8.05258656     27.94945145      7.52153826
S        11.06363583     25.41575241      8.26248169
S         8.84733009     25.35968399     19.31410980
P         9.20138359     24.92457390     17.37444878
S         8.09020901     25.10030174     14.15339375
S         5.89370441     25.41163254     16.74405289
P         7.70453310     25.95690918     16.00967789
S         8.78744221     22.91117668     17.01806259
S         8.05258656     27.94945145     15.99693871
S        11.06363583     25.41575241     16.73787880
S        11.06363583     25.41575241     25.21328163
P         9.20138359     24.92457390     25.84985161
S         5.89370441     25.41163254     25.21945000
S         8.09020901     25.10030174     22.62879181
S         8.05258656     27.94945145     24.47233772
S         8.78744221     22.91117668     25.49346161
P         7.70453310     25.95690918     24.48507500
S         8.84733009     25.35968399     27.78950691
S         5.89370441      8.46083260      8.26865101
S        11.06363583      8.46495152      8.26248169
S         8.09020901      8.14950085      5.67799377
S         8.78744221      5.96037912      8.54266262
S         8.84733009      8.40888214     10.83870792
P         7.70453310      9.00610733      7.53427696
P         9.20138359      7.97377396      8.89905071
S         8.05258656     10.99865246      7.52153826
S         5.89370441      8.46083260     16.74405289
S        11.06363583      8.46495152     16.73787880
S         8.09020901      8.14950085     14.15339375
S         8.78744221      5.96037912     17.01806259
S         8.84733009      8.40888214     19.31410980
P         7.70453310      9.00610733     16.00967789
P         9.20138359      7.97377396     17.37444878
S         8.05258656     10.99865246     15.99693871
S        11.06363583      8.46495152     25.21328163
S         8.09020901      8.14950085     22.62879181
S         8.78744221      5.96037912     25.49346161
P         7.70453310      9.00610733     24.48507500
S         8.84733009      8.40888214     27.78950691
P         9.20138359      7.97377396     25.84985161
S         8.05258656     10.99865246     24.47233772
S         5.89370441      8.46083260     25.21945000
P         9.20138359     16.44917488      8.89905071
S         8.05258656     19.47405052      7.52153826
S         5.89370441     16.93623352      8.26865101
S        11.06363583     16.94035149      8.26248169
S         8.09020901     16.62489891      5.67799377
S         8.78744221     14.43577957      8.54266262
S         8.84733009     16.88428307     10.83870792
P         7.70453310     17.48150826      7.53427696
P         9.20138359     16.44917488     17.37444878
S         8.05258656     19.47405052     15.99693871
S         5.89370441     16.93623352     16.74405289
S        11.06363583     16.94035149     16.73787880
S         8.09020901     16.62489891     14.15339375
S         8.78744221     14.43577957     17.01806259
S         8.84733009     16.88428307     19.31410980
P         7.70453310     17.48150826     16.00967789
P         7.70453310     17.48150826     24.48507500
S         8.05258656     19.47405052     24.47233772
S         5.89370441     16.93623352     25.21945000
S        11.06363583     16.94035149     25.21328163
S         8.09020901     16.62489891     22.62879181
S         8.78744221     14.43577957     25.49346161
S         8.84733009     16.88428307     27.78950691
P         9.20138359     16.44917488     25.84985161
P        16.17993355      0.53070819      7.53427696
S        16.52798653      2.52325249      7.52153826
S        17.26284218     -2.51502109      8.54266262
S        19.53903580     -0.01044759      8.26248169
S        17.32273102     -0.06651601     10.83870792
P        17.67678452     -0.50162607      8.89905071
S        16.56560898     -0.32589823      5.67799377
S        14.36910343     -0.01456746      8.26865101
P        16.17993355      0.53070819     16.00967789
S        16.52798653      2.52325249     15.99693871
S        17.26284218     -2.51502109     17.01806259
S        19.53903580     -0.01044759     16.73787880
S        17.32273102     -0.06651601     19.31410980
P        17.67678452     -0.50162607     17.37444878
S        16.56560898     -0.32589823     14.15339375
S        14.36910343     -0.01456746     16.74405289
S        16.52798653      2.52325249     24.47233772
P        16.17993355      0.53070819     24.48507500
S        17.26284218     -2.51502109     25.49346161
S        17.32273102     -0.06651601     27.78950691
S        19.53903580     -0.01044759     25.21328163
P        17.67678452     -0.50162607     25.84985161
S        14.36910343     -0.01456746     25.21945000
S        16.56560898     -0.32589823     22.62879181
S        17.32273102      8.40888214     10.83870792
P        16.17993355      9.00610733      7.53427696
P        17.67678452      7.97377396      8.89905071
S        16.52798653     10.99865246      7.52153826
S        14.36910343      8.46083260      8.26865101
S        19.53903580      8.46495152      8.26248169
S        16.56560898      8.14950085      5.67799377
S        17.26284218      5.96037912      8.54266262
S        17.32273102      8.40888214     19.31410980
P        16.17993355      9.00610733     16.00967789
P        17.67678452      7.97377396     17.37444878
S        16.52798653     10.99865246     15.99693871
S        14.36910343      8.46083260     16.74405289
S        19.53903580      8.46495152     16.73787880
S        16.56560898      8.14950085     14.15339375
S        17.26284218      5.96037912     17.01806259
S        17.32273102      8.40888214      2.36330938
P        17.67678452      7.97377396      0.42365089
S        16.52798653     10.99865246     -0.95386219
P        16.17993355      9.00610733     -0.94112307
S        14.36910343      8.46083260     -0.20674810
S        19.53903580      8.46495152     -0.21291836
S        16.56560898      8.14950085     -2.79740620
S        17.26284218      5.96037912      0.06726237
S        17.26284218     14.43577957      8.54266262
S        17.32273102     16.88428307     10.83870792
P        16.17993355     17.48150826      7.53427696
P        17.67678452     16.44917488      8.89905071
S        16.52798653     19.47405052      7.52153826
S        14.36910343     16.93623352      8.26865101
S        19.53903580     16.94035149      8.26248169
S        16.56560898     16.62489891      5.67799377
S        17.26284218     14.43577957     17.01806259
S        17.32273102     16.88428307     19.31410980
P        16.17993355     17.48150826     16.00967789
P        17.67678452     16.44917488     17.37444878
S        16.52798653     19.47405052     15.99693871
S        14.36910343     16.93623352     16.74405289
S        19.53903580     16.94035149     16.73787880
S        16.56560898     16.62489891     14.15339375
S        17.26284218     14.43577957      0.06726237
S        17.32273102     16.88428307      2.36330938
P        17.67678452     16.44917488      0.42365089
P        16.17993355     17.48150826     -0.94112307
S        16.52798653     19.47405052     -0.95386219
S        14.36910343     16.93623352     -0.20674810
S        19.53903580     16.94035149     -0.21291836
S        16.56560898     16.62489891     -2.79740620
P        24.65533257      0.53070819      7.53427696
S        25.00338554      2.52325249      7.52153826
S        25.73824120     -2.51502109      8.54266262
S        28.01443672     -0.01044759      8.26248169
S        25.04100990     -0.32589823      5.67799377
S        25.79812813     -0.06651601     10.83870792
S        22.84450340     -0.01456746      8.26865101
P        26.15218353     -0.50162607      8.89905071
P        24.65533257      0.53070819     16.00967789
S        25.00338554      2.52325249     15.99693871
S        25.73824120     -2.51502109     17.01806259
S        28.01443672     -0.01044759     16.73787880
S        25.04100990     -0.32589823     14.15339375
S        25.79812813     -0.06651601     19.31410980
S        22.84450340     -0.01456746     16.74405289
P        26.15218353     -0.50162607     17.37444878
S         2.58823633     25.41575241     25.21328163
P        -0.77086735     25.95690918     24.48507500
S        -0.42281252     27.94945145     24.47233772
S         0.31204274     22.91117668     25.49346161
S         0.37193090     25.35968399     27.78950691
S        -2.58169460     25.41163254     25.21945000
S        -0.38519007     25.10030174     22.62879181
P         0.72598386     24.92457390     25.84985161
S         0.31204274      5.96037912      8.54266262
P        -0.77086735      9.00610733      7.53427696
S        -0.42281252     10.99865246      7.52153826
S         0.37193090      8.40888214     10.83870792
S        -2.58169460      8.46083260      8.26865101
P         0.72598386      7.97377396      8.89905071
S         2.58823633      8.46495152      8.26248169
S        -0.38519007      8.14950085      5.67799377
S         0.31204274      5.96037912     17.01806259
P        -0.77086735      9.00610733     16.00967789
S        -0.42281252     10.99865246     15.99693871
S         0.37193090      8.40888214     19.31410980
S        -2.58169460      8.46083260     16.74405289
P         0.72598386      7.97377396     17.37444878
S         2.58823633      8.46495152     16.73787880
S        -0.38519007      8.14950085     14.15339375
S         0.31204274      5.96037912      0.06726237
S        -0.42281252     10.99865246     -0.95386219
P        -0.77086735      9.00610733     -0.94112307
S        -2.58169460      8.46083260     -0.20674810
S         0.37193090      8.40888214      2.36330938
P         0.72598386      7.97377396      0.42365089
S         2.58823633      8.46495152     -0.21291836
S        -0.38519007      8.14950085     -2.79740620
S         0.31204274     14.43577957      8.54266262
P        -0.77086735     17.48150826      7.53427696
S        -0.42281252     19.47405052      7.52153826
S         0.37193090     16.88428307     10.83870792
S        -2.58169460     16.93623352      8.26865101
P         0.72598386     16.44917488      8.89905071
S         2.58823633     16.94035149      8.26248169
S        -0.38519007     16.62489891      5.67799377
S         0.31204274     14.43577957     17.01806259
P        -0.77086735     17.48150826     16.00967789
S        -0.42281252     19.47405052     15.99693871
S         0.37193090     16.88428307     19.31410980
S        -2.58169460     16.93623352     16.74405289
P         0.72598386     16.44917488     17.37444878
S         2.58823633     16.94035149     16.73787880
S        -0.38519007     16.62489891     14.15339375
S         0.31204274     14.43577957      0.06726237
P        -0.77086735     17.48150826     -0.94112307
S        -0.42281252     19.47405052     -0.95386219
S        -2.58169460     16.93623352     -0.20674810
S         0.37193090     16.88428307      2.36330938
P         0.72598386     16.44917488      0.42365089
S         2.58823633     16.94035149     -0.21291836
S        -0.38519007     16.62489891     -2.79740620
S         4.34570980      6.74648380      3.33225846
S         4.48441505      5.35045958      6.41132498
P         4.93625259      3.38130617      3.57265472
S         6.90091324      3.87533736      3.67948604
P         3.83550787      5.12242985      4.48324537
S         4.20585394      3.27720547      1.68169951
S         4.24302483      1.87340367      4.75444221
S         1.83150578      4.76883507      4.33800030
S         4.34570980      6.74648380     11.80765820
S         4.48441505      5.35045958     14.88672447
P         4.93625259      3.38130617     12.04805470
S         6.90091324      3.87533736     12.15488529
P         3.83550787      5.12242985     12.95864487
S         4.20585394      3.27720547     10.15709972
S         4.24302483      1.87340367     13.22984123
S         1.83150578      4.76883507     12.81340027
S         4.34570980      6.74648380     20.28305817
S         4.48441505      5.35045958     23.36212349
P         4.93625259      3.38130617     20.52345467
S         6.90091324      3.87533736     20.63028526
P         3.83550787      5.12242985     21.43404579
S         4.20585394      3.27720547     18.63249969
S         4.24302483      1.87340367     21.70524216
S         1.83150578      4.76883507     21.28879929
S         4.34570980     15.22188377      3.33225846
S         4.48441505     13.82585907      6.41132498
P         4.93625259     11.85670662      3.57265472
S         6.90091324     12.35073757      3.67948604
P         3.83550787     13.59782982      4.48324537
S         4.20585394     11.75260544      1.68169951
S         4.24302483     10.34880257      4.75444221
S         1.83150578     13.24423409      4.33800030
S         1.83150578     13.24423409     12.81340027
S         4.34570980     15.22188377     11.80765820
S         4.48441505     13.82585907     14.88672447
P         4.93625259     11.85670662     12.04805470
S         6.90091324     12.35073757     12.15488529
P         3.83550787     13.59782982     12.95864487
S         4.20585394     11.75260544     10.15709972
S         4.24302483     10.34880257     13.22984123
S         1.83150578     13.24423409     21.28879929
S         4.34570980     15.22188377     20.28305817
S         4.48441505     13.82585907     23.36212349
P         4.93625259     11.85670662     20.52345467
S         6.90091324     12.35073757     20.63028526
P         3.83550787     13.59782982     21.43404579
S         4.20585394     11.75260544     18.63249969
S         4.24302483     10.34880257     21.70524216
S         1.83150578     21.71963501      4.33800030
S         4.34570980     23.69728470      3.33225846
S         4.48441505     22.30125809      6.41132498
P         4.93625259     20.33210564      3.57265472
S         6.90091324     20.82613754      3.67948604
P         3.83550787     22.07322884      4.48324537
S         4.20585394     20.22800255      1.68169951
S         4.24302483     18.82420349      4.75444221
S         1.83150578     21.71963501     12.81340027
S         4.34570980     23.69728470     11.80765820
S         4.48441505     22.30125809     14.88672447
P         4.93625259     20.33210564     12.04805470
S         6.90091324     20.82613754     12.15488529
P         3.83550787     22.07322884     12.95864487
S         4.20585394     20.22800255     10.15709972
S         4.24302483     18.82420349     13.22984123
S         1.83150578     21.71963501     21.28879929
S         4.34570980     23.69728470     20.28305817
S         4.48441505     22.30125809     23.36212349
P         4.93625259     20.33210564     20.52345467
S         6.90091324     20.82613754     20.63028526
P         3.83550787     22.07322884     21.43404579
S         4.20585394     20.22800255     18.63249969
S         4.24302483     18.82420349     21.70524216
S        12.71842480      1.87340367      4.75444221
S        10.30690575      4.76883507      4.33800030
S        12.82110882      6.74648380      3.33225846
S        12.95981503      5.35045958      6.41132498
P        13.41165257      3.38130617      3.57265472
S        15.37631226      3.87533736      3.67948604
P        12.31090641      5.12242985      4.48324537
S        12.68125343      3.27720547      1.68169951
S        12.71842480      1.87340367     13.22984123
S        10.30690575      4.76883507     12.81340027
S        12.82110882      6.74648380     11.80765820
S        12.95981503      5.35045958     14.88672447
P        13.41165257      3.38130617     12.04805470
S        15.37631226      3.87533736     12.15488529
P        12.31090641      5.12242985     12.95864487
S        12.68125343      3.27720547     10.15709972
S        12.71842480      1.87340367     21.70524216
S        10.30690575      4.76883507     21.28879929
S        12.82110882      6.74648380     20.28305817
S        12.95981503      5.35045958     23.36212349
P        13.41165257      3.38130617     20.52345467
S        15.37631226      3.87533736     20.63028526
P        12.31090641      5.12242985     21.43404579
S        12.68125343      3.27720547     18.63249969
S        12.71842480     10.34880257      4.75444221
S        10.30690575     13.24423409      4.33800030
S        12.82110882     15.22188377      3.33225846
S        12.95981503     13.82585907      6.41132498
P        13.41165257     11.85670662      3.57265472
S        15.37631226     12.35073757      3.67948604
P        12.31090641     13.59782982      4.48324537
S        12.68125343     11.75260544      1.68169951
S        12.71842480     10.34880257     13.22984123
S        10.30690575     13.24423409     12.81340027
S        12.82110882     15.22188377     11.80765820
S        12.95981503     13.82585907     14.88672447
P        13.41165257     11.85670662     12.04805470
S        15.37631226     12.35073757     12.15488529
P        12.31090641     13.59782982     12.95864487
S        12.68125343     11.75260544     10.15709972
S        12.68125343     11.75260544     18.63249969
S        12.71842480     10.34880257     21.70524216
S        10.30690575     13.24423409     21.28879929
S        12.82110882     15.22188377     20.28305817
S        12.95981503     13.82585907     23.36212349
P        13.41165257     11.85670662     20.52345467
S        15.37631226     12.35073757     20.63028526
P        12.31090641     13.59782982     21.43404579
S        12.68125343     20.22800255      1.68169951
S        12.71842480     18.82420349      4.75444221
S        10.30690575     21.71963501      4.33800030
S        12.82110882     23.69728470      3.33225846
S        12.95981503     22.30125809      6.41132498
P        13.41165257     20.33210564      3.57265472
S        15.37631226     20.82613754      3.67948604
P        12.31090641     22.07322884      4.48324537
S        12.68125343     20.22800255     10.15709972
S        12.71842480     18.82420349     13.22984123
S        10.30690575     21.71963501     12.81340027
S        12.82110882     23.69728470     11.80765820
S        12.95981503     22.30125809     14.88672447
P        13.41165257     20.33210564     12.04805470
S        15.37631226     20.82613754     12.15488529
P        12.31090641     22.07322884     12.95864487
S        12.68125343     20.22800255     18.63249969
S        12.71842480     18.82420349     21.70524216
S        10.30690575     21.71963501     21.28879929
S        12.82110882     23.69728470     20.28305817
S        12.95981503     22.30125809     23.36212349
P        13.41165257     20.33210564     20.52345467
S        15.37631226     20.82613754     20.63028526
P        12.31090641     22.07322884     21.43404579
P        20.78630829      5.12242985      4.48324537
S        21.15665245      3.27720547      1.68169951
S        21.19382477      1.87340367      4.75444221
S        18.78230667      4.76883507      4.33800030
S        21.29650879      6.74648380      3.33225846
S        21.43521500      5.35045958      6.41132498
P        21.88705063      3.38130617      3.57265472
S        23.85171127      3.87533736      3.67948604
S        23.85171127      3.87533736     12.15488529
P        20.78630829      5.12242985     12.95864487
S        21.15665245      3.27720547     10.15709972
S        21.19382477      1.87340367     13.22984123
S        18.78230667      4.76883507     12.81340027
S        21.29650879      6.74648380     11.80765820
S        21.43521500      5.35045958     14.88672447
P        21.88705063      3.38130617     12.04805470
S        23.85171127      3.87533736     20.63028526
P        20.78630829      5.12242985     21.43404579
S        21.15665245      3.27720547     18.63249969
S        21.19382477      1.87340367     21.70524216
S        18.78230667      4.76883507     21.28879929
S        21.29650879      6.74648380     20.28305817
S        21.43521500      5.35045958     23.36212349
P        21.88705063      3.38130617     20.52345467
S        23.85171127     12.35073757      3.67948604
P        20.78630829     13.59782982      4.48324537
S        21.15665245     11.75260544      1.68169951
S        21.19382477     10.34880257      4.75444221
S        18.78230667     13.24423409      4.33800030
S        21.29650879     15.22188377      3.33225846
S        21.43521500     13.82585907      6.41132498
P        21.88705063     11.85670662      3.57265472
S        23.85171127     12.35073757     12.15488529
P        20.78630829     13.59782982     12.95864487
S        21.15665245     11.75260544     10.15709972
S        21.19382477     10.34880257     13.22984123
S        18.78230667     13.24423409     12.81340027
S        21.29650879     15.22188377     11.80765820
S        21.43521500     13.82585907     14.88672447
P        21.88705063     11.85670662     12.04805470
P        21.88705063     11.85670662     20.52345467
S        23.85171127     12.35073757     20.63028526
P        20.78630829     13.59782982     21.43404579
S        21.15665245     11.75260544     18.63249969
S        21.19382477     10.34880257     21.70524216
S        18.78230667     13.24423409     21.28879929
S        21.29650879     15.22188377     20.28305817
S        21.43521500     13.82585907     23.36212349
P        21.88705063     20.33210564      3.57265472
S        23.85171127     20.82613754      3.67948604
P        20.78630829     22.07322884      4.48324537
S        21.15665245     20.22800255      1.68169951
S        21.19382477     18.82420349      4.75444221
S        18.78230667     21.71963501      4.33800030
S        21.29650879     23.69728470      3.33225846
S        21.43521500     22.30125809      6.41132498
P        21.88705063     20.33210564     12.04805470
S        23.85171127     20.82613754     12.15488529
P        20.78630829     22.07322884     12.95864487
S        21.15665245     20.22800255     10.15709972
S        21.19382477     18.82420349     13.22984123
S        18.78230667     21.71963501     12.81340027
S        21.29650879     23.69728470     11.80765820
S        21.43521500     22.30125809     14.88672447
S        21.43521500     22.30125809     23.36212349
P        21.88705063     20.33210564     20.52345467
S        23.85171127     20.82613754     20.63028526
P        20.78630829     22.07322884     21.43404579
S        21.15665245     20.22800255     18.63249969
S        21.19382477     18.82420349     21.70524216
S        18.78230667     21.71963501     21.28879929
S        21.29650879     23.69728470     20.28305817
