648

Na       19.28931999     -3.04288673    -15.30286789
Na       11.31502533    -24.73798370     -5.86873007
Na      -32.16804504     -6.46255922     31.08944702
Na      -36.97401047     -8.80395794    -20.07247353
Na       75.35799408     13.21667767     31.47671890
Na       32.23679733     18.01457024     12.16734695
Na       23.65154457     18.47772598     -6.35031080
Na      -60.97218323     19.07111359     10.26008987
Na      -67.57202911    -14.85248089     38.27452850
Na       43.28887558     -6.77090788    -29.43944740
Na       43.15363693     10.66600418     -3.92401838
Na       -7.76870584     44.81076050     13.56638718
Na       23.77686119     27.48539162    -32.16822052
Na       19.23090744     39.49126053     27.11815262
Na       11.28927326     31.19149399     35.39439774
Na      -72.91338348      0.90477365     -6.41281605
Na       11.32364845     47.97697067    -15.71170044
Na      -10.51564407     14.83619404    -23.41237068
Na       21.80857658      2.56220365     24.41268158
Na       -0.98998600    -14.80187893     18.60289001
Na      -26.76539230     64.93533325     14.96580124
Na       39.50437927     42.06733704     13.83806419
Na       49.41682053      1.96148443     52.47290802
Na      -18.68988419     -2.19675159     10.54327297
Na        5.28248692     16.54977417     -2.77899933
Na      -15.11790562     31.62747765    -44.49935150
Na       45.78456116      0.73859334     19.16499901
Na       23.53608704    -11.17103481     18.70780182
Na       -6.95593643     10.70432281    -11.41610813
Na      -27.14429092     36.73941040    -15.67164516
Na      -41.13448334     10.11987019    -20.07799911
Na      -14.13186359      5.42594290     26.65098000
Na      -27.30471992     31.94421959     35.56817627
Na       27.13001442     31.74464989     14.75727272
Na       -6.23450232      6.94016266     -2.64876747
Na       39.59389114     37.02564621     32.43020630
Na       52.62569809     46.35878754    -40.96155167
Na       27.02671051     19.37615967      5.72739220
Na       58.55840683     30.79964447     23.13482285
Na       70.08180237     11.53970051     32.84029007
Na       -6.51562357     23.70674324      6.16956043
Na       68.90795898     46.02570724     -6.92714071
Na      -14.10806370      2.83518672     -9.26083755
Na       53.99991608     43.32395172     -6.26242113
Na      -22.70517540     -7.28048372      2.27590966
Na       12.86723900    -17.35879517    -11.21793270
Na      -47.94642639      9.28444958    -22.96744347
Na       -5.74682999    -19.63661194      1.61510253
Na      -23.28129196    -19.68806839    -14.95751953
Na       37.03908920      0.32313117     10.95252895
Na       87.83695221      9.04599094     53.40684128
Na       69.78794098     -9.62031651     13.97755337
Na       49.47932816     23.05044365     -6.19241047
Na        1.77032042    -10.35100174     31.93550682
Na       19.74256516    -28.37725639      1.58820307
Na       57.45978546     23.99516678     19.17940140
Na      -11.45876408     24.70583725     14.18205929
Na      -11.77493858     -0.45026088     -2.83010912
Na      -12.50732517    -14.22723866     24.43781281
Na      -61.01853943    -23.67668152     44.05273438
Na      -39.56968307    -11.44271088      9.78206158
Na      -42.56472397     -6.50605726      4.72140646
Na       49.30770874     43.59576797    -13.37461853
Na      -14.74630928     22.27277565     18.74941635
Na        1.16364706     27.13227272     -3.73230720
Na        7.26054621    -14.59882259     43.66213226
Na       37.72028732     -7.74992228      2.01364970
Na       43.53699493      2.22887683     -3.49765563
Na       45.49397659      3.13060355     15.65220261
Na       52.59623718     36.63814163     -2.73018026
Na       29.60453224     36.93148422    -35.12583160
Na      -39.66769791     18.21989441     10.62538815
Na       10.80860996    -11.03711510      1.72710824
Na       40.35643768     48.56404495     18.71886635
Na      -14.96572685    -10.14599037      5.99404478
Na      -34.28548431     10.92994785    -23.61116028
Na       22.48684502     33.46954346      5.78771782
Na       36.60034180     -0.54345745      5.04085350
Na       18.62672043     65.81374359    -27.63928032
Na       78.82480621     13.64628410     26.78161049
Na       20.70179176     51.54173660     36.05623245
Na       32.61778641      5.47628164    -19.03792572
Na      -32.16511536    -10.52117825    -19.39650726
Na       10.99890804     14.05069637     44.06679535
Na       -1.58796036     -2.31251407     23.32394791
Na        1.48484802     35.99464035     37.79918289
Na      -20.72899818      8.12872791      5.89514303
Na       10.43759918     49.13545990     14.93813705
Na       30.68558121      2.93728757     -9.49106598
Na      -45.50798035     33.44902802    -11.46972370
Na      116.93850708     40.49236298     -6.41648769
Na        2.03121543     10.86122799      6.35256767
Na       44.13277817    -27.37801743     14.65695667
Na      -23.65599251     23.54935646     31.69820404
Na       91.18767548     56.87720490     10.14633656
Na       30.62467766     25.23200989    -11.37407780
Na       20.10879898      8.98237896    -14.93914890
Na       36.96208572     37.23164749     15.62376213
Na      -23.20867157     22.49235725     27.39154434
Na       40.82155991    -29.25471306     23.38831520
Na        5.19129133     19.51975822     -1.12428200
Na       28.78347397     14.28286171     17.57896805
Na       20.20006943     -2.36365628     -7.76922798
Na       49.12835693     14.61997509    -15.00018787
Na       36.02633667     23.25765038     49.24827957
Na      -13.60694122      9.21246243     19.63186646
Na       77.25087738     27.70021248     30.66538620
Na      -29.35291672     36.58330917     24.04524040
Na       10.55854225      5.70491791     18.90107536
Na       55.13249588      9.16385174     35.71369553
Na        5.53475904     11.47193718     -0.99090481
Na      -41.18024826      1.75055265    -37.81853867
Na       -5.52429533      0.76843649      2.42115831
Na       36.19212723     15.28196907     65.25647736
Na      122.17668152     68.59536743     10.99934864
Na       53.64087677     35.03155899     44.59685135
Na       95.87792969     28.75480461      6.98534727
Na        8.86693287     -5.98919296     21.80492783
Na        5.25632763     -8.98580933     56.52625656
Na       33.42049789     22.12480927     31.43774223
Na       50.50067520     22.45215225     39.49151993
Na       14.95539570     52.23851395     53.01419830
Na       -9.61201763      5.65031052     40.31976700
Na       27.84918404     -2.74858475     18.44777679
Na        7.28951073     -2.97283697     40.32544327
Na       83.60201263     39.16280365    -36.17224503
Na       35.43349075     69.67189026    -61.78786850
Na       39.30777740     33.71261215      5.22750807
Na       47.56260681     24.97372437      5.56647110
Na        5.24918079     24.83969498     31.14774132
Na       56.34857178     19.97733498     16.25249100
Na       44.79661942     65.20384216     18.53555679
Na       49.02294540     18.92780876     27.04309464
Na       24.84267235     56.37750244     31.41805077
Na      -48.60206223    -11.89780045     35.48350525
Na        3.01687407     31.05674553     43.44351578
Na       39.25630188     33.44059372     22.59209442
Na      -52.14253235     30.92890930     22.96137810
Na        6.77003813     23.53725815      1.83728349
Na      -53.82259750     16.19479179     22.63865662
Na      -22.30509377     43.25589371     36.16422653
Na       78.28260040     31.98748398     -2.15452480
Na      -34.79720688     22.44427490     31.52777290
Na      -69.86176300     14.43380451      9.81533527
Na       49.33917618     23.15107918      2.81004739
Na       56.49011993      7.98864985     48.21880341
Na       24.18572426     30.51876831     14.87042904
Na       32.02294540     14.78979015      1.76619744
Na       25.11900711     28.38549805     10.11398888
Na       40.39828110     14.81448555     10.46524525
Na       32.70255280     61.40816879     10.15797997
Na      -11.83719444     27.94389343     -1.07004213
Na       36.86091614     17.56856155     19.43567657
Na       32.36354065     14.64678574     -5.95365524
Na       30.84078026     24.94593430     -3.03310180
Na       95.51216888     30.66081619     35.67641830
Na        1.99167883     15.58526993     23.02938652
Na      -14.86658955     22.72690392      1.82714009
Na       15.59361076      5.50050402     31.19665909
Na        7.85635948      5.33989573    -10.82164669
Na      -30.55116844     17.99257278     27.76578903
Na       15.21400070     37.63803482     17.98588562
Na       40.99592972     44.66062546    -23.86535454
Na       11.52214050     20.03544235      7.17814541
Na      -15.28653336    -23.35153198     73.76084900
Na        2.22838497      5.77991962      1.36608243
Na       22.47218513     -0.21289530    -11.38998699
Na      -75.47160339     19.23862839     21.79802322
Na      -11.81378746     19.54516220     -9.51441860
Na      -20.43924904     -5.68408728      7.66957235
Na      -56.18651581     34.99213791     19.49575996
Na      -15.24487877    -35.77907181     73.81219482
Na       23.75747871     -2.15851998     10.39417458
Na        3.60149193    -59.63466263     39.87240219
Na       26.81165886      2.01988053     14.01478195
Na      -34.84741592      5.12671423     48.81619644
Na      -11.59172535     -9.04961109     48.04509735
Na       23.66161346     32.16063690     -6.25554180
Na       -6.38437605      7.00322485      5.95311546
Na        2.19870114     19.82290840     40.15870285
Na       33.96574020     11.67040157      1.71019852
Na       49.15328217    -36.13435364     27.02131844
Na      -82.71236420     39.92064667     10.29372120
Na      -35.27864456     13.77727509     65.45736694
Na       28.71354485      0.60627079     36.15303802
Na       22.39009285     -9.12219429      5.55175591
Na       71.82122803     19.79314613     -0.94948274
Na      -30.88140106      8.86252403      2.52430987
Na       -3.47226763     19.24536324     41.40946198
Na       12.62231731     44.48673630     -0.94311255
Na      -36.22589111    -16.33627701     36.90217590
Na        1.98324478     -1.85972488     -2.27293873
Na       69.65427399     32.25218964     40.17461014
Na       23.96554565      6.27154207    -23.24066544
Na      -10.45958996    -19.25090981      1.72728300
Na       21.85006714     36.49528885     -9.46574020
Na       34.55980301      2.32114720     30.55947876
Na      -28.49156761     20.21516037     58.65285873
Na       41.17441559    -23.12917328     10.14162540
Na      -56.90686035    -19.97556114     18.71103287
Na       15.46534634     -1.81777763     35.80376816
Na       24.50620079     10.60359097    -23.89021492
Na        6.92888212      6.11091518     19.12151527
Na       15.31934357     -2.27148151     53.37315369
Na        6.37007713     31.89822006      1.19093275
Na       33.12119293     38.88828659     56.85820007
Na      -43.53813171     21.97421455     -2.48147774
Na       15.09551525      6.55708504     -6.42775536
Na       54.30162048    -24.70061493      2.49006605
Na      -12.45548725      2.70680285     32.81723404
Na       60.25064850     35.92510986     -3.47503567
Na       81.47177887      2.55581617      7.82147932
Na       47.84573746      8.03855610     64.68146515
Na      120.19378662     23.77700043    -27.87785912
Na       57.68119431      5.78568411    -15.23861027
Na        5.43043852     28.45711708     24.62072372
S         8.84733009     25.35968399     10.83870792
P         9.20138359     24.92457390      8.89905071
S         8.09020901     25.10030174      5.67799377
S         5.89370441     25.41163254      8.26865101
S         8.78744221     22.91117668      8.54266262
P         7.70453310     25.95690918      7.53427696
S         8.05258656     27.94945145      7.52153826
S        11.06363583     25.41575241      8.26248169
S         8.84733009     25.35968399     19.31410980
P         9.20138359     24.92457390     17.37444878
S         8.09020901     25.10030174     14.15339375
S         5.89370441     25.41163254     16.74405289
P         7.70453310     25.95690918     16.00967789
S         8.78744221     22.91117668     17.01806259
S         8.05258656     27.94945145     15.99693871
S        11.06363583     25.41575241     16.73787880
S        11.06363583     25.41575241     25.21328163
P         9.20138359     24.92457390     25.84985161
S         5.89370441     25.41163254     25.21945000
S         8.09020901     25.10030174     22.62879181
S         8.05258656     27.94945145     24.47233772
S         8.78744221     22.91117668     25.49346161
P         7.70453310     25.95690918     24.48507500
S         8.84733009     25.35968399     27.78950691
S         5.89370441      8.46083260      8.26865101
S        11.06363583      8.46495152      8.26248169
S         8.09020901      8.14950085      5.67799377
S         8.78744221      5.96037912      8.54266262
S         8.84733009      8.40888214     10.83870792
P         7.70453310      9.00610733      7.53427696
P         9.20138359      7.97377396      8.89905071
S         8.05258656     10.99865246      7.52153826
S         5.89370441      8.46083260     16.74405289
S        11.06363583      8.46495152     16.73787880
S         8.09020901      8.14950085     14.15339375
S         8.78744221      5.96037912     17.01806259
S         8.84733009      8.40888214     19.31410980
P         7.70453310      9.00610733     16.00967789
P         9.20138359      7.97377396     17.37444878
S         8.05258656     10.99865246     15.99693871
S        11.06363583      8.46495152     25.21328163
S         8.09020901      8.14950085     22.62879181
S         8.78744221      5.96037912     25.49346161
P         7.70453310      9.00610733     24.48507500
S         8.84733009      8.40888214     27.78950691
P         9.20138359      7.97377396     25.84985161
S         8.05258656     10.99865246     24.47233772
S         5.89370441      8.46083260     25.21945000
P         9.20138359     16.44917488      8.89905071
S         8.05258656     19.47405052      7.52153826
S         5.89370441     16.93623352      8.26865101
S        11.06363583     16.94035149      8.26248169
S         8.09020901     16.62489891      5.67799377
S         8.78744221     14.43577957      8.54266262
S         8.84733009     16.88428307     10.83870792
P         7.70453310     17.48150826      7.53427696
P         9.20138359     16.44917488     17.37444878
S         8.05258656     19.47405052     15.99693871
S         5.89370441     16.93623352     16.74405289
S        11.06363583     16.94035149     16.73787880
S         8.09020901     16.62489891     14.15339375
S         8.78744221     14.43577957     17.01806259
S         8.84733009     16.88428307     19.31410980
P         7.70453310     17.48150826     16.00967789
P         7.70453310     17.48150826     24.48507500
S         8.05258656     19.47405052     24.47233772
S         5.89370441     16.93623352     25.21945000
S        11.06363583     16.94035149     25.21328163
S         8.09020901     16.62489891     22.62879181
S         8.78744221     14.43577957     25.49346161
S         8.84733009     16.88428307     27.78950691
P         9.20138359     16.44917488     25.84985161
P        16.17993355      0.53070819      7.53427696
S        16.52798653      2.52325249      7.52153826
S        17.26284218     -2.51502109      8.54266262
S        19.53903580     -0.01044759      8.26248169
S        17.32273102     -0.06651601     10.83870792
P        17.67678452     -0.50162607      8.89905071
S        16.56560898     -0.32589823      5.67799377
S        14.36910343     -0.01456746      8.26865101
P        16.17993355      0.53070819     16.00967789
S        16.52798653      2.52325249     15.99693871
S        17.26284218     -2.51502109     17.01806259
S        19.53903580     -0.01044759     16.73787880
S        17.32273102     -0.06651601     19.31410980
P        17.67678452     -0.50162607     17.37444878
S        16.56560898     -0.32589823     14.15339375
S        14.36910343     -0.01456746     16.74405289
S        16.52798653      2.52325249     24.47233772
P        16.17993355      0.53070819     24.48507500
S        17.26284218     -2.51502109     25.49346161
S        17.32273102     -0.06651601     27.78950691
S        19.53903580     -0.01044759     25.21328163
P        17.67678452     -0.50162607     25.84985161
S        14.36910343     -0.01456746     25.21945000
S        16.56560898     -0.32589823     22.62879181
S        17.32273102      8.40888214     10.83870792
P        16.17993355      9.00610733      7.53427696
P        17.67678452      7.97377396      8.89905071
S        16.52798653     10.99865246      7.52153826
S        14.36910343      8.46083260      8.26865101
S        19.53903580      8.46495152      8.26248169
S        16.56560898      8.14950085      5.67799377
S        17.26284218      5.96037912      8.54266262
S        17.32273102      8.40888214     19.31410980
P        16.17993355      9.00610733     16.00967789
P        17.67678452      7.97377396     17.37444878
S        16.52798653     10.99865246     15.99693871
S        14.36910343      8.46083260     16.74405289
S        19.53903580      8.46495152     16.73787880
S        16.56560898      8.14950085     14.15339375
S        17.26284218      5.96037912     17.01806259
S        17.32273102      8.40888214      2.36330938
P        17.67678452      7.97377396      0.42365089
S        16.52798653     10.99865246     -0.95386219
P        16.17993355      9.00610733     -0.94112307
S        14.36910343      8.46083260     -0.20674810
S        19.53903580      8.46495152     -0.21291836
S        16.56560898      8.14950085     -2.79740620
S        17.26284218      5.96037912      0.06726237
S        17.26284218     14.43577957      8.54266262
S        17.32273102     16.88428307     10.83870792
P        16.17993355     17.48150826      7.53427696
P        17.67678452     16.44917488      8.89905071
S        16.52798653     19.47405052      7.52153826
S        14.36910343     16.93623352      8.26865101
S        19.53903580     16.94035149      8.26248169
S        16.56560898     16.62489891      5.67799377
S        17.26284218     14.43577957     17.01806259
S        17.32273102     16.88428307     19.31410980
P        16.17993355     17.48150826     16.00967789
P        17.67678452     16.44917488     17.37444878
S        16.52798653     19.47405052     15.99693871
S        14.36910343     16.93623352     16.74405289
S        19.53903580     16.94035149     16.73787880
S        16.56560898     16.62489891     14.15339375
S        17.26284218     14.43577957      0.06726237
S        17.32273102     16.88428307      2.36330938
P        17.67678452     16.44917488      0.42365089
P        16.17993355     17.48150826     -0.94112307
S        16.52798653     19.47405052     -0.95386219
S        14.36910343     16.93623352     -0.20674810
S        19.53903580     16.94035149     -0.21291836
S        16.56560898     16.62489891     -2.79740620
P        24.65533257      0.53070819      7.53427696
S        25.00338554      2.52325249      7.52153826
S        25.73824120     -2.51502109      8.54266262
S        28.01443672     -0.01044759      8.26248169
S        25.04100990     -0.32589823      5.67799377
S        25.79812813     -0.06651601     10.83870792
S        22.84450340     -0.01456746      8.26865101
P        26.15218353     -0.50162607      8.89905071
P        24.65533257      0.53070819     16.00967789
S        25.00338554      2.52325249     15.99693871
S        25.73824120     -2.51502109     17.01806259
S        28.01443672     -0.01044759     16.73787880
S        25.04100990     -0.32589823     14.15339375
S        25.79812813     -0.06651601     19.31410980
S        22.84450340     -0.01456746     16.74405289
P        26.15218353     -0.50162607     17.37444878
S         2.58823633     25.41575241     25.21328163
P        -0.77086735     25.95690918     24.48507500
S        -0.42281252     27.94945145     24.47233772
S         0.31204274     22.91117668     25.49346161
S         0.37193090     25.35968399     27.78950691
S        -2.58169460     25.41163254     25.21945000
S        -0.38519007     25.10030174     22.62879181
P         0.72598386     24.92457390     25.84985161
S         0.31204274      5.96037912      8.54266262
P        -0.77086735      9.00610733      7.53427696
S        -0.42281252     10.99865246      7.52153826
S         0.37193090      8.40888214     10.83870792
S        -2.58169460      8.46083260      8.26865101
P         0.72598386      7.97377396      8.89905071
S         2.58823633      8.46495152      8.26248169
S        -0.38519007      8.14950085      5.67799377
S         0.31204274      5.96037912     17.01806259
P        -0.77086735      9.00610733     16.00967789
S        -0.42281252     10.99865246     15.99693871
S         0.37193090      8.40888214     19.31410980
S        -2.58169460      8.46083260     16.74405289
P         0.72598386      7.97377396     17.37444878
S         2.58823633      8.46495152     16.73787880
S        -0.38519007      8.14950085     14.15339375
S         0.31204274      5.96037912      0.06726237
S        -0.42281252     10.99865246     -0.95386219
P        -0.77086735      9.00610733     -0.94112307
S        -2.58169460      8.46083260     -0.20674810
S         0.37193090      8.40888214      2.36330938
P         0.72598386      7.97377396      0.42365089
S         2.58823633      8.46495152     -0.21291836
S        -0.38519007      8.14950085     -2.79740620
S         0.31204274     14.43577957      8.54266262
P        -0.77086735     17.48150826      7.53427696
S        -0.42281252     19.47405052      7.52153826
S         0.37193090     16.88428307     10.83870792
S        -2.58169460     16.93623352      8.26865101
P         0.72598386     16.44917488      8.89905071
S         2.58823633     16.94035149      8.26248169
S        -0.38519007     16.62489891      5.67799377
S         0.31204274     14.43577957     17.01806259
P        -0.77086735     17.48150826     16.00967789
S        -0.42281252     19.47405052     15.99693871
S         0.37193090     16.88428307     19.31410980
S        -2.58169460     16.93623352     16.74405289
P         0.72598386     16.44917488     17.37444878
S         2.58823633     16.94035149     16.73787880
S        -0.38519007     16.62489891     14.15339375
S         0.31204274     14.43577957      0.06726237
P        -0.77086735     17.48150826     -0.94112307
S        -0.42281252     19.47405052     -0.95386219
S        -2.58169460     16.93623352     -0.20674810
S         0.37193090     16.88428307      2.36330938
P         0.72598386     16.44917488      0.42365089
S         2.58823633     16.94035149     -0.21291836
S        -0.38519007     16.62489891     -2.79740620
S         4.34570980      6.74648380      3.33225846
S         4.48441505      5.35045958      6.41132498
P         4.93625259      3.38130617      3.57265472
S         6.90091324      3.87533736      3.67948604
P         3.83550787      5.12242985      4.48324537
S         4.20585394      3.27720547      1.68169951
S         4.24302483      1.87340367      4.75444221
S         1.83150578      4.76883507      4.33800030
S         4.34570980      6.74648380     11.80765820
S         4.48441505      5.35045958     14.88672447
P         4.93625259      3.38130617     12.04805470
S         6.90091324      3.87533736     12.15488529
P         3.83550787      5.12242985     12.95864487
S         4.20585394      3.27720547     10.15709972
S         4.24302483      1.87340367     13.22984123
S         1.83150578      4.76883507     12.81340027
S         4.34570980      6.74648380     20.28305817
S         4.48441505      5.35045958     23.36212349
P         4.93625259      3.38130617     20.52345467
S         6.90091324      3.87533736     20.63028526
P         3.83550787      5.12242985     21.43404579
S         4.20585394      3.27720547     18.63249969
S         4.24302483      1.87340367     21.70524216
S         1.83150578      4.76883507     21.28879929
S         4.34570980     15.22188377      3.33225846
S         4.48441505     13.82585907      6.41132498
P         4.93625259     11.85670662      3.57265472
S         6.90091324     12.35073757      3.67948604
P         3.83550787     13.59782982      4.48324537
S         4.20585394     11.75260544      1.68169951
S         4.24302483     10.34880257      4.75444221
S         1.83150578     13.24423409      4.33800030
S         1.83150578     13.24423409     12.81340027
S         4.34570980     15.22188377     11.80765820
S         4.48441505     13.82585907     14.88672447
P         4.93625259     11.85670662     12.04805470
S         6.90091324     12.35073757     12.15488529
P         3.83550787     13.59782982     12.95864487
S         4.20585394     11.75260544     10.15709972
S         4.24302483     10.34880257     13.22984123
S         1.83150578     13.24423409     21.28879929
S         4.34570980     15.22188377     20.28305817
S         4.48441505     13.82585907     23.36212349
P         4.93625259     11.85670662     20.52345467
S         6.90091324     12.35073757     20.63028526
P         3.83550787     13.59782982     21.43404579
S         4.20585394     11.75260544     18.63249969
S         4.24302483     10.34880257     21.70524216
S         1.83150578     21.71963501      4.33800030
S         4.34570980     23.69728470      3.33225846
S         4.48441505     22.30125809      6.41132498
P         4.93625259     20.33210564      3.57265472
S         6.90091324     20.82613754      3.67948604
P         3.83550787     22.07322884      4.48324537
S         4.20585394     20.22800255      1.68169951
S         4.24302483     18.82420349      4.75444221
S         1.83150578     21.71963501     12.81340027
S         4.34570980     23.69728470     11.80765820
S         4.48441505     22.30125809     14.88672447
P         4.93625259     20.33210564     12.04805470
S         6.90091324     20.82613754     12.15488529
P         3.83550787     22.07322884     12.95864487
S         4.20585394     20.22800255     10.15709972
S         4.24302483     18.82420349     13.22984123
S         1.83150578     21.71963501     21.28879929
S         4.34570980     23.69728470     20.28305817
S         4.48441505     22.30125809     23.36212349
P         4.93625259     20.33210564     20.52345467
S         6.90091324     20.82613754     20.63028526
P         3.83550787     22.07322884     21.43404579
S         4.20585394     20.22800255     18.63249969
S         4.24302483     18.82420349     21.70524216
S        12.71842480      1.87340367      4.75444221
S        10.30690575      4.76883507      4.33800030
S        12.82110882      6.74648380      3.33225846
S        12.95981503      5.35045958      6.41132498
P        13.41165257      3.38130617      3.57265472
S        15.37631226      3.87533736      3.67948604
P        12.31090641      5.12242985      4.48324537
S        12.68125343      3.27720547      1.68169951
S        12.71842480      1.87340367     13.22984123
S        10.30690575      4.76883507     12.81340027
S        12.82110882      6.74648380     11.80765820
S        12.95981503      5.35045958     14.88672447
P        13.41165257      3.38130617     12.04805470
S        15.37631226      3.87533736     12.15488529
P        12.31090641      5.12242985     12.95864487
S        12.68125343      3.27720547     10.15709972
S        12.71842480      1.87340367     21.70524216
S        10.30690575      4.76883507     21.28879929
S        12.82110882      6.74648380     20.28305817
S        12.95981503      5.35045958     23.36212349
P        13.41165257      3.38130617     20.52345467
S        15.37631226      3.87533736     20.63028526
P        12.31090641      5.12242985     21.43404579
S        12.68125343      3.27720547     18.63249969
S        12.71842480     10.34880257      4.75444221
S        10.30690575     13.24423409      4.33800030
S        12.82110882     15.22188377      3.33225846
S        12.95981503     13.82585907      6.41132498
P        13.41165257     11.85670662      3.57265472
S        15.37631226     12.35073757      3.67948604
P        12.31090641     13.59782982      4.48324537
S        12.68125343     11.75260544      1.68169951
S        12.71842480     10.34880257     13.22984123
S        10.30690575     13.24423409     12.81340027
S        12.82110882     15.22188377     11.80765820
S        12.95981503     13.82585907     14.88672447
P        13.41165257     11.85670662     12.04805470
S        15.37631226     12.35073757     12.15488529
P        12.31090641     13.59782982     12.95864487
S        12.68125343     11.75260544     10.15709972
S        12.68125343     11.75260544     18.63249969
S        12.71842480     10.34880257     21.70524216
S        10.30690575     13.24423409     21.28879929
S        12.82110882     15.22188377     20.28305817
S        12.95981503     13.82585907     23.36212349
P        13.41165257     11.85670662     20.52345467
S        15.37631226     12.35073757     20.63028526
P        12.31090641     13.59782982     21.43404579
S        12.68125343     20.22800255      1.68169951
S        12.71842480     18.82420349      4.75444221
S        10.30690575     21.71963501      4.33800030
S        12.82110882     23.69728470      3.33225846
S        12.95981503     22.30125809      6.41132498
P        13.41165257     20.33210564      3.57265472
S        15.37631226     20.82613754      3.67948604
P        12.31090641     22.07322884      4.48324537
S        12.68125343     20.22800255     10.15709972
S        12.71842480     18.82420349     13.22984123
S        10.30690575     21.71963501     12.81340027
S        12.82110882     23.69728470     11.80765820
S        12.95981503     22.30125809     14.88672447
P        13.41165257     20.33210564     12.04805470
S        15.37631226     20.82613754     12.15488529
P        12.31090641     22.07322884     12.95864487
S        12.68125343     20.22800255     18.63249969
S        12.71842480     18.82420349     21.70524216
S        10.30690575     21.71963501     21.28879929
S        12.82110882     23.69728470     20.28305817
S        12.95981503     22.30125809     23.36212349
P        13.41165257     20.33210564     20.52345467
S        15.37631226     20.82613754     20.63028526
P        12.31090641     22.07322884     21.43404579
P        20.78630829      5.12242985      4.48324537
S        21.15665245      3.27720547      1.68169951
S        21.19382477      1.87340367      4.75444221
S        18.78230667      4.76883507      4.33800030
S        21.29650879      6.74648380      3.33225846
S        21.43521500      5.35045958      6.41132498
P        21.88705063      3.38130617      3.57265472
S        23.85171127      3.87533736      3.67948604
S        23.85171127      3.87533736     12.15488529
P        20.78630829      5.12242985     12.95864487
S        21.15665245      3.27720547     10.15709972
S        21.19382477      1.87340367     13.22984123
S        18.78230667      4.76883507     12.81340027
S        21.29650879      6.74648380     11.80765820
S        21.43521500      5.35045958     14.88672447
P        21.88705063      3.38130617     12.04805470
S        23.85171127      3.87533736     20.63028526
P        20.78630829      5.12242985     21.43404579
S        21.15665245      3.27720547     18.63249969
S        21.19382477      1.87340367     21.70524216
S        18.78230667      4.76883507     21.28879929
S        21.29650879      6.74648380     20.28305817
S        21.43521500      5.35045958     23.36212349
P        21.88705063      3.38130617     20.52345467
S        23.85171127     12.35073757      3.67948604
P        20.78630829     13.59782982      4.48324537
S        21.15665245     11.75260544      1.68169951
S        21.19382477     10.34880257      4.75444221
S        18.78230667     13.24423409      4.33800030
S        21.29650879     15.22188377      3.33225846
S        21.43521500     13.82585907      6.41132498
P        21.88705063     11.85670662      3.57265472
S        23.85171127     12.35073757     12.15488529
P        20.78630829     13.59782982     12.95864487
S        21.15665245     11.75260544     10.15709972
S        21.19382477     10.34880257     13.22984123
S        18.78230667     13.24423409     12.81340027
S        21.29650879     15.22188377     11.80765820
S        21.43521500     13.82585907     14.88672447
P        21.88705063     11.85670662     12.04805470
P        21.88705063     11.85670662     20.52345467
S        23.85171127     12.35073757     20.63028526
P        20.78630829     13.59782982     21.43404579
S        21.15665245     11.75260544     18.63249969
S        21.19382477     10.34880257     21.70524216
S        18.78230667     13.24423409     21.28879929
S        21.29650879     15.22188377     20.28305817
S        21.43521500     13.82585907     23.36212349
P        21.88705063     20.33210564      3.57265472
S        23.85171127     20.82613754      3.67948604
P        20.78630829     22.07322884      4.48324537
S        21.15665245     20.22800255      1.68169951
S        21.19382477     18.82420349      4.75444221
S        18.78230667     21.71963501      4.33800030
S        21.29650879     23.69728470      3.33225846
S        21.43521500     22.30125809      6.41132498
P        21.88705063     20.33210564     12.04805470
S        23.85171127     20.82613754     12.15488529
P        20.78630829     22.07322884     12.95864487
S        21.15665245     20.22800255     10.15709972
S        21.19382477     18.82420349     13.22984123
S        18.78230667     21.71963501     12.81340027
S        21.29650879     23.69728470     11.80765820
S        21.43521500     22.30125809     14.88672447
S        21.43521500     22.30125809     23.36212349
P        21.88705063     20.33210564     20.52345467
S        23.85171127     20.82613754     20.63028526
P        20.78630829     22.07322884     21.43404579
S        21.15665245     20.22800255     18.63249969
S        21.19382477     18.82420349     21.70524216
S        18.78230667     21.71963501     21.28879929
S        21.29650879     23.69728470     20.28305817
