648

Na      -64.57071686    -24.79456139    -31.55692291
Na      -72.39709473     -7.75587082     78.39764404
Na      -45.55741882     -0.40000093    -11.45701122
Na      -18.03296471    -23.10895157     69.66938782
Na      126.76928711     22.29442787    -27.88555717
Na       70.92395020    -58.55260086     36.58760834
Na      -56.21496201      9.03044224      2.64042830
Na        1.21899533    -14.90311146     -3.21392918
Na      -18.98475456     52.55925751    -74.68476105
Na       78.22692871     57.18598557     -6.25236368
Na       38.91824722    -23.12302017     75.41611481
Na       75.48607635     64.51556396     65.15193176
Na      -20.87400818    -65.40960693     15.66629505
Na       10.26527500     40.24734879      6.26126385
Na       96.34793854      2.83942389    -10.00089455
Na        4.90015411     45.07281494     15.41176796
Na      -17.38594246     22.05621719     39.93306351
Na       23.54442787    -10.53573132    -40.52604675
Na        5.17453241    -47.95983887    -34.84700012
Na       96.23213196    -49.82940674    -40.25301743
Na      108.51539612     22.95541382     -6.77491140
Na       58.81753540     19.47177124     52.48910522
Na      158.77439880    -33.23381805     37.79076385
Na       92.90808868     10.87776756    -15.12912083
Na       43.02209854     52.51182175    -20.77901077
Na      -44.03081131     -2.65223217    -28.41536522
Na      113.15328979     34.61183929    -56.81259918
Na      137.45507812     57.38869095    -27.63449478
Na      -43.78342438     14.06984901    -96.05850983
Na      -29.53428459     44.83338928    -26.60526657
Na      100.73358154    -28.85335350    -10.55224800
Na       27.55459595      6.65778112    -61.91192627
Na       45.22401810     -7.55349302    -31.56143188
Na        2.74173880     31.11338615    -16.41147804
Na       70.64287567      5.67718077    -24.34508514
Na      -10.03565693    -19.30216789      2.22221994
Na        3.03773832     14.43668842     26.67227364
Na       78.55188751     -0.93775278     14.08672333
Na       44.69298553    -29.16733742      1.34905016
Na       -3.25817895      2.71258807     49.61941528
Na      -66.82333374    -48.59145737     39.05895233
Na       55.84484482     45.07140350     -1.31872213
Na       49.73405457     14.18877506     56.99369049
Na       20.08732414     59.88278198     -6.23718977
Na       70.42758179     75.35802460     39.49975967
Na       28.64221001    -53.72067261     18.04625320
Na      -18.54230118      1.97921550      9.91991520
Na      175.97267151     65.57006073     26.90086174
Na       19.21577454     14.32643127    -57.53590775
Na      -69.47938538    -53.73719788    -40.38044739
Na       49.78722382     39.18693542     -2.37156844
Na       61.70334625      4.89178085     26.57402611
Na       77.69282532      2.28267646    -22.97882462
Na      120.89276886     39.15391159     52.43730164
Na       -9.64732742    -23.58448410     35.98038483
Na        7.40692472     14.77643776     27.58969498
Na       99.44595337     51.30829620     29.16531754
Na       28.09308052     -9.65174103     14.36273384
Na      -45.20747757    -42.78688431    -11.38106918
Na      -83.40203094     44.14927673    -11.57977486
Na       75.68810272    -45.96035767     14.65466213
Na      -18.63147736     31.69812012     61.76968384
Na      -90.03510284     14.46802235    -24.23558617
Na       61.16867065    -61.21064377     23.26087570
Na       58.06833649    -44.70492935     27.66208839
Na      -27.64894295     23.14276886     52.09703064
Na       24.45608521    -14.75990772    -91.38852692
Na       22.06172752     70.68205261    -17.71369171
Na       81.58150482     -5.81596708      7.07180738
Na      -62.46091461    -23.11469650     41.22124863
Na       -6.59797859     10.81567001    -87.20855713
Na       -3.47472119     10.90986443     49.60466385
Na       27.50700188     32.30244827    -78.56864929
Na       -6.34461737    -35.17134094    -70.44882202
Na      -25.05374908    -48.41101456     38.42469025
Na       65.94485474     35.78048325    -57.48715210
Na       15.82302475     10.45168781      1.83780968
Na       -9.27680683     39.15458298     -2.53460073
Na       35.82925415     24.31447220    -11.80940914
Na      -77.50643921     30.90867805     31.65318489
Na     -117.15966797     44.56916046     22.50744629
Na      -75.84558105    -31.72682762     21.51379013
Na       89.11843109    -23.04357910    -17.81467628
Na       65.83972168    -31.67399788      9.74322796
Na       -5.35671425     56.87022400    -41.99290466
Na        6.66547775     36.60637283      9.68759727
Na       43.82763290     35.75777435     31.09425163
Na       36.77805710     42.66791534     -5.97659254
Na       47.79244995     58.70763779     14.11153603
Na     -102.86968994     73.36394501    -19.45858765
Na      -20.63112831     -0.12596577     -2.46411562
Na       62.55205154     65.14230347    -16.14645386
Na       38.95352173     16.55469131    -53.62257004
Na       79.21146393     37.62048340     58.21717834
Na       59.91904831     10.67703056     29.92482376
Na       42.94841003     61.17173004    -54.84175873
Na      193.95637512     47.85921097    -53.23239899
Na       18.26986694     53.30289841     22.38330460
Na       39.09078979     19.83615303    -26.24808121
Na       40.43233871     -2.83502173     -7.28382635
Na       15.52618885     -2.53448200    -23.36582184
Na      -23.51639366    -48.41337967    -19.67485809
Na       22.26914406      7.84463835     47.79601669
Na       96.40040588     43.02782059    -48.51009750
Na       18.86081123     24.25717545    -28.48648071
Na       95.04003143     57.66264725     14.60786343
Na      -43.69436264     -3.18500113    -19.07819557
Na       41.60189819     47.61464310    -62.06502914
Na      -57.55998611    -18.71039200     23.04089355
Na      -18.64268684    -10.18627357    -14.98850632
Na       70.18096924     -1.78372765     31.94222260
Na       35.73988342    -27.18697929     31.99286461
Na      -14.31010723     56.23279190      9.91163731
Na       86.66448212    -27.58014107     -1.92800713
Na      -25.83033562    -46.12229919     23.28351021
Na       10.84011841     73.34065247      1.72083318
Na        3.25118160      0.87222379     -6.02617455
Na       73.27960205     16.19567871     13.94965649
Na       56.42300034     33.37888336     98.57841492
Na      150.95314026     48.75284195     19.26616859
Na      -65.68307495     18.94185829     31.85048294
Na       32.95607376     45.01394653    -57.70106125
Na       -9.76358604     78.14832306    -31.99747467
Na      -36.17160034    -28.45288849     60.32606888
Na       -1.64996052     53.10217285     35.21973038
Na      -39.49885178     35.06198883      2.49796629
Na      -91.62526703      2.09886384    -28.09552956
Na      -28.19333839     11.14614105    -43.90420532
Na       48.21990585    -26.33908844     47.89919662
Na      -23.04686928    -35.53298950     22.98091316
Na      -10.83052826    -10.76744556     18.34676361
Na       52.11247253     61.15918732     64.19836426
Na      112.72654724     30.88066673     44.02892303
Na      185.84735107     13.85668278     65.47003174
Na       10.19885254     36.27335358    -27.96147537
Na       48.64783096     -2.16276598    -41.22830200
Na        4.56760359     36.84743500     49.96007156
Na     -111.98970795     -6.65181780     -6.93152285
Na      115.44588470     16.73561478      5.50079679
Na      -20.59366608     -0.44330311    -19.62140274
Na        6.65479183    -35.99243164     69.38178253
Na        2.87111092    -19.41938591      1.43614101
Na       -8.38082027    -31.93737793     55.39630890
Na      102.29721069     -6.11597252      4.91528511
Na      -18.20421982    -71.18634033    -27.36053848
Na       19.30329895     90.02989197    -41.07387924
Na      108.78287506      5.01445770      6.36248636
Na      -59.97740173     30.52518463    -19.39667702
Na       20.17838287    -22.56252098      7.09263086
Na      112.27954865     56.98304367    -10.45411301
Na      -11.51876163     50.02936935    -36.61053848
Na      -39.17217636     -7.84449768      2.19647884
Na       44.25396347     65.89907837    -27.44943047
Na       -1.34619451    -32.11779022    -32.22519302
Na       89.91693878     -5.71557331    -60.44000626
Na       78.41016388    -16.86915970     29.68074226
Na       34.22179794     27.58304977    -20.93297195
Na       56.43112183     67.34234619     -2.92052102
Na      133.94805908     48.21232605    -23.57969856
Na       32.89825821     38.65020370     -2.01486325
Na       36.04621887    -34.63501740    -37.38094330
Na      -23.03892517     48.19602203    -23.62353897
Na      -22.90081215     39.76176834    -40.97472763
Na      -45.37838745      7.91184187    -70.76956177
Na     -125.36811829    -40.35394669     43.72675323
Na       66.93201447     39.19544220      6.21649647
Na      -62.33336258      7.75041866     22.60962486
Na       89.88346863     11.42683315     32.88716507
Na      -84.91718292      5.70812130     19.93313599
Na       77.36434174    -14.09221363    -49.17150497
Na       22.29056740     33.26510239     81.97731018
Na       -5.82095194     -2.99460077     18.62857437
Na       74.53254700    -36.35973740     44.37555695
Na      -79.45838165    -85.32122040     48.07989883
Na      -82.53755951    -61.17314911    -10.71577644
Na      130.29499817     39.58726501     43.19435501
Na     -125.45820618    -48.94067383     22.83958435
Na      106.57980347     16.61849976    -70.60033417
Na       -6.32319689     52.44146729    -23.33251190
Na     -104.30440521    -19.57910728     68.77638245
Na      -64.91847992      9.45999336     10.82946110
Na       87.11897278     -2.74801636     35.64935684
Na      -30.41789246    -16.06864548     10.81206512
Na       24.04206467     31.80393600    -14.80854130
Na        3.69297123      0.72273868    -14.60948467
Na      117.12314606     55.71795273    -27.46280670
Na       40.87744522     21.85508156     31.98203278
Na       83.00780487    -18.63285065     44.28761292
Na       34.79210281     87.87142181     69.06901550
Na       19.03347015    -29.10722351     10.25622463
Na       74.85368347      1.93968713     43.99560165
Na      -24.97458076     -5.31689310    112.00765991
Na        2.89377785    -41.60575867    -39.85234833
Na       47.97664642    -25.89447975     39.39541245
Na       76.52408600     19.87205315     52.42672348
Na       79.07880402     68.78009033     -6.31574202
Na       41.20062637    -12.11531353     14.54318047
Na      138.03590393     47.97857285     69.36968994
Na       64.95840454     -0.38725215      5.17307186
Na       88.10431671      0.73226511     52.80531693
Na       24.77412796     31.31590271     28.12570572
Na      217.27310181     32.97984314      5.84287167
Na       65.43512726     -8.35898209    -64.00160217
Na       86.08971405     -5.96933460    -13.79165936
Na       69.25086212     70.14125061    -28.14395905
Na      -35.43123245    -35.81906891     27.62755203
Na       53.48597336    -53.68753815     60.15808868
Na      -66.49689484     36.01195526    -63.18477631
Na      -24.02722740     -6.69830799     38.92241287
Na       63.39154434    -14.40024185     15.90763474
Na       14.83215141     81.60344696    -15.72703457
Na      -62.40049362     58.84005356    -11.28246498
Na       10.64277267      6.96835423    -45.15597916
Na       49.06028748     35.81895447     69.51932526
Na       47.48292160     -9.29978466    -44.63046646
Na       41.38260651    -45.90488434    -10.84616375
S         8.84733009     25.35968399     10.83870792
P         9.20138359     24.92457390      8.89905071
S         8.09020901     25.10030174      5.67799377
S         5.89370441     25.41163254      8.26865101
S         8.78744221     22.91117668      8.54266262
P         7.70453310     25.95690918      7.53427696
S         8.05258656     27.94945145      7.52153826
S        11.06363583     25.41575241      8.26248169
S         8.84733009     25.35968399     19.31410980
P         9.20138359     24.92457390     17.37444878
S         8.09020901     25.10030174     14.15339375
S         5.89370441     25.41163254     16.74405289
P         7.70453310     25.95690918     16.00967789
S         8.78744221     22.91117668     17.01806259
S         8.05258656     27.94945145     15.99693871
S        11.06363583     25.41575241     16.73787880
S        11.06363583     25.41575241     25.21328163
P         9.20138359     24.92457390     25.84985161
S         5.89370441     25.41163254     25.21945000
S         8.09020901     25.10030174     22.62879181
S         8.05258656     27.94945145     24.47233772
S         8.78744221     22.91117668     25.49346161
P         7.70453310     25.95690918     24.48507500
S         8.84733009     25.35968399     27.78950691
S         5.89370441      8.46083260      8.26865101
S        11.06363583      8.46495152      8.26248169
S         8.09020901      8.14950085      5.67799377
S         8.78744221      5.96037912      8.54266262
S         8.84733009      8.40888214     10.83870792
P         7.70453310      9.00610733      7.53427696
P         9.20138359      7.97377396      8.89905071
S         8.05258656     10.99865246      7.52153826
S         5.89370441      8.46083260     16.74405289
S        11.06363583      8.46495152     16.73787880
S         8.09020901      8.14950085     14.15339375
S         8.78744221      5.96037912     17.01806259
S         8.84733009      8.40888214     19.31410980
P         7.70453310      9.00610733     16.00967789
P         9.20138359      7.97377396     17.37444878
S         8.05258656     10.99865246     15.99693871
S        11.06363583      8.46495152     25.21328163
S         8.09020901      8.14950085     22.62879181
S         8.78744221      5.96037912     25.49346161
P         7.70453310      9.00610733     24.48507500
S         8.84733009      8.40888214     27.78950691
P         9.20138359      7.97377396     25.84985161
S         8.05258656     10.99865246     24.47233772
S         5.89370441      8.46083260     25.21945000
P         9.20138359     16.44917488      8.89905071
S         8.05258656     19.47405052      7.52153826
S         5.89370441     16.93623352      8.26865101
S        11.06363583     16.94035149      8.26248169
S         8.09020901     16.62489891      5.67799377
S         8.78744221     14.43577957      8.54266262
S         8.84733009     16.88428307     10.83870792
P         7.70453310     17.48150826      7.53427696
P         9.20138359     16.44917488     17.37444878
S         8.05258656     19.47405052     15.99693871
S         5.89370441     16.93623352     16.74405289
S        11.06363583     16.94035149     16.73787880
S         8.09020901     16.62489891     14.15339375
S         8.78744221     14.43577957     17.01806259
S         8.84733009     16.88428307     19.31410980
P         7.70453310     17.48150826     16.00967789
P         7.70453310     17.48150826     24.48507500
S         8.05258656     19.47405052     24.47233772
S         5.89370441     16.93623352     25.21945000
S        11.06363583     16.94035149     25.21328163
S         8.09020901     16.62489891     22.62879181
S         8.78744221     14.43577957     25.49346161
S         8.84733009     16.88428307     27.78950691
P         9.20138359     16.44917488     25.84985161
P        16.17993355      0.53070819      7.53427696
S        16.52798653      2.52325249      7.52153826
S        17.26284218     -2.51502109      8.54266262
S        19.53903580     -0.01044759      8.26248169
S        17.32273102     -0.06651601     10.83870792
P        17.67678452     -0.50162607      8.89905071
S        16.56560898     -0.32589823      5.67799377
S        14.36910343     -0.01456746      8.26865101
P        16.17993355      0.53070819     16.00967789
S        16.52798653      2.52325249     15.99693871
S        17.26284218     -2.51502109     17.01806259
S        19.53903580     -0.01044759     16.73787880
S        17.32273102     -0.06651601     19.31410980
P        17.67678452     -0.50162607     17.37444878
S        16.56560898     -0.32589823     14.15339375
S        14.36910343     -0.01456746     16.74405289
S        16.52798653      2.52325249     24.47233772
P        16.17993355      0.53070819     24.48507500
S        17.26284218     -2.51502109     25.49346161
S        17.32273102     -0.06651601     27.78950691
S        19.53903580     -0.01044759     25.21328163
P        17.67678452     -0.50162607     25.84985161
S        14.36910343     -0.01456746     25.21945000
S        16.56560898     -0.32589823     22.62879181
S        17.32273102      8.40888214     10.83870792
P        16.17993355      9.00610733      7.53427696
P        17.67678452      7.97377396      8.89905071
S        16.52798653     10.99865246      7.52153826
S        14.36910343      8.46083260      8.26865101
S        19.53903580      8.46495152      8.26248169
S        16.56560898      8.14950085      5.67799377
S        17.26284218      5.96037912      8.54266262
S        17.32273102      8.40888214     19.31410980
P        16.17993355      9.00610733     16.00967789
P        17.67678452      7.97377396     17.37444878
S        16.52798653     10.99865246     15.99693871
S        14.36910343      8.46083260     16.74405289
S        19.53903580      8.46495152     16.73787880
S        16.56560898      8.14950085     14.15339375
S        17.26284218      5.96037912     17.01806259
S        17.32273102      8.40888214      2.36330938
P        17.67678452      7.97377396      0.42365089
S        16.52798653     10.99865246     -0.95386219
P        16.17993355      9.00610733     -0.94112307
S        14.36910343      8.46083260     -0.20674810
S        19.53903580      8.46495152     -0.21291836
S        16.56560898      8.14950085     -2.79740620
S        17.26284218      5.96037912      0.06726237
S        17.26284218     14.43577957      8.54266262
S        17.32273102     16.88428307     10.83870792
P        16.17993355     17.48150826      7.53427696
P        17.67678452     16.44917488      8.89905071
S        16.52798653     19.47405052      7.52153826
S        14.36910343     16.93623352      8.26865101
S        19.53903580     16.94035149      8.26248169
S        16.56560898     16.62489891      5.67799377
S        17.26284218     14.43577957     17.01806259
S        17.32273102     16.88428307     19.31410980
P        16.17993355     17.48150826     16.00967789
P        17.67678452     16.44917488     17.37444878
S        16.52798653     19.47405052     15.99693871
S        14.36910343     16.93623352     16.74405289
S        19.53903580     16.94035149     16.73787880
S        16.56560898     16.62489891     14.15339375
S        17.26284218     14.43577957      0.06726237
S        17.32273102     16.88428307      2.36330938
P        17.67678452     16.44917488      0.42365089
P        16.17993355     17.48150826     -0.94112307
S        16.52798653     19.47405052     -0.95386219
S        14.36910343     16.93623352     -0.20674810
S        19.53903580     16.94035149     -0.21291836
S        16.56560898     16.62489891     -2.79740620
P        24.65533257      0.53070819      7.53427696
S        25.00338554      2.52325249      7.52153826
S        25.73824120     -2.51502109      8.54266262
S        28.01443672     -0.01044759      8.26248169
S        25.04100990     -0.32589823      5.67799377
S        25.79812813     -0.06651601     10.83870792
S        22.84450340     -0.01456746      8.26865101
P        26.15218353     -0.50162607      8.89905071
P        24.65533257      0.53070819     16.00967789
S        25.00338554      2.52325249     15.99693871
S        25.73824120     -2.51502109     17.01806259
S        28.01443672     -0.01044759     16.73787880
S        25.04100990     -0.32589823     14.15339375
S        25.79812813     -0.06651601     19.31410980
S        22.84450340     -0.01456746     16.74405289
P        26.15218353     -0.50162607     17.37444878
S         2.58823633     25.41575241     25.21328163
P        -0.77086735     25.95690918     24.48507500
S        -0.42281252     27.94945145     24.47233772
S         0.31204274     22.91117668     25.49346161
S         0.37193090     25.35968399     27.78950691
S        -2.58169460     25.41163254     25.21945000
S        -0.38519007     25.10030174     22.62879181
P         0.72598386     24.92457390     25.84985161
S         0.31204274      5.96037912      8.54266262
P        -0.77086735      9.00610733      7.53427696
S        -0.42281252     10.99865246      7.52153826
S         0.37193090      8.40888214     10.83870792
S        -2.58169460      8.46083260      8.26865101
P         0.72598386      7.97377396      8.89905071
S         2.58823633      8.46495152      8.26248169
S        -0.38519007      8.14950085      5.67799377
S         0.31204274      5.96037912     17.01806259
P        -0.77086735      9.00610733     16.00967789
S        -0.42281252     10.99865246     15.99693871
S         0.37193090      8.40888214     19.31410980
S        -2.58169460      8.46083260     16.74405289
P         0.72598386      7.97377396     17.37444878
S         2.58823633      8.46495152     16.73787880
S        -0.38519007      8.14950085     14.15339375
S         0.31204274      5.96037912      0.06726237
S        -0.42281252     10.99865246     -0.95386219
P        -0.77086735      9.00610733     -0.94112307
S        -2.58169460      8.46083260     -0.20674810
S         0.37193090      8.40888214      2.36330938
P         0.72598386      7.97377396      0.42365089
S         2.58823633      8.46495152     -0.21291836
S        -0.38519007      8.14950085     -2.79740620
S         0.31204274     14.43577957      8.54266262
P        -0.77086735     17.48150826      7.53427696
S        -0.42281252     19.47405052      7.52153826
S         0.37193090     16.88428307     10.83870792
S        -2.58169460     16.93623352      8.26865101
P         0.72598386     16.44917488      8.89905071
S         2.58823633     16.94035149      8.26248169
S        -0.38519007     16.62489891      5.67799377
S         0.31204274     14.43577957     17.01806259
P        -0.77086735     17.48150826     16.00967789
S        -0.42281252     19.47405052     15.99693871
S         0.37193090     16.88428307     19.31410980
S        -2.58169460     16.93623352     16.74405289
P         0.72598386     16.44917488     17.37444878
S         2.58823633     16.94035149     16.73787880
S        -0.38519007     16.62489891     14.15339375
S         0.31204274     14.43577957      0.06726237
P        -0.77086735     17.48150826     -0.94112307
S        -0.42281252     19.47405052     -0.95386219
S        -2.58169460     16.93623352     -0.20674810
S         0.37193090     16.88428307      2.36330938
P         0.72598386     16.44917488      0.42365089
S         2.58823633     16.94035149     -0.21291836
S        -0.38519007     16.62489891     -2.79740620
S         4.34570980      6.74648380      3.33225846
S         4.48441505      5.35045958      6.41132498
P         4.93625259      3.38130617      3.57265472
S         6.90091324      3.87533736      3.67948604
P         3.83550787      5.12242985      4.48324537
S         4.20585394      3.27720547      1.68169951
S         4.24302483      1.87340367      4.75444221
S         1.83150578      4.76883507      4.33800030
S         4.34570980      6.74648380     11.80765820
S         4.48441505      5.35045958     14.88672447
P         4.93625259      3.38130617     12.04805470
S         6.90091324      3.87533736     12.15488529
P         3.83550787      5.12242985     12.95864487
S         4.20585394      3.27720547     10.15709972
S         4.24302483      1.87340367     13.22984123
S         1.83150578      4.76883507     12.81340027
S         4.34570980      6.74648380     20.28305817
S         4.48441505      5.35045958     23.36212349
P         4.93625259      3.38130617     20.52345467
S         6.90091324      3.87533736     20.63028526
P         3.83550787      5.12242985     21.43404579
S         4.20585394      3.27720547     18.63249969
S         4.24302483      1.87340367     21.70524216
S         1.83150578      4.76883507     21.28879929
S         4.34570980     15.22188377      3.33225846
S         4.48441505     13.82585907      6.41132498
P         4.93625259     11.85670662      3.57265472
S         6.90091324     12.35073757      3.67948604
P         3.83550787     13.59782982      4.48324537
S         4.20585394     11.75260544      1.68169951
S         4.24302483     10.34880257      4.75444221
S         1.83150578     13.24423409      4.33800030
S         1.83150578     13.24423409     12.81340027
S         4.34570980     15.22188377     11.80765820
S         4.48441505     13.82585907     14.88672447
P         4.93625259     11.85670662     12.04805470
S         6.90091324     12.35073757     12.15488529
P         3.83550787     13.59782982     12.95864487
S         4.20585394     11.75260544     10.15709972
S         4.24302483     10.34880257     13.22984123
S         1.83150578     13.24423409     21.28879929
S         4.34570980     15.22188377     20.28305817
S         4.48441505     13.82585907     23.36212349
P         4.93625259     11.85670662     20.52345467
S         6.90091324     12.35073757     20.63028526
P         3.83550787     13.59782982     21.43404579
S         4.20585394     11.75260544     18.63249969
S         4.24302483     10.34880257     21.70524216
S         1.83150578     21.71963501      4.33800030
S         4.34570980     23.69728470      3.33225846
S         4.48441505     22.30125809      6.41132498
P         4.93625259     20.33210564      3.57265472
S         6.90091324     20.82613754      3.67948604
P         3.83550787     22.07322884      4.48324537
S         4.20585394     20.22800255      1.68169951
S         4.24302483     18.82420349      4.75444221
S         1.83150578     21.71963501     12.81340027
S         4.34570980     23.69728470     11.80765820
S         4.48441505     22.30125809     14.88672447
P         4.93625259     20.33210564     12.04805470
S         6.90091324     20.82613754     12.15488529
P         3.83550787     22.07322884     12.95864487
S         4.20585394     20.22800255     10.15709972
S         4.24302483     18.82420349     13.22984123
S         1.83150578     21.71963501     21.28879929
S         4.34570980     23.69728470     20.28305817
S         4.48441505     22.30125809     23.36212349
P         4.93625259     20.33210564     20.52345467
S         6.90091324     20.82613754     20.63028526
P         3.83550787     22.07322884     21.43404579
S         4.20585394     20.22800255     18.63249969
S         4.24302483     18.82420349     21.70524216
S        12.71842480      1.87340367      4.75444221
S        10.30690575      4.76883507      4.33800030
S        12.82110882      6.74648380      3.33225846
S        12.95981503      5.35045958      6.41132498
P        13.41165257      3.38130617      3.57265472
S        15.37631226      3.87533736      3.67948604
P        12.31090641      5.12242985      4.48324537
S        12.68125343      3.27720547      1.68169951
S        12.71842480      1.87340367     13.22984123
S        10.30690575      4.76883507     12.81340027
S        12.82110882      6.74648380     11.80765820
S        12.95981503      5.35045958     14.88672447
P        13.41165257      3.38130617     12.04805470
S        15.37631226      3.87533736     12.15488529
P        12.31090641      5.12242985     12.95864487
S        12.68125343      3.27720547     10.15709972
S        12.71842480      1.87340367     21.70524216
S        10.30690575      4.76883507     21.28879929
S        12.82110882      6.74648380     20.28305817
S        12.95981503      5.35045958     23.36212349
P        13.41165257      3.38130617     20.52345467
S        15.37631226      3.87533736     20.63028526
P        12.31090641      5.12242985     21.43404579
S        12.68125343      3.27720547     18.63249969
S        12.71842480     10.34880257      4.75444221
S        10.30690575     13.24423409      4.33800030
S        12.82110882     15.22188377      3.33225846
S        12.95981503     13.82585907      6.41132498
P        13.41165257     11.85670662      3.57265472
S        15.37631226     12.35073757      3.67948604
P        12.31090641     13.59782982      4.48324537
S        12.68125343     11.75260544      1.68169951
S        12.71842480     10.34880257     13.22984123
S        10.30690575     13.24423409     12.81340027
S        12.82110882     15.22188377     11.80765820
S        12.95981503     13.82585907     14.88672447
P        13.41165257     11.85670662     12.04805470
S        15.37631226     12.35073757     12.15488529
P        12.31090641     13.59782982     12.95864487
S        12.68125343     11.75260544     10.15709972
S        12.68125343     11.75260544     18.63249969
S        12.71842480     10.34880257     21.70524216
S        10.30690575     13.24423409     21.28879929
S        12.82110882     15.22188377     20.28305817
S        12.95981503     13.82585907     23.36212349
P        13.41165257     11.85670662     20.52345467
S        15.37631226     12.35073757     20.63028526
P        12.31090641     13.59782982     21.43404579
S        12.68125343     20.22800255      1.68169951
S        12.71842480     18.82420349      4.75444221
S        10.30690575     21.71963501      4.33800030
S        12.82110882     23.69728470      3.33225846
S        12.95981503     22.30125809      6.41132498
P        13.41165257     20.33210564      3.57265472
S        15.37631226     20.82613754      3.67948604
P        12.31090641     22.07322884      4.48324537
S        12.68125343     20.22800255     10.15709972
S        12.71842480     18.82420349     13.22984123
S        10.30690575     21.71963501     12.81340027
S        12.82110882     23.69728470     11.80765820
S        12.95981503     22.30125809     14.88672447
P        13.41165257     20.33210564     12.04805470
S        15.37631226     20.82613754     12.15488529
P        12.31090641     22.07322884     12.95864487
S        12.68125343     20.22800255     18.63249969
S        12.71842480     18.82420349     21.70524216
S        10.30690575     21.71963501     21.28879929
S        12.82110882     23.69728470     20.28305817
S        12.95981503     22.30125809     23.36212349
P        13.41165257     20.33210564     20.52345467
S        15.37631226     20.82613754     20.63028526
P        12.31090641     22.07322884     21.43404579
P        20.78630829      5.12242985      4.48324537
S        21.15665245      3.27720547      1.68169951
S        21.19382477      1.87340367      4.75444221
S        18.78230667      4.76883507      4.33800030
S        21.29650879      6.74648380      3.33225846
S        21.43521500      5.35045958      6.41132498
P        21.88705063      3.38130617      3.57265472
S        23.85171127      3.87533736      3.67948604
S        23.85171127      3.87533736     12.15488529
P        20.78630829      5.12242985     12.95864487
S        21.15665245      3.27720547     10.15709972
S        21.19382477      1.87340367     13.22984123
S        18.78230667      4.76883507     12.81340027
S        21.29650879      6.74648380     11.80765820
S        21.43521500      5.35045958     14.88672447
P        21.88705063      3.38130617     12.04805470
S        23.85171127      3.87533736     20.63028526
P        20.78630829      5.12242985     21.43404579
S        21.15665245      3.27720547     18.63249969
S        21.19382477      1.87340367     21.70524216
S        18.78230667      4.76883507     21.28879929
S        21.29650879      6.74648380     20.28305817
S        21.43521500      5.35045958     23.36212349
P        21.88705063      3.38130617     20.52345467
S        23.85171127     12.35073757      3.67948604
P        20.78630829     13.59782982      4.48324537
S        21.15665245     11.75260544      1.68169951
S        21.19382477     10.34880257      4.75444221
S        18.78230667     13.24423409      4.33800030
S        21.29650879     15.22188377      3.33225846
S        21.43521500     13.82585907      6.41132498
P        21.88705063     11.85670662      3.57265472
S        23.85171127     12.35073757     12.15488529
P        20.78630829     13.59782982     12.95864487
S        21.15665245     11.75260544     10.15709972
S        21.19382477     10.34880257     13.22984123
S        18.78230667     13.24423409     12.81340027
S        21.29650879     15.22188377     11.80765820
S        21.43521500     13.82585907     14.88672447
P        21.88705063     11.85670662     12.04805470
P        21.88705063     11.85670662     20.52345467
S        23.85171127     12.35073757     20.63028526
P        20.78630829     13.59782982     21.43404579
S        21.15665245     11.75260544     18.63249969
S        21.19382477     10.34880257     21.70524216
S        18.78230667     13.24423409     21.28879929
S        21.29650879     15.22188377     20.28305817
S        21.43521500     13.82585907     23.36212349
P        21.88705063     20.33210564      3.57265472
S        23.85171127     20.82613754      3.67948604
P        20.78630829     22.07322884      4.48324537
S        21.15665245     20.22800255      1.68169951
S        21.19382477     18.82420349      4.75444221
S        18.78230667     21.71963501      4.33800030
S        21.29650879     23.69728470      3.33225846
S        21.43521500     22.30125809      6.41132498
P        21.88705063     20.33210564     12.04805470
S        23.85171127     20.82613754     12.15488529
P        20.78630829     22.07322884     12.95864487
S        21.15665245     20.22800255     10.15709972
S        21.19382477     18.82420349     13.22984123
S        18.78230667     21.71963501     12.81340027
S        21.29650879     23.69728470     11.80765820
S        21.43521500     22.30125809     14.88672447
S        21.43521500     22.30125809     23.36212349
P        21.88705063     20.33210564     20.52345467
S        23.85171127     20.82613754     20.63028526
P        20.78630829     22.07322884     21.43404579
S        21.15665245     20.22800255     18.63249969
S        21.19382477     18.82420349     21.70524216
S        18.78230667     21.71963501     21.28879929
S        21.29650879     23.69728470     20.28305817
