832

Na      165.58547974   -110.18133545    -93.54547882
Na     -102.46323395     13.42759705    119.83117676
Na       46.64561844    117.15525055     24.63407326
Na       33.18142319     91.75439453    106.74585724
Na      -92.26486206    -24.00904846     49.39294434
Na      104.92015839     54.03933334    -39.78311920
Na       19.79104042    -40.97152710    266.69186401
Na     -133.96258545    -51.23783493     52.35575867
Na     -103.17237854    101.55081177    158.41131592
Na      108.17015076     60.32002640   -104.24004364
Na       43.50426102     71.02452850     14.95970631
Na      -89.63208771   -130.17997742    103.98190308
Na      101.51904297      9.13872814     66.79129028
Na       -1.37093353    105.03489685     -8.42713547
Na     -102.49760437      6.09451962    -55.93959808
Na        2.27401471     47.45947647     35.86187363
Na       20.10653687     19.93085861    147.86885071
Na      -38.02217102    112.34935760    107.14817810
Na      -34.48074722   -163.29130554    -77.30954742
Na      101.47336578    -48.73927689     53.41382980
Na      108.27822113    170.22459412     89.82769775
Na      112.76656342     -3.92957735    -53.25082397
Na     -201.61082458    -38.26634979   -171.74366760
Na       77.49426270     13.43641853    -80.49207306
Na     -129.99922180    -39.85211182    -83.68424988
Na      -93.29008484     50.52740860    153.65371704
Na       66.27239227    -75.40422821     62.64098358
Na      -24.31827545     77.45421600     65.46607971
Na       36.22402954     57.45740509    -18.62384605
Na       57.53237534    -20.49944115     83.23995972
Na      -71.22008514     20.83011818    137.83802795
Na     -166.21826172     91.99581909     98.83264923
Na      124.68621826     46.18557358    -87.00919342
Na      -17.29876900   -177.10885620     76.55381012
Na       40.28652191     16.81107521     -1.53968954
Na       13.26856422     39.76739120      8.68754768
Na      -34.59600830     33.46624756    100.28433228
Na       84.46993256    -54.30284119     -5.02252102
Na      -45.63875198   -252.46385193     69.55090332
Na       30.43486977    -51.83582306     35.62159729
Na       -1.39984286     20.47417641    -32.37660980
Na       56.73353958    145.50650024   -127.69288635
Na      -38.34189224     -9.87807083     25.45565796
Na       63.08765793    -74.87232971    -46.64744568
Na       86.04344940     74.05165100     42.26998138
Na       91.03475952    -82.04952240   -127.96784210
Na       25.97108650    -80.09359741     51.61967468
Na      -96.33347321      0.23527457    134.31196594
Na      -44.69316864   -119.15413666     52.23865509
Na     -219.01992798     81.07823944     34.78154755
Na       36.25654984    -23.71003723     -9.93544292
Na      124.78993225    -24.09106255    -25.20137596
Na       79.31754303     19.58318520    -18.05551147
Na       74.82794189    -69.43744659     65.43689728
Na      -31.44875908   -167.25408936    -69.65943146
Na       47.54814911     -7.78385115     59.29502487
Na      -31.60294151     20.34687233     -5.10452700
Na      -21.18480110    -27.61190414     18.48736382
Na       56.80963135    135.26330566     82.82707214
Na       58.58146286     71.26826477    -86.60814667
Na      -30.50856590     -1.55934286    -53.40404510
Na       13.56703758     41.20695114     11.51011753
Na     -102.01545715    -93.16759491    -22.59387398
Na       57.20692062    -91.88887024    202.77413940
Na       81.21134949     40.91191483     -2.11430311
Na      -41.82257462    117.84824371    -28.95539665
Na       47.34285355    -34.40133286    -46.24630737
Na        5.85002947      4.02267790   -103.96126556
Na      -98.56524658     98.89745331      5.37938118
Na      -21.43569565    202.87791443    151.11347961
Na       71.08467865     24.47963333     25.13417053
Na       87.95360565   -133.31994629     46.44591904
Na      117.01077271     36.83761215     65.28076172
Na       12.93600178    128.73001099     56.08485031
Na      -31.88679123    125.39432526    -22.19859314
Na       30.17347527    162.08520508    -18.94302940
Na      108.53027344     60.38639832    -80.28658295
Na      -32.99104691     74.36747742      1.54582560
Na      -10.57676601    -81.94445801    -59.42045593
Na      -41.60891342     -6.68017101     -2.25360918
Na     -102.75891113    139.36306763     66.33924866
Na       19.36854935    -61.91241837     14.98019505
Na      189.52842712    156.20552063     83.76699066
Na      155.29260254     45.54437256     21.91515160
Na     -126.78980255     57.35518646     29.15225029
Na      132.21640015     43.45151138   -148.54309082
Na       43.83517456   -112.84630585    -22.06593513
Na       94.67605591    -11.75662422    -63.14055634
Na       67.45230865    108.56521606     18.80318260
Na      152.29013062     91.60469818    -73.69502258
Na      -28.35544777    -68.58880615    -26.06701088
Na      -58.32307434    -99.06025696    -42.33664322
Na       -0.76472580     44.02761459     -8.88801956
Na       94.66422272     -4.68928576    -22.24861336
Na      108.21180725     48.34828949    -28.19612885
Na      145.24223328     91.96762085    116.09232330
Na       29.31181145    105.27293396    -22.77770805
Na       64.36133575     12.68151855    151.73820496
Na      -17.06676102    -64.50350189     82.97216797
Na     -140.21583557     43.80036163    158.00132751
Na       -6.73848724   -119.23530579    107.16652679
Na       -7.22744465     93.99920654    133.74798584
Na     -130.30744934     61.05511093    103.64393616
Na       77.09659576    -17.20064545      1.86108899
Na       23.05204773   -112.74967957   -148.08863831
Na      128.60539246    111.94415283     -2.57806873
Na       77.96780396    -41.33990097     69.79899597
Na      114.63247681   -136.45988464    138.17991638
Na     -112.73856354    152.32798767     25.00734138
Na       20.50631905     91.78775024     -9.02622986
Na       50.36129379   -153.80107117     75.56774902
Na       66.98445129    194.71900940     14.94957638
Na       19.70664978    105.27213287    -56.73092270
Na      -37.89400101    121.78002167    -18.88768768
Na      -20.54651451    -71.97117615     31.43141937
Na      142.19924927    -36.44277573   -138.24914551
Na       19.57276535      5.49591589      8.52241135
Na       94.57383728    122.09003448    134.02565002
Na       33.14862823    -14.06668758     45.82862854
Na      131.86756897     77.69614410     -2.10563326
Na       56.91749954    -65.10086060    -35.90797424
Na      -37.92646790    -30.47194099    118.85961151
Na       73.68502808    -82.21511078    147.34437561
Na       59.69046402      2.88504338     79.67775726
Na      131.91558838     33.43119431    -80.24337006
Na       60.37842560     26.78512955     12.33095741
Na      -61.80365372    -34.34180450    161.08090210
Na      -45.19277954     30.60766602   -103.85224152
Na      -31.34207726    -92.10545349    100.25507355
Na        2.82929039     58.07624054    -32.64069748
Na       19.88372231     80.62953949    150.86750793
Na       66.44235229    -60.88965988     76.51630402
Na       67.06049347   -116.85684204    -36.16574478
Na      -62.26540375    -27.83110237    243.03564453
Na      -28.09251976    -99.36774445    101.14239502
Na       30.81299591     41.74810791    -12.28195858
Na      -92.42570496    -78.17139435    -19.16324425
Na      -28.34195900    -61.41121674     46.23561859
Na       45.35949707    -31.40713310     -8.57416534
Na       43.64952469     88.33908081    110.69180298
Na       77.95915222     43.64297867    -42.46072769
Na       -7.60038519     81.14461517     18.04717255
Na       -0.51684916    -21.26732254    -29.36438942
Na      108.16191101     94.86030579     21.54649353
Na      -58.77902222     30.01418304     97.56537628
Na       -9.47997475    -91.73462677    -18.83195686
Na       94.73701477      6.09163761    137.95104980
Na        3.50204039    180.64631653    113.94036102
Na       80.77365875    108.70127869    -12.03030586
Na       16.84685326     48.04539108   -107.52669525
Na      -21.86937904    -27.38085175    -11.90370560
Na     -150.50367737     53.80030060    -32.26707458
Na       40.59227371     73.47038269    -75.88283539
Na       12.80521393     -0.06332403    147.72799683
Na       70.74369049     96.24817657     49.65769958
Na       60.27565002     78.28072357    -15.00533581
Na     -133.15422058      2.83512855     69.35580444
Na       10.56122208    139.02522278     38.84447479
Na       87.99713898     19.98963165     86.55196381
Na      148.85662842      6.08312750    -76.57335663
Na       84.20499420    166.16532898    -15.36829281
Na      -51.54314423     10.14024734     18.32355309
Na      -41.07487869    -20.77317047    -36.78981781
Na      -34.15809631    105.01194000     31.55555153
Na       50.59020996     82.35794830    -59.80697250
Na      -65.02188110     64.29473877    -11.58630753
Na      -82.41742706    138.94279480    -15.50959873
Na      -99.28890228     64.66709900    112.52459717
Na      -38.02958298     57.04602051    -90.64702606
Na      -92.28722382    -47.71302414     35.75053406
Na      -59.04579544     12.98700523   -114.52790070
Na       22.97844315     12.32206059     62.79042053
Na       -4.42950535     -3.95151448    116.06604767
Na      118.03739929    -44.92616272     19.62220573
Na       63.84896088    -51.84206009     76.17719269
Na       -3.15798807    111.65965271    128.25524902
Na      100.87931061   -183.06027222   -161.31642151
Na        1.92451859     71.20249939     79.41893005
Na       -6.96006012    206.31433105     39.15246582
Na      -27.64717865     37.13763046    113.95437622
Na        2.45242929    105.30220032     -1.86019111
Na      -55.01036072    132.26316833      6.67804623
Na     -127.06770325    -31.27515221     80.00379181
Na      131.74639893     37.08058548    188.33938599
Na      118.19960022   -109.82408905    185.57647705
Na       16.16537857   -170.07984924     42.42449188
Na     -148.08442688   -105.56400299    146.84036255
Na       67.86337280    -68.47034454    -59.82827377
Na       15.90097237    145.70498657   -107.94666290
Na       12.70007992     13.45747948   -189.20056152
Na     -130.34442139    114.95541382    144.68183899
Na      -48.50835800    115.62893677     55.88462830
Na       67.84502411     50.68578339   -124.79402924
Na      -14.48860455    142.61973572    -33.03451157
Na      -11.22075844      9.90685654   -131.49134827
Na      -65.24903870    -78.72509003     59.64975357
Na       43.52742767    -99.03636932    -86.73688507
Na     -120.16162109     98.63701630     32.34206772
Na      -48.49399567    -95.10514832    157.89566040
Na      235.72340393    -80.41602325    -25.45124054
Na      -41.26791000    139.18821716      4.67965460
Na     -123.63904572     54.29449844     86.33886719
Na       46.93895340     -8.24466801    154.56117249
Na       29.32906723   -105.74622345    -21.69281769
Na     -134.20617676     -6.28934431    -93.09998322
Na      -24.60023689   -129.34526062    -11.76667404
Na       77.46761322   -157.07972717     90.25985718
Na       46.81446457   -106.31034088    -35.61041641
Na     -133.49470520   -126.19006348     83.63874817
Na      -31.43506050     74.24977875     97.33934784
Na      149.10446167      3.43298244    243.50314331
Na      174.35774231     64.33507538    -41.60153580
Na      -54.94729996    127.89538574    -69.35467529
Na       43.63053513    125.35800934    137.67280579
Na       33.46405792    -20.39041138     45.93376923
Na      -61.99827957     42.16741180    113.35887146
Na       -0.99986112     95.39360046      4.79171419
Na     -143.47773743    -41.34856415    246.16755676
Na      131.68072510    -17.56866264     86.71233368
Na       23.31896400    -24.47756958    -48.91822815
Na      -28.21217346   -108.66671753     -8.57407188
Na      -24.41502571    149.18641663    130.41732788
Na       13.13263035    -17.64977455    -49.28046417
Na     -100.35686493     16.81641579     17.83021736
Na      -95.76223755    109.17361450    -52.65628052
Na       16.14676857     88.18917847     49.42499542
Na      141.33726501    -85.60482025    -21.84438705
Na      -47.91403198   -136.34799194      5.40312529
Na       94.37027740     25.94966125     62.63321304
Na       23.03757668   -102.96639252    -39.04082870
Na       23.24097252    -24.46324348    -26.09519005
Na      -62.03311157    196.89569092    205.80223083
Na      -23.80689621    -96.05413055      8.37296295
Na      -78.44758606    225.08050537   -168.58224487
Na      169.71797180   -140.01412964    154.11894226
Na       47.17662811    108.33880615    -19.14969444
Na       26.26705360    -55.35968399   -240.80331421
Na     -201.19416809   -105.67821503    -67.37921906
Na       87.60749817    217.41227722     79.42460632
Na     -109.49503326     96.69954681    -97.23001099
Na      108.25128174     71.27836609     80.64904785
Na      104.10247803    -85.50490570     18.65407372
Na       29.72434807    -34.18295288     28.91157913
Na      -92.26556396     26.77868080    232.78804016
Na      101.76451111    -24.42472267     59.56827927
Na        2.74785542    201.31193542    -94.16698456
Na      112.17758179   -187.19630432    -90.56248474
Na      -73.00077820     -3.90814471     55.97537613
Na      299.00473022    125.82609558     59.40586090
Na       31.27976418    -31.01350403    -38.92895889
Na      -27.87775421    -47.99470520     -8.96752071
Na      -44.71084976    132.47677612    -42.79320526
Na      -54.93638992   -149.78410339    100.26634216
Na       64.39791870     68.01138306     35.93742371
Na      -70.33488464     98.40580750    -97.93176270
Na       12.69834995      2.94386840     18.38290596
Na      -20.64003944    -62.40085602     12.28485489
Na     -125.70442963     50.92570877     89.92017365
Na      132.56108093     77.79217529   -113.87936401
Na       39.89524078    116.33795929     38.98092270
Na       43.79637146     90.92279053     -8.11322212
Na      -27.37912560     13.49068928    -39.57727051
Na      129.11579895    197.20832825   -130.45915222
Na      -48.59323502    136.07872009    130.98410034
Na     -113.42077637      2.92701030     11.56141472
Na       53.33177948    -82.42826080    -87.05870819
Na       64.14149475   -102.53970337     55.49228668
Na       26.45458412     47.34879684    -66.26065063
Na      112.22418976     63.95532608    -42.83735275
Na      107.78835297    -26.54722595     82.46263885
Na      -24.71553040   -194.16551208     73.09646606
Na       32.81935883     12.54644775   -156.89930725
Na       80.33983612      9.88045979    -83.73485565
Na       29.62919807     50.87524796   -168.70515442
Na      180.08731079    -14.89177513     55.84598541
Na      111.18708801    119.21669769     76.54966736
Na      -16.82877922   -147.08206177    -12.80125141
Na       29.56768799     64.32346344    188.80332947
Na      -58.88524628     26.36022758   -100.86365509
Na     -119.75729370    -29.85309029   -107.26815033
Na      -28.27860641    -81.99090576    -16.22703171
Na       53.96179581     11.66415787     66.89862061
Na      105.17127228    -37.46374893   -134.07981873
Na      -61.77152634     25.97742653      1.14712930
Na       26.80529404    -88.89125824    114.85692596
Na      -21.21444702   -129.96484375    -66.45679474
Na      -32.28556824    -24.34690475    161.63909912
Na       71.01577759     -6.88068771    -18.85198975
Na      122.54502106     12.74494648    -39.10673904
Na      132.19670105    -21.56875038    212.51264954
Na        9.64893150     23.06021309     69.57215881
Na      149.29840088   -276.09481812    100.73146820
Na       19.83460426      5.87855530    -42.88233185
Na      -61.72437286     81.09708405     21.09768105
Na      -93.06806183      6.26933098     42.32073593
Na      -18.18264198    108.45355225     42.71264648
Na       60.41376114   -115.79180908    -18.40275192
Na       29.84579849     43.90738297     55.90282059
Na       -3.38413882    -86.14983368   -104.90063477
Na      122.17130280    217.97895813     42.38027191
Na      -17.91297150     54.01308060      1.67004561
Na      189.60902405     80.17707062    106.95692444
Na      101.16133118     10.90429211    -49.01761246
Na      155.61381531     56.80545807   -151.75772095
Na        8.96040058     23.32702827    -49.47639847
Na      117.98828888    -98.91410828    -38.85189438
Na       73.76805878    -58.55351639     12.16325092
Na      -21.18305588    -61.37033844    110.31943512
Na       -3.75581479    -65.06273651     36.16231537
Na        9.51861668    234.85630798    -32.92161179
Na     -109.18336487    -14.41452312     89.69889832
Na      131.78265381    -51.23617935     90.40425110
Na      -68.71337891     -7.68589163     69.00148010
Na      171.61009216     44.07872772    116.99383545
Na       40.07701492   -142.80949402    -18.95817375
Na        6.18518972    146.20672607     -9.18786049
Na      -80.26668549     19.33761024     21.91869164
Na     -205.07405090    105.54804993   -111.34242249
Na      -24.92871284    115.01130676   -155.09393311
Na       43.04104614      9.74421406    -69.59877014
Na      -44.28333282    142.26878357     14.51767540
Na       63.77246857    -68.15910339    -80.13171387
Na        9.17726517   -142.58715820     62.55418015
Na        5.58388710    101.09129333     -8.75681210
Na       56.30752563    -68.48423767      1.43235397
Na       63.89247894    138.91798401     -1.84025109
Na       67.74652863    210.29650879    -16.18262863
Na      189.96830750      8.31408310    120.62430573
Na      -48.51150513     40.40642929     83.49444580
Na      -46.38506317    180.24642944     11.75916195
Na     -102.93196869   -183.96415710     11.98588657
Na      -64.97854614     94.38385010   -120.60658264
Na        2.81256652    125.90484619    117.72035980
Na       43.51488876    -86.73128510    -32.70839310
Na       -0.74293017     61.36762619     21.54942513
Na      -45.05720520     23.62799644    -35.32051468
Na       74.43921661     93.76835632    -11.83514118
Na       19.56991959     41.48387909   -127.67234802
Na       71.22364807    125.96578217     39.01195526
Na       81.48504639    241.29943848    -15.24233818
Na     -177.72695923     65.06246948     46.45239258
Na      -11.26132488    -54.66303253      8.35649776
Na      -61.75348663     95.59778595     73.00237274
Na       91.27629852     64.01696777     77.57907104
Na       -0.98142022    -76.13428497    -66.59492493
Na       36.53720093    -20.89731789    185.07597351
Na       84.10440826    -51.52361679    -53.14577103
Na       67.52819061    -13.18959904     86.39949036
Na      142.39601135     49.75431442    242.88644409
Na       63.65028000     10.40942383     53.65425491
Na      166.93334961     64.59388733     87.00875092
Na      -72.91208649   -142.46206665    -32.80292130
Sn        2.20133924     13.38059044      4.71085310
Sn        2.47292662     26.88341331      4.92395401
Sn       16.43825912     13.22508335      4.57592249
Sn       16.42277336     26.85818291      4.90841389
Sn        2.81735516     -0.21272501     18.82816887
Sn        2.61934495     13.35669422     17.93583679
Sn       16.39048195     -0.91951346     18.58962250
Sn       16.53870583     13.02662468     18.96271515
Sn        2.36163592     -0.75081414     11.92569351
Sn        3.00705814     13.02676964     11.59247971
Sn       16.13442230     -0.38345972     12.15062904
Sn       16.78823280     13.17737007     11.83848763
Sn        2.57998061     12.96411705     -2.30527496
Sn        2.43231511     26.70046616     -2.07503486
Sn       16.61585999     14.00444603     -1.64696646
Sn       15.99630070     27.66194916     -1.58244085
Sn        9.71171665      6.49023390     18.15323639
Sn        9.53045082     20.34838867     18.44769478
Sn       22.89504433      6.60785627     18.26598358
Sn       22.67461586     19.96974564     18.95411301
Sn        9.31239414      6.44796419      4.43668652
Sn        9.83472061     20.09208870      4.75156164
Sn       23.11701202      5.94264698      4.92553329
Sn       23.39012909     19.77989769      5.30340481
Sn        9.68379498      6.14185333     25.03731728
Sn        9.58512115     20.21388626     25.35327911
Sn       23.03496361      6.39875317     25.06420517
Sn       23.33348656     19.86304665     25.27759361
Sn        9.40091038      6.25587082     11.32532215
Sn        9.87076187     20.26552773     11.53100681
Sn       23.32200813      6.24685144     11.86260128
Sn       23.25430107     20.11668396     12.00559425
Sn        9.48485374     -0.38433808     18.80774307
Sn        9.64035511     13.44470787     18.68311119
Sn       23.29898071     -0.37214321     17.95023918
Sn       23.05047989     13.24617577     18.50884628
Sn        9.50573540     13.54633522      5.02185869
Sn        9.58067417     26.88822937      4.98015261
Sn       22.69816780     13.24593258      5.02223492
Sn       23.13272667     26.63534546      4.56771231
Sn        9.93352318     13.07243919     11.96408558
Sn        9.38337231     26.85486031     11.75770092
Sn       23.38762283     13.21015072     11.56769562
Sn       22.91700935     26.63043022     11.13962460
Sn        9.49400997     -0.58361769     -1.84104860
Sn        9.48683262     13.33858013     -1.53791034
Sn       22.76345062     -0.56759596     -2.27862167
Sn       23.04056168     12.93264389     -1.95751119
Sn        2.81141758      6.66244984      4.84571028
Sn        2.89326763     20.38386536      5.43736744
Sn       16.35683632      6.34941196      5.31744909
Sn       16.27618408     19.94116020      4.53893518
Sn        2.68774366      6.67765999     18.37075615
Sn        2.45250463     20.25197983     18.79314232
Sn       16.24664116      5.91802168     18.44729424
Sn       16.45412636     19.74094772     18.49333000
Sn        2.68570161      6.47118759     -1.58245492
Sn        2.52187705     20.10104942     -1.70550704
Sn       16.19247627      7.37357950     -1.71750534
Sn       16.43346214     20.89347076     -2.05137229
Sn        2.60134125      6.30285501     11.92205715
Sn        3.05777001     20.01417542     12.22328949
Sn       16.07037544      6.18227339     11.73218822
Sn       16.88093185     20.33033752     11.88317490
S         1.33282554      5.01441097     -0.32432538
S         1.47728002     18.63944435     -0.13636442
S        15.39292908      5.43274689     -0.30404270
S        15.14588451     19.53648186     -0.70966274
S         3.99009871      7.57784891     13.25079536
S         4.25305605     21.77613068     13.52237129
S        17.66946220      7.55969048     13.04086399
S        17.84662628     21.81270981     13.51165581
S        10.82932281     11.97926140      6.31157064
S        11.02255344     25.10487366      6.04172277
S        24.13309479     11.63197327      6.30988646
S        24.44016457     25.15587807      5.81119490
S         7.99123955      0.79268980     20.31575012
S         8.09282398     14.72830677     20.42405128
S        21.66854477      0.76048309     19.30994034
S        21.79982185     14.66243744     19.90389824
S         4.42867470      5.10401726     24.36171341
S         3.57385874     18.39896965     24.17637062
S        17.81821442      5.73629236     24.23559952
S        17.49879646     19.35009003     23.77821350
S         1.22785032      7.62491322     10.10506535
S         1.32240403     20.97194672     11.02123356
S        14.92700672      7.83892965     10.26196957
S        15.43529797     21.71063995     10.69346619
S         8.14704037     11.87140179     17.57288361
S         8.15575886     25.28424644     17.68581772
S        21.81562424     12.06887817     17.07916260
S        22.11276627     25.42370987     16.48676872
S        10.56677628      1.12759364      3.43502140
S        10.96149158     14.88254356      3.68946481
S        24.44742203      0.92618126      3.14415359
S        23.81201553     14.78148746      3.32787633
S         8.59213448     11.44559860     13.42432880
S         8.22850609     25.34808350     13.16627693
S        22.03840065     12.04230118     13.17834854
S        21.56308937     25.26926994     12.39815331
S        10.58414459      0.82023460     -0.21074176
S        10.90872192     14.72020912     -0.00129084
S        24.11667061      0.85266018     -0.77389938
S        24.59875679     14.44677925     -0.87873149
S         4.11173534      5.49608469     20.26469994
S         3.53674960     18.64483070     20.06389809
S        17.34602356      4.48817587     20.06226540
S        17.63603210     18.14770317     19.84625435
S         1.33415639      7.99413824      6.41605377
S         1.64674342     21.99773979      6.67610788
S        14.61027145      7.59258175      6.50486660
S        14.98887253     21.30556679      6.17007542
S        11.01044178     11.64746952     10.50153828
S        10.97795677     25.34593582     10.23473740
S        25.06369781     12.07335472     10.26964188
S        24.24717903     25.10570335      9.81622505
S         8.03405380      0.89411473     24.10846710
S         8.33023548     15.04065132     23.91144753
S        21.46908951      1.06558478     23.74064636
S        21.61909485     14.34112358     23.86155701
S         1.58644331      5.22717524      3.31032991
S         1.81898201     18.71700096      4.00016403
S        14.94651222      5.04271173      3.83991790
S        15.12570095     18.65231323      3.06280851
S         4.21729517      7.96748877     17.00041580
S         4.11238575     21.47315025     17.54237175
S        17.85815430      7.24854136     17.24243164
S        17.80436707     20.76982307     17.06526184
S        11.37681198      7.37997198     23.50938988
S        10.56704330     21.70313072     23.74322701
S        24.47027588      7.63740158     23.30148125
S        24.81258965     21.42780113     24.17265511
S         7.71969652      4.91226006     10.09207916
S         8.23689938     19.25551033     10.13520622
S        21.59736824      4.98242998     10.26196575
S        22.09242439     18.72643852     10.41768837
S         1.90995014      1.21592116     17.06937218
S         1.07843459     14.89615440     16.77105713
S        14.91196537      0.60721451     17.18979454
S        15.08901787     14.06518650     17.39610291
S         3.99850845     12.11966705      3.33823252
S         3.78413296     25.37576485      3.40052390
S        17.81819916     11.54292393      3.63204312
S        18.07856560     25.44006348      3.66867518
S         8.42174911      7.85247803     -1.33165967
S         7.83332014     21.39964676     -0.46070644
S        21.86500931      7.64087629     -0.61746210
S        21.70085526     21.10364723     -0.64872247
S        11.10741234      5.05022573     12.52954102
S        11.37930679     18.68060112     12.52447224
S        24.03337669      4.50323200     13.33282185
S        24.28846741     18.47611618     13.37817097
S         3.86056685      1.06438422      6.42386818
S         3.65420508     14.62084293      6.29071665
S        18.16160202      1.17662692      6.05107689
S        18.00535393     14.72876167      6.35072660
S         1.14760363     11.80277443     19.58240318
S         1.28381836     25.69622803     20.12381744
S        15.08253956     11.71812630     20.36946487
S        15.27877903     25.02990150     20.24299240
S         3.90995455      0.53712595     10.49114418
S         4.23410559     14.53240013     10.27074718
S        16.95270157      0.97352087     10.46476841
S        18.25212669     14.49811363     10.61849594
S         0.82810944     11.58775902     23.78918839
S         1.25837207     25.33746529     23.64773941
S        15.01008606     12.45875740     24.04542351
S        14.65754223     26.26505089     24.02349472
S         8.32373905      7.97592306      2.93131018
S         8.14069939     21.26819420      3.54680753
S        21.64211655      7.70577383      3.49020576
S        21.82039452     21.05128479      3.71963120
S        11.28427410      5.02814293     17.02562714
S        10.76146984     18.95722771     16.71772194
S        24.48301506      4.74984837     17.22245216
S        24.51146317     18.99772835     17.84454536
S         0.83590019      0.63370192     13.27374935
S         1.64822555     14.24133492     13.25930786
S        14.73120213      1.27043378     13.42054558
S        15.58799839     14.24204636     13.61071873
S         4.03286219     11.74287510     -0.69527394
S         4.17939425     25.52989197     -0.91137856
S        18.17286110     12.30209351     -0.52206570
S        17.40984535     26.39798737     -0.16945171
S        11.23286343      7.77102757     19.35733414
S        11.13426971     21.54802513     19.77703094
S        24.53772926      7.49205399     19.86677551
S        24.08393288     21.64525795     20.17808151
S         7.74881744      5.46729088      5.90754652
S         8.32824516     18.58037758      6.17751837
S        21.73470306      4.69349384      6.49901247
S        22.17961884     18.38484573      6.66052771
S         0.90513879      0.93919009     -0.92065436
S         1.51060188     14.60803890     -0.77268672
S        14.70784092      1.99459934     -0.29599974
S        14.80272102     15.35104942     -0.43169525
S         4.45547056     11.30436420     12.62036514
S         3.77355409     25.38547897     13.35926628
S        17.97643089     11.73965740     13.43350601
S        17.66963005     25.38843536     13.23829842
S         0.83535284     11.83481789      5.94367838
S         0.87443686     25.59803200      6.05100727
S        14.95151329     11.87996483      6.12542248
S        15.03793526     25.19931030      6.13092232
S         4.26861620      1.27230966     20.06348419
S         4.05663061     14.59710407     19.56848907
S        17.98558044      0.58499265     19.72694778
S        18.04602051     14.43797016     20.17102242
S         3.71847963      1.22207403     24.16686630
S         3.85196042     14.36395931     23.62255287
S        17.47844505      1.56996143     24.24423218
S        18.46990776     15.36833286     23.69597244
S         1.78791654     11.20877075     10.56338787
S         1.19479847     25.01730728     10.50267315
S        15.11206341     11.96460438     10.38669109
S        14.74215603     25.74820900     10.42427540
S         3.77356362     11.83527565     16.50752831
S         4.02061319     25.55493164     17.30030823
S        18.03347778     11.37480068     18.01224899
S        17.58443642     24.69294167     17.10023117
S         1.44821942      1.10432971      3.15387034
S         0.81342840     14.74381161      3.21980810
S        15.40486813      1.02590036      3.13264513
S        15.13297749     14.86996841      3.42867327
S         8.03320980      7.54792213     13.10604858
S         8.38993740     21.13360214     13.04828262
S        21.90091324      7.36648464     13.40409374
S        22.07183647     21.61196327     13.55167103
S        10.94493484      4.72191858     -0.89407957
S        11.19829464     18.90554810     -0.57429874
S        24.52590752      5.00467491     -0.84194511
S        24.39579391     18.68541908     -0.06404564
S         8.07474899      5.19549370     19.51996422
S         8.29392529     18.88158798     19.89078712
S        22.01597977      5.13135004     19.95113564
S        21.61243629     18.24357033     20.38141823
S        10.65454674      8.05242252      5.74648380
S        11.25706768     21.44089890      6.16004848
S        24.41921234      7.72045612      5.81831646
S        24.49949455     21.19169235      6.99490309
S        10.26969242      7.96844435      9.81154442
S        11.05861282     21.90136337     10.13999748
S        24.43527985      7.93632507     10.44092751
S        25.47169113     21.09593391     11.25693130
S         7.95975304      5.10934210     23.71312141
S         8.29223251     18.79404640     23.94143486
S        21.41614914      4.96023941     24.15227699
S        22.11670113     18.34864044     24.04149818
S        10.89793205      5.02084303      3.39267421
S        11.38790131     18.75050163      3.58438134
S        24.28590965      4.48684216      3.39911270
S        25.00261116     18.41839981      3.95889688
S         8.31914997      7.78393412     16.83015060
S         7.69635677     21.27413750     16.95265961
S        21.59193611      8.01287270     16.68896484
S        21.53040695     21.25828743     17.24918365
S        10.82383251     11.57735443     24.52499008
S        11.07175064     25.53583908     23.98841286
S        24.36761475     11.78547859     23.72531509
S        24.00541496     25.35358810     23.37262535
S         7.83554840      1.00687051     10.74034595
S         8.76918793     14.83564186     10.81090355
S        21.45509529      1.05967045     10.20119953
S        22.10435867     14.38304901      9.92738533
S        10.72663403      0.95099986     17.42146111
S        10.62144756     15.07728672     17.20629501
S        24.57458496      1.19603026     16.96217728
S        24.49958611     14.84571838     17.05447960
S         8.17317867     12.36249352      3.45946956
S         8.00228786     25.52165031      3.80522823
S        21.09957504     11.98269558      3.66126847
S        22.06743813     25.04670334      3.10023475
S         7.54626799     12.35884857     -0.64038986
S         7.96545649     25.24510384     -0.60331523
S        21.99038887     11.47608376     -0.57572711
S        21.61701012     25.18474579     -0.98077011
S        10.86503983      0.78573573     13.26058578
S        11.40107250     14.07056236     13.65231228
S        24.30752945      0.82080609     12.52682018
S        24.46209145     14.28296566     13.26514626
S         8.31019306      1.21871853      6.32573605
S         8.16162968     14.82880020      6.92672205
S        21.93740654      0.83296275      6.11716127
S        21.47561646     14.47232819      6.70486212
S        10.61998081     11.83409405     20.26946259
S        11.07023335     25.45185089     20.12249374
S        24.68171310     11.79140949     19.63657570
S        24.29829788     25.82058334     19.80693245
S         3.95342779      4.75009298     10.51912785
S         4.41160583     18.90820312     10.73282623
S        17.60064507      4.60189533     10.36842155
S        18.05299377     19.01781654     10.16933727
S         0.95633638      7.99691772     24.32966423
S         0.86757958     21.54792595     24.30425262
S        14.74666405      8.58059692     23.98506737
S        14.91951561     22.58458328     24.09813881
S         4.38552237      8.18340015      3.74700236
S         4.21752501     21.61392021      3.57619190
S        17.53771973      7.39901114      3.84115195
S        17.98042297     21.58715057      3.43723750
S         1.34221244      5.10862255     17.15251541
S         0.96519315     19.09635735     17.26414680
S        15.06474018      4.27582932     16.87490463
S        14.79537010     18.29887581     17.27800369
S         1.13575065      4.89444542     13.49007225
S         1.94771731     18.70275497     14.03128910
S        14.64892387      5.01799488     13.17672825
S        15.49020672     18.87508011     13.21645832
S         3.84042406      8.37244129     -0.47940800
S         4.24295378     21.39471245     -0.70939595
S        17.90959549      8.52067947     -0.47541323
S        17.87436676     22.37574577     -0.78796136
S         1.41744411      8.28113079     19.72534752
S         0.81701589     21.75483704     19.94117737
S        14.87624931      7.15028143     19.84162712
S        15.01201534     21.17807961     19.69663239
S         3.99919605      5.02765179      6.17217541
S         4.42457199     19.10687447      6.67416191
S        18.13096809      4.89499903      6.64169550
S        17.71711922     18.72637939      6.10359097
S        -2.04396868      4.57193375      9.50002384
P        -0.82684636      3.17785978      8.65427876
S         0.59063596      1.94913900      9.49446774
S        -2.27288365      1.98256278      7.74485159
S         0.12176231      4.53097916      6.97099113
S         0.85857248     18.24379730      7.59184551
P        -0.35436496     16.68124580      8.37670803
S        -1.40855992     17.16411400     10.13281631
S        -1.73870897     16.04481697      7.14802313
S         0.76952380     15.43866634      9.28352547
P        12.56844139      2.82277536      8.07434940
S        11.36524868      3.73331738      6.59721422
S        14.26416016      1.76896298      7.03179121
S        13.47044563      4.33187532      9.05860233
S        11.63653946      1.56502783      9.41730022
S        11.32591248     17.93743515      8.11434555
P        12.94475651     16.85799026      7.91737938
S        12.68982983     15.22848701      9.04134750
S        13.39173698     16.42079163      5.90556574
S        14.30694962     18.15252304      8.78798580
S         6.93948650     11.33337402     22.64115715
P         5.91939163     10.02079201     21.66335297
S         6.95387554      8.49607944     20.92010307
S         4.43764830      9.38832092     22.93083572
S         5.04049015     10.86319065     20.06742477
S         4.60055351     24.86646080     20.60537338
S         4.42243576     22.64084244     23.10819626
P         5.72041321     23.64302063     21.84392357
S         6.40195370     22.26854134     20.62847900
S         7.10583782     24.53561783     23.02288628
S        18.66294861     10.31855679     23.21991158
P        19.91294670      9.48426628     21.69394112
S        18.80970001      8.34289551     20.37069893
S        20.72142601     11.09071541     20.53264618
S        21.40567207      8.65494633     22.83578873
S        18.90760612     21.77208900     20.73323822
P        19.71266747     23.18453026     21.95301247
S        20.90375710     24.29521942     20.66963959
S        18.53774834     24.69520187     22.89049339
S        20.81239128     21.93308258     23.29798317
S        25.15915871     11.14839554     14.90143013
S        27.92092323      9.54150963     13.66619778
S        25.24615288      8.04655743     14.25382328
P        26.47460175      9.35915375     14.96539974
S        27.07464027      9.14468002     16.94708824
S        26.94261360     25.16520309     17.16448784
S        25.34937668     21.99523163     16.13336182
S        28.46233749     23.40728188     14.93447304
P        26.53611946     23.73836327     15.82225323
S        25.43914413     24.62632751     14.27789116
S        14.48281479      8.70437527     16.88148117
S        11.73447227     10.13628960     16.34796524
P        13.32230663      9.57497311     15.24642181
S        12.54411793      8.05970573     14.12279510
S        14.50261593     10.75536537     14.11674404
S        12.00116253     22.71470833     13.59379005
S        14.36865807     24.91954803     14.73243237
S        13.87440205     21.87439728     15.65198421
P        12.88074207     23.60427475     15.17059517
S        11.65437889     24.43229866     16.53058052
S         6.99967289      2.11846900      3.19684863
S         7.22985840      4.09838533      0.49838454
S         4.56001472      4.32186031      2.76549697
P         5.94709349      3.02213621      1.73372722
S         5.10222673      1.61362934      0.39518538
S         4.48687553     16.01770782      2.76486683
S         6.94250202     15.33732605      0.43628070
S         7.67813301     17.81136703      2.27332759
S         4.86592579     17.86388397      0.07247450
P         5.99023342     16.68837357      1.35939801
S        18.38013268      3.18156362     -0.09898831
S        21.13356781      4.40027142      0.95414740
S        20.67118835      1.31138051      1.75928319
P        19.70247650      3.12223291      1.47083020
S        18.60918808      3.91765881      3.06851649
S        18.84143257     18.12564468      0.65009916
S        21.02857399     17.42537689      3.06700587
S        21.32249260     15.54333305      0.35203290
P        19.90105057     16.68765640      1.43384624
S        18.62388611     15.32077026      2.33702898
S         5.28643417      1.74790204     13.96150684
P         6.23920918      2.82802081     15.40193462
S         5.00809717      4.03293753     16.44462585
S         7.18234539      1.68943036     16.91354179
S         7.36373568      4.13909912     14.40066719
S         7.41970778     17.66328430     14.51830959
P         6.28501081     16.03642464     14.94834423
S         4.45603418     17.00605202     15.31242561
S         6.09751701     14.65263081     13.47457218
S         6.90649843     14.97237682     16.72320557
P        19.80479813      2.91929054     15.16769505
S        18.93581390      4.13016081     13.61739922
S        21.23402786      1.50921559     14.28266907
S        20.55571556      3.95884776     16.72200012
S        18.40395546      1.71421039     15.97761917
S        21.35437012     17.58074379     16.22828293
P        19.98065948     16.30674171     15.20369816
S        20.69674301     14.66742706     14.42542171
S        18.53652763     15.45353985     16.38954353
S        19.12305450     17.47686005     13.80478573
S        25.08491707     10.95936298      2.61453176
P        26.28078842      9.64277649      1.70815134
S        27.70090485     10.76159477      0.45719859
S        27.43316841      8.38191986      2.88751101
S        25.18754578      8.36429119      0.52884334
S        24.79026604     22.97458076      0.74285483
S        28.47200203     23.05866623      0.86621958
P        26.61935806     23.60365677      1.42011368
S        26.67306519     25.43997192      0.52623475
S        26.53792572     23.25021553      3.41295028
S        11.16319275      9.27228737      0.60936201
P        12.81250763     10.23323536      1.46217227
S        12.36149502     11.56476307      3.03564763
S        13.88559437      8.77451038      2.41622424
S        13.82290936     10.97422123      0.01017958
S        11.35442257     24.02603531      2.92344952
S        13.77394962     25.11651230      0.38957658
P        12.82648277     23.63728905      1.46230197
S        12.07599163     22.47895813      0.01858891
S        14.17979145     22.26819611      2.30284238
P         5.75308037      9.87905502      8.19214249
S         5.11664438      8.58739376      9.75953007
S         6.90731573     11.21415901      8.99071121
S         3.86016440     10.76666260      7.49759960
S         6.59715652      8.87385464      6.59463835
P         6.56057453     23.71254730      8.41650105
S         8.21743011     24.56168938      9.12364674
S         5.54634285     25.10417747      7.32233047
S         5.42108202     23.07541847      9.92735386
S         7.04718208     21.98922729      7.13505936
S        21.24962044     10.66998768      7.52182484
S        18.50643921     10.84876442      9.63738537
S        21.08011055      8.50862026      9.93273830
P        19.84210014      9.48630619      8.68322468
S        18.85260963      8.05272675      7.42177677
S        18.59375572     22.08115959      7.63928461
P        19.95289803     23.20814896      8.52658081
S        20.60049629     24.63963890      6.88353300
S        21.53472900     22.19028473      9.23102665
S        19.00105858     24.45306015      9.77020931
S        14.35379410      1.88777125     21.19142151
S        11.38342285      4.03448915     20.76666260
S        14.07194424      4.51089144     23.33762741
P        12.90989208      3.01476455     22.30408096
S        11.60840607      2.06814623     23.67061424
S        11.86989784     17.93910027     23.16629601
S        14.28165627     15.76016903     23.05360031
S        13.52079296     17.34472847     20.10363007
P        13.00186062     16.60553360     21.79075241
S        11.69747543     15.14821243     21.10940552
S         0.34963828      4.85746431     22.48536873
S         0.54717487      1.36841881     22.72902489
S        -0.37373397      2.98156357     19.96210289
S        -2.43332052      2.96903181     22.70444298
P        -0.40631741      3.02473879     21.91429710
S        -1.52910781     17.97044945     20.87532806
S        -2.00559974     15.19573498     22.61300087
S        -0.66801035     18.14119339     23.69171143
S         1.20420051     15.86930084     21.64092827
P        -0.67454940     16.66864777     22.17551613
