832

Na      359.82040405     47.38487625   -177.22325134
Na     -144.50183105   -136.08740234    253.76869202
Na      -59.53892136     65.10702515   -155.94648743
Na       12.34740829    -34.23641968    375.29898071
Na      175.90339661   -387.42169189      7.26541567
Na     -203.03855896    334.06707764    171.40483093
Na       -7.55571842     82.51856232     -1.89618492
Na      -18.36252594   -139.21229553    121.15833282
Na       80.11120605   -104.88671112    256.09426880
Na       35.81680679   -180.10984802    117.27440643
Na     -154.87295532   -125.36477661     65.82061768
Na      -52.20822906    241.53645325    -28.76827431
Na     -100.09180450   -248.06896973    266.03726196
Na      437.32754517    -50.55656815    188.01663208
Na       83.18125153    -27.59081268     35.22116470
Na      -49.36268616   -108.55789185     -4.68315601
Na       -9.00146580     75.55470276   -256.20507812
Na     -180.58485413   -218.11495972     24.90711212
Na       53.37629700   -112.22334290   -186.47402954
Na      158.13551331    214.09796143   -101.38801575
Na      -66.40225220     54.55970383    -19.56668663
Na     -178.90821838    -13.37983227   -151.95268250
Na       91.33206177   -115.72872162     55.82863617
Na       71.32365417    -20.38880920   -257.34054565
Na      107.32756042    183.62762451   -122.47901917
Na      -11.74229431    -99.37625122     -1.71023238
Na      148.58764648     30.84519196     85.87143707
Na        2.14627576     60.94369507     22.66738129
Na     -148.27355957   -130.01657104    164.43273926
Na       25.98508072    116.39295197    -88.26458740
Na       49.16374588    -78.27297211     21.64745712
Na      -86.57100677    -20.05814171     88.95510101
Na      145.72323608    -79.50434875     42.80477524
Na     -130.86294556     61.75361252   -233.27543640
Na     -212.76977539   -238.65159607    127.30216217
Na      -51.92795944   -347.60034180   -182.37905884
Na        6.39508772    -67.58171082    -83.62609863
Na     -141.12394714     56.89233017   -138.29121399
Na      166.60791016   -360.40924072    -70.93347168
Na     -267.24331665    292.27227783    -74.93126678
Na      111.06680298    -85.07003784     31.93108749
Na      172.28640747    206.66581726   -161.20706177
Na      -36.86601257     36.89448929      4.47587395
Na       63.51573944     67.19430542    164.69862366
Na       87.18903351    361.55566406   -110.75646973
Na      165.45814514    299.14974976    164.44894409
Na     -154.43565369     98.80146027     51.35109711
Na      213.12481689    -57.60953522     21.39731979
Na       25.41970253   -231.36596680    -33.11750031
Na     -161.75079346     64.65835571    -77.20424652
Na      -17.79352379    -19.98644066   -128.13511658
Na     -154.17536926     23.37768173     -9.03617573
Na      158.88777161   -175.75502014     96.54027557
Na       53.21500778     47.99346542    245.90325928
Na        1.61122727    -78.65740204     55.35003281
Na      131.66876221   -309.69650269   -154.43710327
Na       93.58200073   -138.78208923     86.33725739
Na      104.01009369   -244.82827759    -32.94765472
Na      155.25222778   -142.71975708    -22.82840729
Na     -104.66030884     66.17161560    -70.43342590
Na      158.96726990    153.02001953    -52.74833679
Na      376.67745972     74.31793976     55.88505936
Na     -140.22375488     22.59270096     58.57372665
Na      -60.33708572   -265.20535278   -107.33107758
Na     -175.56332397   -220.96388245     -3.05050826
Na      195.44413757    101.90463257    246.89106750
Na      -96.49948120    518.51208496   -213.30400085
Na      -18.64706421      2.97193956    -34.11072922
Na      141.95834351     33.59771729     86.07843781
Na       -2.13945961    -13.79124641      6.98731422
Na      -14.14642429    -47.75586319    -39.08162308
Na      -35.06908035    156.51026917    335.24148560
Na       74.09527588   -142.99327087     -4.80978251
Na       86.66085815     95.19702148    -77.02924347
Na      196.08433533    211.09223938     45.49958420
Na     -117.91007996   -163.27207947   -257.50543213
Na       50.33332825    -33.90098572   -291.74575806
Na     -133.85421753    -59.14529037    -25.14777946
Na       69.80265808     41.26091766     34.63882446
Na      -35.66549683    259.50924683    -84.59827423
Na      -14.55623436    -31.16661835    181.58186340
Na       56.70120621   -143.19442749    -29.29034996
Na       81.86973572   -122.45973206   -240.36558533
Na      -89.93476105    -29.79435349    188.58306885
Na      214.88949585   -383.60583496     45.54362869
Na       94.37317657    -60.97194672   -123.77075195
Na      280.13919067   -115.57648468   -196.24743652
Na       -0.13990003     22.83159828    -63.54780197
Na      222.58488464    245.13424683   -182.33815002
Na      -18.16919899    -22.53646469     41.45632935
Na      182.53083801   -175.91036987   -151.38555908
Na      152.22917175    -30.21718788    100.24005890
Na       59.42850494     -9.63122177     93.03089905
Na      -39.23655701    302.45932007   -412.92034912
Na      -93.51957703   -333.39379883    -12.62798977
Na      -79.67518616   -227.59631348     28.54578018
Na      126.73482513    210.78091431   -165.75257874
Na      199.60917664    -36.59791565   -118.11223602
Na      213.03971863    -19.98104095     75.95204163
Na      136.35432434    286.94775391    -18.69314384
Na       15.62323380    132.79365540    120.54499817
Na       -7.53724146    -38.30868530   -226.77908325
Na      -96.77391052   -156.79733276   -161.59738159
Na      159.13998413   -115.83364105    -87.01284790
Na      206.60319519    293.09167480   -154.66688538
Na      -82.95515442    156.35101318    113.29347992
Na      -32.11109543    201.76419067    130.17066956
Na        8.54105949      0.50201410    171.78894043
Na      -41.39636230    119.98963928    -43.00284195
Na      -80.07305908    -16.68357086    -46.75000381
Na     -175.17050171   -249.35163879     48.41265106
Na      -18.66481209   -200.46595764    -60.47296524
Na     -140.92782593    215.38075256    110.38088989
Na        1.82861829    -43.13893509   -276.94479370
Na       80.35655212    -16.56416702   -110.91444397
Na     -127.96022034   -125.05197144    234.33537292
Na      -29.57848167    -13.37433529    -25.37386322
Na       -7.39325571     18.39463615    243.64932251
Na      305.84771729    139.84204102    -29.90012741
Na     -114.47055054    157.37521362     96.42744446
Na      369.55651855      9.60428810    138.22003174
Na      159.31190491    -44.09555054    236.11019897
Na       56.51565170     31.16714668    158.25480652
Na      226.74264526    -23.14838028     -0.67001712
Na      106.41419983    279.66052246     41.38398361
Na      274.36434937    -81.39776611    -93.89317322
Na       92.96755981   -179.94046021   -117.69929504
Na       21.97477341      7.35373974     43.47061157
Na     -192.25448608   -142.80189514    200.28108215
Na     -311.45007324    -27.49417114    184.09234619
Na     -194.58956909    133.78436279    -94.12773895
Na      -93.03209686    238.69755554    246.32476807
Na       -1.06852090     64.64351654    153.91340637
Na      277.22866821    -27.61565781    244.62660217
Na     -188.69453430   -235.22071838    -88.87131500
Na      308.31930542    122.59471130     90.47033691
Na      345.56750488   -105.25225830     -2.09228563
Na      -73.63122559     68.24307251     95.41478729
Na      178.78096008    124.81742096     77.06978607
Na      131.04187012    256.15985107      1.51344156
Na      -19.37823868   -108.46406555    137.14620972
Na      106.96134186   -101.86254120   -104.65671539
Na      -75.96127319    -30.48143768     86.04235840
Na      259.94531250    453.47021484     18.98007774
Na      198.89459229    -24.09397125    140.88969421
Na       38.66396332   -231.58607483    188.33969116
Na       42.81631851   -102.15834045     49.50804138
Na       80.65914154    129.87217712    129.91064453
Na      390.55529785   -173.88842773    148.16542053
Na      182.58888245     57.97974014    208.68032837
Na       56.35626221    -57.99177551   -233.74099731
Na       12.99067688    163.63166809     -9.26688004
Na      263.92517090    102.32741547   -134.93501282
Na      -83.45571899    -77.65747833    160.92257690
Na       -1.43195605    -95.88491821    146.82864380
Na     -187.76184082     48.37657166    -67.16361237
Na     -256.50451660    -30.11129379   -148.61123657
Na      107.55541229    -91.84722900     38.35839844
Na       15.89338779   -133.80809021    177.09849548
Na     -102.05529022    149.98554993    -87.86437988
Na     -145.47230530   -163.42419434     59.20107651
Na     -220.17407227     34.04786682    -26.55444336
Na      329.06854248   -282.93246460    466.89880371
Na     -126.43077087    132.63296509     51.84242630
Na      207.07521057     16.83076096    109.16744995
Na      -55.87144470   -128.58676147     78.80741882
Na     -287.00415039    124.69850922    113.23987579
Na      -11.46301556   -159.85693359    195.26898193
Na      100.28951263    177.35229492     89.57789612
Na      -39.95299149    119.20674133   -172.10665894
Na      121.35737610   -143.50483704    -26.16348457
Na     -140.46302795   -105.29583740   -233.98059082
Na      -25.58795547    151.61856079     41.42760468
Na     -138.87794495     84.64848328    112.81084442
Na      237.24526978     88.07714081   -263.70458984
Na       19.58468628   -121.90058136    124.68212891
Na     -187.14625549   -246.70353699     94.40950775
Na     -307.46505737    -31.15251160     11.85738945
Na     -106.46550751    -13.24910259     75.91934204
Na      -11.35632992   -138.84007263    191.18051147
Na      143.27511597    140.34587097    -97.43586731
Na       96.70349884   -194.32922363      7.93047667
Na      386.25109863   -119.40648651    -84.31444550
Na     -185.56930542    164.41047668    100.22235870
Na       36.43259430    -74.15681458    123.93783569
Na     -174.64559937    153.53134155     41.55726624
Na       59.95491791    -16.95276642    167.86682129
Na     -225.51374817   -129.13192749    -87.31764221
Na      229.64590454    152.20590210    -90.89492035
Na       33.57670593     54.54566956     65.82339478
Na      124.39021301    -73.23500061   -151.67144775
Na      -22.83537102     27.25362587     58.74525833
Na      155.25784302     33.95177078      4.59797859
Na      -14.87991047     17.20105743     51.95281982
Na       36.46228027     75.07704926    334.72357178
Na       42.93107224    -30.41376114      3.60906339
Na      -45.25224686   -167.88925171   -267.71755981
Na      201.37524414     88.73972321   -117.83811951
Na     -192.32711792    -26.79633141    201.46752930
Na     -250.08027649    -50.50348282   -175.90502930
Na     -144.63548279    470.03433228     -9.60391235
Na      284.87310791     54.73817062     -3.54174733
Na      -49.46753311    -67.71599579     13.76833916
Na      135.57872009     13.86635685    -67.60118866
Na      -86.68942261    286.31103516   -155.03843689
Na      144.82174683   -223.76194763    341.44537354
Na       86.63755798   -234.85127258     -8.98439693
Na      144.99157715     90.74667358    167.98501587
Na      -69.73883057    -54.17051697    -15.69660568
Na       29.70469856   -193.35760498   -308.47583008
Na      -90.15407562    201.19728088    269.94357300
Na      187.33630371     98.79190063   -138.61929321
Na      -93.61819458    127.10663605    143.38143921
Na      178.67004395    118.75455475   -229.19155884
Na      -22.79216576   -101.95986938   -134.49258423
Na      131.47239685    -71.07928467    134.02001953
Na       99.95418549    -95.02664185     -5.72882509
Na     -141.23129272     38.10827637   -233.97671509
Na        4.54781580     47.47284698    -87.23963165
Na      -52.09713745     44.39731598   -237.57626343
Na      244.50834656     79.43841553    106.26697540
Na       -4.58476496    181.79023743    150.17741394
Na      220.34916687   -404.91973877    198.88246155
Na      168.55087280    105.19691467   -179.37225342
Na       53.25164032   -254.01356506    -90.81846619
Na       12.51458645   -200.64483643   -124.71180725
Na      -32.80049896   -132.52555847    -26.29064560
Na      168.86058044    215.08296204     72.41928101
Na      -62.68277359    119.76895905     38.56928635
Na     -153.83630371    194.66427612     63.16583633
Na        5.58876753    252.35020447    158.33464050
Na     -216.16064453    145.47962952    -53.11303711
Na      -93.01593018     98.03324127    113.02782440
Na       29.48803329   -163.04293823   -114.75791931
Na      305.99432373   -169.17697144    281.37393188
Na       -0.70490980    217.92231750      4.13574314
Na     -225.39669800    248.70411682    -16.12077141
Na      145.39660645    209.03114319    276.62243652
Na     -137.92239380   -190.44894409   -111.30055237
Na      -63.10168839    -27.00136566    -87.12989044
Na      -34.89719772     45.67107010    229.41658020
Na      -65.30403137    -40.99938583   -253.93360901
Na     -147.74324036   -132.15682983    -43.40945816
Na      348.78771973   -200.59411621     21.24736214
Na      -66.53852844     11.15171814     32.18714905
Na       73.92021942   -135.65638733    219.02909851
Na       69.29901123   -122.99530792    109.67994690
Na     -148.50985718   -108.96739960    137.09744263
Na       42.54025650   -152.84280396     48.98803329
Na      108.49832916    -20.59665108     92.52636719
Na      155.62075806    296.72317505    -77.14820099
Na       39.51769257    133.65582275   -342.46746826
Na      -79.60422516   -139.57034302    -32.51359177
Na      104.50212860    208.57287598    -63.76104736
Na      175.53176880   -143.69024658     58.59254074
Na     -114.66103363     40.90544128   -169.40158081
Na      236.62684631    -74.08799744      1.51467288
Na      -75.65425873     40.81763458     56.31273651
Na      223.09075928    180.63847351   -199.80229187
Na      -75.77412415     47.82685852    244.00688171
Na       97.73407745    221.38880920    143.71554565
Na      -24.80492783    173.81004333    -83.71089935
Na     -247.17500305    -16.82778549    -23.03788567
Na     -107.47719574    122.14225006    452.80737305
Na      -21.48078346     82.23129272    -67.30325317
Na       33.08633804    153.15237427   -240.81214905
Na       63.24254608    -83.41983032     69.82936859
Na      -38.96224594   -323.71343994    100.22147369
Na      199.30061340   -102.10869598    -79.81555176
Na      -97.09550476    -54.95923615   -134.86140442
Na     -124.05961609    200.70701599    -83.84066010
Na      -90.28235626    224.81752014     51.98089981
Na      -28.87566757    129.82113647    -30.00273323
Na       -6.11395979    -24.65913773    -77.69493103
Na      -28.39359474    272.50311279    233.42820740
Na     -236.21566772    -91.35789490    178.38563538
Na       39.33311844    -33.87215042    188.41946411
Na      -31.77854919     54.72426987     35.50111771
Na      -45.70449066    214.90785217    -46.95935059
Na      103.50659943   -233.99720764   -175.84346008
Na      148.13679504     33.48102188   -192.32670593
Na     -208.74203491   -248.21647644    -79.95722961
Na      185.88101196   -189.33268738    -94.16786957
Na      140.82377625    -23.64770699     31.31793022
Na      -63.43545532   -149.72827148     31.67521667
Na      148.59284973   -108.64712524   -236.58311462
Na      134.43492126    143.08638000      7.84718084
Na      -15.48948956   -187.66647339    -56.70486450
Na       80.12341309    -13.09291935    270.34716797
Na     -217.84733582    143.59349060    232.82333374
Na       63.28821182    316.74618530    117.26473999
Na     -168.11062622    276.28677368    -46.44577789
Na      206.51298523   -288.89144897     35.81389618
Na      -42.26207352    276.52215576    154.58117676
Na     -121.24024200     40.25194550   -121.29540253
Na      110.70267487      3.57915378    154.56660461
Na       94.14579010   -237.69700623    -15.62363052
Na      487.76708984    -17.51441383     38.40989685
Na     -106.78932190     95.42288971     83.10042572
Na      382.86968994    -90.77379608     21.04054070
Na      111.42314911   -132.28547668     69.01261902
Na      183.51858521   -206.24678040   -158.92494202
Na      -80.26852417    130.17123413     34.82829285
Na      -52.36164093   -118.13837433    152.28561401
Na       49.23730850     79.13549805   -138.31036377
Na      -29.14363861     82.34318542    102.44018555
Na       72.76564026     65.05813599    -90.81469727
Na      283.68502808    -15.97335529   -267.34109497
Na       71.18081665    126.16963196    -70.19505310
Na      -96.53392792     68.15438080    -25.64194870
Na       93.15901947    -67.42532349     88.96087646
Na      120.42265320    149.86949158    260.42974854
Na       -2.50433135    -27.16234779   -189.31962585
Na     -205.74591064    -95.60429382    -87.73934937
Na      -34.72996140   -115.81136322    154.35191345
Na      307.90719604    224.47743225   -169.17222595
Na       22.79541206    133.58724976     65.73033905
Na       19.44368172    214.47433472    209.17735291
Na       51.08933258    -86.20424652    -27.95880508
Na       80.89568329     31.94288826   -172.79051208
Na       97.44690704   -116.20382690    -86.80265045
Na     -127.99250031    201.08538818    157.34002686
Na      114.20262146     50.91602707    161.12571716
Na     -383.58276367    -87.95053864    180.88626099
Na       53.21809006     41.70806503    -36.02048492
Na      -80.27009583     91.55316925   -288.27481079
Na        0.55899000     58.12965393    -22.32376289
Na      169.33718872    225.24836731    -46.35300827
Na     -210.78511047    -51.44127655     72.74109650
Na      -49.35676956     41.09992981    144.83741760
Na       66.77738953    211.27851868    233.27528381
Na       86.19844055   -183.69636536     69.43970490
Na      -61.51407242   -448.79956055    191.96565247
Na      183.31945801    -81.33125305     66.52595520
Na       36.34477615    -71.16851807     79.34613037
Na     -152.02932739     88.24858856   -113.74348450
Na       66.67643738    218.12330627     42.39080048
Na      301.73757935    173.68231201    124.23529053
Na       22.59188652    221.66833496   -145.10572815
Na      273.00946045    125.96001434    160.49375916
Na      112.74230194    139.56350708   -179.41468811
Na       19.15061760   -108.86339569   -362.45877075
Na       46.14211655    225.17378235    -69.41808319
Na      -69.15985107   -128.56057739    -21.95936966
Na     -192.27120972     44.09472656     85.76856995
Na      119.17235565     82.06578827   -142.88185120
Na      131.06738281    181.10507202      5.34171438
Na      202.75350952    -77.80937195    174.87541199
Na      140.92427063     41.37818527     99.36103058
Na     -273.54220581   -136.01908875     89.02839661
Na     -107.27887726    170.05377197     55.32575989
Na      134.65319824     23.89452362    -15.60949230
Sn       -1.16132843     17.31269646      7.61440897
Sn       -1.14039016     30.43797684      7.47837877
Sn       12.31961155     17.46403694      7.80758190
Sn       12.57515049     31.03312492      7.93601751
Sn       -1.83789003      3.94612861     21.60780144
Sn       -1.83075643     17.45224953     21.06908417
Sn       11.88147068      3.26720142     21.53180885
Sn       11.94740105     16.98177910     21.54002953
Sn       -1.12176514      3.95318294     14.32267380
Sn       -1.27955973     17.07704735     14.72468567
Sn       12.40808010      3.85183144     14.82704830
Sn       12.83507919     17.17283440     14.84430408
Sn       -1.14446640     16.98718643      0.77841979
Sn       -1.98390388     30.79291725      0.90864718
Sn       12.78076649     16.59199142      0.68463475
Sn       12.22210312     30.35246086      0.88366079
Sn        5.09350109     10.54733467     21.48972893
Sn        5.47564030     24.14567947     21.48790932
Sn       18.67471504     10.12626743     21.50176430
Sn       19.09154320     23.74730873     21.93183899
Sn        5.19248629     10.27093983      7.84123659
Sn        5.47222328     23.90425682      7.52639580
Sn       18.77224159      9.90497494      7.85236645
Sn       18.55954742     23.98263931      8.12923336
Sn        5.62202549     10.18428326     28.69040108
Sn        5.60924292     23.87056160     28.39818764
Sn       18.69520187     10.69724655     28.58623695
Sn       19.15658188     23.61975098     28.62359238
Sn        5.35864067     10.35874939     14.71347141
Sn        5.34847164     24.15018845     14.84514904
Sn       18.75764465     10.97127151     14.83138371
Sn       19.09393120     24.08427429     15.25091076
Sn        5.12605906      3.53691578     21.36417580
Sn        4.73776436     17.01573372     21.39436340
Sn       18.70904350      3.69881082     21.34360123
Sn       18.65188026     17.16679573     21.26535034
Sn        5.65004539     17.29261780      8.05371094
Sn        6.03967428     30.76632309      7.84809208
Sn       19.04359627     16.84195709      8.13644886
Sn       19.27327347     30.47796059      7.84575987
Sn        5.20534086     17.38551521     14.78566074
Sn        6.00982857     30.85266495     14.86917496
Sn       19.22507286     17.60083580     14.53020191
Sn       18.72460365     31.11124420     14.67897224
Sn        5.53836727      3.38992167      0.79229003
Sn        5.77911711     17.05917931      0.84943521
Sn       18.19979668      3.93731475      1.22360992
Sn       19.46737099     17.26789093      1.34104788
Sn       -1.99765015     10.42411232      7.80547714
Sn       -1.46331394     24.10558319      7.93143606
Sn       12.27288723     10.64997196      8.28294659
Sn       12.05175304     24.40390205      8.30074406
Sn       -1.46178913     10.85464478     21.94003677
Sn       -1.58308172     24.17246628     21.46562767
Sn       11.84676838     10.00848961     21.73326874
Sn       11.99989796     23.86742020     21.40311050
Sn       -1.48864448     10.26176262      1.04356313
Sn       -1.01464260     24.15570068      0.88477212
Sn       12.08801460      9.91737747      1.50488317
Sn       12.18251324     23.55497169      0.94222963
Sn       -1.69151723     10.75356388     14.49547005
Sn       -1.13221741     24.20778847     14.94816589
Sn       11.71672535     10.34509373     14.90952969
Sn       12.19559860     24.25188065     14.56416702
S        -3.11972594      8.92286777      2.35684061
S        -2.57555389     22.85561180      2.13653636
S        10.99501610      8.44389343      2.98792100
S        10.85261059     22.25910378      2.84217954
S        -0.07091783     11.94331169     15.89954853
S        -0.02177583     25.62327576     16.54325485
S        13.16681194     11.67476845     16.39866829
S        13.51391506     25.24818230     16.54754829
S         7.19548273     15.87980556      9.78038692
S         6.72966242     29.22992325      9.41579628
S        20.26891518     15.16566181      9.45224094
S        20.67865372     29.35624123      9.38631344
S         4.09886789      4.79950333     23.26692200
S         3.20143580     18.18695259     23.05233574
S        17.16645432      4.68431997     23.00249290
S        17.76635170     18.33588982     23.11903191
S        -0.44331607      8.63153076     26.99733734
S         0.39060837     22.47187805     27.03850937
S        13.50910282      8.22822666     27.56537437
S        13.76170540     22.31187630     27.02246094
S        -2.62914300     12.11157703     12.85889053
S        -2.26986837     25.79644585     13.34401417
S        10.16750813     11.95243359     13.74287033
S        10.76078224     25.70911217     13.42048073
S         3.55328918     15.67930031     19.70855331
S         3.69909525     29.12624931     20.39551735
S        17.04897308     15.87106800     20.02326393
S        17.27216721     29.19180870     20.18432426
S         7.32901144      5.14616442      6.58348274
S         7.01685381     18.36529160      6.38424349
S        20.77116585      4.88096189      6.58847046
S        20.54294205     18.47046280      7.16598225
S         3.97647166     15.68561554     15.68019104
S         4.65358162     29.49087524     16.16406059
S        17.74574471     15.92397785     15.74364471
S        17.51830101     29.76075554     16.21163559
S         6.97384501      4.46924496      2.58471942
S         6.95596743     18.62509918      2.28433251
S        19.92834663      4.93674707      2.71040726
S        20.68426514     18.75214386      2.76877427
S        -0.04137398      9.38486099     23.28258324
S        -0.26472476     22.68849945     22.77431297
S        13.14866829      8.67762661     23.15151024
S        13.42641068     22.32416153     23.03054237
S        -3.24125242     11.77059078      9.39098644
S        -2.94718242     25.41814613      9.28610134
S        10.91359329     11.84513092      9.78297615
S        10.40007591     25.64748001      9.53036404
S         6.63628721     16.47183418     13.10948563
S         7.67520666     29.51738739     13.36815071
S        20.79844284     16.35217285     13.22333717
S        20.35595512     29.78331757     13.42825890
S         4.22301340      4.96054268     26.76977921
S         4.19660711     18.19530869     26.84427834
S        17.22794533      5.44564056     27.00281715
S        17.81871796     18.95398331     27.29465675
S        -3.27127504      8.96772575      6.42137432
S        -2.69671369     22.67366982      6.53032303
S        10.92164612      9.00812721      6.94903088
S        10.88890743     22.98268318      6.73221207
S        -0.17182152     11.82736588     20.14516068
S        -0.34472188     25.05823135     19.79721451
S        13.11660957     11.32621479     20.10343170
S        13.20767975     25.12105179     19.75130081
S         7.05982685     11.54448605     27.09737015
S         6.75912380     24.98663902     26.81656837
S        20.42722893     11.80969334     27.28953171
S        20.32155609     25.45137024     27.09966278
S         3.71888900      9.13921356     13.01482487
S         3.96279001     23.05534363     13.29086208
S        17.53969383      9.29217529     13.61172009
S        17.53257751     22.53727150     13.96819305
S        -3.22875452      5.55879164     20.18161583
S        -3.03187180     19.39306450     19.64684486
S        10.59613419      5.05382967     20.21537590
S        10.84855556     18.40099716     20.14345169
S         0.29508239     16.18828773      5.94561481
S         0.14076862     28.87104797      6.40892363
S        13.79224682     16.19898415      6.51171541
S        13.92973804     29.58795166      6.28595304
S         4.01935339     11.66533184      2.62829375
S         4.34246302     25.61982918      2.36939287
S        17.20057106     11.74086761      2.82322383
S        17.93368530     25.47784996      2.46846604
S         6.63218737      9.01191807     16.04520798
S         7.01264191     23.30864906     16.21853638
S        20.22843742      9.54549503     16.23059082
S        20.45149040     22.67644691     16.90592384
S         0.13207474      4.83853483      8.76009274
S         0.30018336     18.58866692      9.02901268
S        14.23676777      5.15508270      8.98177242
S        13.22559547     19.01435661      9.34074497
S        -3.19598937     15.89944649     22.38226318
S        -3.10678124     29.65396118     22.90300751
S        10.34799004     15.60268974     22.61052513
S        10.33337212     29.16211319     22.76746178
S         0.21890664      5.41186380     12.77261066
S         0.21619529     18.30682755     13.39349079
S        14.17605782      4.91865921     13.37326622
S        13.76125622     18.97046852     13.51531029
S        -2.73819041     15.48562336     26.89158630
S        -2.80654526     29.15168762     26.71879578
S        11.11222553     15.50493622     26.61907005
S        11.37244034     28.54587746     26.70942307
S         3.54532933     11.43226337      6.12218857
S         3.94004464     25.38706398      6.18906879
S        17.50833511     11.61906433      6.31688881
S        17.32905388     25.31645584      6.59930229
S         6.29235649      9.12738323     19.96989059
S         6.81883430     22.77877045     19.85099602
S        20.60611916      8.95740223     20.19935226
S        20.70203209     22.07301903     21.08383369
S        -2.86778188      5.01754665     15.84013748
S        -2.89014554     18.60471153     15.80792904
S        10.79248619      5.31060266     15.82622337
S        11.23598671     18.20935822     16.03690147
S         0.34368056     15.55327511      2.46711874
S        -0.57751948     29.37220383      2.43706822
S        14.53410912     15.52944183      2.13124108
S        13.68453884     29.16729736      2.43180251
S         6.66949606     11.61053753     22.81961632
S         7.07745790     25.69578552     22.51392746
S        19.83885193     12.10415363     22.45865440
S        20.46503639     25.85807419     23.05718803
S         3.77097130      8.66227913      8.94847393
S         3.82086587     22.68195915      8.95707321
S        17.67494965      8.43914413      9.76663780
S        17.32785797     22.66132927      9.90117073
S        -3.50200009      4.91453362      2.13357711
S        -2.42872405     18.35726166      2.08704877
S        10.36638927      4.31620598      1.75727689
S        11.16736889     17.69577599      2.56504512
S         0.05410035     15.79586506     16.31750107
S         0.30468673     29.90517616     15.77156639
S        14.60220528     15.87834358     16.26581955
S        13.57672215     29.86890984     16.52551270
S        -2.23160028     15.19533443      9.04074860
S        -2.86680675     29.64739799      9.23444366
S        11.02804756     15.93719673      9.13676834
S        11.32459164     29.62630653      9.57376480
S        -0.33926827      5.50650072     23.05126762
S        -0.86600631     18.71841240     22.99618340
S        12.94907951      4.68012476     23.37383080
S        13.31486607     18.52984428     22.84996033
S         0.01435842      4.50243759     26.99599075
S         0.19394577     18.60208511     26.57644653
S        13.76215839      4.57473469     26.80270576
S        13.90115738     18.25209999     26.71978188
S        -2.47708654     15.85458279     13.13766193
S        -2.40503263     29.49795914     13.23175049
S        11.64481354     15.62542534     13.45396137
S        11.31842232     29.59920692     13.38900948
S        -0.24721944     16.38338470     19.79685211
S        -0.27537951     30.14449883     19.88061714
S        13.47552872     15.61636448     19.98374748
S        13.31946087     28.95824623     20.24135971
S        -2.45994353      4.73161697      6.16018391
S        -2.85115886     18.72375107      6.39239407
S        11.28156185      5.07789040      6.51712179
S        10.89680481     19.04740524      6.65383053
S         4.09904671     11.91632366     16.38516617
S         3.94774699     25.82715416     16.01654053
S        16.84273148     11.91317749     16.05749702
S        17.80629158     25.34670830     16.95180321
S         6.67414665      8.52097130      2.71443462
S         7.12540770     22.78290939      2.61841726
S        20.23893166      9.42770481      2.90908742
S        20.98703575     22.25319862      2.17427850
S         3.53934240      8.86290646     22.87614441
S         4.21154261     22.59702873     22.91631126
S        17.24542809      8.69072628     23.09779549
S        17.41208649     22.24920273     22.84738731
S         6.70666361     11.66545868      9.57287216
S         6.66564846     25.55261993      8.92457294
S        19.98531151     11.43340111      9.30612946
S        20.45374489     25.18026543      9.24449444
S         6.39062548     11.66216755     13.12023067
S         6.55104828     25.36400795     13.17343903
S        20.03997231     12.23504543     13.22690582
S        20.16869164     25.44683075     13.63189697
S         4.32055998      9.07135963     26.83188629
S         4.08080721     22.24691582     27.02120590
S        17.70757866      9.21567345     27.06769943
S        17.72447777     22.31117249     27.21287727
S         6.88393021      9.16923904      6.49902248
S         6.84263372     22.21836472      6.43533134
S        19.59052849      8.09568501      6.53875113
S        19.73681068     22.06204987      6.74168348
S         3.67288017     11.95940685     20.36045456
S         4.10117579     25.53741455     20.08976936
S        16.82685280     11.52982903     20.15386200
S        17.75563240     25.08926201     20.43431854
S         7.16684675     15.33516312     27.23793983
S         6.93357897     29.04961205     26.52845383
S        21.12048721     16.35393715     27.10456467
S        19.67705345     29.87254333     26.99834442
S         4.42085791      4.85746336     13.39856434
S         3.86300707     18.85607338     13.58492184
S        17.61130714      4.80693913     12.63683891
S        17.73888969     18.98703194     13.45544815
S         6.37385130      5.08120680     20.13671112
S         6.15852690     18.57860374     19.98668289
S        20.42295647      5.00656176     20.18638992
S        19.79660606     18.75739670     19.95029640
S         4.39830160     15.79047203      6.52573204
S         4.07723570     29.97245026      6.79090166
S        17.50516701     15.94301701      6.53165102
S        17.85036469     29.44661522      6.15691376
S         4.53701591     15.86513042      2.65918660
S         3.87203002     29.12298012      2.16557550
S        18.13256645     15.96078873      2.84328985
S        17.11816978     29.46209908      2.33336282
S         7.22213411      5.09242630     16.14815521
S         6.75836039     18.92949486     16.16148949
S        20.13188171      5.48455000     15.73593521
S        20.42709541     19.17430687     15.83007240
S         5.13568878      4.95479727      9.59925270
S         4.03218317     18.85700798      8.91298294
S        17.89600372      4.40937662      9.23116302
S        17.69264221     18.62627220      9.32548332
S         6.59065580     16.05363846     22.78872871
S         6.80883551     29.52050591     22.38493919
S        20.29580879     15.75268364     22.44087791
S        20.24983406     29.19477272     22.91320038
S        -0.59557468      8.98713398     12.94618988
S         0.31714064     22.35560417     13.54827690
S        13.39743137      8.86275864     13.46735287
S        13.81547451     22.95361710     13.04009151
S        -2.97674441     11.80309677     27.03542137
S        -2.68150377     25.16578102     26.85010910
S        11.28159332     11.46341133     27.06354713
S        10.49955177     25.01154900     27.23188591
S        -0.76999003     11.66952038      6.26749849
S         0.26935023     25.25809097      6.47704315
S        13.89307499     11.74445438      7.11370468
S        13.59933949     25.40417862      6.56790924
S        -3.07018495      9.36738682     20.71483231
S        -2.94303584     22.89355087     19.73082924
S        10.16793728      8.63819313     20.39963722
S        10.43308735     22.50342369     20.51752281
S        -2.94974327      9.21302319     16.03876305
S        -2.75501776     23.15960312     16.36350632
S        10.26387787      9.19933414     16.51419449
S        10.94104290     22.56852722     15.81110096
S        -0.02356551     11.92263699      2.18083882
S         0.34680453     25.51136780      2.32684731
S        13.36736298     11.55409050      2.75834179
S        13.61916637     25.12244225      2.44986629
S        -2.89930677     12.36932659     23.21477127
S        -2.76541948     26.02130318     22.72479820
S        10.66708374     11.43682098     23.12334251
S        10.54226303     25.54623413     22.59768486
S        -0.49236110      9.21001911      9.18750477
S        -0.08580443     22.56186485      9.46753597
S        13.68182468      8.94232464      9.47978592
S        13.15986061     22.78395462      9.61097527
S        -3.25336742      5.53488350     12.16728020
P        -4.66304636      6.93347836     11.52383041
S        -6.28806686      5.99798441     11.10932827
S        -4.84592390      8.42327309     13.03201866
S        -3.90253496      7.99055958     10.09961796
S        -3.77963519     22.06069756      9.83450890
P        -4.73854113     21.00790405     11.35448742
S        -6.79462528     21.17374229     11.46498203
S        -4.23512268     18.97588921     10.94045639
S        -3.73466730     21.57335663     13.12356091
P         8.98851109      7.20151663     11.43084145
S         7.74749517      6.49656010     12.73118591
S        10.16331387      5.83630228     10.55058193
S         7.78842449      8.15862179      9.77943230
S        10.11573219      8.79934978     12.15757847
S         9.50601196     22.63071823     10.18727493
P         8.72407341     21.10447121     11.32896042
S         7.04887724     21.84086990     12.34115887
S         8.11190987     19.63812828      9.99497509
S        10.01780987     20.03762817     12.60898018
S         0.87089539     14.50559807     23.44786263
P         2.04655838     13.77253532     25.10940170
S         1.00691688     12.69137478     26.34077644
S         3.86872864     13.14189816     24.35694504
S         2.43014097     15.49834347     26.23029709
S         3.17410803     28.83123207     25.14638901
S         0.83757800     26.77383614     26.02238846
P         1.97345591     27.64583206     24.35199356
S         0.46743116     28.50124168     23.03919220
S         2.90742612     25.93210220     23.51545906
S        17.43885994     13.10778713     26.39933395
P        15.80314255     13.46595764     24.96791267
S        14.92618179     15.39924145     25.31227875
S        16.16118050     13.27575588     23.04351234
S        14.31977654     12.11369705     25.61969948
S        16.49531555     26.27169037     23.23426437
P        15.89588547     27.34552002     25.02698326
S        15.80784416     29.32706451     25.07906151
S        14.04899406     26.11551285     25.82527924
S        17.12945747     26.57667351     26.42768097
S        22.81035423     12.50160027     16.25507927
S        23.46309471     12.99795723     19.58603477
S        20.44749451     13.70614147     18.57806206
P        22.35909271     13.67401600     17.89953613
S        23.45221329     15.46856213     17.44224548
S        21.75551796     25.81044579     19.03622627
S        23.87734985     26.81764221     16.77687645
S        23.21112061     29.00256157     19.31818962
P        22.41444206     27.60083199     18.06566238
S        21.02413940     28.67857552     16.84942627
S         7.06469488     15.14364624     18.64113998
S         9.36830807     12.69966984     18.96644974
P         8.47124386     14.02905560     17.51581573
S         9.62536812     15.36219788     16.52212906
S         7.16344738     13.47637939     16.12072182
S         7.76786375     28.02648163     16.44831848
S         7.72566032     27.39956856     19.79671860
S        10.04294395     29.58152962     18.31771469
P         8.90020084     27.63012886     18.12848091
S        10.33753300     26.23317337     17.66742134
S         0.41773808      5.77734995      3.32204366
S         2.76393390      5.17360258      5.20843744
S         0.81326681      7.83917713      6.11632633
P         1.63313091      6.84080410      4.49231052
S         3.07296157      7.96145916      3.48200274
S         1.08801305     19.70622635      2.56624579
S         0.57144892     21.80582428      5.03056002
S         3.66424894     21.69492722      4.04908371
S         2.76534152     18.78624725      5.24539280
P         2.18993783     20.35956192      4.16307783
S        14.76719379      8.84295273      5.42667675
S        16.45743370      5.75711775      6.23362923
S        16.76235390      7.26884413      3.22713780
P        15.64730263      6.93960524      4.87096786
S        14.25862026      5.77455378      3.97669816
S        14.71079063     19.42536354      3.34982657
S        17.02486420     19.10132599      5.53764057
S        14.71772575     21.56008911      6.09270859
P        15.78942108     20.45512009      4.68463326
S        17.02258682     21.67904282      3.62640929
S         3.27335191      8.01598167     17.14185905
P         1.88928664      6.92592669     17.98958588
S         2.50141001      6.02840996     19.70619965
S         0.21203096      8.25158215     18.49038124
S         1.29090834      5.74230099     16.48159027
S         1.50772977     21.09257889     20.32351875
P         1.97546065     20.68866539     18.26060867
S         2.97528863     19.00855446     18.28127098
S         0.47150519     20.50822639     17.09915161
S         3.29487133     21.99958992     17.03785706
P        15.63233185      7.05456305     18.63253975
S        15.11568546      5.61299133     17.07211304
S        13.97386646      7.64951611     19.50115967
S        17.01486206      5.88364077     19.59771919
S        16.47212219      8.72404385     17.71373558
S        14.62387848     22.15132904     16.75576019
P        15.46104908     20.68631554     18.02114487
S        16.92622375     21.61872864     19.16890717
S        13.75036430     20.39801979     19.27628517
S        16.50254631     19.03649330     16.98543739
S        22.82572365     11.70169163      4.81444836
P        22.20492363     13.59332466      4.67581797
S        22.17330170     14.28403664      2.69541407
S        20.37845993     13.91939068      5.60097122
S        22.98356056     15.04547596      5.81442547
S        22.92335892     28.39085960      2.55450201
S        23.53551102     28.40019798      5.85038900
P        22.54538918     27.12735558      4.36597967
S        20.65963173     26.99184990      5.11899233
S        23.80481720     25.44302177      3.99866176
S        10.84553909     13.61246967      3.56884336
P         9.29621410     14.44628811      4.86968851
S         7.43978071     14.29427719      4.05656147
S         9.21083736     12.88417912      6.15397549
S         9.53431511     16.26387978      5.45958853
S         9.88091373     27.68013382      2.72924638
S         9.24773598     25.68359375      5.06445456
P         8.90054798     27.54960632      4.56183672
S         6.98679781     28.19375229      4.75577974
S         9.99528599     28.56549644      6.18286800
P         1.91867864     13.53153324     10.99714088
S         0.37608594     14.76230049     11.40190220
S         1.97370732     12.59724712     12.99404335
S         3.57739758     14.69129276     10.37139511
S         1.14162612     12.24139214      9.70953274
P         2.16773629     27.57375717     11.07043839
S         1.27761328     28.95577431      9.76623058
S         0.56171113     26.67995071     12.04574394
S         3.64832139     28.22561264     12.47308731
S         3.07641435     25.90070534     10.17099476
S        14.86814308     15.86094570      9.88276005
S        14.05473423     13.18341827     12.10139370
S        16.43034744     15.01289463     12.89058971
P        15.43200111     14.39128780     11.29966068
S        16.77094269     13.11852264     10.30524635
S        17.10055923     25.80922699     10.84963322
P        15.91470432     27.12263680     11.73783779
S        14.81791496     26.68025589     13.53474426
S        14.32386208     27.34948730     10.43711281
S        16.94117546     28.81141663     11.59477234
S         9.68196964      5.96944857     24.21791840
S         7.43633461      8.60203362     24.07715034
S         9.81375122      8.36108398     26.34312820
P         8.48601151      7.29190493     25.27630997
S         7.19596863      6.13683462     26.48268700
S         8.18592644     21.43171501     26.33348083
S         9.82349968     20.77577782     23.38160324
S         6.80228233     19.57771301     23.89266014
P         8.54632282     20.06358719     24.86166000
S         9.73663330     18.73645020     25.77754593
S        -6.13243771      7.87650013     23.74472237
S        -6.47331429      5.39252615     25.94952774
S        -4.42515993      7.86904573     26.61877441
S        -4.14455605      5.57873869     23.80917358
P        -5.28488064      6.84779739     25.08215141
S        -5.23329067     19.06367683     23.89454269
S        -3.43095255     20.07324791     26.06699562
S        -6.39281082     21.73323250     25.51444435
S        -4.13244963     22.21035194     23.66396332
P        -4.85799742     20.77786064     24.86970711
