832

Na      -32.80896759     85.56982422    -19.03269577
Na       11.44672394     35.02495193    -34.20802689
Na        7.00640774    -44.13781357    -47.68620682
Na      125.80149078     17.52550125    -33.22296143
Na       31.07213020     34.57852173     13.97012329
Na       65.20246124    -16.70090103     34.28742218
Na      -47.49818039    -77.07020569     23.96868896
Na      -23.58793068     48.10494614    -47.97212601
Na       38.43442154     31.06167793      0.02689246
Na       -2.19038081     61.85744858      0.42907614
Na       11.51101494     48.13983536     -9.65575600
Na       40.57826614    -10.02783108     48.07963943
Na       76.05511475    -20.74436569     10.49952316
Na       21.36003113    -30.38054657     96.06886292
Na       82.31746674     37.84914017      6.82357121
Na       92.27584839     61.96337891    -30.46540833
Na        7.15417862     17.71158981     37.50584793
Na       59.09272766    -37.48361969    -13.77561665
Na      -19.87156105     -2.55530977     57.94284439
Na      106.62869263     48.21265030     21.18264389
Na      -29.58662224     95.59613800     -2.83545995
Na        0.19995698    102.60367584     37.83979797
Na       62.18791199     72.57360840     27.36892128
Na       48.58533478    -78.06397247      4.30850840
Na       14.62673378     51.37788010     44.66228485
Na       51.74034119   -159.19029236     34.28359222
Na       79.45744324    -19.10663605    -16.62402534
Na      126.52523041     51.45161057    -53.93857574
Na      123.45967865    -63.91790009     14.94740486
Na       14.02934361     50.89310455    109.46143341
Na       51.97487640     10.75312042     48.19611359
Na      191.10865784     24.42292976     65.39289856
Na       35.08745193     58.19336319    -78.08147430
Na       65.12152863     89.21606445     34.38540268
Na       88.68541718    -40.79224396     10.12999821
Na      -39.86673737     68.54910278     85.54738617
Na      -33.34298706     11.03318214     51.65413666
Na       -2.86445022     -6.74385357      7.14703083
Na      -33.05483627     -3.23040271     60.85054779
Na      -67.71977997     54.58344650    -36.91930008
Na      150.82478333    -23.62367249      0.17884682
Na      -67.09245300    191.24261475     65.18353271
Na       65.00833893    -20.01690865   -105.23815155
Na       24.44332123      7.64330244    -20.46606255
Na       55.23498917     96.33318329     71.72164917
Na       -5.34989691     61.99339294     58.18267059
Na       -2.58072662    112.90489197     68.45033264
Na       -2.75428724      7.75126743     47.16632843
Na      -47.19406128     -3.03188396    -10.34501457
Na       88.87631226     34.64577866     57.89579773
Na      -60.38532639    -23.75567055     68.35642242
Na       34.58668137     11.16902637      0.16481288
Na      -81.11439514    129.91450500    -37.19630432
Na      -36.22364807    -73.97540283     75.42913055
Na      116.38610077     -2.80790448     50.82060242
Na       55.57488632    -63.73323822    -16.70087814
Na      -19.54523468     85.68211365     54.29939651
Na      -53.83112717     -6.35961390     58.23929977
Na      -81.05783081     51.47080231    -74.28078461
Na        9.77576256     17.51148033    -61.08475113
Na        7.14077950    -85.06017303     68.04212952
Na       93.20426178     11.02412319     40.41337967
Na       48.11621857      3.89259934     75.59014130
Na       81.56246948     35.13621521     44.55146790
Na       -5.99957085    -16.83560753    -13.52816582
Na      106.14943695     -6.06659317     78.73573303
Na      -60.82448196    -64.40195465    -47.39362335
Na        4.02936268     28.12431145      0.63642210
Na        4.30141926     81.93394470     41.15903854
Na       11.60844231     55.28367996    -23.60745430
Na       21.28471565    -98.24552155      4.34310293
Na      -18.87057686     48.52404404      3.33736539
Na       -2.98305440     14.82671833     -9.86586761
Na       38.24391174     14.34636116    -27.47399521
Na       99.49591827     21.40083694    -33.28303528
Na      -57.49306870     17.39493942    -20.38090515
Na      -37.19091797    -40.29892349     78.74243164
Na      -64.05693817    124.13244629     65.17443085
Na       10.52816105    -37.08670044    143.06042480
Na      116.66056824    -50.76881027     17.09575272
Na       68.46791840    -33.58452606    -77.71879578
Na       92.30302429    -23.66162682     41.41317749
Na       -9.39533710     -7.04532003     24.57932472
Na       54.90210724     31.35735893    -37.42981720
Na       82.37278748     37.77589798     20.74792480
Na      -23.19018745     14.05957508     58.39408493
Na       17.86754799      6.94285583     51.37938690
Na      -36.81552124    -20.17116928     14.00199223
Na      -13.04402351   -115.29874420    -16.43697357
Na       28.03651619    -23.18070602    -16.93545532
Na       45.41960907     30.93655777    -74.48905945
Na       69.43872833     11.19427299    -41.05366516
Na      -32.78664017    -84.61307526    -84.95699310
Na       24.37542343     -2.61520433     21.54376602
Na       33.46779251    -50.58082199     47.72449493
Na      112.46858215     48.01104736     10.51977921
Na      -64.03062439      7.80901909     30.93662071
Na       78.83123779    -39.69817352     41.06443405
Na       -2.62916923     45.13642120     41.30860519
Na       -9.26867199     27.60206985     64.91567230
Na      -12.17753601    -25.03031158    -23.68934822
Na       10.92952919     22.87805367     82.02381897
Na       27.78132629     68.14545441    -50.86397934
Na       31.47603798    -36.69250107      6.92492294
Na       10.37424564    -39.79412079     84.96381378
Na       20.39476585     27.68906784     17.27760887
Na       48.28160477      7.87569666     78.49343109
Na       31.34094810     48.65327072     81.16425323
Na       17.95546722   -105.07672882     68.13759613
Na       -6.07311726    -40.27336121    -51.09278870
Na       82.75531006     -2.77403855    -36.77278900
Na       44.78121948     -6.39590359     13.68740463
Na       28.56516838     60.12310410     57.92342377
Na       38.24155807    -15.99834538    -54.31779480
Na       41.55786133    -23.44064713     -9.55759144
Na       72.21560669     37.51107025     27.88198280
Na      103.14531708   -132.02662659    -84.21894836
Na       38.23534393    -40.00997543     40.70766449
Na      153.95422363     -6.27047348    -23.23480797
Na       24.76217461     51.93992996     27.36214447
Na      157.34034729     24.17241096     17.20393562
Na      -22.92333794    -12.83342171     51.30795670
Na       82.86019897    -13.36810970    -85.12723541
Na      -19.60441971     78.96502686    -34.20594788
Na      -50.09016800     81.79676819    112.75231171
Na       69.50417328     89.67828369     64.71897125
Na      -16.05717850      6.73605204    -10.13767338
Na       88.05724335     58.17639542     68.30412292
Na      -43.60889435     54.86830521    -54.23991013
Na       24.11451149     95.60523224    -33.80882263
Na       -2.88069439     21.53341484    -12.89106178
Na       -5.78854418    -33.97161484     72.24327850
Na       45.12459946    -13.31281853      7.24119091
Na       42.03504562    -19.92803764    -10.02149105
Na       -2.19451380     82.35624695    -28.18823624
Na        3.82705688     20.47772026     68.45205688
Na       17.84376144      1.11000621     23.94112015
Na       72.03330994    -12.71512985     20.58219528
Na      -46.88292313     -2.94233537   -109.42842865
Na       35.21040726   -102.64273071     10.51325512
Na       55.18851471     24.33660507     51.14900970
Na       44.92816925    126.75765991    -19.91924477
Na       68.57016754    -50.96426392    133.60324097
Na       58.89892197     14.40070629     27.39335060
Na      -80.52678680    -50.41895676     41.24971390
Na      -70.16247559    116.32746887     91.87537384
Na       51.92881775     69.31190491     57.85367203
Na       68.92885590     99.51734924    119.94461060
Na       -3.50755763    -60.67499924    -16.60777092
Na       24.81576538     31.56341362    -88.45793915
Na       31.01613045    -43.92823029     60.90403366
Na       -8.41838074    119.70899200    -20.00860596
Na       30.80667114   -128.83782959      6.57249308
Na      -94.48916626     38.06208801     44.46080780
Na      -98.31114197     13.82727051     50.71289825
Na      -53.07030106     -6.43578672     24.32406807
Na       31.39395523      7.75297642     71.43789673
Na      -43.69380951     34.64583969    -54.38377762
Na       13.79625320     -3.17297220    -75.03010559
Na       86.19316864     -9.50164700     48.17284012
Na       55.69911957     58.61541367     51.05356598
Na       38.48907852    -54.15719223    -20.40430069
Na        0.50878382    -53.93092346    -30.23024940
Na      -16.15554619     21.05197716     79.04051971
Na      -88.76637268    -87.57283783     10.40145111
Na      -70.89466858     21.08183479    -20.22833443
Na       -6.70640421    -50.66582870    -26.66602707
Na       85.56526184    -13.37423992    -41.32743454
Na       27.35019302     -2.77976274    -12.67290306
Na      122.78578949    -50.78601837     -6.00678015
Na       28.03016281    -50.39161301      6.99228477
Na      -33.74779892     42.41274643     17.46159172
Na       58.92449570      7.16615629     -6.69316959
Na       24.68488312    -19.31364441     51.08724976
Na       21.57545471     85.65036774     -9.77408791
Na      -13.31935310     41.04426575     24.28654099
Na      -19.94626236     15.26592731     30.42620659
Na       51.23797989     86.00933838     54.86409760
Na      -43.50403595   -101.62943268    -13.71676064
Na       85.84860229    -64.02317810    -54.35832977
Na       68.63302612    -70.85688782      7.27557993
Na       48.54119873     45.28029633     58.00638962
Na      122.24720764     10.51020622     20.34090614
Na       79.07762146     41.09211731     37.53110123
Na      -91.51176453     -2.88539505    -12.80116940
Na        7.31010008    -40.40780258     17.02659798
Na       55.75790787     41.85842896     64.92778778
Na       -5.81017303    -26.78838348    -50.69437408
Na       14.85477734     21.31203842     24.51663399
Na      -26.73148918     23.84255600    -27.16467857
Na       41.86971283    -42.26298523    -16.95071030
Na      -12.67811775     -0.23509973     -2.83639264
Na     -128.67111206    -33.45980835    -57.87732697
Na       68.84695435     37.52967072    -27.03344727
Na       27.54540253     -9.83785343     -4.10185051
Na       41.24447632    -40.37448883     44.35348511
Na       10.74934101    -40.79109955     33.62253189
Na       55.05181122     64.82389069     -3.19111347
Na       24.05653381    -81.31698608     -9.12301922
Na        3.78907657     24.35213089    122.85556793
Na       -3.09200454     11.52263737    108.84531403
Na       -6.13398647    -64.13798523     10.66960335
Na       27.73188591     17.53404999     88.85680389
Na       26.24855042     35.30023193     58.59070206
Na      -43.44050598    101.80606079    -51.09755707
Na      -60.48692322    -30.28588867    -33.58866501
Na       82.20666504     -2.73361921     -6.77403355
Na       72.23874664     14.15183544    -13.21307087
Na      -37.10888672     -6.17302752     61.97200394
Na       44.92528915     44.61271286    122.98780823
Na       21.13895607     10.83358955     27.56056976
Na       17.59206581     82.55493164     -6.71986055
Na        4.68523073    116.66644287     -3.18564820
Na       41.79845810     86.22934723     40.94920731
Na      -46.58344650     34.62116623     44.40672684
Na       58.37306213      0.92567593    -30.45621681
Na      -73.92427826    -91.82125854     13.52860451
Na      -29.84865189     -6.59565449     58.14190292
Na        3.90445065      0.61054236     -9.82545757
Na       27.66178703     27.99527931     17.23013687
Na       25.00680923     44.59510803     47.78742599
Na        1.10975730     44.42374420     30.89367104
Na       71.86072540     67.46302795     17.29052925
Na       28.30540848    136.83489990      3.77122021
Na       10.28512573     27.62756920     20.53884315
Na      -46.51578903    -26.90916061    -24.04169655
Na       24.28842926    -53.35430908    130.12237549
Na       47.58532333    103.31063080     78.69630432
Na       27.76809311     10.20032406    -54.49596405
Na      -19.31749153    -36.88785934    -37.29588699
Na      106.30878448     37.86877823    116.47510529
Na       95.53936768     61.13014603     78.40805054
Na      -16.14192200     25.13736725    122.66157532
Na      -32.81241608     24.67235756    -26.81495285
Na       75.80516815    106.33815002    -16.88429451
Na       71.94179535     -2.99206471    -47.45616913
Na      -24.33403969    -16.39188004    -13.59121513
Na       48.62168503     -4.50046682    -78.01532745
Na        4.45873070      0.67452633    -17.35968399
Na       14.84811974     10.54372692      3.77360034
Na       38.08381271     44.60241318     13.80336857
Na       21.45468521     45.00613403     27.24975586
Na      -16.41404533    -67.02979279     44.33293915
Na        7.76833153     65.18585205    -16.62680435
Na       18.31815147   -129.05892944     17.39372063
Na      -83.73017883    -27.06514549    -16.54055214
Na       65.40278625     72.36279297     54.59345245
Na       90.14552307     24.30125618     37.38331604
Na       79.21720886     42.87828064    -27.20031738
Na        4.33611631     79.53260040      6.88376474
Na      -19.04306602    -50.47987366    -19.70743561
Na       55.51033783    -26.68784714    -43.82061386
Na     -115.64353180     17.41631508     75.21317291
Na       58.18284225    -12.94038296    -33.99171829
Na       82.27973938   -105.36468506      0.17974742
Na      -13.20103550    -16.79403687     -3.02268147
Na      -23.05531120    -60.35832596     48.29734802
Na        0.53935874     11.15260220     10.41299248
Na       44.87298965     67.72506714      3.29817843
Na       -9.85379505     10.74729633    -60.81004333
Na        7.61956072     55.28569794     24.16224480
Na      -16.07700348    102.49432373    102.45442963
Na       41.75780106    -75.34809875     30.86328888
Na        7.81142521    136.64498901     37.35852432
Na       65.20700073     48.27529907    -40.31997681
Na       -6.05116320    -39.80921173     -3.07091928
Na        3.87140679     -2.43586111     -6.73704672
Na      -30.17096901     54.18012619    -13.24190331
Na       38.49253464     53.65658951     51.73865509
Na       61.10958862     21.29231834     37.63271713
Na        0.45064557     17.52892685     -0.09584805
Na      -12.90366554     99.14465332     34.51349258
Na      -13.04088879     31.41990089      6.91735697
Na      -67.63397980    -30.07351685    -40.63602829
Na       69.59787750    -37.10614395     -3.25280190
Na       58.47908783    -20.15376663     10.68449879
Na       20.94302559     68.06912231     65.05811310
Na       78.98423767     34.69456482     68.69683075
Na      -12.42032051     24.44437981    -50.96042252
Na      126.69831085    -88.46858978     28.03082275
Na       38.34275055    -26.37533379    -10.90323830
Na     -101.57788849    147.30194092    -50.71142960
Na      -25.99760628    -19.19193459     65.08866882
Na      143.80827332     47.87266159    -64.61983490
Na       10.98007679    -13.37669563    -71.15178680
Na       55.39638519     -9.55598736    -12.51375198
Na      -56.97895813     92.87923431     13.94111156
Na        0.99267310     37.70390320    -51.51114273
Na        1.01458120      4.18903637     -6.55166674
Na        7.58801651    -63.70494080    105.06336212
Na       72.42334747    -87.83653259     17.78169823
Na       92.89846039    -23.56299591     33.82919693
Na      -87.51467896    -44.06179047    -44.10404205
Na       10.45998573     13.39683342    102.04872131
Na       34.75563431    -94.07445526     -3.74413586
Na        4.11263514    -16.65938950    -53.96182632
Na       21.12056923    -43.75062180     17.06671715
Na      -53.31601715     89.04175568    -30.53850555
Na      150.64172363     24.42298508     -5.85399580
Na      -19.09311485    -16.59172821     -6.85434961
Na       14.06295013     51.17633820    119.00427246
Na       88.23427582     30.80661392     10.66858959
Na      103.46641541     55.33061981     -2.89372921
Na       47.97164917     17.72550964     24.15256310
Na       45.06525803     81.98259735    -20.03402519
Na      -77.35119629     34.04634857      0.63373554
Na       -9.34331226     14.82536316    -26.57154655
Na       35.25791931     24.46090698   -101.96186829
Na       -5.06637573      7.52159262    -37.01800919
Na       86.16506195     -2.62991071     54.89270782
Na       21.79342079    -53.73325729     37.99844360
Na       79.15584564     -6.87117720     44.97787094
Na       31.37149429    -60.32353973    -10.04242039
Na       17.82988548    -81.02767944    -26.94150352
Na      -19.47019196    -16.90287971     -3.33095384
Na      137.09585571    133.16947937      3.82763314
Na        8.06857491    -16.60887337    -13.09307384
Na      -26.36849213     92.53475952    -10.46072674
Na       -6.46067333     64.86236572     48.12678909
Na       -9.56222916    -56.99805832     -7.14376163
Na       17.60545158    -54.29994583     41.06290817
Na       51.70368958    163.85299683      3.46656418
Na       44.63611984     34.47877884      6.87040567
Na       37.88815308     85.60949707     -7.19488668
Na      -80.13884735     72.24099731     19.68262291
Na       85.27098083      0.71102715     74.81217194
Na       32.02892303     75.31044769      3.30614448
Na       17.44280434     85.54653931     75.41121674
Na      -47.20449448     44.36812973    -20.81060219
Na       38.47645569    -26.85619736     37.35390091
Na       52.27029419     41.31757355     61.58547211
Na       51.88208008     78.81384277     35.01209259
Na       52.05407333    128.77278137    -27.11755180
Na       15.03112316     47.64962387     44.38669586
Na       65.14377594     21.20414543     10.31231594
Na       72.71012878     10.32245445     14.09524822
Na       31.13007545     30.80142403     -0.38939345
Na       99.29397583     32.99239349    -26.68106270
Na      -49.99816132     30.99614525    -47.26620865
Na       -6.42770958     99.32866669     15.05874538
Na      -12.57174015     71.40876770      0.45112109
Na       88.72454071     64.94101715     -9.76167965
Na     -145.00750732     54.22092438    -23.61309052
Na     -104.66931152     13.55698681     34.95687485
Na      -23.17681313    -70.60565948     47.62427139
Na      -29.47705841    -53.62651825     34.70131302
Na       41.46754074     98.83754730     58.29410172
Na       44.91625214     33.62975311    -43.97437668
Na      -19.79930496     27.54174042    -10.08289337
Na      -15.93341923    -30.33229065     48.18283463
Na       41.66754150    -23.07000160     37.83353043
Na        4.18325043    -13.30005932     98.52730560
Sn        0.99650729     14.19001675      7.16612339
Sn        1.18334794     27.78957939      7.24641418
Sn       14.49213791     14.11901379      7.02198935
Sn       14.76118660     27.75135422      7.10685205
Sn        0.24959631      0.78592896     20.52125168
Sn        0.44468138     14.05668831     20.67317963
Sn       14.07254028      0.52938139     20.73875237
Sn       14.13064671     13.94483566     20.60675430
Sn        1.06210673      1.02000189     14.01549339
Sn        0.48916283     14.54341793     13.90496254
Sn       14.08760929      0.87061650     13.87180042
Sn       14.38132572     14.38016891     14.02975368
Sn        0.97466344     13.72659683      0.02210733
Sn        0.64312881     27.37226105      0.19519188
Sn       14.37752056     13.54244232      0.35129222
Sn       14.44904518     27.26886177      0.45620316
Sn        7.58031130      7.31997538     20.67825508
Sn        7.80544472     21.08716393     20.32207489
Sn       21.24844551      7.16980505     20.69329834
Sn       21.43576241     20.79907799     21.19959641
Sn        7.16895056      7.18411684      7.00723553
Sn        7.32625198     20.89516449      6.65382147
Sn       20.84556580      7.21121597      7.11653185
Sn       20.87996674     20.75196648      7.16203165
Sn        7.62253952      7.71703911     27.03357887
Sn        7.76662922     21.17643738     27.13224220
Sn       21.24252701      7.58787632     27.54360962
Sn       20.96722794     21.22202110     27.57104874
Sn        7.52817583      7.08738899     13.78181458
Sn        7.22707462     20.54491425     13.57542419
Sn       21.36374855      6.88513851     13.76704407
Sn       20.93611145     20.57304573     14.17505455
Sn        7.10133696      0.51875407     20.64136887
Sn        7.03729439     14.32050991     20.51533508
Sn       21.05997467      0.42317897     20.81042480
Sn       20.60946846     13.90847111     20.72197914
Sn        7.59678411     13.79832077      6.69737244
Sn        7.75997591     27.80899048      6.73408794
Sn       21.29670715     13.86686802      7.12244320
Sn       21.45877075     27.73635864      7.35937309
Sn        7.37504292     13.85622787     13.85706806
Sn        7.52774668     27.27172279     13.68729782
Sn       21.35990715     14.18078613     14.23767853
Sn       20.94202232     27.35077667     13.96295547
Sn        7.64838600      0.75177002      0.09404913
Sn        7.66226482     14.65961838     -0.08720372
Sn       21.15024185      0.75077897      0.37952366
Sn       21.12792587     14.56908894      0.22166777
Sn        0.61173654      7.18789625      7.30017281
Sn        0.35335663     20.94962692      7.20098734
Sn       13.86406803      7.39088106      7.03970861
Sn       14.10183620     20.87114334      7.36161423
Sn        1.00568151      7.52360201     20.69468307
Sn        0.82895654     21.21809769     20.65751839
Sn       14.48580837      7.11494207     20.66882324
Sn       14.63110638     21.10967636     20.97742462
Sn        0.86402875      7.00681067      0.34958133
Sn        0.90267545     20.74187660      0.37456200
Sn       14.42304802      6.95878839     -0.05307421
Sn       14.56267071     20.24314499      0.61189908
Sn        0.83674306      7.73045254     13.78397465
Sn        0.62364286     21.25423241     14.02400494
Sn       14.33838081      7.83510017     13.71047211
Sn       14.12087536     21.07041168     14.03624439
S        -0.51239252      5.52429628      1.77225864
S        -0.08423775     19.11866188      1.99627173
S        12.90828228      5.67886734      1.43307316
S        13.49412346     18.89242554      2.14540911
S         2.33017516      8.88791943     15.29525661
S         2.17710495     22.42989540     15.41550827
S        15.80832195      8.99843311     15.15488529
S        15.59924412     22.41402054     15.40931416
S         8.93128967     12.31918335      8.13556004
S         9.28581238     26.59768295      8.14146328
S        22.98762512     12.81814671      8.30635548
S        22.96830177     26.32312012      8.86967564
S         5.55980730      1.76785624     21.91897202
S         5.72658873     15.79672527     21.99882698
S        19.41594124      1.94939709     21.92950439
S        19.26859665     15.48020458     22.17043495
S         2.07313824      5.58909082     25.98826981
S         2.13440490     19.17757988     26.15018845
S        15.58050632      5.57134438     25.64091492
S        16.06039047     19.12158585     26.24487877
S        -0.33654311      9.22385693     12.37443447
S        -0.87743628     22.81357765     12.68596935
S        13.22348595      9.14326859     12.16500092
S        12.79576969     22.55839157     12.64930820
S         5.67216539     12.86057472     19.21256447
S         5.88577700     26.23532104     19.10998535
S        19.32656479     12.59518814     19.31246567
S        19.73327255     26.11680031     19.37937355
S         9.23353100      2.03689528      5.46648979
S         8.98024940     15.25464439      5.24942493
S        22.82834435      1.70190537      5.93660259
S        22.82928658     15.24268341      5.90749693
S         5.90609598     12.53644753     15.16596699
S         6.04520416     25.94124794     15.04388142
S        19.84058762     12.43350887     15.22309208
S        19.65669632     25.90438080     15.18008232
S         9.30636787      2.34834480      1.21952999
S         9.16431046     16.15351486      1.11333346
S        22.32840538      2.23999405      1.92546034
S        22.56342125     15.91590786      1.86676443
S         2.49344587      5.89845085     21.87674713
S         2.13059402     19.57137108     21.94214058
S        15.76499939      5.56183052     22.05069351
S        16.05178261     19.78376007     22.46664619
S        -0.64572424      9.05455589      8.37502003
S        -1.15790844     21.92668724      8.58396530
S        12.54401112      8.91629887      8.42939281
S        12.65655136     22.42348480      8.54499912
S         9.13757896     12.49499226     12.68216038
S         8.93873978     25.72148323     12.23228931
S        22.89336014     12.61369514     12.93603230
S        22.23656654     26.01245689     12.46442699
S         6.07185078      2.12622666     26.00186539
S         6.13576841     16.01894188     25.88339233
S        19.90865135      1.90096378     25.92248726
S        19.81571388     15.96150208     26.04413986
S        -0.87062496      5.94758177      5.79296589
S        -0.86103320     19.25540733      5.78040028
S        12.61972237      5.94347000      5.49604321
S        12.73790169     19.47938156      6.06135178
S         2.48889828      8.83084297     19.34563828
S         2.11980629     22.56441307     19.01968575
S        15.88148022      8.75456333     19.41551018
S        15.96247959     22.40561295     19.48008347
S         9.03146362      9.45288563     26.00023460
S         9.01877213     22.64212990     25.50955772
S        22.51409340      9.11355400     25.95230865
S        22.35371017     22.56273460     26.07617378
S         6.17303801      5.63044262     12.33188343
S         5.87975550     19.07950592     12.30935574
S        19.79739761      5.36150122     12.36181259
S        19.63352394     18.79755974     12.94016552
S        -1.21973395      2.23937392     19.24858665
S        -0.87204504     15.35203075     19.17256355
S        12.41079140      1.83136737     19.59208298
S        12.58046627     15.21484280     19.28959274
S         2.29860163     12.53072643      6.11286736
S         2.36104918     26.31198311      5.80877924
S        15.90620804     12.60901928      5.77535725
S        16.17553711     26.26381111      5.58228540
S         6.21764135      9.14531231      1.11343026
S         6.66271400     22.75149536      1.31661749
S        20.21373940      9.04363728      1.95944655
S        19.79219437     22.67614365      1.69891238
S         8.95412540      5.34544945     15.07047176
S         8.79485607     19.36537170     14.97277260
S        22.86467361      5.70299911     15.34672356
S        22.48796463     19.48524666     15.60929012
S         2.37869763      2.10424519      8.38600540
S         2.50034404     15.81829357      8.34871006
S        16.12092209      1.72819853      8.60096836
S        15.95555210     15.54822063      8.32006264
S        -0.97611260     12.76943874     22.12905693
S        -0.81429213     26.62922096     22.07275581
S        12.47577190     12.57782173     21.97331619
S        12.69250774     26.14614296     22.00900650
S         2.39728117      2.10198116     12.34221554
S         2.03870058     16.11540985     12.89014816
S        15.64544392      2.33926535     12.56341076
S        15.91414642     15.88040733     12.76397896
S        -0.62173223     12.35331249     25.80740929
S        -0.51486909     25.97413063     25.72745323
S        12.87447262     12.40315151     26.13955307
S        13.12586021     25.77887344     26.29781342
S         5.60943174      8.63217735      5.62996054
S         5.94541502     22.31256485      5.16363716
S        19.76874924      8.56076908      5.46681690
S        19.66742897     22.19538879      5.75160074
S         9.02927589      5.98261070     19.20547867
S         9.26708698     19.80564880     18.88692474
S        22.57642937      5.52590466     19.50017548
S        22.70552826     19.30638123     19.81309509
S        -0.66606450      2.26763415     15.07469654
S        -0.82250994     15.96873760     15.39792538
S        13.09705639      2.59130120     15.24454880
S        12.76805019     15.87316990     15.40943909
S         2.31041765     12.34991932      1.57802808
S         2.16675043     26.06040382      1.71129584
S        15.76960373     12.01521015      1.45611668
S        16.12103653     26.12285995      1.78641605
S         9.30108929      8.84565163     21.60297966
S         8.91879177     22.78767014     21.63333511
S        22.88073349      8.71366501     21.70891571
S        22.91333008     22.18091011     22.52555084
S         5.98008204      5.72983027      8.74520588
S         5.69551849     19.64952087      8.16095448
S        19.30756378      5.90551710      8.46115494
S        19.51516533     19.23010254      8.48350525
S        -0.82222944      1.57662928      1.31431067
S        -0.18868710     15.28110123      1.61938119
S        13.14033604      1.71337795      1.61010075
S        13.08336735     14.93833542      1.59347796
S         1.95481896     13.10232258     15.29967785
S         1.92523468     26.47648239     15.46181583
S        15.66603947     12.85320377     15.28675747
S        15.22629452     26.40673637     15.11729622
S        -0.30661356     12.79207993      8.58008289
S        -0.37837285     26.15845680      8.67319775
S        13.01970482     12.71857738      8.48203278
S        13.38279438     26.41959190      8.59498310
S         1.76782715      1.83387947     22.03550911
S         1.85851729     15.58424282     21.75955963
S        15.33788872      1.77085173     22.18512917
S        15.40114403     15.46138096     21.95452118
S         2.01384020      1.53889573     26.00452042
S         2.21391559     15.27859020     25.79093552
S        15.73525620      1.38045001     25.99264908
S        15.77697563     14.85388374     26.17744827
S        -0.53947037     13.36844540     12.21918106
S        -0.48282522     26.55313683     12.62150574
S        13.01122475     13.11670685     12.46273994
S        12.55689812     26.74044228     12.49638081
S         1.77278650     12.68386555     19.15560913
S         1.67344439     26.53882790     19.14841843
S        15.54416275     12.31538486     19.41435814
S        15.31803799     26.33226776     19.18984222
S        -0.36860311      1.78285635      5.87293673
S        -0.08295195     15.55149460      5.44339275
S        13.40512466      1.96272659      5.59110832
S        13.13069344     15.60001945      5.71290112
S         6.23980856      8.35133553     15.32387352
S         5.91014767     21.84212875     15.16903305
S        20.09930992      8.34425068     15.22916317
S        19.81766319     22.12132072     15.81815624
S         8.81838417      6.11899137      1.25577807
S         9.46699429     20.12213707      1.25944698
S        22.72108078      6.18473387      1.53610110
S        22.38943672     19.90672684      1.82671154
S         6.14988136      6.10422277     22.09377480
S         6.52362728     19.66930580     21.72941589
S        19.78643227      6.17363787     22.29000282
S        19.81946564     19.54563522     22.43243790
S         8.50720882      8.65585899      8.49308395
S         8.69278049     22.41143799      8.11744022
S        22.30626488      8.44430447      8.56054401
S        22.18177605     22.22977257      8.74764252
S         8.91870880      8.36824131     12.30967903
S         8.56976509     21.86446953     11.98631954
S        22.75812531      8.53816891     12.26112461
S        21.96978188     21.86223412     12.39714146
S         6.08969212      6.10990524     26.10368538
S         6.15429688     19.88385391     26.02269554
S        20.06817436      5.99112892     26.09060478
S        19.79277229     19.68461227     26.23134804
S         8.28188610      5.87238264      5.40572309
S         9.07369232     19.68438911      5.42530727
S        22.27816582      5.54995108      6.00544024
S        22.34491920     19.32982826      5.74679375
S         6.17546082      8.76331615     19.29794502
S         6.43777561     22.45586777     18.72877502
S        19.85019493      8.56739712     19.03654099
S        20.07904434     22.04732513     19.41422081
S         8.95395756     13.28633976     25.72780228
S         8.79641438     26.46413422     25.77488136
S        22.72153854     13.36672688     25.93286896
S        22.71269226     26.50262833     26.27612877
S         6.00072193      1.33886015     12.15841103
S         6.24570847     15.19065857     12.08913422
S        19.52142143      1.54326856     12.71623516
S        20.06594849     15.50397873     12.81314850
S         8.53669739      1.99253523     19.15821266
S         8.46243763     15.39723492     18.97164726
S        22.32038498      1.89546263     19.59629250
S        22.20524216     15.59490967     19.57065201
S         5.97829580     12.61982059      5.33819675
S         6.44577646     26.24097633      5.29881859
S        19.89706230     12.75689316      5.46937990
S        20.17774391     26.35590172      5.84434128
S         6.42177629     13.35957336      1.68345809
S         6.20808363     26.70115852      1.43606710
S        19.88075066     12.95633411      1.56256664
S        19.96866226     26.25079918      1.57863402
S         8.73078156      1.46753168     15.29448605
S         8.79492474     15.42067146     15.21905899
S        22.45916939      1.30333745     15.45274448
S        22.43300247     15.66114044     15.65050030
S         6.57111073      2.28882647      8.42496109
S         6.45081711     15.34871387      8.14853668
S        20.15163612      1.86199903      8.78750706
S        20.08204842     15.34701824      8.54708290
S         8.40404415     12.86893845     21.89501762
S         8.47570515     26.43468475     22.07299805
S        22.10549164     12.58682919     22.12763214
S        22.46703339     26.45002937     22.40474701
S         1.93975198      6.21588564     12.41156292
S         1.83833587     19.79716301     12.53761959
S        15.65576458      6.40525150     12.17113400
S        15.37437820     19.32744980     13.05978012
S        -0.33935839      8.24709320     25.99602509
S        -0.88266557     21.86032486     26.20177269
S        12.86942291      8.50136089     26.12612534
S        13.14061546     21.60317612     26.45129204
S         1.49453938      8.61304569      5.47811508
S         1.64142799     22.37180901      5.71997595
S        15.33782864      8.76776505      5.67732382
S        15.45048714     22.18699265      5.89790773
S        -0.48222536      6.23447943     19.21602440
S        -0.56569469     19.70337105     19.52374077
S        13.27099133      5.94904518     19.03376198
S        13.29644680     19.71996498     19.39943695
S        -0.49284777      6.40441656     15.34844112
S        -0.76825857     19.76681900     15.39192772
S        13.03677368      6.40531683     15.17564487
S        12.80427837     19.71292877     15.40600872
S         2.32814264      8.17675495      1.65221560
S         2.36900043     22.22827339      1.58436835
S        16.08228111      7.84098768      1.67997003
S        15.90209198     21.93882179      2.22838449
S        -0.54455394      8.81680775     22.13689232
S        -0.23403473     22.46079636     22.39013100
S        13.23292255      8.37985229     22.18183708
S        13.12417030     22.14045715     22.41184807
S         2.05453038      5.80305862      8.56794453
S         2.07232738     19.56120300      8.41235352
S        15.23755932      6.04860497      8.43195343
S        15.33296585     19.45789528      8.74334431
S        -3.53391886      4.90267801      9.39543915
P        -2.38965654      3.82492948     10.63668442
S        -1.34719694      5.12602663     11.77357864
S        -3.44771886      2.51812124     11.86911774
S        -1.24981427      2.57732654      9.34063435
S        -1.54275775     16.35756302      9.26786995
P        -2.66070962     17.53080368     10.44981670
S        -3.69929790     16.31702995     11.80475998
S        -1.41629183     18.80051041     11.41487217
S        -4.06878090     18.53695488      9.22059059
P        11.00328827      3.77879238     10.42151642
S        12.33862209      2.79863954      9.00614166
S        11.99033546      4.87222862     11.75208092
S        10.21136475      5.30159330      9.23224258
S         9.73917770      2.42701793     11.39476299
S         9.50682831     16.33030319     11.58121872
P        10.57802105     17.51047325     10.26967239
S        11.72564983     16.31725502      9.07092381
S         9.40581322     18.68672943      9.13045979
S        11.86493492     18.86886024     11.19849110
S         5.13889122     12.16758633     25.40721512
P         4.10048580     10.98346710     24.03225517
S         2.84948754     12.13411045     22.95002174
S         5.33992672      9.92327785     22.63536072
S         3.00589204      9.44185829     25.11207390
S         2.89908099     25.53695869     22.95070076
S         2.56951880     23.37762833     25.49968910
P         3.94045472     24.30948448     24.20382690
S         4.95344257     22.96430206     23.05401993
S         5.09037256     25.57304382     25.33878899
S        18.97579002      9.89037132     23.05235100
P        17.71170807     10.90040493     24.40156937
S        16.72780037      9.51633739     25.49933243
S        18.85625458     11.82730103     25.75999641
S        16.41382980     11.93339729     23.24837685
S        16.55605698     25.58676529     23.02794075
P        18.11324501     24.60968399     23.86654091
S        17.06493759     23.27280617     25.11071587
S        18.99209785     23.61304665     22.24250221
S        19.35595131     25.66939545     25.11748886
S        23.50360680      9.86594391     16.05412102
S        23.37301445     12.04398823     18.64159775
S        25.53293419     12.53779602     16.10765076
P        24.58869743     11.08128071     17.33188057
S        26.01241112      9.82771301     18.48728752
S        25.94696426     23.26257133     18.62668419
S        23.23152542     25.16176605     18.89487267
S        23.62629509     23.44630241     16.17857742
P        24.58874130     24.50317764     17.56093025
S        25.53559303     26.05976486     16.61413193
S        11.61239529     12.12027168     15.65448380
S        12.09782410      9.78569603     18.18117523
P        10.73561096     10.70131397     16.97857475
S         9.89561081      9.19573212     15.85625172
S         9.36768341     11.77708912     18.04484177
S        12.28875732     23.24722481     18.67915344
S        12.06702423     25.44985962     16.14978981
S         9.56639957     25.46158028     18.46024513
P        10.99993992     24.25482178     17.43446922
S         9.71167278     23.00848961     16.17347145
S         5.81072903      2.60492325      4.89678144
S         3.30972576      4.66403198      4.98734140
S         3.20423198      2.55939412      2.46330404
P         4.43644571      3.66476631      3.69078875
S         5.69445038      4.82218456      2.40369081
S         3.25433230     18.76348686      4.35679150
S         5.91471195     18.47799301      2.39308667
S         3.25035501     16.18614197      2.11630750
S         5.27858829     16.25579643      4.71567917
P         4.35422659     17.41710091      3.37693119
S        16.35760880      5.00910664      4.90460110
S        16.99649429      3.26911402      1.86333072
S        18.68031311      2.43900323      4.79999065
P        17.90431786      4.10791969      3.68172574
S        19.42078018      5.32801056      3.17022443
S        16.81318665     15.71998119      2.85274482
S        16.65815544     18.47653961      4.78420305
S        18.88036346     18.43595123      2.24148989
P        17.92056084     17.27457809      3.64612079
S        19.29180717     16.32679749      4.84472942
S         2.86534405      3.16312432     18.64475632
P         4.04769182      3.96503210     17.22986794
S         5.02549410      2.45526195     15.94120407
S         2.84982133      5.17691088     16.14133644
S         5.59837151      4.92635298     18.19407654
S         5.48232603     16.40261269     15.95857716
P         4.15664291     17.45972061     17.29772377
S         3.10438180     18.74896812     15.93425465
S         2.85550928     16.12716103     18.25989914
S         5.25438833     18.55405045     18.68297195
P        17.91821480      3.82114053     17.37088966
S        19.17099380      4.82508802     18.52628136
S        16.75302887      4.88014460     16.06251144
S        19.23761749      2.87867880     16.02985382
S        16.79331398      2.52534175     18.40818977
S        16.25860214     16.06070709     18.63270950
P        17.52087021     17.34272957     17.71215248
S        16.72579193     18.73745728     16.38956261
S        18.61115456     18.37256622     19.06453323
S        18.73761368     16.25617218     16.49875641
S        25.63918877      9.75870514      1.93834484
P        24.68371773     10.94929504      3.43788600
S        23.18648911     11.99268723      2.64473820
S        23.79341125      9.66592121      4.89375782
S        26.05575943     11.85812473      4.62144566
S        25.96624374     23.40607452      2.58364344
S        23.88894653     23.02346992      5.11176968
P        24.80492401     24.39501572      3.83396411
S        25.81996346     25.86177635      4.79286242
S        23.30880165     25.28040314      2.70959878
S         9.62422752      9.61012936      4.74241066
P        10.99551105     10.81455612      3.44728351
S        12.13392162      9.65779686      2.20852971
S         9.73673058     12.00035667      2.39005136
S        12.24257088     11.55852318      4.91459227
S        12.33391380     25.72656631      4.57318211
S        12.26517773     22.99196434      2.58425903
P        11.11120510     24.44640350      3.51076555
S         9.89397335     25.47134972      2.11051822
S         9.84871769     23.51936722      4.77731323
P         3.94457769     10.74569893     10.34265232
S         5.07915211      9.73271275     11.83278275
S         2.73619938      9.71162891      9.16588593
S         5.44782877     11.49170208      9.05415535
S         2.78811693     12.17679501     11.26164818
P         4.20756006     24.45798492     10.34978676
S         2.84535718     23.38250542      9.12875557
S         3.21797705     25.87229538     11.54101467
S         5.62315464     25.39785194      9.19535065
S         4.90486193     22.92339134     11.68071938
S        16.99371910     12.07202530     12.10943699
S        18.94682884      9.42416668     11.76651764
S        19.07193756     12.17524242      9.58388901
P        17.97504425     10.87114620     10.73532295
S        16.58905220     10.19195652      9.19632816
S        18.66801643     25.07332802      9.30855656
P        17.41959381     24.17592049     10.70855331
S        16.06167984     25.53562164     11.60255146
S        18.76286316     23.36570740     12.18641186
S        16.52107811     22.74096870      9.70499706
S        11.65636158      2.25258970     25.11877060
S         9.81990910      5.16537094     25.42762756
S         9.32958984      2.97153735     22.58917618
P        10.57495403      3.76276016     23.93933487
S        12.06577206      4.92937994     22.94197464
S        11.76960468     18.50314140     22.54165268
S        12.32832813     16.61146927     25.06303978
S         9.76934910     16.09897804     22.68868637
P        10.82678318     17.46317101     23.88711739
S         9.67327785     18.82023430     24.95740891
S        -1.33833718      5.09519911     22.82222748
S        -1.50409853      3.30968714     25.62836838
S        -3.72723413      2.98901176     23.25956726
S        -3.67147565      5.91700983     25.16626167
P        -2.65031743      4.43669462     24.19757652
S        -1.48664701     16.51144409     24.93086815
S        -4.14470434     18.55978394     25.21461105
S        -4.03706121     16.42427063     22.76581573
S        -1.94524252     18.96590042     22.85266304
P        -2.94373178     17.65629578     23.89379501
