832

Na       75.35169983     24.16918182     35.14365387
Na       47.78263092    -12.83300018     -2.69582391
Na       15.03735352    -16.18755531     -5.74455261
Na       48.19707108    -19.36354065     35.58688736
Na      -12.74934292     14.28004742      0.58776230
Na       21.34691048      0.18844180     35.20615387
Na      -19.45811653     82.00804138    -18.80667496
Na       -9.46856117     31.94109917    -15.78229141
Na       25.42216301    -16.60432816     21.47121811
Na       -6.37881231      0.72586381     28.67479515
Na      -26.54341125     14.79549694      4.51804781
Na       23.80002213      4.58971596    -15.73535252
Na      -16.68564415     -8.42852879     38.57285690
Na      -16.60609436     34.53856277     11.54666233
Na       -3.92447233     -9.39300632     35.05075073
Na        0.32257900      7.60735559    -15.47926712
Na       34.45199966    -29.96155930     28.58401299
Na      -50.43610764     21.05172920     -8.95669842
Na       18.21127319     -5.57337236    -29.18802643
Na       34.19444275     28.23474121     -5.50071716
Na      -46.93502808    -19.87530136     21.44058990
Na      -53.67767715     28.11590767     18.26074600
Na       34.07279205     -9.01357746     35.40469360
Na       55.42856979    102.61835480     -5.83321857
Na        0.26803225      0.64320159    -32.50576401
Na       38.40666580    -42.88957214      4.71873283
Na       55.19625092      7.71534777    -29.27490234
Na       31.42240715    -26.70905685      4.75495481
Na       31.45091629     34.51974487     25.06762505
Na       38.11936951    -11.96546173      4.82680035
Na      -13.12116623    -53.96893692     -1.66021478
Na       10.85246754     11.18313408     52.42722321
Na       -5.95539713     14.31088066     35.44360352
Na      -50.78839111     37.87343216     -6.03754520
Na        0.18494365     17.51014328     41.88558578
Na      -37.43373489     56.03016281     -2.02360654
Na       14.30072021      0.61447579    -15.84364986
Na       17.66905022    -30.17912102    -25.80576897
Na       14.05038452    -61.01631546    -22.50439262
Na       17.38133621      4.18064356     -8.88032246
Na      -10.06161690    -30.03515053     -5.51249170
Na       48.21543503     44.78018570    -32.44536972
Na       -6.09108543     15.00774765    -15.63933468
Na       38.17158890     31.71087646      1.11963868
Na       13.55725193    106.72966766     21.79305267
Na       30.63774872     -2.35670877     38.97769165
Na      -16.15848732     10.64782143     15.32495594
Na       14.26251507    -13.11259365     35.21755981
Na       41.38249207     -9.35159016     35.05633163
Na      -19.76303864     38.22492218    -39.39696121
Na        1.01838064    -43.38188553    -18.54086304
Na       64.83792877     -2.60335040     -8.45037556
Na      -23.07269859     37.96503448     -2.72957730
Na       48.29647446     11.00763512      1.14226747
Na       13.73491859     28.55380440     -5.17608452
Na       24.27210426     23.77286148    -36.24397278
Na       17.78305817    -26.76121712     32.08018875
Na      -12.99348164     -6.07475758     21.13632393
Na      -13.34847450     -6.17022943     45.50184250
Na       34.85636520     37.94764328     -5.37893105
Na       20.76735497     14.14973640     21.23130608
Na       -6.62217140     14.16207981     31.56739235
Na       44.64449310    -56.75133133     11.29231548
Na       14.46680164     35.75492096     42.61147308
Na      -23.47737122      7.33259583     59.14349365
Na       51.77597046    -36.82185745     10.96674633
Na       34.53034592      4.11227655      8.28281212
Na       -3.43556666    -36.95734787     -6.75319862
Na       11.24573231     44.85074615     22.02183151
Na        4.38373470    -57.02606201    -18.90909386
Na       -2.78617001      3.83274961     -6.15970182
Na      -39.76892853     34.19755173     18.32881355
Na      -26.63677979    -14.28779411    -25.66575813
Na      -20.09996986      4.87920475    -26.03426361
Na      -16.37524033     11.57262135    -25.73785591
Na       17.94533539     25.43325233     14.66240978
Na      -27.07444572     31.06682968     35.33176041
Na       18.45404053     10.73709774     -5.36932611
Na       38.02796555     20.93078423      5.11055565
Na       10.29622078     27.32868195     25.28936195
Na       30.93316078     -2.76070476    -39.13714981
Na       30.98422623      3.96627736     35.12716293
Na       68.75177765    -12.64325333     45.76281738
Na       58.67576599     38.25000381      4.97081375
Na      -73.08319092     -3.06618142      8.94701195
Na      -64.12425995     28.67295456     11.56180191
Na      -10.09411049    -40.90823364      4.91472006
Na       13.27144718     -2.72418261    -19.08366776
Na      -19.62775803      1.40184772     15.68379688
Na       24.46187592     65.25659943    -29.22393036
Na      -43.45920563      4.45293379     18.68175316
Na       61.76165390     -5.48615503     17.71501350
Na       14.59578896     34.70356369     -5.37140799
Na      -19.83065414    -12.62757492     15.86498356
Na      -15.99670982     24.32386208    -11.70637989
Na       20.86996269     20.98336411      0.95276028
Na       54.79139709     14.03564167     -5.52598906
Na       21.30830956    -23.72198677     15.11239433
Na       30.60087013     65.51913452     42.39287567
Na       58.20962906     17.58626175     -5.38143730
Na      -30.58925247     47.25009537     -9.40526009
Na       14.55345154    -16.78202057      0.26885346
Na       10.72873783     -3.10466170    -15.45809078
Na      -33.40100861     72.00846100      0.98039323
Na       10.12836266     -9.30143452      2.08293986
Na      -23.16841698     72.22199249     -9.16585827
Na       44.47918701    -29.98145103     62.43420792
Na      -33.57947159     21.76689339     45.39793015
Na       -2.83632040     -2.42685795      1.24935949
Na       14.62895012     28.12846756    -18.71303368
Na       34.55836105     -9.65444183    -25.81856346
Na       45.15555954     44.81072617    -29.54920959
Na      -67.66199493     21.71047211     15.04814720
Na      -45.57517242     79.38492584     22.18039703
Na       82.92879486    -53.66330338      8.46873569
Na       14.85982132    -33.36471558    -29.57865906
Na       31.47216797    -29.69397354     -5.21604681
Na       21.02279282     38.39030457     42.20598984
Na       -9.07617474    -19.28819466     -9.22841549
Na       47.74885559     34.32679749     -1.77634776
Na       38.07081604     10.75497246    -15.31444550
Na       51.88059235     -0.02852798     18.50075912
Na       24.12554169     48.65838623     11.26656151
Na       65.49943542     17.17954063     18.56158066
Na        6.61473465     48.88433456    -18.55290222
Na       17.72992134     65.95757294     42.09652328
Na       62.06385422     34.10869217    -11.77539539
Na      -26.50246048     17.40422630     28.73223877
Na       27.73480797    -70.59771729     14.66092300
Na      -26.14321136     34.86061859    -32.75730133
Na       51.59183121     -9.25171089      1.15473771
Na       55.34094238     13.69527149    -19.19027519
Na       44.63154221     17.43717766     32.08368683
Na        7.09072399      7.91446495      7.80314064
Na       24.65093803    -12.63557529     52.38843536
Na       24.86506844     24.78883362     37.88919067
Na       -9.76633739     -9.03063488     11.75198364
Na       17.42521667     11.10033798     11.57885647
Na       10.75347424    -16.30922318     -5.43846369
Na       14.02519035      7.67886734    -18.95476151
Na      -23.50321770     42.58974838    -15.84490871
Na       -2.82949471     41.55786514      4.91428709
Na      -13.54036331     -2.21428013      1.41115141
Na       11.34516144     48.02651978     52.53486252
Na      -54.12351608     -2.23046136     14.28958607
Na       27.55369568     28.06641579      1.03671086
Na       27.68426895     -3.03128552     21.76848030
Na      -23.83590317     52.31211853     24.92860222
Na       34.65626526     48.28202057    -39.46856689
Na       23.98481941    -33.03874588     -2.50267434
Na       25.06772423      4.31037760     31.85007668
Na       17.14789772      3.74107409     -5.35650253
Na       24.26024437     41.43164062     11.68553352
Na        7.33004713     61.59166336     -1.72719991
Na       24.27126503      1.07511246     32.01908875
Na       48.08723831     55.00583649     52.33790970
Na      -47.07803726    -40.78896332      4.63063526
Na        3.59237051      2.92551708     18.39520836
Na       54.93735504     20.61378860      1.13195801
Na       75.31924438      0.45495144    -36.06164551
Na       17.23172188    -50.46752548     55.57749939
Na       -6.05824471     10.98644924      8.32293510
Na       37.42678070      3.49822330     14.90072060
Na       -9.82823467     38.02710342     24.79821777
Na       37.40648651     51.38063812    -22.13339996
Na       34.91944122     63.30910873     -9.05084991
Na      -40.42131805     14.32185268     14.87284470
Na       41.56978607     34.37755585      0.83961105
Na       34.65994263    -26.00471687     28.90720367
Na      -60.70038223    -20.50999260     28.58174324
Na       68.54102325   -107.82091522    -12.51030827
Na       34.95650482    -13.29363918      8.50611401
Na       17.86923409     72.26716614     21.24624443
Na        7.03344631    -27.43433189     18.29091454
Na       85.44235229    -13.06552029     18.61466026
Na       47.56088638     78.81858063     -5.59469223
Na       17.69869232      3.83296442      4.41117859
Na       23.31493759     14.42778111     -8.90501404
Na        3.36155224     31.25479507      4.62936592
Na       -3.02725887     21.36446953      4.81607580
Na       54.65593719     31.34899139     55.83956528
Na      -22.63833427      3.98159313     21.52383614
Na        0.50420576     21.08400154     62.33015442
Na       29.45873260     28.35053825     52.37117004
Na       40.37952805    -50.20499420     49.20649719
Na      -12.97951412     28.29428101      4.39253950
Na       48.02976608    -46.80899811     32.03166199
Na      -23.76212692     20.73246193     11.30784416
Na      -50.43663025     17.33855057     29.34267044
Na       -3.25261307     10.49147511     15.02090645
Na        3.70064998     37.89424133     28.87025833
Na       36.20639038     58.46714020     -6.12217665
Na        4.00029278    -56.92583466     -8.71447182
Na       -5.54373837    -19.81385994     -5.13987589
Na      -16.42371750     10.84632111     18.75935936
Na       78.42168427     24.72217941      4.51833677
Na       10.61047745     -3.23520184     -1.92624593
Na       51.01599503     -2.97813416     14.43700600
Na       -6.17986584     41.65134048     42.74608612
Na        4.21182966    -53.23413086    -15.71284962
Na      -16.54792595     62.22550201    -22.64322853
Na        8.41494846     41.76963043     52.24713516
Na       38.03644562     31.56964874     25.11040688
Na      -19.92062187     48.23411942      1.58258009
Na       24.86247063      4.44134855     18.15781975
Na        3.95863676     45.20373917     13.98736477
Na       52.20246506     58.24588776     14.71777248
Na       10.81492424      3.80608320    -22.43108940
Na       -9.56021023    -30.13188362      5.10180378
Na        4.05287218      3.79799724      1.51724219
Na        0.51775712    -60.70420456      4.37651014
Na      -16.36454773     54.93763351    -15.66579247
Na      -12.98124790     21.70295143    -15.49966526
Na       68.50247955     41.28179932      4.18826485
Na       41.50164795     31.50910759     34.91809082
Na       41.61591339    -36.63333893     21.27924347
Na       -6.31434679     30.90292168     27.77271080
Na        7.38869905      7.17106915    -15.73276234
Na       54.91535950     17.48239136     35.33373642
Na       34.64969635     -9.55797863     48.95278168
Na       17.54916382     48.21493149      4.75206375
Na       20.75691795     22.67967987    -12.61006355
Na       -7.83511734    -50.47705841     35.48383713
Na       34.17108154      0.78933048     52.40846634
Na       34.64270020      0.98685032     38.98118591
Na      -26.57812691     14.20162678     15.05981731
Na       -2.86367226     65.66442108    -53.36413956
Na       31.48673439     42.17711639      4.44657040
Na       54.95168686    -81.35900116     31.74443626
Na        7.11519575    -29.45687675     42.51287079
Na       14.00453472    -46.64329147     11.54504204
Na       17.63047791    -46.83956909     11.33875084
Na       27.84969711     24.47878075    -18.97108459
Na      -13.56597233     28.54070282     18.53203011
Na        4.24858379      3.89350200     -2.04731178
Na       37.08074188     65.21117401    -19.13872147
Na       -2.10991955     38.26672745      8.11887550
Na      -16.80565643     17.18699074     -1.99552059
Na      -36.41852570     10.39095116      1.61013234
Na       11.13320637     34.82483673     18.33665085
Na      -54.07732773      7.47976112     15.04814053
Na       20.89419174     52.21129227     55.71203613
Na       -6.74811649     21.12970161     11.51118183
Na       55.10047531     31.24500465     42.40213013
Na       -5.94771528     55.24885178     11.56119537
Na      -16.39414787      7.75641918     24.92045403
Na       14.18143940     17.91507149     56.36640930
Na       54.53467178     -9.98467541    -32.92316055
Na       -9.47501469     28.55598640     -8.80011654
Na        4.34102154     35.05746460    -15.56713390
Na        0.36063975     -2.90582800      0.90290773
Na      -36.98220444    -19.79057693     31.74727249
Na      -19.70496750     14.00096035     55.60611343
Na      -56.91670990     -2.54593778     24.95755005
Na      -26.52716446     14.14923668     25.35241318
Na       10.25680256     44.67955399      7.59314251
Na       -9.81536484     24.38755035     45.71528625
Na       34.40633011     68.48631287     11.63965607
Na       27.63277435      7.12926960     -8.94025135
Na       51.37482452     34.65002441    -22.43783379
Na       -5.98173094    -74.22900391    -15.49527454
Na      -22.76311493    -74.06376648     18.22161293
Na       24.36760712     55.03740692     52.30395889
Na       41.48763275    -22.69996452     14.99297142
Na      -46.89452744     75.57798004     11.57655144
Na      -40.92968750      4.33123112      1.68734026
Na        0.81924683     27.98663712    -42.91450500
Na       27.81205368     27.83336449    -11.97444344
Na      -46.70801163     -6.17834711     21.74096489
Na      -37.00807190     38.43121719     17.97849083
Na        7.53294039     99.71979523     14.63646698
Na       72.00449371    -39.22352219    -15.83420563
Na      -22.82468033     10.90587902     -9.21440411
Na       -5.57587576     34.74176025     -8.54481983
Na       -6.16726875     54.52767181     32.10194016
Na      -22.21361351     65.43406677     35.68228531
Na      -16.32905579      3.97462702     35.58330917
Na       -9.85446548     17.17791939    -26.02738953
Na       31.37502289     31.89082336    -15.39070415
Na       48.30685425     34.32669449    -11.85800743
Na       35.32781601      0.35994694     31.95798874
Na       17.60799026     21.74841690     11.70102406
Na       20.79547119     27.64628601     -5.36091661
Na        0.21642621    -12.99667931     -8.90917969
Na       62.02278519     20.47760010     25.23261452
Na        3.66588879     23.92462921    -22.69258118
Na       27.57449341     35.12099075    -19.26499939
Na       17.37946892     38.21701431    -19.29507828
Na       58.38772202    -33.47515869     25.18637085
Na       -9.07584858     -9.57723427    -46.83301544
Na       41.27475357     14.42381382     24.37578583
Na       20.77814865     48.04775620     34.97514725
Na        0.50661033    -47.08742523      1.12142456
Na      -12.43188572     52.42522049    -12.59402466
Na       48.31294632     41.48422623    -25.92380714
Na       51.67784119     31.89565849      1.05821180
Na      -16.90147972     -2.80997300    -26.05354118
Na        4.16019964     17.75894737     52.28776550
Na       13.72042084     38.23640823     35.42998505
Na        3.58603120     23.93487358     55.70613480
Na      -27.03292084     -6.40628815     18.21544266
Na       27.81885910     -6.39804602     52.12775040
Na       51.78430176      3.87459874     24.78686523
Na       51.37497330     35.12128448     -2.18883014
Na      -56.75960541      0.88879150     11.19199467
Na       62.19315720     34.76082230      3.44665623
Na        0.91012412     41.42491150     65.93885040
Na       48.43429565    -27.41567230     14.62653923
Na       24.32703018     51.75249481     21.40505219
Na      -16.73936462     20.89852905     45.79909134
Na       23.85203552     31.31584740      8.06418228
Na        7.25989819     37.96599197     28.51857376
Na      -10.17837238    -40.42364883    -29.41009521
Na       -9.98366070     33.92019653     52.25424957
Na      -26.93927574     -5.29542065     11.24501419
Na       75.19181824     -5.93030310     31.65724182
Na        3.71489120    -70.52536011     11.75850010
Na       10.78413868     96.47943878     11.72262001
Na       41.09598541     -6.30074453      8.46836090
Na       71.96266174     18.37908363     69.51688385
Na       37.68077087    -36.98283386     15.00372887
Na      -33.44764709     45.00041199     41.79492950
Na       24.28711700     11.05363369      4.76021338
Na       41.43003845     -6.34618187     55.89315796
Na       11.27102661     54.94280243      5.01421356
Na       51.25848389     17.46911240     15.26846695
Na       17.64794540     -6.65938377     18.35276222
Na       72.34088135     31.89169121     14.96466351
Na       -9.56956768     14.76777744    -36.12208939
Na      -29.06169510     44.76905441     31.83841705
Na       49.11870193     37.89671707     21.42239952
Na       58.18746567     -6.82692814     31.72803879
Na       10.44089508     31.29792023     11.64507771
Na        1.19838417     58.32815170     48.92092133
Na       31.56500244     41.20388412     24.82967377
Na       27.57173920      7.50118589     59.63117981
Na      -37.01527786     25.06441879     25.25988770
Na        0.82557952     -6.07863808     14.89116859
Na      -13.09311676     -8.94426441    -11.88094616
Na       48.01967239     31.07312393     -5.12453318
Na      -40.25312424     14.32630825     38.98482132
Na       -5.91965342     48.11408997     49.00239563
Na       10.11731815    -26.08893394     18.24740601
Na        4.43064594      4.32698345     42.48557281
Na       -3.08839607    -16.44748688     18.50957870
Na       24.48286438     38.02051544     38.94137955
Na        7.03114319     -5.99410152      4.75507259
Na       69.02851105     34.28445435    -22.71196938
Na      -30.19288445     -9.64405537     24.93647957
Na       37.19255447    -40.35423279     18.13112068
Na       61.49516296    -12.66795921     48.59089661
Na       31.02137756     17.63027382      8.18064976
Sn        4.16787243     14.22826290      7.94589233
Sn        4.28639317     27.97711182      7.93357611
Sn       17.91199303     14.30569553      8.13766670
Sn       17.92895126     28.03102684      8.25452518
Sn        3.70703316      0.68103623     21.66506195
Sn        3.87509155     14.32649803     21.42431450
Sn       17.50162125      0.65935701     21.66310310
Sn       17.11059761     14.37876415     21.55369949
Sn        3.80777717      0.92586088     14.90372562
Sn        3.94467282     14.52495003     14.91896343
Sn       17.45245171      1.48370218     14.90999126
Sn       17.60391617     14.82809258     14.87914276
Sn        4.08303452     13.94372749      1.07087958
Sn        3.52553105     27.48163795      1.21125519
Sn       17.64561844     13.73876476      1.02767551
Sn       17.78995323     27.80335617      1.24119520
Sn       11.28513718      7.43985367     21.71374702
Sn       11.04699039     21.11968613     21.94781876
Sn       25.20343590      7.04628515     21.66227531
Sn       24.77813911     20.81488419     21.41280937
Sn       10.53536797      7.57528925      8.26861000
Sn       10.20438671     21.11950111      8.36948299
Sn       24.33344078      7.66139460      8.44576836
Sn       24.07542610     21.50181198      8.01616096
Sn       11.00373173      8.21299076     28.43968964
Sn       10.68220520     21.24366760     28.83643913
Sn       24.33676147      7.94718170     28.77633095
Sn       24.31959724     21.27098274     28.33072090
Sn       10.92910671      7.12116480     14.79270554
Sn       10.85385609     21.00840759     14.91939640
Sn       24.43250465      7.30521584     14.95302868
Sn       24.32519722     20.79066277     14.63582897
Sn       10.29066563      0.65747505     21.95841599
Sn       10.72428131     14.05986309     21.77383232
Sn       23.91325569      0.53287262     21.72799683
Sn       24.50764847     14.01688290     21.52085876
Sn       11.08147144     14.24317837      8.31626701
Sn       11.22661114     27.75714493      8.45272827
Sn       24.71434021     14.52714825      8.21410370
Sn       24.77772141     27.71342850      7.88991356
Sn       10.73716831     13.95433140     15.06931591
Sn       10.57968903     27.57139206     15.09228516
Sn       24.40433693     14.08132458     15.13543606
Sn       24.33385468     27.77371979     14.97292995
Sn       10.84150314      0.79080170      1.44132316
Sn       11.07140732     14.74868870      1.06998527
Sn       24.35233307      1.00397909      1.28372407
Sn       24.54421997     14.63367748      1.21720254
Sn        3.59554410      7.55329514      7.97314548
Sn        3.60919380     21.07013702      7.99186516
Sn       17.33878708      7.28062248      8.04227638
Sn       17.13817978     21.14809608      8.42998123
Sn        4.46768188      7.26067352     21.82003403
Sn        4.12705040     21.25995636     21.34865570
Sn       18.03953552      7.52944756     21.34140587
Sn       17.64197350     21.08434677     21.80273247
Sn        3.85646367      7.37369394      1.16129911
Sn        3.70405316     20.65493011      1.27667117
Sn       17.76907921      6.95630693      1.10850787
Sn       17.63092995     20.70247459      1.41961074
Sn        4.02225018      7.80647516     14.61891079
Sn        4.10613680     21.43504143     14.81959820
Sn       17.92114830      8.14406204     14.67897415
Sn       17.42730141     21.86239433     15.26788044
S         2.35088682      6.03973293      2.83525586
S         2.11400723     19.44474983      2.67955256
S        16.01536179      5.80693769      2.54352117
S        16.18638039     19.40766335      2.89103818
S         5.36007166      9.39070702     16.02020454
S         5.64212847     22.81906700     16.16510773
S        19.32767105      9.53361130     16.05710983
S        18.91534233     23.20221519     16.49353600
S        12.17246342     12.66728973      9.73978424
S        12.61342049     26.43341255      9.83425617
S        26.07547379     13.21029758      9.65280437
S        26.43894196     26.65160942      9.49238110
S         9.12049675      2.12899733     23.40743446
S         9.56931019     15.91061306     22.97177887
S        22.59436989      1.97567928     23.34309196
S        22.77120018     15.52137089     22.57283592
S         5.04072046      5.60792398     27.04296875
S         5.29536343     19.23036766     27.47940636
S        18.86609077      5.50207424     26.88661003
S        18.94711494     19.34702873     27.18256760
S         2.31144571      9.01109982     13.47479534
S         2.54475284     22.48807907     13.30560017
S        16.41297531      9.41977310     13.22214413
S        16.21639824     23.09289932     13.73116302
S         8.95091343     12.93276310     20.73080063
S         8.90238190     26.71350288     20.30749321
S        23.25181007     12.41949654     20.19713783
S        22.58368874     26.44711876     20.24424171
S        12.60513687      1.91738296      6.93570900
S        12.50547981     15.83180714      6.90278149
S        26.21281815      1.97277880      6.71391726
S        26.27838516     15.74382019      6.67810678
S         9.35253906     12.56686592     16.30659676
S         9.14741707     26.38446236     16.60300446
S        22.80883598     12.60820675     16.50175285
S        23.22536278     26.21347237     16.40434456
S        12.07247543      2.34956384      2.91032028
S        12.54038239     15.96736622      2.41717529
S        25.68306923      2.18388367      2.80880737
S        26.07201004     16.10674858      2.42097521
S         5.90891123      6.20331430     23.24993134
S         5.39868832     19.81669807     23.18431473
S        18.99495888      5.86168909     22.95871162
S        19.22876358     19.65298080     23.01023102
S         2.62393570      8.98996735      9.55373955
S         2.36514282     22.52283287      9.38756561
S        15.98642826      8.75680447      9.66794968
S        15.70701790     22.68227386      9.50349236
S        12.23959637     12.60438061     13.67239094
S        12.19885445     26.38881683     13.66250801
S        25.79155540     12.64847851     13.72621822
S        25.58954430     26.52062798     13.26803017
S         9.62096596      2.23898649     27.26311684
S         9.27496529     16.18419838     27.16901588
S        23.21162224      2.41655278     26.91978645
S        22.96298790     15.76585102     26.95850754
S         2.05381250      6.17635202      6.65846062
S         2.22569036     19.44954681      6.74789858
S        15.80029774      6.09708643      6.67953634
S        16.04345131     19.69109344      6.79770231
S         5.66025019      8.85494328     20.32692719
S         5.78367662     22.36758804     20.04492188
S        19.63945389      8.92145157     20.22598648
S        18.75671387     22.46427345     20.08697891
S        12.12582493      9.48957062     26.86295128
S        12.06657600     22.61036873     27.42756081
S        25.47690582      9.03641987     27.03043175
S        25.87687874     22.70264244     27.02071953
S         9.36403084      5.54213142     13.47612095
S         9.41815090     19.63385963     13.65130234
S        23.12286758      5.70198727     13.99474430
S        22.81140900     19.39263153     13.37589550
S         2.14940596      1.94995165     20.28621483
S         2.19210148     15.69589520     20.23959351
S        15.86904621      2.06293273     20.32628250
S        16.13437653     16.05361557     20.14143181
S         5.80659008     12.94955635      6.60861349
S         5.77163506     26.51997948      6.71666956
S        19.24836922     12.91606045      6.72504711
S        19.26275253     26.45342636      6.79020929
S         9.45266342      9.55491543      2.72846317
S         9.18873501     22.55062294      2.83205223
S        23.06333160      9.48268414      2.82757330
S        22.79409409     22.68075180      2.36344123
S        12.26496601      5.66927576     16.40368462
S        12.01290035     19.58475113     16.55146790
S        26.01308632      5.99518061     16.34577179
S        25.94708633     19.48667908     16.03362656
S         5.62545061      2.32893038      9.40823650
S         5.60794830     15.48867607      9.36943722
S        19.59977531      1.88955629      9.69860077
S        19.32700729     15.66796780      9.51756668
S         2.60380125     12.93038654     23.07676888
S         2.34841919     26.54391861     23.07642365
S        15.86763954     12.81987667     23.12404633
S        15.97598648     26.72723961     23.25260162
S         5.37848234      2.12166524     13.46345520
S         5.63881111     15.75736332     13.71352863
S        19.00486183      3.04103947     13.57748032
S        18.88817978     16.25086212     13.41930676
S         2.58720160     12.58799744     27.07399368
S         2.07059264     26.15594864     27.08498192
S        16.61796951     12.02843571     27.06549454
S        16.18213463     26.32948875     27.23821259
S         9.37990856      8.80475616      6.61559105
S         8.66926289     22.19599152      6.84732866
S        23.05450821      9.29674244      7.13400888
S        22.48772812     22.60399818      6.60748959
S        12.90964508      6.10814619     20.22080994
S        12.23981476     19.62506866     20.27270699
S        26.69445992      5.58566618     20.32107544
S        26.33801651     19.52394295     20.12450218
S         2.23923898      2.21259475     16.24619293
S         2.63778639     16.03362274     16.27902794
S        15.97995377      3.02233839     16.12344551
S        16.10362053     16.16802025     16.24782372
S         5.56828785     12.46631527      2.24813628
S         4.73427391     26.09238052      2.81065798
S        19.41523361     12.66107559      2.45109820
S        19.04300690     26.41176224      2.73714375
S        12.56239414      8.87184429     22.96072197
S        12.80921555     22.42360878     23.06693459
S        26.34768295      8.56401157     23.19185448
S        26.02750778     22.32081985     22.93075180
S         9.19989872      5.76408815      9.61592865
S         8.52884102     19.68703461      9.33225155
S        22.81644821      6.08397388      9.56431389
S        22.86472702     20.05698967      9.47706127
S         2.28034639      1.75281215      2.75031924
S         2.40588856     15.08161545      2.44920087
S        16.35628510      2.01620197      2.65815783
S        16.33927727     15.06821251      2.56067228
S         5.23960114     12.91644001     16.06795502
S         5.15309381     26.96871185     16.44426918
S        18.89245796     13.41273689     16.30394745
S        19.02622986     27.52948380     16.31039429
S         2.90549469     12.82512665      9.64272499
S         2.83791041     26.64804649      9.67703629
S        16.30566788     13.02122498      9.55017757
S        16.55140305     26.81194305      9.78416729
S         5.08705759      1.90110946     23.17243004
S         5.33759928     15.75910568     22.71589088
S        18.78671455      2.07670760     23.15966415
S        18.42753792     15.68133163     23.08535957
S         4.96701050      1.76159787     27.11255836
S         5.37502289     15.54819012     27.08918571
S        19.15349197      1.58739305     26.85523415
S        19.12854958     15.36518574     27.07211113
S         2.64695740     13.11349964     13.59139061
S         2.48807526     27.04298401     13.42454243
S        16.12807465     13.55316353     13.38553905
S        16.15571976     27.30027390     13.55654812
S         5.00991201     12.68244076     20.03474808
S         5.11548805     26.48797226     20.35462761
S        18.34944534     12.78873730     20.20074844
S        18.77720642     26.38440132     20.15644455
S         2.74381018      1.86482048      6.53020382
S         2.90703607     15.72886086      6.60234213
S        16.81354332      2.17685556      6.84052324
S        16.47368050     15.62018490      6.66586828
S         9.53602028      8.53869820     16.31018639
S         9.41546440     22.36037636     16.22651100
S        22.93986511      8.64356327     16.46454430
S        22.92165375     22.09301186     16.09518242
S        12.34062099      6.66155005      2.73286581
S        12.09607315     19.85127831      3.00196004
S        25.83345032      6.46002674      2.83209515
S        25.64170265     19.97933388      2.62767363
S        10.18453217      5.81915569     23.03213501
S         9.82826138     19.73036194     23.44661331
S        23.53415298      5.86393738     23.14998245
S        23.41240883     19.40191650     22.81416130
S        11.71698666      8.93706512      9.68696785
S        11.71840477     22.64172745      9.60926342
S        25.83659744      9.13754082      9.71049023
S        25.80791283     22.66611290      9.26074219
S        12.13565636      8.65986633     13.60103607
S        12.13517570     22.46042252     13.40944576
S        25.59731102      8.78369713     13.59121418
S        25.69144440     22.45196152     13.21153927
S         9.65048504      6.61442566     27.36866570
S         9.35851002     19.77887344     27.42968178
S        23.11196899      6.49905252     27.28263474
S        23.11922646     19.83110619     26.76842880
S        11.73325443      6.06277800      6.89355803
S        11.84549999     19.94090271      7.10871458
S        25.31322289      6.21215153      6.81977129
S        25.18675804     19.85123825      6.65964222
S         9.91635132      8.75501442     20.25432587
S         9.77231121     22.58330917     20.52730942
S        23.89390373      8.57714462     20.17733955
S        23.11269760     22.44559479     20.21268654
S        12.32244873     13.07670498     27.00860786
S        12.22188759     26.47657204     27.31227493
S        25.86256981     13.23998165     27.16607475
S        25.50287819     26.59381676     27.10014153
S         9.28626060      1.55072272     13.55282307
S         9.12938309     15.32779408     13.90225220
S        22.83470535      1.93597686     13.56542301
S        22.96737671     15.49545193     13.53319359
S        11.50426197      2.35237646     20.69766998
S        12.17642403     15.36257458     20.43024635
S        25.53413391      1.55895603     20.38631058
S        25.47794914     15.40483952     19.97208786
S         9.73033714     12.86556911      6.56336832
S         9.94366169     26.36043739      7.00212908
S        23.61012650     12.96283531      6.82583618
S        23.36302948     26.18119240      6.56665277
S         9.73851204     13.80531979      2.96399474
S         9.37934589     26.50378418      2.81244135
S        23.16847610     13.33038807      2.53082585
S        22.87401772     26.92724228      2.71855187
S        11.96297073      1.83267748     16.37610817
S        12.15995598     15.39912605     16.38362312
S        25.88773155      1.92619038     16.23586655
S        25.77157593     15.47673798     16.41720963
S         9.69515800      1.82904911      9.75146580
S         9.60094357     15.60849953      9.67885876
S        23.49748421      1.90246081      9.40755272
S        23.28451920     15.57399178      9.68762016
S        12.24325085     12.54335880     23.01489067
S        11.44294930     26.13500786     23.12291527
S        25.79675865     12.82158947     23.25675583
S        25.47085381     26.42959976     23.02545738
S         5.46185446      6.38620043     13.46516132
S         5.51484442     20.20067596     13.40876293
S        19.07196236      6.43199682     13.47544670
S        18.97569466     20.54724312     13.94970798
S         2.67438364      8.75858879     27.05260658
S         2.35680461     22.02356720     27.03368568
S        16.46798515      8.38227272     27.09397316
S        16.24284172     22.18674850     27.37018967
S         5.11692429      8.85321617      6.55220890
S         4.88376760     22.55735397      6.47572088
S        18.73341560      9.06933784      6.98070049
S        18.66171646     22.25700569      6.70292473
S         3.19889355      5.98750496     20.37261200
S         2.70649552     19.77990341     20.29113007
S        16.81496239      5.99528933     20.05158806
S        16.08986855     19.73230743     20.27598572
S         2.58445001      6.44646168     16.26158524
S         3.00342631     19.83902168     16.37287140
S        16.42823029      6.78142738     16.17032242
S        15.90371323     20.40722847     16.36070633
S         5.10023785      8.67148685      2.69230723
S         4.99576378     21.94179535      2.70403624
S        19.31399918      8.39467525      2.52010536
S        18.83208466     22.44944382      2.84433770
S         2.96970320      8.69588280     23.19263268
S         2.71879005     22.50386810     22.81826782
S        16.61798477      8.96745872     22.74220467
S        16.39574051     22.60934448     23.26352882
S         5.09730816      6.09610271      9.34967232
S         4.99113655     19.53502655      9.40379047
S        18.91823006      6.24196911      9.55887127
S        18.35847664     19.77712822      9.90968800
S        -0.76851207      5.48766899      9.94861412
P         0.41354632      4.19837618     11.28102779
S        -0.91791666      3.05186629     12.36046696
S         1.64929867      2.81235290     10.20369148
S         1.64550745      5.21334600     12.55754662
S         1.88567865     16.64983749     10.42241764
P         0.63779807     17.75960541     11.52797127
S         1.72603381     18.86608696     12.98981857
S        -0.43528098     19.11129951     10.32973671
S        -0.67915124     16.28171158     12.34178066
P        14.00008774      4.12287998     11.49375820
S        12.75545216      2.94446921     12.78656483
S        15.16705990      2.79964018     10.32781506
S        12.75325680      5.29723597     10.28150082
S        15.22813320      5.31554604     12.52590370
S        15.28357887     19.27500153     12.90577984
P        14.16804123     17.99747086     11.78385067
S        13.08030224     16.81555748     13.08614731
S        13.01691151     19.34662247     10.78057861
S        15.33910370     17.08179092     10.47295952
S         8.87219620     12.09763813     26.55230522
P         7.69030237     11.03864479     25.25365448
S         8.82789326      9.82309914     24.02197456
S         6.48017263      9.76160526     26.26564789
S         6.69745493     12.42799568     24.25066376
S         5.91039467     23.26346207     26.50178337
S         5.96580744     25.29972458     23.94313431
P         7.07267332     24.21178055     25.22290039
S         8.30556965     25.59481812     26.31199455
S         8.52381229     22.81896973     24.13514328
S        19.84549713      9.64728642     26.26375198
P        21.01304054     10.71592331     25.01233673
S        22.32640457      9.40798950     24.01880074
S        20.13255882     11.77235413     23.50625801
S        21.93642235     12.16329479     26.04805756
S        19.86371422     25.75360107     23.82321167
P        21.01130295     24.43986320     25.08613777
S        22.16940689     25.73012543     26.19665527
S        19.76307297     23.65360641     26.42320251
S        22.10433960     23.25814438     23.67229080
S        29.20235252      9.32268906     19.33798599
S        26.79808617     12.00458717     19.55459785
S        26.84044266      9.54620075     17.18514252
P        27.98206520     10.71300602     18.48398209
S        29.12012482     12.02039337     17.42682648
S        29.05025482     23.17352867     19.19694710
S        26.50018311     25.33843994     19.14381599
S        26.61809540     23.16366196     16.54681587
P        27.68408394     24.23107529     17.84703636
S        28.95394325     25.55101395     16.86418724
S        15.54557610      9.63097191     19.15688133
S        15.17596722     12.18939877     16.83411598
P        14.28278255     10.83240509     18.15720749
S        13.32274055     11.98979855     19.56898880
S        12.96148491      9.29667377     17.32873344
S        15.13759899     23.82234955     19.92266273
S        12.77181435     26.22964859     19.25721741
S        13.17007732     23.60487366     17.27820969
P        14.19561577     24.93891525     18.44282341
S        15.48752308     25.97277260     17.14620209
S         8.80029869      4.74992561      3.32772803
S         6.22223854      5.19626427      5.53879166
S         8.49798775      2.91868615      5.97984457
P         7.42929077      3.81709361      4.51157761
S         6.27417564      2.39017439      3.79879665
S         8.03923893     19.08411598      3.42844772
S         5.79913044     18.77048111      5.62850666
S         8.55266762     16.82489014      5.79683495
S         6.40062094     16.06643867      3.54324746
P         7.04450369     17.71037674      4.61929035
S        22.28146553      5.47575808      3.79390383
S        20.05473900      2.85738921      3.52844667
S        19.63535690      5.36142731      5.86706066
P        21.08715248      4.14819527      4.85023117
S        22.11375999      3.07594109      6.12250376
S        22.07705116     16.30816460      5.92057562
S        22.13938904     18.87898445      3.61466718
S        19.94006920     18.89690590      5.98953724
P        20.98612976     17.55109215      4.70249128
S        19.66891479     16.49928093      3.45055485
S         8.51617241      5.94269419     19.10972977
P         7.31315231      4.44669104     18.35146904
S         6.62901974      3.06154180     19.78744507
S         6.03660536      5.50749350     17.19054794
S         8.79538250      3.24287724     17.28216553
S         8.75444794     18.91852570     19.44277954
P         7.55662537     17.68886948     18.28510284
S         6.47746134     18.89118958     17.03764153
S         8.67968750     16.58141327     16.90824127
S         6.34851742     16.65159225     19.41481018
P        21.29255867      3.95291281     18.55794144
S        22.32998848      2.44160008     17.78314590
S        22.42327309      5.06881762     19.75126457
S        20.35348511      5.02344418     16.95776176
S        19.68014908      2.97074580     19.55075264
S        21.66845322     19.34736633     19.55087852
P        20.92798424     17.88716698     18.38766670
S        19.95812225     16.49507713     19.66808510
S        19.59866905     18.72925568     17.00203514
S        22.67541122     17.11881256     17.55541801
S        29.12142944     12.26007462      6.00101471
P        27.95348167     10.98974514      4.92530060
S        26.82393265      9.92083931      6.25407600
S        26.62247658     12.07387829      3.70613122
S        29.29071999      9.78419685      3.97110796
S        26.50101662     25.54397774      3.36716342
S        28.81476212     25.29338646      5.82003641
P        27.69670486     24.22247505      4.52421618
S        26.66430473     22.96471214      5.63992310
S        28.79945755     23.15951347      3.15639091
S        13.03995419      9.39082718      5.61278391
P        14.34791565     10.69811440      4.72450781
S        15.93979073      9.64938068      4.04138136
S        13.37684631     11.59386635      3.14221478
S        15.04446697     11.90766335      6.19334507
S        15.29193974     23.28706932      3.69363403
S        13.04481030     22.92617989      6.05490637
P        13.92239380     24.22305298      4.89201260
S        12.49255180     25.26828003      3.82530713
S        15.07099438     25.59532166      6.00674438
P         7.48125887     10.60640621     11.63659191
S         8.54902935      9.35079288     12.78314781
S         6.44135284      9.21308422     10.36658382
S         8.54899406     11.74647522     10.41957569
S         6.45790339     11.84801483     12.76265717
P         7.03652811     24.69945145     11.76191044
S         5.68462706     25.89332771     12.86496639
S         6.06484032     23.48856735     10.39384556
S         8.15380669     23.57671547     12.97285938
S         8.39013577     25.95662689     10.80002022
S        22.22357178     10.06818295     12.91924667
S        19.69450569     12.36696911     12.79202938
S        19.98013878      9.90282822     10.55464077
P        20.99614906     11.20133591     11.78669739
S        22.35348892     12.23500061     10.78738689
S        20.31634140     25.58339119     12.83405685
P        21.25744438     24.48757172     11.37027454
S        22.14491653     25.72908401     10.05985641
S        19.69518852     23.36418533     10.39908695
S        22.64947319     23.29431343     12.26853371
S        15.59636497      4.70295572     24.07491875
S        13.06856823      5.39746380     26.02153397
S        15.24265862      2.79238820     26.72546387
P        14.24899006      3.95933700     25.28744125
S        12.95142078      2.69679260     24.36647987
S        15.71661091     18.57441330     23.79916191
S        12.88048267     16.86994171     24.11958504
S        13.74526119     18.99921036     26.66400337
P        14.51937389     17.78486824     25.26375580
S        15.57188225     16.47687149     26.33847809
S        -0.80241090      5.39015627     26.28030205
S        -0.28910413      2.76704383     24.41698074
S         1.93762743      3.22676206     26.84715462
S         1.94509399      5.10897636     24.10875702
P         0.76826799      4.15675116     25.46753120
S        -0.64644277     18.74536324     26.22600746
S        -0.69580442     16.39788628     23.87747002
S         1.64049768     16.46093559     26.42108154
S         1.86928284     18.62559319     24.00206566
P         0.54529399     17.49251175     25.14581299
