832

Na      157.52302551     16.21825981     88.41622925
Na      103.90520477    -30.43467712    -57.83243179
Na      -36.28445816     68.72741699    -74.88713074
Na     -112.42314148    -13.34138680   -156.52430725
Na        4.83221006     68.25542450   -170.45640564
Na     -114.72986603    -42.94843674     55.17974472
Na        1.86533678     72.04433441   -139.21984863
Na       93.65951538     98.73281860    -44.04447937
Na      -93.48928070   -101.82199860     67.57268524
Na     -118.23309326     -6.02930927      1.50821972
Na      110.80610657     48.23475647    -60.92741394
Na       18.30704117     91.76710510     44.27903366
Na      -26.05800819     65.52368927    102.79159546
Na       93.02993774     27.09804344     34.11343002
Na      -63.48258972    -60.61040878     64.66616058
Na      -33.73633575     85.39045715     44.21451187
Na      -76.61763000     47.63340378     30.32167625
Na      -97.37107086    -95.28287506      3.01940441
Na      130.60977173    201.35086060    -30.21173286
Na       48.71811676    109.82342529   -191.01478577
Na       18.97811508    -41.92621231     30.39056778
Na      -15.36891937     47.71675873   -183.80664062
Na      134.23434448    -40.53477859     21.01987076
Na       66.06163025    109.71415710    -78.97409058
Na       88.61128998     27.57469940    -94.95479584
Na     -138.27885437     98.76203918   -125.51216125
Na      105.56619263     30.43191719     99.16825867
Na      -63.21940231     89.09698486    -20.39463806
Na       86.76670074     -6.28554296    -41.05708313
Na       38.95328140    -20.01030350     74.87162018
Na       69.29034424   -105.74697113     74.81261444
Na       -8.78918457     86.04150391    -51.43361664
Na       55.59390259    140.20994568    105.13969421
Na      -73.64445496    119.41216278     53.69424057
Na      109.71843719     54.56926727    -61.95523834
Na      119.58423615    123.01837158    187.57626343
Na       82.84546661     30.01628113   -204.45928955
Na       55.77856064    -50.97641373    -43.82609177
Na       66.05383301     33.73438644     70.97441101
Na      -42.69319153    -19.92115021     51.15719986
Na      158.24156189     98.94574738    -54.32970810
Na       99.89665222    -26.64466095    -85.36792755
Na       79.90125275     20.77404404     54.61477661
Na       38.28895569     -6.60835695    112.55373383
Na       55.39936829    -75.08206177    -67.71429443
Na      -22.67452049     -2.93871713    -37.16096497
Na       21.71392632     72.37226105    118.80686951
Na       52.56237030      0.30525541    -19.87144470
Na      -67.04991150     64.42910004     19.99900818
Na      -48.91329575     27.47064781   -162.03015137
Na      -43.99914169     54.89270782     96.02828217
Na     -134.41572571      0.34767130      5.96712160
Na      -80.76601410    -30.41713333     55.06296921
Na      -53.38106155   -118.95745850    -19.71735382
Na       96.60982513    135.86283875    122.65934753
Na       59.08005524   -132.23947144     -3.29728842
Na      -53.25729370     33.74324799    102.15396118
Na     -179.08940125     31.03600502   -139.70372009
Na     -104.11795807    170.67909241    -37.35597610
Na        8.11546993     41.74368668   -109.29319000
Na     -131.06210327   -163.03904724     20.69781303
Na       32.84862518    123.49886322     37.74496460
Na      -97.03567505    -40.03823853    -81.94459534
Na       11.69166756    292.29763794     44.43790436
Na       13.09166050     75.63689423    -84.64241791
Na      -18.90841103    283.68203735    200.97108459
Na     -124.68487549   -176.76469421    -43.38127899
Na       79.07715607     61.37876129    112.78173065
Na      165.07246399     78.51399231   -132.04301453
Na       83.04931641      3.40733671     -6.72996712
Na       83.32376099     26.89485741     -0.17256427
Na       44.97039032     82.66464233     98.34812164
Na      -70.07992554    115.78195190     94.89971161
Na      -12.26406288    -64.33995819    -13.21542358
Na       -1.35278165    -81.65372467    125.67096710
Na      -26.45206070    -91.89780426     17.65483093
Na       -4.93486023    160.89881897   -152.99061584
Na       -6.14429569     27.03370667    -60.65744781
Na      -57.25791550   -137.90599060    166.50479126
Na      152.62351990      0.52532268    -81.92127991
Na       52.78969574    -78.61084747   -193.81660461
Na       21.87541580    -85.54275513    -88.32306671
Na      106.65980530   -153.37760925    139.83082581
Na      -96.88014221     57.02042770      9.72962379
Na       14.93238068     78.52957916     30.91725731
Na       18.09523392     58.49456406     64.08119965
Na      -39.27212524     37.76498795    173.90339661
Na      -83.25644684     47.44482803    200.89451599
Na      229.44000244    -72.24385071     30.93963814
Na      -91.04850006    201.24412537     -3.65357637
Na      -94.14046478    -16.44260216    159.87716675
Na      -18.93999481     78.04822540     95.25862122
Na       27.98912239    -34.37149048    -19.79440308
Na       21.53196907    -47.29389572    -34.30024719
Na      -83.79170227   -108.21157837     54.09777069
Na      117.28251648     64.96791840    -78.58802032
Na      -29.42088509    150.50634766     71.26391602
Na       61.94161606      7.47000694    -20.41339874
Na      -94.43949127     -9.84539890      4.05605602
Na      -56.23805618   -118.57378387     78.59019470
Na        7.98068857     75.18082428    115.49513245
Na      103.21196747    183.87634277      6.20378160
Na      -12.21720600     21.02663612    -67.73082733
Na        4.60146475    191.10183716    160.04272461
Na       49.73743439    146.26921082     10.68853092
Na     -145.00854492     35.01126099     -0.25817946
Na      -26.09092522     10.79375172    -51.52220917
Na       89.88584900     30.92801285    143.33917236
Na       28.06986809   -122.21934509     82.29331207
Na     -175.91502380    119.83901215     17.26631355
Na       38.89751053    115.87740326     61.21151733
Na     -118.47018433     41.02399826    -13.66869450
Na      -42.43892288     47.86983109    -34.02271652
Na      -87.14534760    225.93261719    -54.96758652
Na       -1.73486030    -33.48515320     -6.85639286
Na      -50.43647003    -50.70576859     71.48251343
Na       61.71683121     16.96691895     -3.45770574
Na      150.46238708     58.29176331     68.41368103
Na      174.70126343     68.12043762     88.17585754
Na       42.10412979     79.09084320     71.41452789
Na      139.81733704    -16.94118690    207.77066040
Na      -22.34501457     51.50846863     10.71412945
Na       11.62771034    -17.01223946     72.04617310
Na       14.38711643     30.88586807    -43.86794662
Na      103.92082214    -63.56539154     30.92646408
Na      -49.90568924    299.71963501     44.70611572
Na       35.62515640     30.15769386    -30.58246803
Na      103.20216370    -44.16943359    -33.72514725
Na      -70.08460236    156.55226135     37.18281555
Na      -32.71274567    -56.94877625     54.53104019
Na      -42.58885574    105.84558105    -70.90023041
Na      -86.43923950    276.21810913    -29.97868919
Na      -29.11819839     51.05457687     17.14949226
Na     -111.46282196     -5.90917063    -77.93939209
Na       75.92909241     38.19220352    115.80902100
Na      -29.68104172    -19.72239113    207.86665344
Na      171.17324829    -12.79638767   -155.96340942
Na     -138.31365967   -101.58853912     20.85427284
Na      161.01528931    -43.99677277   -139.68783569
Na        8.13729572    140.36058044    -51.28752518
Na      -43.01958466    283.22991943    160.31530762
Na     -233.91589355     13.92883778   -143.05622864
Na      161.38316345     61.34064102    119.14629364
Na     -104.85285187     95.84430695    -19.81328392
Na       42.45578384    269.20706177     38.29889679
Na      -73.56721497     17.03577805    -39.59647369
Na      -67.32592773    122.55082703     13.53106880
Na      -73.86353302     81.55277252    108.17873383
Na       69.19232941   -158.93098450   -139.78330994
Na      -12.21218300    105.10990906     -6.33851004
Na       -2.83388615     54.86711502     47.22868347
Na       52.57751846    -40.97211456     13.18556881
Na       68.88290405    -43.57101822    139.40066528
Na       61.73856354    -78.02056885    125.61754608
Na      -43.78979492     78.13633728     -3.06121707
Na       90.46909332    214.13500977     21.33009338
Na      -76.25552368    -61.96759796     78.32204437
Na      -94.24150848   -179.83757019     27.39547920
Na      -53.04528809     34.33671570    -26.98251724
Na       -5.68854618     28.03701973    -47.24654007
Na     -121.48326874    160.90635681    136.10562134
Na       62.31636810     24.67377853    -30.20139694
Na      160.92439270     88.55141449   -129.02442932
Na      -13.33552456     20.95890427     27.52626228
Na       -8.68025684    -50.21889877    -85.09233856
Na       51.65758896     61.34690857    149.86373901
Na      -39.45720291     99.12979126   -193.20112610
Na       28.75334740    -85.28318024     96.11479187
Na       10.97351837    -74.23159790    108.16152954
Na      -50.98526382    -47.33290100    224.16583252
Na      127.21799469    156.99357605    197.18827820
Na      154.30841064    -10.04785156     51.51385117
Na      -63.24006653     34.03910065   -123.39899445
Na      -16.14476585     27.08366966    255.93553162
Na      -88.03829956     95.63109589    -40.62461090
Na      -76.47169495    -16.78498268    -71.14595032
Na       76.19029999    -71.92426300     31.15311432
Na      122.28647614   -163.11439514   -115.47572327
Na      174.41621399      6.18563509     37.57350922
Na     -114.59001160     84.87609863    -16.69953918
Na       89.50376129      3.36903858   -152.59410095
Na      -97.03083038    -27.30827141     -9.64366913
Na       35.60965729    -13.41790485    -13.58475590
Na       73.18515778      7.28881454     49.29265976
Na      -91.05292511     95.23637390     16.90701675
Na        8.05678844    115.07212830    135.93389893
Na      127.14546967     -6.41706562     51.83121490
Na      100.45772552     36.90938568     92.27981567
Na      -73.97943115     94.81810760    -33.68604279
Na      -53.07117081    126.02681732   -268.27038574
Na      -64.08007050     -0.09549647   -170.12617493
Na      -15.21735573    -85.58021545    -64.27370453
Na      130.62780762   -158.99057007    -27.03206253
Na      184.94104004   -112.58333588   -160.13897705
Na      120.05855560    234.87355042    -78.31483459
Na       46.15409851    -41.27826691    214.41400146
Na      137.80136108    -31.04065132    -30.80886650
Na      -48.18202209    -10.03557491    167.10083008
Na     -131.16996765     95.81019592     27.87963867
Na       52.55225754     19.87433624    -37.73474884
Na       62.85749817    108.86528778   -169.23724365
Na       55.51616287    112.81211090   -102.44962311
Na      110.68563080     50.65572739     10.87952805
Na       48.82910538   -105.57229614      6.46302557
Na       49.18811798     77.83948517     13.67172050
Na      -71.19927979    -10.54860973     44.56957626
Na        0.71635795    149.62649536   -156.68414307
Na      297.15090942     30.12192535     37.54741287
Na      -60.23437881     85.26791382    102.27256012
Na        8.25496483    306.45889282     -7.11831331
Na       -8.85707092     -3.40342569     17.11351776
Na        4.40014982    113.07718658     57.59794998
Na       42.13393402      7.36129856    -46.47206497
Na      -50.31549072    -54.42499161    121.67775726
Na       -5.70996332    126.05606842     -9.35645580
Na      -29.62017059     37.64722443     17.22105980
Na      113.61836243    -87.88913727    224.54646301
Na       -2.07281017    -60.83961868     51.15396881
Na       15.26218510     47.67786026    -74.28043365
Na      154.62304688     74.48416901    -33.38138962
Na       76.21347046     85.68232727     40.80603790
Na       18.22820663      0.76439595    -44.43477249
Na      -25.94934273     51.36015701     34.38395309
Na       -2.08936048    -28.24412727     23.88925743
Na      -60.38695526     91.82226562     43.74615860
Na       58.97621536     61.47724915    -45.16548157
Na        5.42172861     34.53223801     81.79739380
Na       10.60785866     57.62636948     71.42577362
Na     -141.73410034    232.54064941     48.19890976
Na     -131.54895020   -101.94304657   -112.02709961
Na      -84.16029358     20.53781891     34.62937927
Na      -63.76470184     71.46595764     99.04460907
Na      127.68170929     47.85475540     13.76589489
Na       25.68965149    -26.75905228     13.38489342
Na      127.80000305    -34.21741486     44.83686829
Na      -42.62525558   -104.41654205    138.93359375
Na      -39.57086563     16.75158310     21.28491974
Na      -12.32922935    -17.25107956   -122.12964630
Na      195.84020996     -3.06919003     31.29573441
Na       65.63472748    102.23794556    -95.29077148
Na      127.63748169    -53.95978928    -52.07424164
Na     -155.14796448    105.52467346     35.13961029
Na     -216.80244446   -118.20732117     75.50492096
Na      -63.37145615    122.23739624     10.26464272
Na       52.68766022     23.77985764     64.52059937
Na       -9.68549538    -35.45142746    139.61662292
Na      -36.11389923    -53.74602890      5.78643370
Na      167.47029114    109.47058868    112.66964722
Na       31.69786263     21.00644302   -153.30322266
Na       76.47477722   -165.89773560   -102.68958282
Na      114.72210693      7.86975431     57.95612335
Na       72.91197205    106.14606476    -16.55119514
Na      -79.78374481    -71.11582184    -16.82892036
Na      -25.16720772     44.61745834     37.80929184
Na       14.78965664    -50.67044449    -24.10347557
Na       65.85031128     24.40464592      3.85981607
Na       21.13452911    -74.70305634     41.85480881
Na       38.78047180    -98.70265961    -44.18210602
Na      -73.63079071    105.96281433     85.82086182
Na      -56.16902924    -13.58423424    -23.01268578
Na      -33.09470367   -146.52253723     23.90150261
Na        8.51105976     99.44654083     -0.02408391
Na     -135.62608337    -23.46811867    -50.87468719
Na      110.18569946     17.30081177    177.00163269
Na       35.37052155     57.93021011     20.31941605
Na      -49.54407883    -84.82726288   -111.95254517
Na        4.38642359    129.35906982    125.27359772
Na       52.38787460    -40.00224304    109.10671234
Na      -56.91275787     30.43508720    -23.51962280
Na      -80.84804535    200.67709351    188.53153992
Na      -49.92774200    -47.26483917     74.96388245
Na       89.89028931    112.22949982     54.40590286
Na       37.78812027    102.60585022     81.51596832
Na       41.40103912    122.74020386    142.92298889
Na       83.32069397     10.12480068   -149.05780029
Na      -16.10051727    109.12749481    -57.80144119
Na       89.48538208    -48.20756531    -40.96305466
Na      -25.84613800     69.44891357     75.31777191
Na     -148.23458862     17.38196373      9.64470291
Na       90.33726501    -64.30934143     34.11700439
Na      -49.37032700     91.43123627    -30.73779678
Na       34.86127853   -126.35813141    -91.69226074
Na       89.64559937    -92.43895721     73.95009613
Na     -135.19973755    -42.01457596     17.20082092
Na       -1.80648756    -47.87651443     -3.45298815
Na      -44.03113937    -36.24805832    -30.45805168
Na        4.96559143     68.27302551      4.10915136
Na       79.96060181    -94.98254395      9.99037170
Na       96.60940552    -50.01785660      6.05259752
Na       78.94609070   -176.65411377     -3.13431311
Na      -56.01235580    -36.53845978      4.07565928
Na      -35.77297974   -118.20101166    -98.09180450
Na      142.01184082     -6.39015007    -27.70773697
Na       69.04348755    106.18843842     51.09829330
Na      -18.73253822    -56.66368866    -71.06321716
Na      -22.40280533     41.57907486     51.60176849
Na     -116.98873901    -93.40192413     85.39928436
Na      -79.51010895    -67.88177490     68.15740204
Na      177.62594604   -122.36275482    184.24456787
Na      -32.96955109    207.56329346     14.26143169
Na      -80.52611542   -105.22336578    -54.32381058
Na     -182.06619263   -145.90872192    147.48788452
Na       59.10757065     92.86306000    -51.10137177
Na     -100.56019592    -99.04572296    149.85556030
Na       62.72462845     -3.46525335     17.69238281
Na      103.47928619     50.70240402     44.67906952
Na      -11.82619095     71.94287872     54.60527039
Na       82.88126373     -3.20965838     -8.36116982
Na       29.06545830    -37.10787964     81.82874298
Na     -128.38768005    132.64913940     27.72733688
Na      100.33013916   -135.84213257     40.74706650
Na       21.71552277     10.20581722    122.46227264
Na      -50.04611206     31.20018768     37.34762955
Na       35.55132294      9.89959240    -59.54767609
Na      -80.51834869     64.04071808    115.04798126
Na      -76.42066193    -33.57788849     75.00002289
Na      154.98872375     62.00961685    -78.45710754
Na       42.16077423   -126.10607147    -75.41425323
Na       55.64125061     30.75156021    125.93872070
Na       80.14533997    146.51745605    200.87054443
Na       85.74472046    -20.20833588     68.45044708
Na      -66.73260498    -89.10027313    -87.77140045
Na       49.22508240    211.43164062    109.41729736
Na      -12.04246712     84.43728638    125.98890686
Na      141.56614685    -40.48274612    150.21965027
Na      317.86859131    -67.59675598     27.23947334
Na      -39.08488846   -156.97615051     19.97838402
Na      -45.93874359    129.06674194   -251.71977234
Na      -19.21203041    129.14042664     68.99639130
Na      -63.36270523   -193.92144775     31.04023170
Na      -39.84024811    -74.37432861    108.43581390
Na      -12.01377773    -23.44713783   -163.63075256
Na      124.05862427    105.66671753    -19.79491425
Na      -59.25690842    217.56030273     14.23644924
Na       85.75894928    -53.92240524    172.65206909
Na       78.32787323    -61.76290512     13.83683300
Na     -142.11691284    -62.24814224     -6.64043379
Na        7.36744356    245.43615723    -20.67350197
Na      -26.05263901    -88.27199554     40.73617935
Na      -13.32541275     44.06506729    -36.99910355
Na      127.05712891    -13.70400047    -60.81187439
Na      -43.05620575    -40.81212234     43.36985016
Na       66.56642151     81.78717804     26.89941978
Na       28.88349152    184.04820251     -0.07371747
Na      -39.02770233    -12.75161362    164.65771484
Na     -196.21946716   -102.22812653   -156.82768250
Na       -2.39020133   -101.42869568    136.99487305
Na       68.89003754   -108.52780151    115.58325195
Na       -8.81341553   -102.44624329    -91.42800903
Na       72.71286011    -84.69091797   -139.12535095
Na      113.70823669    289.35079956    -37.30540466
Na      171.42584229    -43.23273468    -20.89766884
Sn        4.84597492     10.97252464      6.99245501
Sn        4.79144049     24.40362740      7.40173960
Sn       17.96072388     10.83622265      6.86791039
Sn       18.02997971     24.24536324      7.25877285
Sn        4.76439810     -2.93667388     20.76832771
Sn        4.34274769     10.65070152     20.57474709
Sn       18.13635254     -3.85566664     20.59734535
Sn       17.96914101     10.18860340     20.50971413
Sn        4.90870190     -3.23648739     14.17428303
Sn        5.06731653     10.52925682     13.69371796
Sn       18.70945740     -3.00879836     14.04130459
Sn       18.25664902     10.34120274     13.75862980
Sn        4.62497425     10.50717831     -0.24841377
Sn        4.43519020     23.96022797      0.42320472
Sn       17.94393730     10.62733078     -0.03084112
Sn       18.06747627     24.78063583      0.09050894
Sn       11.36796284      3.86267233     20.21912956
Sn       11.63329029     17.14487076     21.19074059
Sn       24.81455612      3.66128469     20.58666039
Sn       24.77419662     17.61891556     20.84863472
Sn       11.48678017      3.67309666      6.70997906
Sn       12.00306511     17.01623154      7.04981995
Sn       25.12869835      3.74306941      7.45644665
Sn       24.83658028     17.08702087      7.40212536
Sn       11.54111385      3.90256858     26.95978928
Sn       11.91492367     17.49426270     27.51789856
Sn       25.34550285      3.70467615     27.41027641
Sn       25.55161858     17.45486641     27.29423523
Sn       11.01258087      3.53357673     13.74974823
Sn       11.64253712     17.19338226     13.98128986
Sn       24.80660439      3.69762182     14.04488182
Sn       25.15572739     17.07197952     14.08551598
Sn       11.61843967     -3.13104081     20.49817657
Sn       11.59096527     10.53776360     21.05752182
Sn       25.25244713     -3.15324664     20.75651550
Sn       25.09481621     10.64340878     20.58956909
Sn       11.33135986     10.52758026      7.10848093
Sn       11.63000107     23.96904182      7.31401777
Sn       25.03570366     10.42598820      7.08440828
Sn       25.02073288     24.04021454      6.48512125
Sn       11.77294827     10.10688686     14.05337143
Sn       11.68061447     23.78421783     13.97894192
Sn       25.03669739     10.20448494     13.63509274
Sn       25.36225700     23.78401947     13.50767040
Sn       11.11074638     -2.82358027      0.42485335
Sn       11.11864376     10.76557064      0.36831766
Sn       24.83371353     -3.31857038     -0.09561036
Sn       25.00501633     11.00653553      0.20267066
Sn        4.66832304      4.24071693      6.82981157
Sn        4.78444290     17.92359543      7.51764822
Sn       18.16965675      4.04470110      6.61697149
Sn       18.30775070     17.88158607      6.96917343
Sn        4.72106552      3.59697199     20.53623581
Sn        4.65687609     17.32497787     20.53314018
Sn       18.32005501      3.68014312     20.41176414
Sn       18.03508759     16.51827049     20.65708923
Sn        4.84799051      3.32390738      0.20700675
Sn        5.33549833     17.68185234      0.40928069
Sn       18.44769669      4.11829329     -0.39082953
Sn       18.74599648     17.57171249      0.32009494
Sn        4.55840874      3.69902468     13.63896656
Sn        4.61265755     17.41936111     13.50374317
Sn       18.00249100      3.53601909     13.56768608
Sn       18.08630753     17.26621246     14.17702961
S         3.33964205      1.68003726      1.27754819
S         4.36794615     16.30109406      2.38219094
S        17.17079353      2.68344116      0.99010134
S        17.48234940     16.31076050      1.79481399
S         5.82163572      5.14336061     15.07367325
S         5.78147697     18.67190742     15.26307964
S        19.33194542      4.84572840     14.94156361
S        19.60398102     18.51702881     15.70471573
S        12.77978134      8.95515347      8.30856895
S        12.90138817     22.46314240      8.69782352
S        26.68834114      9.00274944      8.30009270
S        26.73124886     22.51341248      7.73707199
S        10.16576290     -1.76603723     22.26589584
S        10.02667427     12.02445507     21.88713074
S        23.45621872     -1.76949251     21.72134590
S        23.67228127     11.87078857     22.14732361
S         6.18315744      1.99811804     25.99128723
S         6.09215832     15.91078091     26.05997658
S        20.10343742      2.65633178     25.42375755
S        20.06818390     16.03790665     26.13399124
S         3.07299042      5.27261543     12.39894581
S         3.23807406     18.99289703     12.24439335
S        16.71704102      4.87387466     11.96111774
S        17.07269669     19.21797752     12.76566029
S        10.07182217      9.03196239     19.67486191
S        10.01024818     22.59682274     19.51667213
S        23.59322929      9.25303555     19.13120270
S        24.06835365     22.67256737     19.13196373
S        13.05115700     -2.02488136      5.89263725
S        12.92686558     11.41834259      5.47587013
S        26.54071999     -2.15098691      5.05867243
S        26.59905434     11.62221527      5.50278997
S        10.62371635      8.66266918     15.51440716
S        10.15738297     22.63996696     15.39941597
S        23.41718674      8.92862129     15.15156555
S        23.93246841     22.61714745     15.09233952
S        12.75588512     -1.65290320      1.76091003
S        12.79536247     12.29834175      1.39597440
S        26.30389977     -1.50219405      0.55449045
S        26.20150948     11.73881626      2.03694582
S         6.23600292      2.76778531     22.05899620
S         5.95342255     15.47462940     21.84856987
S        19.48852348      1.87186134     21.60902786
S        19.34173393     15.32338428     22.34980583
S         2.94578981      5.42140293      8.10042286
S         2.99493241     19.26149178      8.62455940
S        16.70816422      5.47582436      7.93919659
S        17.20754051     19.21568489      8.50277233
S        13.11922550      9.16323853     12.31216335
S        12.96120262     22.61866951     12.57434368
S        26.71339989      8.63057613     12.64875412
S        27.05575180     22.35539627     12.37643051
S         9.97057056     -1.38028431     26.09580231
S         9.90871716     12.48487377     26.29012680
S        23.63835526     -1.91066945     25.73429489
S        23.74781227     12.47270393     26.12437057
S         3.40658808      2.42613268      5.69079828
S         3.31533074     16.47731781      6.21046877
S        16.99409485      2.95652270      4.76004696
S        16.84785080     16.63830376      5.22643042
S         6.35265112      4.85625267     19.13653946
S         6.33558178     18.75778008     19.40594482
S        19.79795265      5.14865303     19.22980499
S        19.61606979     17.96981239     19.55323601
S        12.85749245      5.36957884     25.62513924
S        13.47745991     19.04857445     26.21257019
S        26.55268669      5.39774990     26.35809326
S        26.94168663     18.71573448     25.80492020
S         9.82796478      2.10881758     12.16149616
S        10.14904404     15.83376026     12.65026283
S        23.29857635      2.08959341     12.57636547
S        23.98711395     15.49773979     12.47644234
S         3.36513686     -1.54721808     19.62339592
S         2.81523848     12.05968952     19.20560265
S        16.88350868     -2.68904066     19.15762520
S        16.75292969     11.82995701     18.97076797
S         6.09480190      9.93474865      5.13800240
S         6.54108810     22.97759056      6.28674316
S        19.53096390      9.45023346      5.42520523
S        19.63067245     22.88686943      5.75047350
S        10.09913731      5.33132124      1.16315770
S        10.48142147     18.88531303      1.44779778
S        24.18085861      5.10646009      1.91911829
S        24.27923584     19.13945961      1.81100082
S        12.33466625      2.35556507     15.41524601
S        12.81437588     15.69827271     15.30167389
S        26.35593796      2.03757024     15.22681141
S        26.83287621     15.68677139     15.04534531
S         6.11775351     -0.95812172      8.50385380
S         6.30232382     12.42600060      8.34711647
S        19.56031036     -1.74679172      8.61827278
S        19.39628601     11.96290112      8.33338833
S         2.85031867      9.36334610     21.91608429
S         3.33913803     22.62203979     22.01797676
S        16.35019493      9.18488598     21.75160027
S        16.87335777     22.18219757     22.21530151
S         6.16881514     -1.90558434     12.71197796
S         6.66480637     12.02090836     12.54857731
S        20.03445625     -1.61049187     12.65281391
S        19.82305527     11.71367359     12.66083717
S         3.46695924      8.63358021     25.71725273
S         3.53072047     22.65460014     25.88960075
S        16.31340408      9.46442413     25.82287025
S        16.82439041     23.22602272     26.04429436
S         9.92902279      5.01288080      5.29126930
S        10.67031574     18.50668526      5.71876669
S        23.73216629      4.79504490      5.65826988
S        23.70964813     18.73565865      5.95317411
S        12.77062893      2.35662818     18.80530357
S        12.59339523     15.86509323     19.49122810
S        26.42700768      2.29682922     19.30480003
S        26.08163834     16.04343796     19.61919785
S         3.36150813     -1.81036782     15.33697033
S         3.62934637     11.89781094     15.00227547
S        16.99244881     -1.68561983     15.35306740
S        16.93192101     11.64458561     15.39906693
S         6.30967045      9.26395035      1.31387556
S         5.85006475     22.75673485      1.95623493
S        19.46171951      9.41175175      1.23035502
S        19.74420357     23.23198509      1.30424643
S        12.84409332      4.94496298     21.67552376
S        12.86422825     18.88663101     22.42555046
S        26.42071533      5.12762022     21.89793396
S        26.12980843     19.00891685     22.12250900
S        10.12655354      2.05776191      7.99875736
S        10.73021030     15.53471661      8.38066483
S        23.22967911      2.47048163      8.58528233
S        23.46958351     15.72213268      8.66737843
S         3.28057551     -1.50870907      1.64170766
S         3.16735411     11.79580307      1.13491046
S        16.72696495     -1.14454520      1.80369949
S        17.07533646     12.52226734      1.35094714
S         6.17624378      8.62170696     14.91851044
S         6.44595909     22.45901108     15.28223419
S        19.56640244      8.87905884     15.16604137
S        19.96778679     22.86057663     15.29383850
S         3.63033509      9.47694492      8.37909698
S         3.12079453     23.28157806      8.86820602
S        16.52225494      9.58783340      8.70529461
S        16.87933159     22.54275322      8.75997639
S         6.15793037     -1.57802129     22.28873444
S         5.97126198     11.53746891     21.99713898
S        19.43068886     -2.18228269     21.82472992
S        19.51135445     11.53009415     21.90383720
S         6.02683783     -1.92999494     26.20907211
S         5.93392229     12.23999214     26.02586555
S        19.24196625     -0.97352690     25.95515442
S        19.50145149     11.57592487     25.71477318
S         3.36223984      9.28188992     12.31652260
S         3.27156854     22.66177559     12.86620617
S        16.89511108      9.09185886     12.35835457
S        17.31758881     22.74318886     12.76999664
S         5.64553928      9.13740826     19.02615356
S         6.58082151     23.24536133     19.50251579
S        19.30852699      8.52846050     19.24610901
S        19.77229691     21.98517609     19.36292076
S         3.64274120     -1.40921998      5.68849850
S         3.18444800     12.36532307      5.56725597
S        16.67253685     -1.56933939      6.02436829
S        16.76047325     12.29316139      5.41852903
S         9.63892078      4.97995043     14.84665871
S        10.21042061     18.61199760     15.58909035
S        23.32060432      4.93688917     15.60551071
S        23.78580284     18.03113174     15.71658230
S        12.97242737      2.48390675      1.17993629
S        13.43010616     16.18393517      1.73609889
S        26.49358177      1.95980084      1.48683548
S        26.48727417     15.87915707      1.78466451
S        10.14963055      2.11300778     21.55388260
S         9.58327198     15.91554165     22.08587265
S        23.76604843      2.26731753     22.10610771
S        23.59742165     15.94783878     22.34480286
S        12.71346855      5.07983446      8.38058186
S        13.22325420     18.45956802      8.45374107
S        26.75270844      4.92008162      8.60229874
S        26.34506798     18.45748329      8.73954296
S        12.44643974      4.62185049     12.05717087
S        12.90232468     18.85299683     12.80811596
S        26.31941795      4.87326241     12.57329750
S        26.47929764     18.51320648     12.44629097
S        10.27850819      2.20387244     25.77231598
S        10.27231312     16.24387932     26.08798599
S        23.80503082      2.52657795     26.10001755
S        23.96593094     16.44576454     25.85579300
S        13.27642250      2.30613685      5.54842949
S        12.92616081     15.53532219      5.25041580
S        26.22017479      2.46972847      5.69179726
S        26.48539352     15.88841438      5.79553461
S        10.03860569      5.29470158     18.94638824
S        10.35278511     18.63360596     19.55633926
S        23.51414490      5.50698280     19.62817764
S        23.57331657     18.91828346     19.39394188
S        12.56653976      9.37764645     26.15716553
S        12.64745998     23.15423012     26.25522804
S        25.80087471      9.24504852     25.85359955
S        26.55469131     22.55016899     26.05295181
S        10.02378273     -1.86640644     12.87559128
S        10.47150135     11.68194294     12.62334442
S        23.99041748     -2.00336170     12.46959972
S        23.59004593     11.61660671     12.35457897
S        13.06072140     -1.94999540     19.06663322
S        12.85519600     11.94151020     19.66102791
S        26.24358940     -1.57020223     18.99835587
S        26.46117020     12.15515614     19.01076698
S         9.89077091      9.07183647      5.77777624
S        10.03799248     22.79077148      5.88963175
S        23.53297997      8.79762745      5.66557455
S        23.22049904     22.77462959      5.25663996
S         9.93175697      8.96249104      1.39220428
S        10.30899048     22.83823967      2.03905010
S        23.16559792      9.44408512      1.49294960
S        23.46387291     22.81456375      1.51478541
S        12.95661354     -1.75680876     15.26476479
S        13.11405468     11.66326904     15.25107765
S        26.92643166     -1.74204850     14.79426098
S        26.48491859     11.26877785     15.13991928
S        10.08349323     -1.57139194      8.43318176
S        10.06524467     12.16189575      8.40577698
S        23.88701248     -1.93919241      8.16680908
S        23.92376518     11.89407635      8.55495453
S        12.86500168      9.33364391     22.61470222
S        12.93411255     23.03100204     22.41192627
S        26.41061401      9.21395206     21.82418060
S        26.78038025     22.60311508     22.00926399
S         5.69319868      2.12394810     12.14938259
S         6.48414135     15.93078804     12.47820282
S        19.49645042      2.57812548     11.95540810
S        19.33257866     15.99621868     12.41431713
S         3.58863425      4.76082277     26.00331879
S         3.98249006     18.93898964     26.26453781
S        16.80771828      5.69258022     26.03831482
S        17.33088493     18.94999313     26.27327919
S         5.58887053      5.95126963      5.42027903
S         6.13936520     19.20280838      5.81909084
S        19.31044006      5.61418819      5.31764364
S        19.83084297     18.84695053      5.45486784
S         3.33166361      2.43618011     19.03023338
S         3.07815528     16.09271240     18.84559250
S        17.08534813      2.32239676     18.80518150
S        16.64868164     15.38843727     19.08785439
S         3.28942990      2.15541768     15.09846020
S         3.28629756     16.04571342     15.02943707
S        16.35533524      2.11119747     14.53447533
S        16.61389732     15.61699009     15.14240742
S         6.22464991      5.08832455      1.58889198
S         6.77474308     19.24706650      1.43095517
S        19.81049728      5.50451756      1.05852008
S        20.10391426     18.96599960      1.95552456
S         3.32615590      5.06692266     21.80527687
S         3.36121297     18.54225159     22.04089546
S        16.98334122      5.16513062     21.66305733
S        16.76634216     18.05948639     22.13352013
S         6.31147337      2.80990219      8.50681686
S         6.48305750     16.44530678      8.69520092
S        19.33279037      2.40498877      7.87666273
S        19.08141899     16.30525017      8.52146721
S         0.13267183      1.06881726     11.41855907
P         0.85806072      0.11353554      9.87799549
S        -0.30880362     -1.20531940      8.85325813
S         1.82649016      1.23164523      8.42085075
S         2.37919712     -1.12843382     10.59245300
S         0.33133984     15.57829475      9.88647556
P         1.27445912     14.02886963     10.54722309
S         1.85616970     12.67758751      8.98484039
S         3.13723397     14.72456455     11.27136326
S         0.20051983     12.71491337     11.82472897
P        14.86326694      0.04797596     10.25098228
S        13.84655666     -1.41715729      9.31814575
S        16.32588387     -0.86565578     11.42048264
S        15.65586090      1.46978819      8.96630669
S        13.83776951      1.24673998     11.40184402
S        16.12710571     12.66440868     11.71400547
P        14.96915817     13.71485615     10.31708908
S        13.34439564     12.72667503      9.50004387
S        14.13218307     15.15301037     11.33730412
S        16.17073822     14.52051353      8.99974442
S         8.93918610      7.99278545     25.42804146
P         8.08633709      6.61536503     23.88983154
S         7.00920820      5.06502867     24.81461525
S         6.84097290      7.45600224     22.57581711
S         9.67730999      6.02075624     22.82153130
S        10.06923294     21.22206306     23.22733879
S         7.75129700     19.50600433     24.98216629
P         8.37181759     21.39223862     24.23693466
S         9.00215149     22.67277527     25.81160927
S         6.94083166     22.01341629     23.01596642
S        22.94674301      6.33408070     25.38059235
P        21.76497078      7.10756826     23.74549675
S        20.98196030      5.47526026     22.75531578
S        20.18149376      8.24787712     24.43508720
S        22.91358757      8.21170998     22.45189476
S        22.35589027     21.30523300     22.48823166
P        21.55523491     20.65903091     24.16791344
S        23.06184196     19.73077202     25.37796974
S        20.67944527     22.02673340     25.46386719
S        20.18652534     19.19668770     23.40241432
S        26.86857033      6.09809780     16.10923004
S        29.37134743      5.78781176     18.21796227
S        27.79545403      8.57839966     18.52495766
P        28.25764847      7.03898096     17.21802902
S        29.65589905      7.86729956     15.89138699
S        29.00859070     19.06373215     16.11212349
S        27.71393013     22.05618477     16.32393837
S        30.24375916     21.57495880     18.32021523
P        28.53687859     20.52526283     17.45200539
S        27.35479927     19.78004265     18.75391769
S        16.07462883      5.72912455     17.62431145
S        13.50174141      7.97617483     18.34182358
P        14.79021072      7.30000257     16.90333557
S        13.92438030      6.22510862     15.27331066
S        16.08090401      8.73714066     16.39850426
S        16.43666649     19.38879204     18.72862434
S        13.85783482     21.59643173     18.85786247
S        13.93759441     19.48615456     16.10928917
P        15.22574615     20.50878716     17.51265717
S        16.07599068     22.08837891     16.46040916
S         9.24108887      1.32558298      1.73062658
S         7.02885008      1.68471050      4.30264473
S         9.54807663     -0.45372522      4.61340046
P         8.28163624      0.33231229      3.26679039
S         7.28513145     -1.36070609      2.43002272
S         9.67211342     12.51616764      4.16702080
S         7.58034229     15.23150539      4.99517775
S         7.12166119     13.13572693      2.30141020
S         9.52426147     15.04011631      2.14797521
P         8.47745705     13.99136734      3.51763344
S        21.09258080      2.23084474      3.77357054
S        20.14879036     -0.82153994      4.30863714
S        23.17248726      0.28716648      5.01837540
P        21.79273987      0.39721620      3.76775336
S        22.21064949     -0.46207982      1.82988620
S        21.02978134     13.99131393      1.98001432
S        20.57195282     13.52081203      5.33486605
S        23.29508400     15.21489048      4.11488676
P        21.96393776     13.60415745      3.89455366
S        23.19022560     11.95623112      4.27547121
S         6.87643576      1.31171966     18.58300781
P         8.03539085      0.27268520     17.36561966
S         9.48443127     -0.79305512     18.42480469
S         6.92662525     -1.14555585     16.22996521
S         8.66364574      1.55076730     16.01314163
S         6.95612240     14.88801098     16.21239281
P         8.00181198     13.45673943     17.15876007
S         8.91300488     12.44501495     15.70832443
S         9.46340466     14.33359718     18.50440216
S         6.70152855     12.32976723     18.31335640
P        21.31734657     -0.12413060     17.34883118
S        20.26608276     -1.37093401     18.51607513
S        22.79181480     -1.33121336     16.62335205
S        20.73911095      1.23882139     15.71266365
S        21.88542938      1.31251299     18.83230972
S        22.85927582     14.93273640     18.41809464
P        21.43045235     13.89712143     17.24086189
S        20.43102455     12.40641212     18.50751877
S        20.26742935     15.12396717     16.11372948
S        22.47792435     12.68520927     15.67058754
S        29.76411629      8.60203171      3.82124305
P        28.35476875      7.10386372      3.44303393
S        27.57568359      6.54121637      5.28993893
S        26.99861145      7.99619436      2.26330566
S        29.48422050      5.57664967      2.43501902
S        30.15222931     21.84550285      4.87165737
S        27.41319466     19.61784363      4.95087290
P        28.65184784     20.80675316      3.70593786
S        27.47267151     22.20726395      2.67923689
S        29.71849251     19.78289604      2.36166549
S        15.85847664      7.70109463      5.34523249
P        15.00504589      7.13051128      3.43999791
S        13.44783688      5.99048519      4.21070766
S        14.05851460      8.62958527      2.54159999
S        16.22710228      6.18626547      2.25928497
S        16.82824326     21.79505157      3.86990643
S        13.61236000     22.20211983      2.55982494
P        15.05435562     21.04972267      3.40850234
S        13.96174431     20.22810364      4.98828077
S        15.55023384     19.72604370      1.98491204
P         8.12958050      7.30251980     10.23640347
S         9.12521935      6.08536816      8.87285137
S         7.26585913      9.02705479      9.48531055
S         9.25175285      8.03500462     11.70679188
S         6.53152990      5.90067339     11.11484909
P         8.14075851     20.78999901     10.76206875
S         7.26907158     19.57054138     12.26793385
S         9.60826206     21.84483337     11.71640396
S         6.89471769     21.75909996      9.55842590
S         9.13263607     19.52276421      9.43758583
S        23.10636520      7.86750317      9.20723534
S        22.85867500      5.42537069     11.50453091
S        20.40849686      5.76014519      9.10169792
P        21.66256714      6.85056734     10.26775932
S        20.70204735      8.02746773     11.63823700
S        23.59360123     21.87144661     10.14425755
P        21.65172577     21.08528328     10.37065315
S        20.61319542     22.55369568     11.06970310
S        21.95862770     19.55219078     11.86609554
S        20.69407272     20.11943817      8.81817150
S        13.73468971      1.86368859     22.90873909
S        14.54719162     -0.22100386     25.38461113
S        16.63263321      2.05653262     24.50261497
P        15.12262440      0.82632500     23.76622581
S        15.65008640     -0.70816332     22.51687241
S        14.21587753     12.63057423     25.41117096
S        16.49201393     15.09073067     25.52798271
S        13.98568726     15.23014545     23.27124977
P        15.31275940     14.04668617     24.30273628
S        16.22132492     13.02260303     22.91757393
S         0.60674500      1.36353600     25.18193436
S        -0.07634997     -0.30666438     22.15869904
S         2.80971050     -1.35836744     24.29861832
S         2.73687339      1.73954010     22.59028816
P         1.39998090      0.31587324     23.63096619
S        -0.03283115     13.25681496     25.53688622
S         0.24256335     15.80381966     23.29932404
S         2.10770512     13.14366245     22.84878540
S         2.43893218     15.37314415     25.54047203
P         1.19000256     14.31563473     24.32729721
