832

Na      150.83973694    -86.29402161     51.98126984
Na       -6.67476749   -113.21325684     38.70073700
Na      -40.31767654   -133.18116760    -29.04256058
Na       95.81732941   -110.23777008     52.28158569
Na     -153.09637451    -32.46962357     86.57575226
Na     -118.65911865    -79.60496521    -26.08169365
Na      143.55459595     -8.72307968     -5.47758675
Na       99.38127899     -4.50202465     55.76652908
Na       62.61302567     13.60558701    106.35877228
Na       37.99353027    -66.01165009    -77.37417603
Na       92.73184967   -148.30738831   -147.17732239
Na      -44.01547241    -28.92192459    110.36714172
Na     -166.23504639   -100.55114746     56.26042175
Na      -70.61421204      9.43806744    -53.36412430
Na        1.58747387    155.44808960    -66.24521637
Na       78.43895721     -1.34494722     48.79390335
Na      170.65307617     60.45312881    229.39118958
Na      -75.26573181     18.13406181   -102.03587341
Na        0.82178777     19.13964844     66.42726898
Na     -165.97880554     74.12088013    144.08609009
Na        7.75177908    -82.40577698    -42.70985031
Na      -80.45478058    -86.51372528     18.40880966
Na      -26.55612946     39.99726105    -56.36229324
Na     -261.11663818     34.83882141     -9.39083672
Na      163.39550781    -22.31188202     22.56259155
Na       24.70433426    -14.28239727    -80.10618591
Na      150.79718018    -92.51658630    141.18145752
Na      -13.30085087     90.52549744    -70.28234863
Na      -26.42452621      9.05751324     11.71019173
Na       65.24205780    -44.90573883     38.81560135
Na      -22.77159309    152.36131287     -9.52936459
Na      -34.51424789      1.99636328    146.99848938
Na      136.32675171     12.33218288     42.94774246
Na     -243.79331970     46.65322113     83.93157196
Na      -64.35270691    175.66343689   -209.75222778
Na       24.89540291    155.17127991     -5.47212076
Na     -152.04815674    -73.16638184    140.52966309
Na     -241.59159851   -215.85713196    175.54968262
Na      154.43269348    -76.04975128   -121.78691101
Na       78.74121094      6.45837927     69.37142181
Na      -90.96354675    -69.01303864   -106.94886017
Na     -102.08451080     21.25259209   -172.21383667
Na       68.78785706     19.50230217    -40.23311234
Na      143.43882751    -48.63056946     25.20954132
Na       45.47638702     19.12335587   -127.05371094
Na      102.88787842    142.53326416    106.90749359
Na     -165.87493896     63.96570969     15.10237598
Na       -5.35152149     33.26026535     -5.80966330
Na      -74.34138489    114.06758118    185.40498352
Na       14.46108341     94.47127533    134.54052734
Na      -23.00514221    138.71014404      1.17504752
Na       -8.98696804    -45.35156250   -155.53843689
Na      143.49208069   -123.52600861    -15.63848114
Na      -12.58009720    -24.67406464    -49.62682343
Na       -6.78124571    200.36647034    -42.94398117
Na       72.23615265     60.33953857     62.88105011
Na       79.41430664   -157.69599915   -107.12380219
Na       12.62540722    -83.81513214    -12.08169460
Na      -39.93455505    -48.72259521   -142.25627136
Na      -47.70124054    -17.36519241     -2.21063566
Na       96.25524139    189.32835388      4.40264225
Na     -169.71925354    -14.58124733     18.66986465
Na      -19.75227356     52.50840759    -49.74003601
Na       -9.33701897     77.76253510    -22.31249237
Na       28.16167068    -73.05478668     -8.51035309
Na      -12.70106792     12.59024525   -117.61384583
Na      218.31993103     46.52530670     25.13757324
Na      123.39621735   -102.96071625    -92.41737366
Na       75.82460785     59.63224792      1.13282597
Na     -145.41908264     15.83115578    -22.28810120
Na       51.49858856    150.90539551    161.53494263
Na      140.33766174    -11.61784554   -149.09823608
Na      -77.28486633   -123.27932739    -80.04144287
Na       75.98396301     12.19703388    123.62275696
Na       27.73148537    -96.82270813    -69.82363892
Na      -19.57981491    -93.75614929    -22.41144180
Na      164.08605957   -133.82153320   -158.83206177
Na      112.95131683    -15.00551605     97.01250458
Na     -132.51985168   -107.55336761    113.25096893
Na        4.01034832     -4.19230843    105.88167572
Na      160.53709412      2.31916952     48.73739624
Na      292.89352417    138.52041626     -2.56601715
Na      204.96859741    100.54021454    199.01138306
Na       51.58525848     -5.09753609    -22.52744865
Na       37.90864182   -181.52914429     52.80632019
Na      184.26754761    -34.84444809   -157.65657043
Na      -16.48001289    -49.31356812   -209.97026062
Na       38.19982147   -134.51162720     97.18571472
Na      102.96718597     19.22835159    -39.22037506
Na       41.52614594    155.32403564      4.37463999
Na      113.23155975    100.98710632     77.66584015
Na      211.70693970   -141.69810486     52.19729614
Na       48.57793427     22.75673676    -49.67406845
Na       45.29011154   -187.46417236     48.97350693
Na       -6.20984316   -154.30056763    140.85064697
Na      117.53099060    -40.46021652    -35.80827332
Na       24.57388115    165.42141724     24.96775818
Na       14.53818989   -133.29376221    -63.17825317
Na      225.36564636      5.45200157    165.07545471
Na      -16.06406784     46.30612946    -52.80987167
Na       54.68265533    134.64471436     11.97840214
Na      269.82019043   -134.29806519     28.81643677
Na       -6.36409712    -28.89030266     -9.18146038
Na      129.96839905    -11.42678070    202.58900452
Na       -2.88547087    -66.16548920     38.11204147
Na       82.00411224    -59.12508774    147.81166077
Na      191.63618469    -14.97669888    -73.40435028
Na      174.68095398    158.79582214    -57.76396561
Na       78.90843964     63.17639542    171.40510559
Na     -141.08862305   -123.82864380     66.35710907
Na      -46.53257370   -191.64363098    -66.33184052
Na       54.85979462     26.62476349    -93.65007782
Na       66.91794586    -96.32038879   -182.59744263
Na       44.74327087     49.65664673     48.36685562
Na      164.33845520     29.41589546     51.99659348
Na        7.45925188   -157.64660645     99.95503235
Na       35.36943054     51.54157257     -9.24800777
Na       41.30876160    -92.36496735     12.47863770
Na      126.52033997     22.51746368     35.28679657
Na      177.66021729     87.44245911    -19.23919106
Na       95.64496613    -85.96002197     58.80104065
Na       41.05573654     47.74934769    -97.60691071
Na      -22.73520279      3.56875300     15.16141796
Na      -19.01030159   -133.84353638    -83.66278839
Na       79.24321747    -72.27486420   -130.89749146
Na       -9.42478943    -71.17129517     -5.23328161
Na        3.86698699     83.71443939    -32.75341034
Na       21.71847153     33.37351227    -19.13519096
Na      140.10815430    175.78756714   -114.94808197
Na      -29.89780617    241.07421875    -55.97180939
Na       83.03764343    -35.08378983    183.97653198
Na       48.18963623    -88.15605927     45.16495895
Na      151.23214722    311.99649048     87.10444641
Na       -3.37912846     22.65476418     65.91016388
Na     -135.55923462      9.48798275    -28.73149300
Na       58.56890488    -58.83305359     42.97360611
Na     -179.63418579    -89.61593628     21.34485817
Na      130.33334351     26.31482697     62.48371506
Na      -40.97993469    -21.75081062     13.89789104
Na       82.87917328   -110.19469452   -127.52983093
Na        5.29496241    -45.52542877     17.92055130
Na      -19.50715256    -34.83078003    -28.91114044
Na      -70.91641998     82.78883362     75.63336945
Na      -74.64556122    -89.63439178      2.23261786
Na     -115.14945221    219.64859009     72.41783142
Na      -10.00890827    -21.31683731     55.58742523
Na      -53.79925537     12.66325378     83.29566193
Na      -54.13405228     15.78907204     38.67134857
Na       61.76402283     47.03325272     39.01493454
Na      -84.29949188    339.30770874     96.28575134
Na      106.59152222    -28.32402802    124.10401154
Na      -29.67668152    117.77355957     21.82698631
Na      -23.13681221     19.71652603      0.87820375
Na      119.79619598    -86.35471344     55.22943497
Na       41.73847580     73.49138641   -141.68226624
Na      154.23977661     46.15775299   -175.48297119
Na       82.67749023      5.95609617    -55.91518402
Na      -77.58552551    -52.83789062     45.73133087
Na      126.08978271    -83.00220490    -25.92856789
Na      147.47969055    -69.64474487    158.89445496
Na      -40.17087555      2.22425938    -15.53585529
Na      126.86177826     15.84257030    130.92930603
Na      -33.21585846    -96.07957458     59.78560257
Na      -47.41610718    114.29373169    -46.54512787
Na     -220.44886780    -58.66523743     62.30547714
Na      -49.99851990    145.10641479    166.84045410
Na       -1.91720641     19.69517899   -148.33026123
Na       17.98391533    145.74255371    -76.97102356
Na      -47.02558899     29.37620735    181.65281677
Na       24.44503593    152.36547852     62.33326340
Na       85.52733612    -18.76312828    134.54466248
Na      -20.06099129    -31.39157677    -42.94847107
Na       58.43293381     22.21984482     93.96325684
Na       82.75821686    -79.84736633     72.47591400
Na      113.09600067   -119.97418213   -114.47369385
Na      -77.22261047    151.41975403   -212.79457092
Na       -6.26531029     -8.16398621    -52.76884842
Na       55.25804138    -22.16230774    100.19843292
Na      126.63272095     56.55941391    168.07511902
Na       95.75921631   -137.28605652     28.28632927
Na      -43.62232590      5.50316286    138.60200500
Na       51.95870209    -65.64189148     -5.24579191
Na      123.15761566    -48.20489502    -50.20222092
Na       24.61887550    125.10159302    -94.09246063
Na       -6.18143415     19.56070137   -114.34194183
Na      -12.53741074    -41.92481995     69.20884705
Na      201.59085083      9.90541267    124.02751160
Na     -135.30973816      8.84875679    -49.59008789
Na      293.55105591    -82.67278290     52.05315399
Na      -97.87488556     50.89199448     38.67947769
Na      126.81748199     42.78289795      1.46454179
Na      133.67916870    136.04246521     89.73410797
Na        0.72181976    142.26502991     38.72790909
Na       20.38997650    154.52174377     80.03305054
Na       71.86401367     -1.51016045     62.34917831
Na      -43.90294647      1.89561832    -15.88271046
Na      143.49908447   -173.02192688    -63.31647491
Na       38.00390625    -28.43391800    -45.52994537
Na      -43.32075882    -35.53052902      7.21927166
Na       61.77545166    -73.97309113      4.61814451
Na      -23.21991348    -82.25022888     28.72852707
Na      -53.46226501     66.24679565    155.30278015
Na      140.19888306      8.44261837    -87.24577332
Na       24.27677536      2.58246064    -67.12110138
Na     -145.35723877     -4.37014723   -203.15771484
Na       65.85149384    110.59261322    -29.40636444
Na       10.77815723    -86.55777740      8.35105896
Na       31.48984718    105.24839783     86.52539062
Na       34.52721786    -56.22951889      7.78053856
Na      133.30113220     67.28341675     -5.24610615
Na       21.35509300     60.08311462   -149.06851196
Na        1.11382234     32.86550903    -23.96391678
Na     -155.83695984    216.28620911    185.52758789
Na      -13.00766563     87.16743469    283.20355225
Na       20.70323372     -1.59688079    218.69487000
Na      -30.03516388   -126.80603027    133.96185303
Na      -91.28136444     29.15673256    154.91928101
Na      -23.22552109    158.04756165    -33.32916260
Na       48.72174072     80.51663208     65.82188416
Na       88.89517975     15.95372009    -70.36361694
Na      120.34864044     96.75426483     -6.32020426
Na      -26.04840279    107.37361145    237.23437500
Na      -36.87465668     66.79470825    151.49076843
Na        3.91470003     29.66564751   -128.34916687
Na       44.88771820     22.24933052     52.22232437
Na      -45.99651718    118.83612823   -199.12854004
Na       27.59784508   -161.01251221     65.86233521
Na       28.66608238     60.48173904   -147.85264587
Na       65.19647980    -52.38351440   -158.25965881
Na      -16.36363029     94.35931396     27.45512962
Na       47.86805344    -48.83386612    -42.96791840
Na       61.53020477     50.23287582   -165.40304565
Na      147.34359741    -11.52528954    -25.69710350
Na      -36.10506058     63.87502670     45.07489395
Na      -66.84145355     -4.46320057     72.41041565
Na       31.83127975     43.16942978    -29.38810158
Na       99.27000427     43.34312439     25.67645073
Na      126.18511963    165.88165283    -29.32512665
Na      103.44383240    118.31032562     18.06375504
Na      -57.03362656   -140.67640686    -12.67786789
Na      136.91702271    151.40567017    236.06460571
Na     -193.55126953    -17.87446785    120.01457214
Na       10.54284286    -41.75371552     41.15635300
Na      174.53643799     36.48063278    -19.23585510
Na       17.75582886     29.62771416    -46.21758652
Na      -23.38167000     88.24264526    -53.31579971
Na       81.94439697     80.60993958    164.45907593
Na       99.71222687     23.10795212   -117.72520447
Na       71.67061615    162.77006531    185.17630005
Na      -50.38507843    -48.90238190      8.24282169
Na      119.90728760    -25.06314087     62.42011642
Na     -121.37312317     53.47954941    -35.98741913
Na      174.45080566     51.64139557   -278.32901001
Na     -193.23934937   -141.50540161     45.55874252
Na      -33.10177612    179.14871216   -103.86927032
Na      133.77999878     39.88375854    117.32598877
Na      -12.80753994     36.57384109   -145.15434265
Na       82.99479675    -10.46008587     31.71590424
Na      174.37391663    -46.04951096     21.51364136
Na       68.51223755     53.59212875      7.91597414
Na      -16.32427025     16.17692757     24.13844681
Na       -6.06912374    -98.74042511    134.40789795
Na      242.33512878   -166.26063538     83.35006714
Na       20.45679283     26.74872017    -32.56330490
Na     -224.14340210     16.00926399     46.03424072
Na      -29.89534378     97.81119537   -145.21595764
Na       51.95420837    -91.94611359    -22.78837967
Na      -19.87719536    -55.35369873     56.17272568
Na       44.20715332     73.94732666    -25.82008743
Na       58.30588913     59.79906082     76.22714996
Na      -63.97364426     80.41964722     15.11461353
Na       72.11273193     35.25246429     11.53318024
Na      -91.07504272    -72.72904968    -25.96885681
Na      -23.10079002     -4.77562094   -127.37606812
Na      -26.26362038    158.75119019     79.58710480
Na       -9.51005459     97.58670044    126.40682220
Na      -84.61309052     22.68885040   -114.22158813
Na       44.98037338   -174.84124756    -15.37787056
Na      -70.88766479   -130.82728577    178.40591431
Na      -94.79273224     53.47954178     11.66214085
Na     -105.03437042    -99.80630493    -93.89223480
Na       41.08968735     26.32702446    -87.77075958
Na      140.31134033   -137.09970093    -46.41670990
Na      -80.38546753    240.19781494     58.92199326
Na       62.01757050   -150.39561462     55.66717911
Na       75.99736023    -76.47229767   -118.16249084
Na       51.49382782     84.08011627     38.56543732
Na      194.36488342    -58.82731628      1.01064062
Na     -145.04554749    -47.64360428     49.14207458
Na       21.01689720     12.41826534      1.29136050
Na      -26.30705261    -69.09156036     59.21857071
Na     -173.05314636   -144.41719055     76.72453308
Na       20.68026924    121.84748077      8.21433163
Na      -12.91743374      9.68158913    -57.28160095
Na       14.78240871     36.61477661      4.37514210
Na      -60.39822006    107.60474396    -66.53347015
Na      -88.09530640      4.75681067    -49.81037903
Na       24.45129013     97.87401581     55.14580536
Na      -40.03188705   -171.05184937   -118.48252106
Na       85.96254730     53.22723770    130.65365601
Na     -149.01866150   -147.55354309    -28.68384552
Na      -27.11177826    125.11098480     52.18888092
Na       68.79125214   -178.07048035   -188.27146912
Na      174.06845093    -11.09579849   -178.31692505
Na       52.16921234    -89.38015747      1.18418133
Na      -20.03753853   -123.14334869    177.85932922
Na       68.30841827    142.47032166     27.31959724
Na      113.02085114   -215.26080322     79.43380737
Na       20.88581848     14.78507710     24.86862564
Na       65.28108978    110.70867920    -80.51004791
Na      -23.42092323   -117.22604370    -18.06461334
Na       58.69540024   -127.23434448   -124.60163116
Na       82.20305634     52.91177750     59.16490555
Na      -77.75493622    122.53469849    117.18228149
Na      -26.28120422     39.66991043     22.36739922
Na      -51.07083893    179.56109619    119.88384247
Na     -169.86247253     67.02796936    -31.84394455
Na        7.86187696    256.41470337    -50.08289719
Na       68.88139343     66.55339050    119.92865753
Na      136.89250183    -62.04780197   -156.28639221
Na      -74.41772461     26.42094994    161.78384399
Na       88.96908569   -170.81114197     15.06583405
Na     -186.42088318    -92.48676300    -80.30117798
Na      198.18518066      2.83338952    -15.78377628
Na       69.43343353     39.65111923    -86.96459961
Na       44.95571136    -45.37307358     25.43488312
Na      -15.78989983     46.11654663     15.30790043
Na       16.13283157     -3.93535519    147.78164673
Na      129.82264709    -54.42965317    113.26546478
Na      102.71831512    155.54516602     38.82649612
Na       -9.74265099    -11.84356976    -18.58879280
Na      -47.11214828     38.97100067    -46.69890213
Na        7.80683231    114.94506836   -175.59797668
Na     -238.39599609    -60.42124557    114.07173920
Na      109.65334320     32.78226089     34.18899536
Na       -9.82316875    139.05155945    -39.63481522
Na      -29.55111504     86.93100739     35.52096176
Na      -16.67241096     69.99150085     36.01250458
Na        0.40076560     25.99813080    -84.04620361
Na       37.61989594     49.74029541     95.93965149
Na       10.49927139    -32.25428009     46.01316833
Na      -84.21291351    138.42980957     -8.83671856
Na       34.76221466     63.33959961     65.88480377
Na     -104.67556763      9.70602989     62.59125900
Na       89.26754761    -52.87899399     59.15459442
Na       58.37389755    107.65734863     69.00928497
Na        7.48049450     11.92650032     -5.94170189
Na      -40.01701736     19.52816582     53.28383636
Na       -2.54020095     62.84653091     -8.54260635
Na      -57.93890381    193.24728394    168.35479736
Na      -94.29386139     43.26070023     -8.13215351
Na       10.61162567    -49.93845367     21.65045929
Sn        0.45724276     16.14868546      7.86373138
Sn        0.67988586     29.53481293      7.78839016
Sn       14.19923115     15.61164665      8.86196327
Sn       14.50572968     29.67331505      8.21255779
Sn        0.44913882      1.77707076     21.40422630
Sn        0.70447350     15.70489216     21.72858810
Sn       14.08190536      2.24041033     21.79983139
Sn       14.63063049     15.52025414     22.14330864
Sn        0.49870297      2.56465173     14.70170021
Sn        0.68855351     15.86052418     14.76325798
Sn       14.30533504      2.37103295     14.80239296
Sn       14.36606979     15.78792953     15.76007271
Sn        0.95134956     15.82880020      1.20754242
Sn        0.80582714     29.51866531      0.85199219
Sn       14.45718956     15.97804070      1.74553311
Sn       14.03551579     29.72660255      1.59731245
Sn        7.30974865      8.50869179     21.78606796
Sn        7.30373096     22.12817955     21.68861008
Sn       21.43850899      9.29423428     21.99024200
Sn       20.68421173     23.00587082     21.71700096
Sn        7.58575344      8.58717060      7.95099449
Sn        7.71182108     22.06968117      8.14780045
Sn       21.34021568      9.58203793      7.97857952
Sn       21.09113312     22.45368385      8.28258514
Sn        7.57112074      9.24390602     28.03945160
Sn        7.20474768     23.06501961     28.66091919
Sn       21.04522324      8.55347252     28.73506355
Sn       20.99496651     22.60129738     28.43217659
Sn        7.26420546      9.54661369     15.12376785
Sn        7.30857277     23.08925629     14.72448444
Sn       21.14397812      8.93695641     14.76615524
Sn       21.59590340     22.68433952     14.92935753
Sn        7.19888258      1.57359421     22.08238983
Sn        7.75305796     15.33761597     21.54124641
Sn       21.22729301      2.54094887     21.42787170
Sn       21.24196053     16.14005280     22.21012115
Sn        7.04507923     14.85571575      7.88425493
Sn        7.06061935     29.15035248      8.00872231
Sn       20.95772171     16.26733398      8.45093155
Sn       21.23048973     29.92936134      7.66737270
Sn        7.55056858     16.35056686     14.89579391
Sn        7.74318314     29.85936356     14.87234783
Sn       20.78726959     15.46351528     15.22685432
Sn       20.94024849     29.25976753     14.40319347
Sn        7.62202024      2.32367039      1.34792566
Sn        7.66500664     16.22967911      0.98086768
Sn       20.94958878      1.70685589      1.05876005
Sn       21.22735596     15.68271637      1.51292872
Sn        0.78661877      9.09963417      8.33303738
Sn        0.77371031     22.74518013      8.34318352
Sn       14.33264923      9.13481426      7.88315582
Sn       14.13392162     22.46366310      8.12231731
Sn        0.83503515      8.65763283     22.15868950
Sn        0.72258681     22.75545883     21.86693382
Sn       14.76263618      8.75465870     21.03562927
Sn       14.37179089     22.60820007     21.40911102
Sn        0.53210419      9.29577637      1.51503456
Sn        0.31771940     22.47258377      1.35076833
Sn       14.47247696      9.44430542      1.14169061
Sn       14.34842873     22.83238029      1.01731491
Sn        0.48352036      9.15264988     14.88581085
Sn        0.81566626     23.21613312     15.02350426
Sn       14.42201710      8.93473339     14.46102428
Sn       14.70968342     22.64185143     14.60673523
S        -0.57559466      7.69727182      3.13968062
S        -0.94370806     21.40695190      2.93818712
S        13.06433773      7.76551485      2.46138978
S        13.36188126     21.07343864      2.21781993
S         1.95693099     10.21485519     16.54264450
S         2.25975680     24.78072929     16.08586311
S        15.92881393      9.94891548     15.93736744
S        15.62443066     24.49160576     15.96433353
S         8.38744164     13.74720192      9.50354385
S         8.72505665     28.07636833      9.45460987
S        22.23913193     14.85168743      9.88002491
S        22.51601601     28.32667351      9.19960594
S         5.74830770      3.42437005     23.11781502
S         6.55520868     16.83242798     23.33780098
S        20.13803864      4.37701893     22.53503036
S        19.74354362     17.55903053     23.40928459
S         1.89443159      7.91089153     27.39108467
S         1.74702644     21.22827530     27.04294205
S        15.63167381      8.05021381     26.64672852
S        16.01237106     21.58557320     26.98310661
S        -0.96128017     10.53584003     13.47972870
S        -0.95554078     24.55136299     13.87297726
S        12.89640045     10.68194485     13.11428070
S        13.35797882     23.51899529     12.71150780
S         6.11952591     13.98213196     20.14052010
S         6.02080679     27.48958206     20.39493179
S        19.68678665     14.65002823     20.89319992
S        19.66267395     28.65179253     20.17716408
S         8.49429703      3.26978564      6.52542305
S         8.72224998     16.31559753      6.78432608
S        22.55708313      4.23973656      6.58934689
S        22.23290253     17.54464340      6.92839050
S         6.16705894     15.09027767     16.36506081
S         6.36487150     28.40787888     16.14630508
S        19.63205910     14.02185345     16.58539581
S        19.64824295     27.94419289     16.06359482
S         8.91420937      3.38487625      3.04132676
S         9.10895634     17.43784142      2.65095043
S        22.40929031      2.85648632      2.73232555
S        22.52939606     17.17346382      2.75738835
S         1.87331772      7.22265673     23.90032387
S         2.26256871     21.15962601     23.27625656
S        16.07488823      7.61203718     22.52748299
S        15.91935444     21.23694038     22.55862999
S        -0.69354522     10.41434860      9.77535439
S        -0.31217241     24.20681953      9.76179028
S        13.01572704     10.43313408      9.47003841
S        12.99656010     24.06367111      9.55801296
S         8.60455513     14.71838760     13.18841648
S         8.84735584     28.31341171     13.40188885
S        22.70127869     14.24760246     13.82845688
S        22.57326508     27.88492775     13.21602726
S         6.35899734      3.40833163     26.84660149
S         6.26097298     17.60320473     26.97801208
S        19.57574463      3.37315011     27.06982803
S        19.76449203     16.78464508     27.28623962
S        -0.87120241      7.52374697      6.96518612
S        -0.87633055     21.52370071      6.86957598
S        12.93317890      7.52481174      6.56751156
S        12.60447884     21.57511902      6.43602228
S         2.15105414      9.98373604     20.84716988
S         2.47804403     24.04512978     20.92899513
S        16.17340660     10.48850918     20.00424385
S        15.81871223     24.11234665     19.96311378
S         9.19321346     10.73771191     26.95246315
S         8.62815857     24.08869934     27.26527214
S        22.43342972     10.29654789     27.71631050
S        22.23957443     23.88454628     26.75261307
S         5.99616146      8.04697895     13.86083698
S         5.84536362     21.30221939     13.91236877
S        19.78771400      7.63302040     13.20240307
S        19.90541649     21.31088066     13.69994164
S        -0.63491094      3.29598761     20.02164268
S        -0.42452648     17.02559662     20.14917374
S        12.92750359      3.60578156     20.25469971
S        12.88467693     17.20412254     21.13203049
S         1.96483302     14.78348732      6.72794819
S         1.84200215     27.95587921      6.24363661
S        15.33612633     14.20350933      7.39170599
S        15.69398022     28.01055336      6.66422081
S         5.98531246     10.57183266      2.14559650
S         5.66525269     24.38790894      2.86341810
S        19.57952309     10.32072163      2.85403991
S        19.68061256     23.74713516      2.65807390
S         8.80167675      8.15183544     16.56474113
S         8.86981010     22.13774490     16.27945518
S        22.26847839      7.35186815     16.29789352
S        23.21673203     21.07538605     16.02734947
S         2.09607577      3.77034163      9.20808887
S         1.60578036     17.49334908      9.51976395
S        15.94188499      3.91992307      9.78358364
S        15.76159191     17.06318283     10.14956760
S        -0.70905292     14.40369797     23.22191620
S        -0.86567634     27.99858093     22.96829414
S        13.13912773     14.14681625     23.42115021
S        12.75014782     27.68625069     23.05275154
S         1.64005482      3.76855898     13.03247166
S         2.32322073     17.12441635     13.29247761
S        15.37014389      3.87505627     13.29489994
S        15.83689785     17.49686241     14.74967098
S        -0.51862091     14.48527145     26.96483803
S        -0.64823818     28.12466240     26.65379524
S        13.34887028     14.22112942     27.57420921
S        13.13981247     28.17309380     27.23069954
S         6.11981821      9.70872021      6.30386829
S         6.28923082     23.34162712      6.78356361
S        19.80401421     10.83133984      6.52830601
S        19.74021721     24.38020515      7.32678175
S         8.92057133      7.20985746     20.27928734
S         8.58755207     20.54277802     20.20350456
S        22.74019051      8.26091957     20.22739029
S        22.14488792     21.62205124     20.47034645
S        -0.88025528      3.89920640     16.11536217
S        -0.43666539     17.30700302     16.37051773
S        13.01939678      3.76762509     16.25208473
S        12.68774319     17.19982338     16.89190865
S         2.20250225     14.55622864      2.85039568
S         1.86818361     28.00052834      2.58292365
S        15.90460205     14.60998631      3.31931186
S        15.47567272     28.04069901      2.72200346
S         8.68275642     10.02958393     23.18957138
S         8.94852257     23.50276566     22.87675285
S        22.96124649     10.65603352     23.16278458
S        22.14853096     24.14576530     23.31089401
S         5.98613310      7.80580473      9.53382206
S         6.06566000     20.83942604      9.62855911
S        20.08531952      8.06862926      9.44178200
S        19.83921814     20.89764786      9.53236961
S        -0.44751269      3.52673912      2.41527653
S        -0.81902558     17.41469955      1.92801857
S        12.28195286      3.02068830      3.20515108
S        12.85639763     17.31885529      2.96921802
S         2.30019879     14.57877541     16.24483299
S         2.35928464     28.54703712     15.86447144
S        15.57912445     14.12048054     16.76770973
S        15.84611511     28.30375290     16.16091728
S        -0.78436762     14.69562435      9.21864796
S        -0.41770923     28.09059906      9.45615673
S        12.69777679     14.75289917     10.56630993
S        13.07105637     28.24683380      9.79195881
S         1.92874014      3.33346677     22.54052544
S         2.17683983     17.13829994     22.88583565
S        15.56717682      3.56989408     23.11693954
S        15.97499371     16.89017105     23.54423904
S         2.17978811      3.73514056     26.88134003
S         1.98705077     17.58969498     26.78431320
S        15.47476387      4.06783104     27.70786095
S        15.97451019     17.35279846     27.59628868
S        -0.46746683     14.17793560     13.43699741
S        -0.72340810     27.97112656     13.37999725
S        13.01748562     14.46288395     14.00594139
S        12.99790001     27.86380005     13.58292294
S         2.14066792     13.90623569     20.40341949
S         2.27772117     27.91231155     19.91390419
S        15.95832348     14.33314896     20.53409195
S        15.53172684     28.25675201     20.27733231
S        -0.82173604      3.64838004      6.37201977
S        -0.95351499     17.52313042      6.49905825
S        12.88644409      3.57849813      6.80526447
S        13.13608837     17.15417480      7.24154472
S         5.98067379     10.97321892     16.30645943
S         6.11059618     24.61186600     16.18219376
S        20.23189354     10.52930641     16.20124626
S        20.00972939     23.73508263     16.32329369
S         8.94403076      8.08457279      2.32204771
S         8.75042534     21.60906982      2.83915162
S        22.32705688      7.18868876      2.99767613
S        22.45230865     21.03482246      2.49466991
S         6.04612207      6.96058559     23.03428459
S         5.90635729     21.27919769     23.45441246
S        19.91167641      8.42972279     23.69098473
S        19.17823219     21.46979523     22.83485413
S         9.09516716      9.81881523      9.30377102
S         8.75469112     23.88788795      9.49341965
S        22.92559052     10.85443020      9.38121319
S        22.66751099     23.80259323      9.61469841
S         8.50674248     10.86353874     13.52264404
S         8.66970921     24.21328163     13.08697987
S        22.81323433     10.01535606     13.57272148
S        22.45489311     24.12633896     13.11916637
S         6.35256386      7.85311413     26.65042305
S         5.96402740     21.60324478     27.32787132
S        19.62740517      7.14918613     27.32631493
S        19.51856041     21.12494087     27.08310318
S         8.96732998      7.25546885      6.55661345
S         8.63277721     20.41183090      6.82489204
S        22.57650566      8.31608582      6.52904224
S        22.76152039     21.30072594      6.73196411
S         6.06449175      9.74680710     20.18322945
S         6.32178593     23.80424500     20.38426781
S        20.12224960     10.80722713     20.46820831
S        19.45396996     24.57766914     20.41181183
S         9.11728287     15.01889992     26.77908516
S         8.87227821     28.00738907     27.26404190
S        22.79358482     14.12803078     27.57588959
S        22.56016159     27.75722694     27.13916016
S         6.71490955      4.23831987     13.40627193
S         6.40241623     17.75840569     13.42919064
S        19.69637108      3.64305949     12.84482002
S        19.71359634     17.12635994     13.80622864
S         8.73908806      2.80679822     20.59037781
S         9.20753956     16.46557808     19.89663696
S        22.68046570      3.71826291     19.96346092
S        22.53872871     17.54385757     20.62278175
S         5.81164455     13.41209507      6.24271536
S         5.97902775     27.59311104      6.40468740
S        19.43479156     14.78658676      6.87538052
S        19.83657837     28.79450226      6.06123257
S         6.37528896     14.99396610      2.44838095
S         5.85578346     28.47689819      2.62412858
S        19.98476982     14.41533089      3.16512680
S        19.14089775     27.64779663      2.22750282
S         8.84180927      3.87232351     16.70090866
S         9.45463181     17.23836899     16.01545334
S        22.22604179      3.48135710     15.85600185
S        22.29666519     16.77731895     16.64410019
S         5.75703621      3.49210095      9.30867577
S         5.45877743     16.50134277      8.92867947
S        19.94335938      4.05296993      9.05319309
S        19.63506889     17.47749329     10.26307869
S         9.40784550     13.91599083     22.73777199
S         8.63099480     27.66597748     23.39739227
S        22.61044502     14.38850498     23.22956467
S        22.31164551     28.14008141     23.01235390
S         2.07411695      7.70147943     13.62857819
S         1.78277111     21.60575294     13.56094265
S        15.46661282      7.52004814     12.82448196
S        16.49154282     21.38078690     13.76724815
S        -1.13111222     10.53981876     27.66419601
S        -0.79275298     24.14848709     27.09899330
S        12.97942352     10.77449703     26.82507133
S        12.75132370     24.04572105     26.81671333
S         2.24484634     10.60274315      6.85998297
S         2.10665107     24.15727997      6.92989635
S        16.04090691     10.33491039      6.61250591
S        15.54032040     23.99055862      6.64247084
S        -0.73528373      7.39317179     20.45661163
S        -0.67823118     21.17344093     20.50896645
S        13.48351669      7.44151735     19.58294106
S        12.91611099     21.03067589     20.01042366
S        -0.75647330      7.58734083     16.46841049
S        -0.58186489     21.68365669     16.45469856
S        12.49911594      7.41590452     15.43415070
S        13.01987457     21.21369743     15.74324036
S         1.99827743     10.65169048      2.93779469
S         1.71763587     24.31419563      2.54527259
S        16.05207825     10.44332504      2.50490928
S        15.64830112     24.15604210      2.73245215
S        -0.51859480     10.17932892     23.61517715
S        -0.75630927     23.65342140     23.39352417
S        12.89071083     10.14138126     22.14313507
S        13.07913780     24.27043152     22.90142822
S         2.27460241      7.44662428      9.32615185
S         2.13208461     21.25098228      9.82430744
S        15.75072384      7.87577772      9.19142532
S        15.51631165     21.08320618      9.50332260
S        -1.64040339      7.22069168     12.71887112
P        -2.43175411      5.72950792     11.51163960
S        -3.65915990      4.73023415     12.69648743
S        -3.47471476      6.72176123      9.99429989
S        -1.28945041      4.37849569     10.81084919
S        -3.79074073     20.30088425     12.89962864
P        -2.80943012     19.35531044     11.49359798
S        -1.63225615     17.83578300     12.41320133
S        -4.09048510     18.41065788     10.02867889
S        -1.66843927     20.58406830     10.56315041
P        10.61902618      5.73052502     11.21196461
S         9.56887245      7.15542507     12.42131901
S        11.71773911      6.60169792      9.73531246
S        11.47777367      4.44468594     12.60459137
S         9.16950798      4.60001516     10.09574127
S         9.41762829     17.91445541     10.26998615
P        10.69277287     19.15247536     11.21377659
S         9.74785137     20.50118065     12.42501926
S        12.29250336     18.33971977     12.37916279
S        11.77983379     20.25505829      9.72148609
S         4.49849844     10.65773010     24.02075577
P         3.88018894     12.29117393     25.15724564
S         2.90305066     13.60664654     23.82933617
S         2.97426724     11.33714199     26.76128769
S         5.41389465     13.27439022     26.10784912
S         2.70851374     25.24735451     26.24283600
S         2.82657003     27.52737045     23.56763458
P         3.74233007     26.47123146     25.09160423
S         4.94097662     27.59926987     26.31220245
S         5.17594910     25.28515816     24.00534058
S        16.29502869     11.34151077     24.36180496
P        17.61728477     12.63405228     25.34044456
S        16.64749718     13.79830551     26.76710320
S        19.06240845     11.55117989     26.33938789
S        18.40068245     13.70092964     23.57453728
S        16.02827454     27.17137718     26.41412163
P        17.36105537     26.04506683     25.29357338
S        18.63297653     27.30402756     24.35153008
S        18.38267326     24.69083595     26.25338936
S        16.31723404     25.22408676     23.85933113
S        23.23819160     11.61832619     17.09844971
S        25.62881279     13.66196060     17.13051414
S        25.49920845     11.00570583     19.55977631
P        24.48167419     12.48243141     18.46243668
S        23.54704666     13.82168865     19.72819710
S        23.20286369     24.93146515     16.92811584
S        26.17567825     26.91532707     17.51386452
S        25.46987915     24.57384682     19.56840897
P        24.60918045     25.91363335     18.38764763
S        23.10952950     27.17651367     19.37193108
S        12.01996994     14.04976559     18.48213959
S         9.90324497     12.75504208     16.54333878
P        11.00734520     12.29959202     18.25853729
S         9.63740921     11.98155975     19.70989609
S        12.06766701     10.65920830     17.54810143
S        12.42833614     27.64725304     19.09827423
S         9.55529881     25.97153854     19.49348450
S        11.92512417     24.29059601     18.34793854
P        11.29201698     26.17361641     18.29950714
S        10.57804108     26.60687637     16.46322823
S         5.22039747      4.86014032      6.01080370
S         2.59062767      6.60588980      5.35325623
S         3.10036898      3.98593521      3.46340275
P         4.03673458      5.38958359      4.55889225
S         5.03471565      6.55283546      3.19736648
S         4.42064667     21.29039955      3.61236072
S         5.08476496     18.10854340      4.20842600
S         1.91907740     19.30725288      4.67437410
S         4.16057014     20.26647186      6.79255629
P         3.92328811     19.67542076      4.70501328
S        16.13975143      4.74542570      5.51181364
S        18.66310501      4.42155457      3.35090661
S        18.90924835      6.90929937      5.86737156
P        17.48299217      5.86635017      4.42326021
S        16.80238533      7.42508459      3.40917516
S        18.90476418     18.12709618      3.55354404
S        18.72886467     20.66121292      6.18744230
S        16.47401810     18.24481773      6.17236042
P        17.66158485     19.46606255      4.63661289
S        16.48824120     20.73384666      3.61064982
S         5.39674139      6.63249874     16.82385063
P         4.38839960      5.32809353     18.04899406
S         5.61429453      4.08032417     19.18214226
S         3.64453673      6.41587973     19.59323120
S         2.91829371      4.53516054     16.99963379
S         3.71920896     21.18351746     18.57773781
P         4.12218094     19.20327377     18.48080635
S         5.07976627     18.35170174     20.25242043
S         2.47042227     18.27144241     18.19039345
S         5.50649261     19.08485603     16.89486122
P        17.98962784      5.57531261     17.98891258
S        17.15728378      7.27127934     17.03384972
S        19.46744728      6.57903290     19.27773094
S        16.62773132      4.42190742     19.36623383
S        18.89090538      4.04795504     16.85353088
S        19.21829033     18.31211853     17.48468971
P        17.86836243     19.36326408     18.67819405
S        16.53863335     18.24098778     19.89129448
S        18.88300514     20.62221146     19.92378998
S        16.74989128     20.56769180     17.47621155
S        25.48661804     11.91270733      6.03338766
P        24.26235199     12.92168045      4.74602985
S        23.41643333     14.16408730      6.00874043
S        25.79254532     14.11469269      3.89089012
S        23.17049026     11.46204948      3.62103820
S        25.39146042     26.77062225      3.32660985
S        23.27489281     24.52910614      4.02909994
P        24.34076309     25.98487282      4.93494034
S        25.62730980     25.01346397      6.25826216
S        23.17763519     27.32729340      5.97402573
S        10.33457279     11.57185745      5.66995955
P        11.51775551     12.53550625      4.38932610
S        12.53995609     10.96790504      3.35499978
S        10.19874382     13.31668091      2.96031451
S        12.56401730     13.80835724      5.45766735
S         9.35509682     26.72632790      3.54754758
S         9.60269547     25.09793282      6.34034824
P        10.70389748     25.89599991      4.93303967
S        11.90033054     27.35323143      5.63862467
S        11.61751652     24.41122437      3.85073519
P         4.09173918     12.72516346     11.44578552
S         3.28296852     11.38775921     12.81294155
S         2.62911510     13.65832424     10.30636597
S         5.11310959     11.51154518     10.15377808
S         5.07313824     14.03290558     12.45356846
P         4.04773951     26.07818794     11.14745903
S         5.21718931     24.85680008      9.94524479
S         2.88500452     27.59772682     10.03880024
S         5.12588215     27.30901146     12.42203426
S         2.86456490     24.71081543     12.31484032
S        18.91811562     13.54516983     10.44240665
S        17.24555779     10.67356586     10.63352394
S        16.52152252     13.21655083     12.92351532
P        18.08336830     12.28166962     11.70462036
S        19.35449028     11.42664146     13.06025791
S        18.98451996     26.74539757      9.88019753
P        17.43158722     26.28673172     11.18912315
S        18.51162529     24.95076370     12.44811916
S        16.01753807     25.43238449      9.98888779
S        16.92074203     27.84941864     12.38474751
S        10.05932999      6.48034525     26.96039963
S         9.71750164      4.40051603     24.08554840
S        11.99433041      4.00625467     26.57064056
P        10.97588444      5.48105288     25.44525528
S        12.41108704      6.80461454     24.33502197
S        10.15891075     20.50894165     26.45639420
S        12.68800259     20.28967285     23.94529724
S         9.76257706     18.52518845     23.79832458
P        11.12600613     19.42676544     24.95334816
S        12.18852139     17.81476021     25.72023392
S        -3.81555986      6.44584179     23.76785278
S        -2.26827812      7.34854221     26.45773888
S        -0.94838309      4.68048525     25.05773544
S        -3.80125952      4.38119698     26.59297371
P        -2.67735600      5.69421911     25.47400856
S        -4.13766575     18.33652878     26.61108971
S        -3.97126842     20.07114792     23.54279900
S        -1.95658827     17.49200821     24.28789711
S        -1.72110009     20.74645805     25.78660774
P        -3.09671164     19.26252747     25.18811035
