864

Li      -75.42247772    -24.42875099    106.40406036
Li       84.23173523     57.97376633     12.72607136
Li      -24.15834045     80.09825897     84.12789154
Li       67.49636078    136.29980469    -38.45840073
Li        6.57825041     -9.40478992    203.56951904
Li       15.12114239     40.24040985    -54.94480896
Li      -79.66193390     91.42572021    -89.32540131
Li       23.60778236      3.45414114    -93.82457733
Li      -28.26987267    -78.14225769     25.41775322
Li      -10.56164360    -10.49471283    -51.18640137
Li      101.34691620    117.34843445    -16.93926811
Li       -1.12710690    -29.18101883    166.62916565
Li        7.77988768    -16.66327858      2.80525279
Li      -41.11568451     38.39598083     93.23939514
Li      -23.52330780    141.52622986    161.90829468
Li       -6.89824009     10.75078297      8.78032017
Li      114.52006531     55.93212509     88.30601501
Li       15.29318523    -20.20500374     -3.52977133
Li        6.10254955    -68.86458588     -8.87236977
Li      -11.21591854     63.39273834     25.65641975
Li       71.49832916    -42.28756714    -37.98103714
Li      -96.87569427   -143.69152832     37.92533112
Li       10.98916054     13.94812584     68.05865479
Li      105.71383667   -127.61144257     76.22074890
Li       66.80155182     12.56873989    -63.63171768
Li       44.81069946     61.96249390     33.48783493
Li      -75.91928101    -91.39859772    -17.43458176
Li      -27.91715813    -59.04232407    -12.69906139
Li      -40.60145569     14.64443588    -46.98368835
Li      -23.67283440    -32.53260803     93.06050110
Li      -17.73995781    -11.19653225     -2.46715522
Li      -23.43200493     68.80232239    114.37617493
Li       88.33353424     16.79100418     58.96295166
Li      -51.25799942     70.47463989     48.90764236
Li       88.06255341    104.06876373     25.48262215
Li        2.01882887     72.81744385    -80.69104767
Li       36.45772934     -1.28034782    -50.92374039
Li      170.57540894     60.60042953     34.63465500
Li      232.45190430     79.43986511      5.73707151
Li     -140.67845154    -23.72502518   -102.20232391
Li       70.92903900    -88.62775421    102.32892609
Li       23.71377945    105.76870728      0.33281657
Li       57.76893234      3.70639491    -42.63730240
Li       49.25209427     98.79392242    127.18897247
Li       45.94368362     86.83251190    -30.13719368
Li        6.42004681     22.05027390    -63.68083191
Li       75.73220062     30.94436073     46.86114120
Li       81.03653717    -36.21075058     63.32085800
Li       73.40845490    -11.69982815    -57.46809006
Li      -19.36462402      1.00259233      8.59958649
Li      -31.69448471    -24.72751427   -105.08895111
Li       10.79022503    -55.47037125    -80.26041412
Li       14.91451263     63.07852173     67.87490082
Li       28.37451553    113.81123352    127.27761078
Li     -139.90814209   -104.33893585     42.35248184
Li       71.71956635    176.84223938      8.65279865
Li      -41.18144226     25.92507553     33.64170837
Li       -1.77110994     28.18658447    -97.50293732
Li       28.48983765     84.19389343     58.67870712
Li      -71.51710510    -12.03941345    127.31433105
Li       -1.82393920    -47.31765366    -79.93240356
Li      132.25529480    117.46614075    -93.34391022
Li      -10.32711983     27.67627144    -93.07048035
Li      -67.59297943    -22.57623672    106.16014862
Li      -53.42193222    -47.03359222    -20.52120972
Li      -97.00003052     63.98406982    114.38835144
Li       12.94332218    -24.38046265    -10.49909973
Li       45.60019302     29.83629799     24.68140793
Li        6.81003904     -2.17451596    -17.53609848
Li        6.39310694    -41.91677856     75.95610046
Li       -5.89089060     -3.67325115     20.86829758
Li      -10.19923973     43.29563141      4.66292238
Li      -79.42765045     10.07566452      3.95232940
Li       41.58233643     49.70629120    -21.20212555
Li      -14.69852734     32.76482391     37.44945526
Li      170.58645630    102.95002747   -105.67369080
Li        6.35728168     57.76967621    -20.96730423
Li      -70.74113464    -47.36851883     89.71535492
Li      -40.65801620    -30.76764488    -46.81234741
Li       29.93357468     51.40163803    -82.62279510
Li      -10.09696484     22.37387657    -59.58477783
Li      -58.69420242     53.06341171     24.93066025
Li      -19.54896736     45.71616364     85.12925720
Li      -40.48454666     11.43640137     56.02961349
Li      -23.71276283     35.16867447    -12.55025005
Li       10.97638702     80.65071869     55.10200882
Li      -84.34500885    -18.78249931    131.41647339
Li       33.06062317     10.07010174     -4.52801514
Li      -42.31740952     47.20407104     27.05613708
Li       14.91232109     30.74225616    182.32934570
Li      -19.73024559    -86.92641449    -59.78277588
Li       -6.56211090     28.63262177     93.42380524
Li       45.70512390      2.50773644    -20.55871964
Li        6.86494064     49.60135269     84.43122864
Li      140.91317749    -39.12070847   -106.61723328
Li      -57.69503403    -75.90190887    -38.60096741
Li      101.94216156     67.80512238    -80.75424194
Li      -36.75938797    -23.76523399     47.23093414
Li       -7.01986265     44.13365173    -93.67293549
Li       23.63177490    -80.89939880    114.30615997
Li       -2.49220991     74.80935669    -34.95419312
Li       85.40265656     19.83909035   -158.21343994
Li       36.64915466    101.44625854     -7.84807205
Li       -9.63682175    -74.59030151    -10.27158642
Li      -63.07912064     39.52758789     75.96360016
Li      -59.07317734     65.29202271   -134.25065613
Li       62.82624817    128.98649597     63.84563828
Li       10.80264187    -69.93189240    -76.67520142
Li       18.83239365    -31.95390892    165.69392395
Li      192.02449036    116.67138672      4.28265429
Li       28.32625008     23.41302872    -21.37387276
Li        1.63193190     31.73939323     16.81125450
Li       49.47519302    -42.20415878    109.96165466
Li      -24.09231567    -55.69966125     25.28021431
Li        2.25646996    150.24256897      0.43000776
Li       45.05310822    -37.60824203     67.24021912
Li      -45.66394806    -23.67590714     -0.62108248
Li       91.93402100     87.90040588     -6.87552118
Li      -32.54896164    -91.22914886    -71.81013489
Li       -6.77292395   -127.78074646     41.93125153
Li      -36.45220184    -62.53810120     37.83692551
Li        1.59714246     31.45755196     63.49947357
Li      -37.13161469      0.16953507     -0.10173070
Li      -23.31444168     50.13053894    186.58978271
Li      -58.69369888    -55.64685822    135.31959534
Li       -1.68298936     16.76278877    -29.47791481
Li       -6.73839998     19.85355377    118.91776276
Li       54.71152496    -54.38197708     80.56386566
Li      101.22551727    115.12716675     94.03060150
Li       -5.83712292    -17.96809578    173.83964539
Li      -53.47076416      9.84041500     51.03834152
Li       79.65366364     35.34727478    -80.47898102
Li      -41.21766281     25.84269142    -34.55765915
Li      106.12025452     -7.06480169    135.96824646
Li      -45.43535995      6.47101307     17.30753708
Li       71.70536804     41.31785202      0.17356260
Li       40.48808289    -32.79627228    135.21734619
Li       65.44810486    124.22266388     78.28864288
Li       18.70489311    -58.78773499     58.99942017
Li       49.99650574    109.46673584    -55.31370926
Li      -32.39255905    -82.39606476    -21.23186684
Li      -15.68692303    -58.69533157     -8.22495174
Li     -131.76066589     14.97126007    -89.27894592
Li      -93.21662140    -46.09263611     67.66352844
Li       49.58027649    -30.17270470     17.50458336
Li      -40.79305267    -89.53353882    147.86054993
Li       98.24230957     86.49001312    144.60552979
Li      -32.05844498    -31.07012177     68.04347992
Li      -23.91770744    -15.96223164    -24.95525551
Li     -115.03588104     35.84110260    -42.53525543
Li      -62.59807968   -111.06072998      8.03481102
Li      -57.24513626     75.08322144     81.64539337
Li       15.27449322     40.38647079    -46.51572418
Li       79.84313965     53.23419952    148.73416138
Li       58.32039642    111.52675629     93.34072113
Li       32.18684387     69.58023071      9.43076229
Li      -79.70858002    -44.14682388    -59.28329849
Li       54.91832352    -63.37253952    -51.16950607
Li      187.82536316     63.51863098    -76.23525238
Li      -88.20860291     37.46553040     80.21725464
Li       27.61954117     -4.71222878     46.66691971
Li       58.07407379     39.39797974     33.23674011
Li      -45.38071823      7.02472496    161.36981201
Li       23.45896149     24.43212509    130.66561890
Li       -1.48035395     46.90119553     45.06574631
Li       24.27507973    -67.82950592     16.75960922
Li      -21.17891502     84.18807220    -86.66577911
Li      136.35678101    145.88426208   -143.43463135
Li       32.00386047     33.37331009     77.19458771
Li        7.26796198      0.96488339      3.59795260
Li        6.31325531     12.85947609     21.20838737
Li       45.37618256    104.43588257    105.89732361
Li      -23.24810600    -30.99746895   -140.20162964
Li      -14.47178173     56.61729050    123.50077820
Li       28.46983337     10.42780113    -71.76687622
Li      -70.99469757   -116.46791840    130.91465759
Li       28.25312233     44.74885559      4.38816452
Li       75.50580597    166.36167908    -38.08692932
Li      -23.31397057     41.75647736     71.73320007
Li      -15.42559910    -10.16801834     63.66717148
Li       41.76403046      0.69453943    -29.86532974
Li        6.27343321    -39.08059692     42.82146835
Li       49.60933685     30.49721718     41.96429825
Li      -10.65629578     24.76598930     -3.52070403
Li       14.64509869    -69.10711670     92.52964020
Li       66.60033417     66.57645416      8.01316166
Li     -114.53092957   -120.23623657     34.29040146
Li       -6.34161854     -6.55783510     21.77402496
Li       37.03981781     62.59561157    122.87228394
Li       80.80666351     99.67319489     92.84714508
Li      -36.59922791    -34.41187286      1.38903773
Li      -58.61532593     46.95278168    -41.82575989
Li      -32.81642914      7.61087608   -153.06663513
Li      -15.31964111     19.97904968    -67.47378540
Li        8.48117638    -74.09397125    -27.54623985
Li       32.06505966     48.86801147    123.01307678
Li      -28.12650108     43.09400558    -68.15956116
Li      -41.12476349    -52.55781174    -42.15632629
Li      -10.99265289     15.62274647     68.28594208
Li       15.46354389    -74.42602539    -20.97609901
Li       15.87636375    -76.57376099     12.33100224
Li       79.41828156     49.04473114    152.54521179
Li        2.61250424     68.40927887    -47.02748871
Li       58.77533722      1.22987151     46.24846268
Li       49.96543121     19.31887627    -16.44338799
Li       71.32910156     56.60248566    -12.75303173
Li      -10.59381866    -34.94676971    156.78121948
Li       62.79349518    -42.14518356    -88.71322632
Li       79.52584076     -0.98528957    118.28400421
Li       70.97448730     53.50454330     38.30243683
Li       84.16587067    107.18296814     16.93134117
Li        2.78829837     65.53640747     47.61295319
Li       50.37904358     73.70996857     28.67733574
Li       27.92768097   -161.19952393    -76.26392365
Li      -36.41360092     -7.81496811    -81.31597900
Li       41.09774399    160.56167603    114.78107452
Li      -19.21972466    -19.93179512    131.98977661
Li      -31.75066376    -12.77031994     29.43840599
Li      -23.58409119     53.54182053    -38.17385864
Li     -125.56330872    -84.63263702    -49.39807510
Li       67.02388763    -53.56094360    -59.39112854
Li       53.90557861     28.66799927     17.53881454
Li       63.24184036     99.52857971    -21.16638374
Li       -6.01027155    -21.83217812    -97.73084259
Li     -153.00144958    -93.96531677     17.59543991
Li       19.62485313     98.79762268    -55.08876038
Li       -2.57227087     81.34613800    -16.88057327
Li      -69.40595245    -56.28615952   -112.78912354
Li      -15.00032330    168.81570435     25.90529060
Li      -44.78582764     76.67215729    -21.08632660
Li      -27.84799194     61.11916351     12.90592194
Li      -19.34006310     91.00033569    -33.60083389
Li       97.76563263      5.07515001     51.24972916
Li       28.39742470     29.53751755    -30.00780106
Li       76.10054779     10.22112751     -4.50029898
Li       75.02286530     76.34317017      4.29287672
Li      106.30206299     33.50635910      3.48110390
Li       57.67222595     44.80721664     46.49775314
Li      -11.14993763     57.77620316    135.22271729
Li      -24.03816795     35.03539658     67.78756714
Li      -79.35536957     18.66203690     12.44844055
Li      -18.86243057    -11.11455631     30.51819038
Li       -1.41659892    -37.85595703      4.77128839
Li       23.38555527    -33.20808792     -0.86937201
Li       19.88844681    117.47070312    -89.23744202
Li       50.27722931     13.51207447    -25.50882339
Li      -97.59753418    -41.47062302    -12.60243607
Li       70.84327698    -10.42258167    126.68158722
Li       26.13890266    149.32171631    133.32771301
Li       10.58485126   -122.30066681     33.76554871
Li       23.39991570     18.01227379    -33.70447922
Li      -49.40358353     -6.67900133     30.23024750
Li       10.38727379   -194.62147522   -105.90679169
Li      -11.20168877    -32.91756439     38.64593506
Li       -6.07691193     65.42370605     81.12978363
Li      -19.24624062    -38.04631042   -139.22457886
Li       18.96426773     40.56472015     42.30300140
Li      -19.49649048    -75.56888580     97.17913818
Li      -71.31110382     12.99351692    -72.09480286
Li      -93.60464478    -47.27572250   -196.20027161
Li      -18.98101616    -26.24601746     25.49600220
Li       41.32059097      9.91454792    -29.74004745
Li       32.39770126    160.70182800    -80.52919769
Li      -15.13754940    -25.70844841     42.70024109
Li       71.98661804     -8.65170479     38.15291977
Li      -55.94823837    -96.80381775     -1.71171582
Li       64.07617188     83.55678558     57.00051117
Li       37.35375214    126.67460632     50.69831467
Li      -11.14958763    -84.13648987     51.50960922
Li      -15.33034992     29.30248070     50.74337769
Li       20.19284821    -66.03327179     11.37289619
Li     -126.89371490    -33.62693405    -62.76962280
Li      -54.19150925     48.80784607     46.79161453
Li       78.19623566     65.15713501    -65.79771423
Li       -6.89564848     40.28102875     -4.27079487
Li      -67.41027832    -64.67466736    168.70016479
Li      114.84554291     23.46057701     37.70775604
Li      -11.73526192    -29.54933929    -83.14741516
Li       12.59823608     42.19092178   -167.47975159
Li       66.90828705     45.91505051    -42.16407013
Li      -11.04909801     20.67027473     75.10767365
Li      -70.73901367    -62.76093674     93.31950378
Li      -19.00904655    -26.60753250     12.58644867
Li       23.28161240      6.25565481    -41.79051208
Li       36.75393677      8.81371784    -88.95181274
Li       49.76626968    133.17256165     -3.93199015
Li      110.65997314     79.70206451     80.54029083
Li     -110.84648895    -52.72165680     59.89854050
Li       22.04621315     38.92680740     40.12421417
Li       28.51632500    113.87009430    148.02246094
Li       10.93415546     32.58860016     85.03266144
Li      100.13263702    105.96150970    -14.68939972
Li       71.13967133     37.96659470      0.74766272
Li       17.80810738      1.65744650    -23.41223145
Li      -54.32338333    -59.97431183   -169.91793823
Li      -37.15435410    -45.74246216     12.66403389
Li      -32.52573776    -22.35321617    -93.18468475
Li      118.46613312     81.34606171    -72.08781433
Li      -53.00649261    -22.67416000      3.76738524
Li      -10.55108643    -92.91962433     63.49460220
Li       77.73720551    -64.82964325     40.94932556
Li      -19.05878639    -29.23585129     24.61829376
Li      -19.86270905     21.48276711    152.17495728
Li       19.67852020     23.35581398     25.60226440
Li       75.30400085     81.13330078    118.46031952
Li       19.32559013     80.53781891    123.08433533
Li       63.02989960     74.81594849     80.82917023
Li       11.21070862      5.22530460     46.41795731
Li       36.24651718     37.62165070    -16.63772774
Li       -2.64480805     12.77888107    -20.93914795
Li       15.27167988    124.70278168     98.36047363
Li       14.91859436    141.59176636     76.66025543
Li       78.21618652     56.07002258     61.00333405
Li       -7.38392115     52.96201324     -9.07214546
Li       88.63657379    122.99311829    101.81504822
Li       27.91916084     13.66559982    -16.91195488
Li       28.49910927   -124.35893250     89.61194611
Li       93.08071136     72.99533081     42.20565033
Li       -2.34785581    142.30520630    -24.82227898
Li        2.08087468     92.36066437    -58.73820114
Li       62.50164795     59.27986145     -8.81158066
Li      -66.74956512    -96.86108398     -4.13479185
Li      101.44527435    -27.31320000    -51.06091309
Li       10.76304913     77.19295502    -42.31681824
S         0.08615702      6.15203190      0.48089498
P         0.16518338      7.35150957      2.02760053
S         1.64825499      8.88163948      2.01152968
S        -1.72709572      8.40359116      2.18515015
S         0.37510335      6.31035519      3.63623595
S         0.05119002      6.26820755      8.74281788
P         0.11146929      7.40842628     10.54730988
S         1.70200014      8.76061249     10.46990967
S        -1.70360780      8.24995518     10.64225197
S         0.38472331      6.41386366     12.33004284
S         0.41192964      6.47149372     20.74499321
S         0.05929842      6.27048588     17.27726936
P         0.13376893      7.41076565     18.94017029
S         1.67254102      8.69453144     19.01119804
S        -1.73100400      8.25386715     19.14530754
S         0.46184224     15.43680096      3.80426884
S         0.07432889     15.27641487      0.32387686
P         0.05903170     16.49625015      2.02452493
S         1.62205398     17.76617813      2.04465032
S        -1.67326641     17.35783577      2.14398575
S         0.27630103     15.29946613     12.24659920
S         0.07578882     15.28536987      8.91365910
P         0.22301303     16.52741814     10.55694008
S         1.67217183     17.89726448     10.35999680
S        -1.69770360     17.32501984     10.65546513
S         0.29671505     15.30233288     20.71145248
S         0.19292581     15.18428421     17.32936287
P         0.08179076     16.54011154     18.99092865
S         1.69861937     17.90159225     18.85277176
S        -1.72528589     17.40665245     19.23615074
S         0.29365310     24.39235497      3.78602266
S         0.13203308     24.32040977      0.41131288
P         0.15613428     25.64660263      1.98280776
S         1.73472631     26.86535072      1.91208565
S        -1.76925170     26.34330177      2.24765778
S         0.36673784     24.27235985     12.30632019
S         0.11387303     24.24966240      8.86596489
P         0.19701506     25.57886696     10.52334595
S         1.61230505     26.95733070     10.39334202
S        -1.74124479     26.50749588     10.64254284
S         0.44862491     24.45110130     20.80032730
S         0.07735997     24.40054893     17.33822632
P         0.12921467     25.45217514     18.95051956
S         1.68666995     26.83670235     18.94676971
S        -1.79549062     26.42087936     19.08344650
S         8.84370518      6.37475681      3.81504536
S         8.68694210      6.29151058      0.34890479
P         8.93985176      7.47520924      2.04403663
S        10.44963741      8.81220436      1.88877177
S         6.84942961      8.14965630      2.24521208
S         9.07209873      6.42610216     12.29792309
S         8.69439411      6.25069904      8.81118011
P         8.77708340      7.40902662     10.42358112
S        10.27149773      8.72356796     10.54333591
S         6.94895077      8.29168892     10.65210152
S         8.99625778      6.33402348     20.74224281
S         8.72573280      6.32679701     17.38868332
P         8.80108452      7.43923330     19.02163315
S        10.38020420      8.75661278     18.86660576
S         6.86156416      8.24544621     19.10254478
S         9.07756042     15.41494465      3.83487391
S         8.55794048     15.23082066      0.31690702
P         8.81974030     16.38061523      1.98477817
S        10.34603786     17.95327187      2.11296868
S         6.96419859     17.34988976      2.09042597
S         6.79028511     17.23175812     10.67128849
S         8.97754860     15.49658585     12.27777195
S         8.74099541     15.37611961      8.75739861
P         8.84872723     16.52897835     10.63580322
S        10.40890789     17.70115089     10.39308071
S         6.90522575     17.47427750     19.13140106
S         9.00494576     15.21961594     20.77791595
S         8.87519836     15.30432415     17.37924576
P         8.72468853     16.48540878     19.08196640
S        10.25218391     17.84948540     18.75323486
S         7.00762606     26.46002960      2.14787197
S         8.96251011     24.26038170      3.78596878
S         8.69164085     24.25261688      0.46594721
P         8.87357807     25.57734299      2.00943685
S        10.23195553     27.01529503      1.93156838
S         6.90211201     26.45002174     10.64097977
S         9.00331497     24.28434181     12.22709942
S         8.85310078     24.32266617      8.90956497
P         8.65717602     25.61165428     10.67043781
S        10.34424210     26.89814758     10.28844261
S         6.84723282     26.14585686     19.20519257
S         8.88498783     24.58091354     20.83081818
S         8.70813560     24.46680069     17.21311569
P         8.85770893     25.62660789     19.01388741
S        10.46870518     26.74716187     18.85843086
S        15.49436760      8.28216553      2.30782318
S        17.59743500      6.40201330      3.77864480
S        17.54801559      6.27383280      0.29961631
P        17.36973572      7.50741386      2.09628105
S        18.97023964      8.63900757      1.86138308
S        19.03691673      8.82397747     10.46260452
S        15.48951054      8.31519794     10.56978607
S        17.72703362      6.33657360     12.34719181
S        17.31008720      6.22604847      8.72178459
P        17.41788101      7.39894438     10.63391399
S        18.99786949      8.71006203     18.83997917
S        15.42981052      8.34111786     19.29170799
S        17.59033585      6.36641884     20.74606514
S        17.54422188      6.22614717     17.27479553
P        17.41924095      7.45904112     18.96731377
S        18.92607689     17.76482010      1.95429635
S        15.49267483     17.43613434      2.28035998
S        17.67964745     15.41745281      3.93005466
S        17.49381256     15.26496506      0.20869885
P        17.38821030     16.44848251      1.96590161
S        18.97196198     17.85434914     10.36370754
S        15.51053429     17.37260437     10.59525299
S        17.65146255     15.28033257     12.20689297
S        17.38412094     15.28670216      8.93450928
P        17.46495056     16.54101562     10.63495159
S        19.05493546     17.82106781     18.82885742
S        15.54351234     17.23044586     19.11785507
S        17.58571243     15.39922333     20.82466507
S        17.35182953     15.40988541     17.31455231
P        17.44641113     16.47203445     19.03627777
S        18.93548584     26.98388100      1.89266801
S        15.62339973     26.41158485      2.12369847
S        17.60735893     24.34106636      3.82341623
S        17.33237839     24.34034729      0.37896332
P        17.48509407     25.48566628      2.12601447
S        18.93872643     26.80642509     10.41462803
S        15.60058308     26.33137512     10.61535358
S        17.66511345     24.52861786     12.39667702
S        17.34577751     24.45690727      8.70756340
P        17.43169975     25.43758202     10.59990120
S        18.96164894     26.97645378     18.92464066
S        15.55223560     26.45208359     19.09499550
S        17.65643692     24.37047768     20.70702744
S        17.33644295     24.31052589     17.40419197
P        17.47666550     25.45185089     18.98977089
S        10.48330116      0.49853262      6.32962418
S         8.64238262      2.53319860      4.56116772
S         7.08794260      0.12997824      6.27524710
S         8.44926071      2.52660394      8.08542442
P         8.58498669      1.51107287      6.32844305
P         8.62319851      1.47367954     14.86493969
S        10.43095779      0.52405995     14.84461498
S         8.59947777      2.54364562     13.08575249
S         7.09294415      0.12702127     14.70075226
S         8.50259781      2.52970719     16.47533989
P         8.62406635      1.43509090     23.23792839
S        10.53662968      0.40954661     23.29402542
S         8.61586094      2.65244699     21.61754608
S         7.06667805      0.07776161     23.26192474
S         8.40597057      2.62195444     24.94590378
P         8.54638195     10.41683006      6.28183460
S        10.56285000      9.47123909      6.19675732
S         8.79253769     11.75446129      4.62045908
S         7.05074835      9.09561825      6.44829416
S         8.29404449     11.68745899      8.03097534
P         8.57830715     10.53575611     14.67023849
S        10.57526970      9.58609295     14.98043823
S         8.56864548     11.63664246     13.03541946
S         6.99188137      9.19727707     14.78121185
S         8.53354454     11.47388554     16.49746323
P         8.63868523     10.42410278     23.30861473
S        10.45120239      9.56026936     23.36449623
S         8.54194355     11.61801434     21.60840225
S         7.07094526      9.15675259     23.11400795
S         8.54692841     11.66671658     24.96421051
P         8.57272720     19.45885849      6.33784676
S        10.48991394     18.69293213      6.38489437
S         8.63728905     20.65505791      4.58556414
S         7.01740885     18.23483467      6.24704838
S         8.53011894     20.61478233      8.02487278
S         8.48697948     20.60395622     16.69386673
P         8.60091972     19.56564140     14.82283020
S        10.47214985     18.67804146     14.80840111
S         8.65438557     20.57110405     12.92954254
S         7.03398275     18.24135590     14.71532440
S         8.27842903     20.76716805     24.97359848
P         8.68564987     19.52018929     23.19623184
S        10.51223755     18.47859955     23.16600800
S         8.76153278     20.82555580     21.61657715
S         7.01345158     18.06703758     23.40349197
S        16.94264412      2.54157066      7.96765661
P        17.27717018      1.34380519      6.26325274
S        19.30944252      0.46995226      6.28632021
S        17.31566811      2.64754176      4.64632845
S        15.62210846      0.19082394      6.41413069
S        17.16620064      2.50273395     16.56644058
P        17.30492592      1.44724154     14.72681427
S        19.20673943      0.57586795     14.91698837
S        17.18737411      2.49071169     13.07208920
S        15.60274029      0.18065912     14.68436718
S        17.16659355      2.50927043     25.07265472
P        17.19101334      1.45003712     23.24627686
S        19.11879349      0.66735983     23.26674461
S        17.34199524      2.40499473     21.59022713
S        15.64570522      0.16564687     23.18170738
S        17.07879066     11.79646873      7.93821239
P        17.29010391     10.40949726      6.35624647
S        19.17401314      9.39891720      6.33818913
S        17.20066452     11.74539661      4.73359537
S        15.72390079      9.07507896      6.21460962
S        17.01538467     11.55158329     16.43105316
P        17.26935196     10.52779961     14.75646591
S        19.14699745      9.51059914     14.79646587
S        17.32653427     11.68512726     13.10854626
S        15.70849800      9.15427208     14.87517643
S        15.75189304      9.26482582     23.21983337
S        17.08900261     11.50950527     25.11503792
P        17.30467796     10.57352161     23.21552467
S        19.10647011      9.56648827     23.33946419
S        17.21592140     11.51660156     21.46670341
S        15.77750683     18.22229767      6.23641205
S        17.11607552     20.67586517      8.05596352
P        17.25957870     19.54768372      6.29878235
S        19.13336563     18.51082993      6.41208220
S        17.17990875     20.70281029      4.57565737
S        15.71365643     18.30012894     14.64913464
S        17.15295792     20.62123108     16.60450935
P        17.32514381     19.49430656     14.85132980
S        19.13657188     18.61379242     14.91147232
S        17.14033318     20.62820816     12.95449066
S        15.55758572     18.21113968     23.13008881
S        17.12344551     20.71681595     24.94951439
P        17.35462761     19.45593071     23.33307266
S        19.24196243     18.61645508     23.32174683
S        17.19204712     20.65602303     21.62614250
S        24.31929970      0.09746992      6.17075777
S        25.83653831      2.54329753      7.99888563
P        25.94252968      1.48472464      6.39573908
S        27.70452690      0.57347614      6.37251711
S        25.88237953      2.49952149      4.64429760
S        24.40966988      0.06730191     14.60777950
S        25.83505249      2.65693808     16.56024742
P        25.91521072      1.47082436     14.82383251
S        27.73524475      0.42194182     14.90177536
S        25.78916740      2.58101034     13.07636642
S        24.38201332      0.15271902     23.20112228
S        25.77063751      2.53689384     25.04510117
P        25.85212898      1.47845709     23.24738503
S        27.82985115      0.45721152     23.36869812
S        25.84757042      2.57299447     21.49534035
S        24.30243492      9.16716194      6.25056791
S        25.79506493     11.59455872      7.94106007
P        25.99492645     10.41404057      6.28610277
S        27.76992607      9.56307888      6.45451069
S        25.82470322     11.68667316      4.64622402
S        24.35710716      9.21972656     14.74586773
S        25.64478683     11.65293503     16.43495941
P        26.01310349     10.46734715     14.79826069
S        27.83852386      9.45591259     14.80127621
S        25.83415794     11.63140488     13.18876457
S        24.39289474      9.01331425     23.27595139
S        25.91183090     11.55439281     25.00730133
P        25.83108902     10.51185226     23.15491104
S        27.59400368      9.59721279     23.45569801
S        25.95166397     11.75206757     21.46063805
S        25.94579315     20.66231346      4.57616329
S        24.15618706     18.25767517      6.31931973
S        25.79078102     20.56134033      8.05016613
P        25.87215042     19.43224525      6.21492243
S        27.91796875     18.74198341      6.41547203
S        25.94306755     20.69580650     13.11960030
S        24.36997223     18.20633698     14.76049328
S        25.67461586     20.72239494     16.48861885
P        25.96993256     19.45184898     14.86336994
S        27.72861671     18.57983971     14.73926353
S        25.94898224     20.77579689     21.44907761
S        24.47529793     18.10632133     23.24750900
S        25.72816658     20.70783424     25.01997566
P        25.88832283     19.57237434     23.38306999
S        27.64266014     18.49800110     23.26263809
S         6.10599756      4.19743729      1.99661529
S         4.74009562      1.80948663      3.89021492
S         4.42193747      1.80818760      0.34791875
S         2.53539062      3.71653819      2.15281534
P         4.33344841      2.95952249      1.97978020
S         6.12898445      4.23095751     10.53509521
S         4.74723530      1.82716691     12.19847107
S         4.30341053      1.76938725      8.91213703
S         2.44081712      3.70745587     10.54946709
P         4.52286768      2.95608807     10.56533432
S         6.04629898      4.20883131     18.92110825
S         4.74438858      1.79539430     20.81954384
S         4.36809874      1.77818477     17.20498276
S         2.40019512      3.79531479     19.03289604
P         4.58649921      2.91182399     19.17599106
S         6.05156422     13.20880795      1.93957114
S         4.71148586     10.91164398      3.81040645
S         4.46242905     10.88523579      0.31531090
S         2.47648406     12.81051826      2.16019082
P         4.43848085     11.90244961      2.14757562
S         6.10248518     13.14704227     10.32911968
S         4.67078590     10.82374954     12.36684036
S         4.52038574     10.91642761      8.82738304
S         2.38761401     12.76189804     10.67075539
P         4.45990229     12.07542706     10.56644344
S         6.03133249     13.27378845     18.87443161
S         4.63875341     10.83974075     20.74585342
S         4.49084568     10.80324268     17.30530548
S         2.48007798     12.84634972     19.18743706
P         4.50158215     11.95740509     19.03675270
P         4.46132708     20.93596840      2.04814076
S         6.05003595     22.35358429      1.93200707
S         4.64800882     19.89768600      3.82809496
S         4.43555593     19.90982056      0.37647104
S         2.54629254     21.85216331      2.18495703
P         4.48738098     20.96126366     10.49847031
S         5.90490150     22.30027771     10.49149799
S         4.67787027     19.95162582     12.27148056
S         4.45057583     19.82868767      8.79233932
S         2.62137938     21.90822983     10.70444107
P         4.43966770     20.81875229     19.08372879
S         5.97594118     22.35836792     18.93307304
S         4.69505405     19.97189713     20.84693909
S         4.43033504     19.87923241     17.15135765
S         2.59948635     21.91698265     19.13628197
P        13.01475525      2.83819246      2.03076982
S        14.64764118      4.14799261      1.97417963
S        13.37580585      1.87691641      3.84591103
S        13.13399124      1.83740401      0.32369533
S        11.18346214      3.78653765      2.19452405
P        13.12545586      2.92447996     10.53435993
S        14.59087849      4.17748260     10.48687553
S        13.32545662      1.87496805     12.31978321
S        13.08232975      1.74179804      8.72146416
S        11.23530197      3.77125120     10.69696808
P        12.99111652      2.91614771     18.97319031
S        14.58122158      4.25357103     19.07409668
S        13.48814487      1.77914131     20.69869423
S        13.09567738      1.59373963     17.28594017
S        11.19869137      3.94709635     19.11569786
P        13.07667637     11.98608494      2.21251702
S        14.65099525     13.17580128      1.88417923
S        13.31088448     10.90058899      3.85855269
S        13.14064407     10.87680054      0.23092723
S        11.17856216     12.78222561      2.18908906
P        13.10523987     11.83479595     10.59471893
S        14.63407803     13.28174782     10.42940807
S        13.39480782     10.83175468     12.30646992
S        13.10598278     10.84077930      8.82030201
S        11.11862564     12.92727375     10.61060715
P        13.17647076     11.94998837     18.93717003
S        14.61481380     13.37999630     19.00790215
S        13.27773190     10.85203362     20.71447372
S        13.04816723     10.66222382     17.27442932
S        11.24397564     12.87603188     19.21241760
P        13.07586765     21.01022148      2.01030231
S        14.60535431     22.28109932      1.92726254
S        13.30898380     19.89102936      3.90762472
S        13.10550499     19.92492867      0.33079827
S        11.26202488     21.84446716      2.19239545
S        11.25442696     21.92294502     10.63798141
P        13.15215015     21.04840851     10.58612347
S        14.66241264     22.51516151     10.45644951
S        13.27352142     19.76399422     12.16044903
S        13.01782036     19.70253754      8.92020893
S        13.02006531     19.85650253     17.19326591
S        11.18583012     21.79090118     19.20312691
P        13.18429947     20.95581818     18.94485855
S        14.67723083     22.27790260     19.02690125
S        13.29399872     20.06877327     20.77850342
S        21.71919060      1.75580919      0.22234939
S        19.97909164      3.76032495      2.22507977
P        21.70681381      2.86234212      2.04962134
S        23.23440933      4.24512911      1.98560393
S        21.93529510      1.86425960      3.88706708
S        21.55785751      1.92735553      8.76715851
S        19.87185478      3.52599525     10.61275959
P        21.83223915      2.91472888     10.48491859
S        23.38943291      4.14212179     10.50771236
S        21.92768860      1.97944629     12.38521957
S        21.72676849      1.77404916     17.14924622
S        19.93902779      3.75664973     19.21733475
P        21.69800758      2.80336976     18.92977333
S        23.26818085      4.22932386     18.97466469
S        21.94252205      1.92246532     20.87512016
S        21.75471115     10.78867912      0.38160610
S        19.78798485     12.77751255      2.23617148
P        21.72454834     12.03157520      2.04223108
S        23.38446999     13.27165985      1.95064664
S        21.92369080     10.85362339      3.75881481
S        21.89117622     10.77609921     12.41876793
S        21.73911858     10.78435898      8.72205067
S        19.95503235     12.87365627     10.69376850
P        21.76140785     11.89414883     10.55212879
S        23.22992516     13.39010906     10.37334061
S        22.03163147     10.61756420     20.67404556
S        21.72295761     10.65638161     17.46176720
S        19.88883400     13.02245331     19.06167793
P        21.72909737     11.97483921     19.02223015
S        23.20304298     13.44988155     18.92956734
S        21.93854904     19.89067459      3.78687763
S        21.72617149     19.84020805      0.36572704
S        19.91904449     21.85839844      2.19986725
P        21.69029808     20.99226379      2.05436039
S        23.30017853     22.36959267      1.96305037
S        21.95406532     19.80861473     12.28309441
S        21.76975822     19.90406799      8.83968067
S        19.88243294     21.87302399     10.59760380
P        21.69816399     21.05066109     10.73459435
S        23.27008820     22.31675911     10.31129360
S        21.91814232     19.96999931     20.66886520
S        21.69321442     19.75735664     17.28390121
S        19.95880890     21.88960838     19.20908737
P        21.82673645     20.98039246     18.97139359
S        23.18198204     22.35337448     19.01431084
S         4.16311121      7.12515545      7.94204903
S         2.65406656      4.57690239      6.30767727
S         6.13717031      5.10432911      6.32514715
S         4.40463352      7.15412092      4.72466278
P         4.29522038      5.87782860      6.28694820
S         4.17705536      6.96816540     16.48130035
S         2.80642366      4.63890076     14.82086277
S         6.08886862      4.99981403     14.95106030
S         4.28375149      7.18704033     12.99862671
P         4.29820442      6.05028582     14.72270012
S         4.14687777      7.09530115     25.10744667
S         2.74097061      4.61205626     23.24467468
S         6.13493347      5.06933546     23.24796295
S         4.41604948      7.05473995     21.52550697
P         4.21255827      6.01145220     23.23978806
S         4.15564251     16.12068939      8.02666378
S         2.72667313     13.71047401      6.25334978
S         6.18685532     14.07996178      6.37025595
S         4.30115271     16.12604523      4.63898373
P         4.28347874     15.03597546      6.29759359
S         4.07520151     16.08809853     16.42167854
S         2.73657465     13.78460598     14.75983620
S         6.24140882     14.04523754     14.81635475
S         4.27705765     16.12121964     13.15626240
P         4.32497168     15.03391457     14.82386017
S         4.24273157     16.05535889     25.03301239
S         2.61136675     13.71667290     23.16449547
S         6.20190144     14.19748592     23.38960075
S         4.28800440     16.07641029     21.52532387
P         4.31072569     15.02690983     23.25341225
S         4.05482769     25.04344368      8.16284084
S         2.66033363     22.86561012      6.37363005
S         6.19841576     23.27645111      6.25991011
S         4.44445562     25.06231499      4.53172493
P         4.29620314     24.05541420      6.25737190
S         4.07761574     25.01728249     16.62726021
S         2.64326835     22.90935707     14.79415703
S         6.26117754     23.26552963     14.77514553
S         4.37501526     25.06214714     12.94268417
P         4.29719210     24.04869080     14.83926773
S         4.23176813     25.14263725     24.99555779
S         2.55076885     22.75154686     23.17588615
S         6.27394915     23.24810410     23.37681580
S         4.30415726     25.20672989     21.50086403
P         4.29350090     23.95064926     23.31895256
S        12.77248478      6.97296429      8.05049324
S        11.28176498      4.66568327      6.35004473
S        14.88394070      5.06179380      6.41414261
S        12.96763515      7.12338734      4.54073048
P        12.96683025      6.01932335      6.22910547
S        12.87692928      7.10640955     16.65185738
S        11.56088257      4.67288113     14.60287571
S        14.72043419      4.94301510     14.90876102
S        12.83349514      7.02826309     12.99333096
P        12.87788773      6.09516478     14.82107067
P        12.92338467      5.87962198     23.28587914
S        12.82612419      7.11482000     25.07711601
S        11.28378391      4.68822384     23.15404701
S        14.87306881      5.12441492     23.29701614
S        12.96481705      7.03131676     21.55288887
S        12.94536495     16.17014694      4.64995337
P        12.90203381     14.98910904      6.37512064
S        12.92444515     16.15609360      7.96637821
S        11.39896202     13.62663364      6.18272781
S        14.69964504     14.12956810      6.41530466
S        13.00272751     16.12267494     13.07443428
P        12.99643612     15.02416325     14.82246590
S        12.70846844     16.09202194     16.51752472
S        11.26564598     13.72446156     14.79244614
S        14.90038490     14.10942078     14.77107239
S        12.98427296     16.22850800     21.52635956
P        12.91802502     14.96426582     23.09281921
S        12.86968136     16.01680946     24.97003555
S        11.26765156     13.67816544     23.31878471
S        14.83136559     14.18295670     23.45237732
S        12.98535061     25.24907875      4.63536358
P        12.98982048     24.05208588      6.34619856
S        12.72576237     25.18720818      7.97437859
S        11.39151382     22.72453499      6.31834507
S        14.78099060     23.09020996      6.31421518
S        12.94714642     25.25446510     13.06222534
P        12.95930386     24.01136398     14.77073956
S        12.74704742     25.13516235     16.47702599
S        11.36214161     22.78696823     14.80579472
S        14.85676003     23.11377525     14.86039925
S        12.98607635     25.15390205     21.55730820
P        12.81301594     24.08653259     23.31265068
S        12.79441166     25.23157501     25.05921364
S        11.42090225     22.74007797     23.17842865
S        14.85301685     23.09220505     23.26025391
S        21.64976311      7.11773443      4.57381439
P        21.54785919      5.98016310      6.34475470
S        21.46656418      7.12879610      8.08921623
S        20.04693031      4.57696486      6.24948692
S        23.37691116      5.03816128      6.33117867
S        21.67238808      7.17086458     13.04117393
P        21.54277420      5.96794319     14.76681614
S        21.40485764      7.06132126     16.51702309
S        20.00597763      4.61262274     14.83042431
S        23.46185684      5.02865171     14.82061291
S        21.55750465      7.14257622     21.46993637
P        21.66803169      5.82633591     23.33599663
S        21.48090363      7.03005219     24.97987556
S        19.84989929      4.69318056     23.19574165
S        23.53577805      5.14443970     23.38710594
S        23.40499496     14.01245499      6.37691736
S        21.55434227     16.16608238      4.49257612
P        21.56670952     15.03913212      6.35573912
S        21.46450233     16.19182777      8.16459846
S        20.09812164     13.66375542      6.19899511
S        23.38450623     13.94337082     14.79076481
S        21.59905434     16.19498253     13.03792667
P        21.56000328     15.06753731     14.80066013
S        21.38294792     16.22209740     16.60249710
S        20.16192627     13.64623165     14.74535370
S        23.44472504     13.97154808     23.22950554
S        21.62699318     16.21251869     21.52889824
P        21.66561127     15.02283669     23.26462936
S        21.27741623     16.16260529     25.02442932
S        20.07728958     13.70318890     23.31876564
S        23.49370766     23.06414413      6.37084818
S        21.50127411     25.15781403      4.56742954
P        21.72466469     24.13661575      6.35407972
S        21.38061523     25.16307831      8.07398129
S        19.99378395     22.78434372      6.22243023
S        23.40215111     23.00889969     14.92421532
S        21.54049301     25.32376289     13.08966923
P        21.58390427     24.08440781     14.72383499
S        21.44769096     25.19972038     16.46132278
S        20.11501503     22.68742943     14.77554607
S        20.01727867     22.70378876     23.21940994
S        23.44387245     23.11587524     23.34645653
S        21.59358788     25.25695229     21.67436981
P        21.56443024     24.01522446     23.25490570
S        21.46942139     25.21002579     24.87075233
