864

Li        6.01371431      0.00370279      8.44557858
Li        6.01371431      0.00370279     16.92347908
Li        6.01371431      0.00370279     25.40137672
Li        6.01371431      9.04990292      8.44557858
Li        6.01371431      9.04990292     16.92347908
Li        6.01371431      9.04990292     25.40137672
Li        6.01371431     18.09610367      8.44557858
Li        6.01371431     18.09610367     16.92347908
Li        6.01371431     18.09610367     25.40137672
Li       14.65721321      0.00370279      8.44557858
Li       14.65721321      0.00370279     16.92347908
Li       14.65721321      0.00370279     25.40137672
Li       14.65721321      9.04990292      8.44557858
Li       14.65721321      9.04990292     16.92347908
Li       14.65721321      9.04990292     25.40137672
Li       14.65721321     18.09610367      8.44557858
Li       14.65721321     18.09610367     16.92347908
Li       14.65721321     18.09610367     25.40137672
Li       23.30071259      0.00370279      8.44557858
Li       23.30071259      0.00370279     16.92347908
Li       23.30071259      0.00370279     25.40137672
Li       23.30071259      9.04990292      8.44557858
Li       23.30071259      9.04990292     16.92347908
Li       23.30071259      9.04990292     25.40137672
Li       23.30071259     18.09610367      8.44557858
Li       23.30071259     18.09610367     16.92347908
Li       23.30071259     18.09610367     25.40137672
Li        2.48368382      2.54471898      4.69310904
Li        2.48368382      2.54471898     13.17101002
Li        2.48368382      2.54471898     21.64890862
Li        2.48368382     11.59091854      4.69310904
Li        2.48368382     11.59091854     13.17101002
Li        2.48368382     11.59091854     21.64890862
Li        2.48368382     20.63711929      4.69310904
Li        2.48368382     20.63711929     13.17101002
Li        2.48368382     20.63711929     21.64890862
Li       11.12718391      2.54471898      4.69310904
Li       11.12718391      2.54471898     13.17101002
Li       11.12718391      2.54471898     21.64890862
Li       11.12718391     11.59091854      4.69310904
Li       11.12718391     11.59091854     13.17101002
Li       11.12718391     11.59091854     21.64890862
Li       11.12718391     20.63711929      4.69310904
Li       11.12718391     20.63711929     13.17101002
Li       11.12718391     20.63711929     21.64890862
Li       19.77068138      2.54471898      4.69310904
Li       19.77068138      2.54471898     13.17101002
Li       19.77068138      2.54471898     21.64890862
Li       19.77068138     11.59091854      4.69310904
Li       19.77068138     11.59091854     13.17101002
Li       19.77068138     11.59091854     21.64890862
Li       19.77068138     20.63711929      4.69310904
Li       19.77068138     20.63711929     13.17101002
Li       19.77068138     20.63711929     21.64890862
Li        1.87436366      7.79743481      8.10746098
Li        1.87436366      7.79743481     16.58535957
Li        1.87436366      7.79743481     25.06325912
Li        1.87436366     16.84363556      8.10746098
Li        1.87436366     16.84363556     16.58535957
Li        1.87436366     16.84363556     25.06325912
Li        1.87436366     25.88983345      8.10746098
Li        1.87436366     25.88983345     16.58535957
Li        1.87436366     25.88983345     25.06325912
Li       10.51786423      7.79743481      8.10746098
Li       10.51786423      7.79743481     16.58535957
Li       10.51786423      7.79743481     25.06325912
Li       10.51786423     16.84363556      8.10746098
Li       10.51786423     16.84363556     16.58535957
Li       10.51786423     16.84363556     25.06325912
Li       10.51786423     25.88983345      8.10746098
Li       10.51786423     25.88983345     16.58535957
Li       10.51786423     25.88983345     25.06325912
Li       19.16136360      7.79743481      8.10746098
Li       19.16136360      7.79743481     16.58535957
Li       19.16136360      7.79743481     25.06325912
Li       19.16136360     16.84363556      8.10746098
Li       19.16136360     16.84363556     16.58535957
Li       19.16136360     16.84363556     25.06325912
Li       19.16136360     25.88983345      8.10746098
Li       19.16136360     25.88983345     16.58535957
Li       19.16136360     25.88983345     25.06325912
Li        1.68750441      4.51245880      8.44734764
Li        1.68750441      4.51245880     16.92524529
Li        1.68750441      4.51245880     25.40314674
Li        1.68750441     13.55865860      8.44734764
Li        1.68750441     13.55865860     16.92524529
Li        1.68750441     13.55865860     25.40314674
Li        1.68750441     22.60485649      8.44734764
Li        1.68750441     22.60485649     16.92524529
Li        1.68750441     22.60485649     25.40314674
Li       10.33100319      4.51245880      8.44734764
Li       10.33100319      4.51245880     16.92524529
Li       10.33100319      4.51245880     25.40314674
Li       10.33100319     13.55865860      8.44734764
Li       10.33100319     13.55865860     16.92524529
Li       10.33100319     13.55865860     25.40314674
Li       10.33100319     22.60485649      8.44734764
Li       10.33100319     22.60485649     16.92524529
Li       10.33100319     22.60485649     25.40314674
Li       18.97450447      4.51245880      8.44734764
Li       18.97450447      4.51245880     16.92524529
Li       18.97450447      4.51245880     25.40314674
Li       18.97450447     13.55865860      8.44734764
Li       18.97450447     13.55865860     16.92524529
Li       18.97450447     13.55865860     25.40314674
Li       18.97450447     22.60485649      8.44734764
Li       18.97450447     22.60485649     16.92524529
Li       18.97450447     22.60485649     25.40314674
Li        2.62181520      5.44560766      3.85847688
Li        2.62181520      5.44560766     12.33637619
Li        2.62181520      5.44560766     20.81427765
Li        2.62181520     14.49180698      3.85847688
Li        2.62181520     14.49180698     12.33637619
Li        2.62181520     14.49180698     20.81427765
Li        2.62181520     23.53800774      3.85847688
Li        2.62181520     23.53800774     12.33637619
Li        2.62181520     23.53800774     20.81427765
Li       11.26531506      5.44560766      3.85847688
Li       11.26531506      5.44560766     12.33637619
Li       11.26531506      5.44560766     20.81427765
Li       11.26531506     14.49180698      3.85847688
Li       11.26531506     14.49180698     12.33637619
Li       11.26531506     14.49180698     20.81427765
Li       11.26531506     23.53800774      3.85847688
Li       11.26531506     23.53800774     12.33637619
Li       11.26531506     23.53800774     20.81427765
Li       19.90881348      5.44560766      3.85847688
Li       19.90881348      5.44560766     12.33637619
Li       19.90881348      5.44560766     20.81427765
Li       19.90881348     14.49180698      3.85847688
Li       19.90881348     14.49180698     12.33637619
Li       19.90881348     14.49180698     20.81427765
Li       19.90881348     23.53800774      3.85847688
Li       19.90881348     23.53800774     12.33637619
Li       19.90881348     23.53800774     20.81427765
Li        6.21069670      3.30435300      8.13053513
Li        6.21069670      3.30435300     16.60843468
Li        6.21069670      3.30435300     25.08633232
Li        6.21069670     12.35055256      8.13053513
Li        6.21069670     12.35055256     16.60843468
Li        6.21069670     12.35055256     25.08633232
Li        6.21069670     21.39675140      8.13053513
Li        6.21069670     21.39675140     16.60843468
Li        6.21069670     21.39675140     25.08633232
Li       14.85419655      3.30435300      8.13053513
Li       14.85419655      3.30435300     16.60843468
Li       14.85419655      3.30435300     25.08633232
Li       14.85419655     12.35055256      8.13053513
Li       14.85419655     12.35055256     16.60843468
Li       14.85419655     12.35055256     25.08633232
Li       14.85419655     21.39675140      8.13053513
Li       14.85419655     21.39675140     16.60843468
Li       14.85419655     21.39675140     25.08633232
Li       23.49769592      3.30435300      8.13053513
Li       23.49769592      3.30435300     16.60843468
Li       23.49769592      3.30435300     25.08633232
Li       23.49769592     12.35055256      8.13053513
Li       23.49769592     12.35055256     16.60843468
Li       23.49769592     12.35055256     25.08633232
Li       23.49769592     21.39675140      8.13053513
Li       23.49769592     21.39675140     16.60843468
Li       23.49769592     21.39675140     25.08633232
Li        2.07511330      8.22258759      4.36001825
Li        2.07511330      8.22258759     12.83791733
Li        2.07511330      8.22258759     21.31581688
Li        2.07511330     17.26878548      4.36001825
Li        2.07511330     17.26878548     12.83791733
Li        2.07511330     17.26878548     21.31581688
Li        2.07511330     26.31498528      4.36001825
Li        2.07511330     26.31498528     12.83791733
Li        2.07511330     26.31498528     21.31581688
Li       10.71861362      8.22258759      4.36001825
Li       10.71861362      8.22258759     12.83791733
Li       10.71861362      8.22258759     21.31581688
Li       10.71861362     17.26878548      4.36001825
Li       10.71861362     17.26878548     12.83791733
Li       10.71861362     17.26878548     21.31581688
Li       10.71861362     26.31498528      4.36001825
Li       10.71861362     26.31498528     12.83791733
Li       10.71861362     26.31498528     21.31581688
Li       19.36211205      8.22258759      4.36001825
Li       19.36211205      8.22258759     12.83791733
Li       19.36211205      8.22258759     21.31581688
Li       19.36211205     17.26878548      4.36001825
Li       19.36211205     17.26878548     12.83791733
Li       19.36211205     17.26878548     21.31581688
Li       19.36211205     26.31498528      4.36001825
Li       19.36211205     26.31498528     12.83791733
Li       19.36211205     26.31498528     21.31581688
Li        6.92936802      0.90697116      3.86430192
Li        6.92936802      0.90697116     12.34220123
Li        6.92936802      0.90697116     20.82010078
Li        6.92936802      9.95317078      3.86430192
Li        6.92936802      9.95317078     12.34220123
Li        6.92936802      9.95317078     20.82010078
Li        6.92936802     18.99936867      3.86430192
Li        6.92936802     18.99936867     12.34220123
Li        6.92936802     18.99936867     20.82010078
Li       15.57286739      0.90697116      3.86430192
Li       15.57286739      0.90697116     12.34220123
Li       15.57286739      0.90697116     20.82010078
Li       15.57286739      9.95317078      3.86430192
Li       15.57286739      9.95317078     12.34220123
Li       15.57286739      9.95317078     20.82010078
Li       15.57286739     18.99936867      3.86430192
Li       15.57286739     18.99936867     12.34220123
Li       15.57286739     18.99936867     20.82010078
Li       24.21636581      0.90697116      3.86430192
Li       24.21636581      0.90697116     12.34220123
Li       24.21636581      0.90697116     20.82010078
Li       24.21636581      9.95317078      3.86430192
Li       24.21636581      9.95317078     12.34220123
Li       24.21636581      9.95317078     20.82010078
Li       24.21636581     18.99936867      3.86430192
Li       24.21636581     18.99936867     12.34220123
Li       24.21636581     18.99936867     20.82010078
Li        1.92501426      1.60609412      0.45870021
Li        1.92501426      1.60609412      8.93660069
Li        1.92501426      1.60609412     17.41449928
Li        1.92501426     10.65229416      0.45870021
Li        1.92501426     10.65229416      8.93660069
Li        1.92501426     10.65229416     17.41449928
Li        1.92501426     19.69849205      0.45870021
Li        1.92501426     19.69849205      8.93660069
Li        1.92501426     19.69849205     17.41449928
Li       10.56851387      1.60609412      0.45870021
Li       10.56851387      1.60609412      8.93660069
Li       10.56851387      1.60609412     17.41449928
Li       10.56851387     10.65229416      0.45870021
Li       10.56851387     10.65229416      8.93660069
Li       10.56851387     10.65229416     17.41449928
Li       10.56851387     19.69849205      0.45870021
Li       10.56851387     19.69849205      8.93660069
Li       10.56851387     19.69849205     17.41449928
Li       19.21201324      1.60609412      0.45870021
Li       19.21201324      1.60609412      8.93660069
Li       19.21201324      1.60609412     17.41449928
Li       19.21201324     10.65229416      0.45870021
Li       19.21201324     10.65229416      8.93660069
Li       19.21201324     10.65229416     17.41449928
Li       19.21201324     19.69849205      0.45870021
Li       19.21201324     19.69849205      8.93660069
Li       19.21201324     19.69849205     17.41449928
Li        6.22466946      6.16801882      0.54244423
Li        6.22466946      6.16801882      9.02034378
Li        6.22466946      6.16801882     17.49824142
Li        6.22466946     15.21421909      0.54244423
Li        6.22466946     15.21421909      9.02034378
Li        6.22466946     15.21421909     17.49824142
Li        6.22466946     24.26041985      0.54244423
Li        6.22466946     24.26041985      9.02034378
Li        6.22466946     24.26041985     17.49824142
Li       14.86816978      6.16801882      0.54244423
Li       14.86816978      6.16801882      9.02034378
Li       14.86816978      6.16801882     17.49824142
Li       14.86816978     15.21421909      0.54244423
Li       14.86816978     15.21421909      9.02034378
Li       14.86816978     15.21421909     17.49824142
Li       14.86816978     24.26041985      0.54244423
Li       14.86816978     24.26041985      9.02034378
Li       14.86816978     24.26041985     17.49824142
Li       23.51166916      6.16801882      0.54244423
Li       23.51166916      6.16801882      9.02034378
Li       23.51166916      6.16801882     17.49824142
Li       23.51166916     15.21421909      0.54244423
Li       23.51166916     15.21421909      9.02034378
Li       23.51166916     15.21421909     17.49824142
Li       23.51166916     24.26041985      0.54244423
Li       23.51166916     24.26041985      9.02034378
Li       23.51166916     24.26041985     17.49824142
Li        6.37439728      3.67717052      4.38054752
Li        6.37439728      3.67717052     12.85844707
Li        6.37439728      3.67717052     21.33634758
Li        6.37439728     12.72337055      4.38054752
Li        6.37439728     12.72337055     12.85844707
Li        6.37439728     12.72337055     21.33634758
Li        6.37439728     21.76956940      4.38054752
Li        6.37439728     21.76956940     12.85844707
Li        6.37439728     21.76956940     21.33634758
Li       15.01789856      3.67717052      4.38054752
Li       15.01789856      3.67717052     12.85844707
Li       15.01789856      3.67717052     21.33634758
Li       15.01789856     12.72337055      4.38054752
Li       15.01789856     12.72337055     12.85844707
Li       15.01789856     12.72337055     21.33634758
Li       15.01789856     21.76956940      4.38054752
Li       15.01789856     21.76956940     12.85844707
Li       15.01789856     21.76956940     21.33634758
Li       23.66139793      3.67717052      4.38054752
Li       23.66139793      3.67717052     12.85844707
Li       23.66139793      3.67717052     21.33634758
Li       23.66139793     12.72337055      4.38054752
Li       23.66139793     12.72337055     12.85844707
Li       23.66139793     12.72337055     21.33634758
Li       23.66139793     21.76956940      4.38054752
Li       23.66139793     21.76956940     12.85844707
Li       23.66139793     21.76956940     21.33634758
Li        6.82040405      7.04525757      4.71830225
Li        6.82040405      7.04525757     13.19620228
Li        6.82040405      7.04525757     21.67410278
Li        6.82040405     16.09145737      4.71830225
Li        6.82040405     16.09145737     13.19620228
Li        6.82040405     16.09145737     21.67410278
Li        6.82040405     25.13765907      4.71830225
Li        6.82040405     25.13765907     13.19620228
Li        6.82040405     25.13765907     21.67410278
Li       15.46390343      7.04525757      4.71830225
Li       15.46390343      7.04525757     13.19620228
Li       15.46390343      7.04525757     21.67410278
Li       15.46390343     16.09145737      4.71830225
Li       15.46390343     16.09145737     13.19620228
Li       15.46390343     16.09145737     21.67410278
Li       15.46390343     25.13765907      4.71830225
Li       15.46390343     25.13765907     13.19620228
Li       15.46390343     25.13765907     21.67410278
Li       24.10740471      7.04525757      4.71830225
Li       24.10740471      7.04525757     13.19620228
Li       24.10740471      7.04525757     21.67410278
Li       24.10740471     16.09145737      4.71830225
Li       24.10740471     16.09145737     13.19620228
Li       24.10740471     16.09145737     21.67410278
Li       24.10740471     25.13765907      4.71830225
Li       24.10740471     25.13765907     13.19620228
Li       24.10740471     25.13765907     21.67410278
S         0.07623107      6.30148792      0.33862740
P         0.13356039      7.42932034      2.05882192
S         1.71797132      8.72864056      1.96279037
S        -1.76252556      8.24726963      2.16332674
S         0.38128957      6.39505672      3.81890726
S         0.07623107      6.30148792      8.81652737
P         0.13356039      7.42932034     10.53672123
S         1.71797132      8.72864056     10.44069099
S        -1.76252556      8.24726963     10.64122677
S         0.38128957      6.39505672     12.29680729
S         0.38128957      6.39505672     20.77470589
S         0.07623107      6.30148792     17.29442787
P         0.13356039      7.42932034     19.01461983
S         1.71797132      8.72864056     18.91858864
S        -1.76252556      8.24726963     19.11912537
S         0.38128957     15.44125652      3.81890726
S         0.07623107     15.34768772      0.33862740
P         0.13356039     16.47551918      2.05882192
S         1.71797132     17.77483940      1.96279037
S        -1.76252556     17.29347038      2.16332674
S         0.38128957     15.44125652     12.29680729
S         0.07623107     15.34768772      8.81652737
P         0.13356039     16.47551918     10.53672123
S         1.71797132     17.77483940     10.44069099
S        -1.76252556     17.29347038     10.64122677
S         0.38128957     15.44125652     20.77470589
S         0.07623107     15.34768772     17.29442787
P         0.13356039     16.47551918     19.01461983
S         1.71797132     17.77483940     18.91858864
S        -1.76252556     17.29347038     19.11912537
S         0.38128957     24.48745537      3.81890726
S         0.07623107     24.39388657      0.33862740
P         0.13356039     25.52171898      2.05882192
S         1.71797132     26.82103920      1.96279037
S        -1.76252556     26.33966827      2.16332674
S         0.38128957     24.48745537     12.29680729
S         0.07623107     24.39388657      8.81652737
P         0.13356039     25.52171898     10.53672123
S         1.71797132     26.82103920     10.44069099
S        -1.76252556     26.33966827     10.64122677
S         0.38128957     24.48745537     20.77470589
S         0.07623107     24.39388657     17.29442787
P         0.13356039     25.52171898     19.01461983
S         1.71797132     26.82103920     18.91858864
S        -1.76252556     26.33966827     19.11912537
S         9.02478981      6.39505672      3.81890726
S         8.71973038      6.30148792      0.33862740
P         8.77706051      7.42932034      2.05882192
S        10.36147118      8.72864056      1.96279037
S         6.88097382      8.24726963      2.16332674
S         9.02478981      6.39505672     12.29680729
S         8.71973038      6.30148792      8.81652737
P         8.77706051      7.42932034     10.53672123
S        10.36147118      8.72864056     10.44069099
S         6.88097382      8.24726963     10.64122677
S         9.02478981      6.39505672     20.77470589
S         8.71973038      6.30148792     17.29442787
P         8.77706051      7.42932034     19.01461983
S        10.36147118      8.72864056     18.91858864
S         6.88097382      8.24726963     19.11912537
S         9.02478981     15.44125652      3.81890726
S         8.71973038     15.34768772      0.33862740
P         8.77706051     16.47551918      2.05882192
S        10.36147118     17.77483940      1.96279037
S         6.88097382     17.29347038      2.16332674
S         6.88097382     17.29347038     10.64122677
S         9.02478981     15.44125652     12.29680729
S         8.71973038     15.34768772      8.81652737
P         8.77706051     16.47551918     10.53672123
S        10.36147118     17.77483940     10.44069099
S         6.88097382     17.29347038     19.11912537
S         9.02478981     15.44125652     20.77470589
S         8.71973038     15.34768772     17.29442787
P         8.77706051     16.47551918     19.01461983
S        10.36147118     17.77483940     18.91858864
S         6.88097382     26.33966827      2.16332674
S         9.02478981     24.48745537      3.81890726
S         8.71973038     24.39388657      0.33862740
P         8.77706051     25.52171898      2.05882192
S        10.36147118     26.82103920      1.96279037
S         6.88097382     26.33966827     10.64122677
S         9.02478981     24.48745537     12.29680729
S         8.71973038     24.39388657      8.81652737
P         8.77706051     25.52171898     10.53672123
S        10.36147118     26.82103920     10.44069099
S         6.88097382     26.33966827     19.11912537
S         9.02478981     24.48745537     20.77470589
S         8.71973038     24.39388657     17.29442787
P         8.77706051     25.52171898     19.01461983
S        10.36147118     26.82103920     18.91858864
S        15.52447224      8.24726963      2.16332674
S        17.66828918      6.39505672      3.81890726
S        17.36323166      6.30148792      0.33862740
P        17.42055893      7.42932034      2.05882192
S        19.00496864      8.72864056      1.96279037
S        19.00496864      8.72864056     10.44069099
S        15.52447224      8.24726963     10.64122677
S        17.66828918      6.39505672     12.29680729
S        17.36323166      6.30148792      8.81652737
P        17.42055893      7.42932034     10.53672123
S        19.00496864      8.72864056     18.91858864
S        15.52447224      8.24726963     19.11912537
S        17.66828918      6.39505672     20.77470589
S        17.36323166      6.30148792     17.29442787
P        17.42055893      7.42932034     19.01461983
S        19.00496864     17.77483940      1.96279037
S        15.52447224     17.29347038      2.16332674
S        17.66828918     15.44125652      3.81890726
S        17.36323166     15.34768772      0.33862740
P        17.42055893     16.47551918      2.05882192
S        19.00496864     17.77483940     10.44069099
S        15.52447224     17.29347038     10.64122677
S        17.66828918     15.44125652     12.29680729
S        17.36323166     15.34768772      8.81652737
P        17.42055893     16.47551918     10.53672123
S        19.00496864     17.77483940     18.91858864
S        15.52447224     17.29347038     19.11912537
S        17.66828918     15.44125652     20.77470589
S        17.36323166     15.34768772     17.29442787
P        17.42055893     16.47551918     19.01461983
S        19.00496864     26.82103920      1.96279037
S        15.52447224     26.33966827      2.16332674
S        17.66828918     24.48745537      3.81890726
S        17.36323166     24.39388657      0.33862740
P        17.42055893     25.52171898      2.05882192
S        19.00496864     26.82103920     10.44069099
S        15.52447224     26.33966827     10.64122677
S        17.66828918     24.48745537     12.29680729
S        17.36323166     24.39388657      8.81652737
P        17.42055893     25.52171898     10.53672123
S        19.00496864     26.82103920     18.91858864
S        15.52447224     26.33966827     19.11912537
S        17.66828918     24.48745537     20.77470589
S        17.36323166     24.39388657     17.29442787
P        17.42055893     25.52171898     19.01461983
S        10.49157810      0.53820163      6.38177395
S         8.59868145      2.55062222      4.59899426
S         7.03375053      0.12948570      6.23224068
S         8.50094318      2.54693842      8.04579258
P         8.62425995      1.43142736      6.32084656
P         8.62425995      1.43142736     14.79874611
S        10.49157810      0.53820163     14.85967350
S         8.59868145      2.55062222     13.07689476
S         7.03375053      0.12948570     14.71013927
S         8.50094318      2.54693842     16.52369308
P         8.62425995      1.43142736     23.27664566
S        10.49157810      0.53820163     23.33757401
S         8.59868145      2.55062222     21.55479431
S         7.03375053      0.12948570     23.18803978
S         8.50094318      2.54693842     25.00159073
P         8.62425995     10.47762680      6.32084656
S        10.49157810      9.58440113      6.38177395
S         8.59868145     11.59682274      4.59899426
S         7.03375053      9.17568493      6.23224068
S         8.50094318     11.59313869      8.04579258
P         8.62425995     10.47762680     14.79874611
S        10.49157810      9.58440113     14.85967350
S         8.59868145     11.59682274     13.07689476
S         7.03375053      9.17568493     14.71013927
S         8.50094318     11.59313869     16.52369308
P         8.62425995     10.47762680     23.27664566
S        10.49157810      9.58440113     23.33757401
S         8.59868145     11.59682274     21.55479431
S         7.03375053      9.17568493     23.18803978
S         8.50094318     11.59313869     25.00159073
P         8.62425995     19.52382660      6.32084656
S        10.49157810     18.63059998      6.38177395
S         8.59868145     20.64302254      4.59899426
S         7.03375053     18.22188568      6.23224068
S         8.50094318     20.63933945      8.04579258
S         8.50094318     20.63933945     16.52369308
P         8.62425995     19.52382660     14.79874611
S        10.49157810     18.63059998     14.85967350
S         8.59868145     20.64302254     13.07689476
S         7.03375053     18.22188568     14.71013927
S         8.50094318     20.63933945     25.00159073
P         8.62425995     19.52382660     23.27664566
S        10.49157810     18.63059998     23.33757401
S         8.59868145     20.64302254     21.55479431
S         7.03375053     18.22188568     23.18803978
S        17.14444351      2.54693842      8.04579258
P        17.26775932      1.43142736      6.32084656
S        19.13507652      0.53820163      6.38177395
S        17.24217987      2.55062222      4.59899426
S        15.67725086      0.12948570      6.23224068
S        17.14444351      2.54693842     16.52369308
P        17.26775932      1.43142736     14.79874611
S        19.13507652      0.53820163     14.85967350
S        17.24217987      2.55062222     13.07689476
S        15.67725086      0.12948570     14.71013927
S        17.14444351      2.54693842     25.00159073
P        17.26775932      1.43142736     23.27664566
S        19.13507652      0.53820163     23.33757401
S        17.24217987      2.55062222     21.55479431
S        15.67725086      0.12948570     23.18803978
S        17.14444351     11.59313869      8.04579258
P        17.26775932     10.47762680      6.32084656
S        19.13507652      9.58440113      6.38177395
S        17.24217987     11.59682274      4.59899426
S        15.67725086      9.17568493      6.23224068
S        17.14444351     11.59313869     16.52369308
P        17.26775932     10.47762680     14.79874611
S        19.13507652      9.58440113     14.85967350
S        17.24217987     11.59682274     13.07689476
S        15.67725086      9.17568493     14.71013927
S        15.67725086      9.17568493     23.18803978
S        17.14444351     11.59313869     25.00159073
P        17.26775932     10.47762680     23.27664566
S        19.13507652      9.58440113     23.33757401
S        17.24217987     11.59682274     21.55479431
S        15.67725086     18.22188568      6.23224068
S        17.14444351     20.63933945      8.04579258
P        17.26775932     19.52382660      6.32084656
S        19.13507652     18.63059998      6.38177395
S        17.24217987     20.64302254      4.59899426
S        15.67725086     18.22188568     14.71013927
S        17.14444351     20.63933945     16.52369308
P        17.26775932     19.52382660     14.79874611
S        19.13507652     18.63059998     14.85967350
S        17.24217987     20.64302254     13.07689476
S        15.67725086     18.22188568     23.18803978
S        17.14444351     20.63933945     25.00159073
P        17.26775932     19.52382660     23.27664566
S        19.13507652     18.63059998     23.33757401
S        17.24217987     20.64302254     21.55479431
S        24.32075119      0.12948570      6.23224068
S        25.78794289      2.54693842      8.04579258
P        25.91125870      1.43142736      6.32084656
S        27.77857590      0.53820163      6.38177395
S        25.88568115      2.55062222      4.59899426
S        24.32075119      0.12948570     14.71013927
S        25.78794289      2.54693842     16.52369308
P        25.91125870      1.43142736     14.79874611
S        27.77857590      0.53820163     14.85967350
S        25.88568115      2.55062222     13.07689476
S        24.32075119      0.12948570     23.18803978
S        25.78794289      2.54693842     25.00159073
P        25.91125870      1.43142736     23.27664566
S        27.77857590      0.53820163     23.33757401
S        25.88568115      2.55062222     21.55479431
S        24.32075119      9.17568493      6.23224068
S        25.78794289     11.59313869      8.04579258
P        25.91125870     10.47762680      6.32084656
S        27.77857590      9.58440113      6.38177395
S        25.88568115     11.59682274      4.59899426
S        24.32075119      9.17568493     14.71013927
S        25.78794289     11.59313869     16.52369308
P        25.91125870     10.47762680     14.79874611
S        27.77857590      9.58440113     14.85967350
S        25.88568115     11.59682274     13.07689476
S        24.32075119      9.17568493     23.18803978
S        25.78794289     11.59313869     25.00159073
P        25.91125870     10.47762680     23.27664566
S        27.77857590      9.58440113     23.33757401
S        25.88568115     11.59682274     21.55479431
S        25.88568115     20.64302254      4.59899426
S        24.32075119     18.22188568      6.23224068
S        25.78794289     20.63933945      8.04579258
P        25.91125870     19.52382660      6.32084656
S        27.77857590     18.63059998      6.38177395
S        25.88568115     20.64302254     13.07689476
S        24.32075119     18.22188568     14.71013927
S        25.78794289     20.63933945     16.52369308
P        25.91125870     19.52382660     14.79874611
S        27.77857590     18.63059998     14.85967350
S        25.88568115     20.64302254     21.55479431
S        24.32075119     18.22188568     23.18803978
S        25.78794289     20.63933945     25.00159073
P        25.91125870     19.52382660     23.27664566
S        27.77857590     18.63059998     23.33757401
S         6.03877926      4.20367098      1.98782718
S         4.68690920      1.85451043      3.81615973
S         4.40876293      1.79732180      0.33176979
S         2.55707860      3.72702479      2.16970515
P         4.44928074      2.90685177      2.06477547
S         6.03877926      4.20367098     10.46572590
S         4.68690920      1.85451043     12.29405975
S         4.40876293      1.79732180      8.80966949
S         2.55707860      3.72702479     10.64760494
P         4.44928074      2.90685177     10.54267406
S         6.03877926      4.20367098     18.94362450
S         4.68690920      1.85451043     20.77195930
S         4.40876293      1.79732180     17.28756714
S         2.55707860      3.72702479     19.12550545
P         4.44928074      2.90685177     19.02057266
S         6.03877926     13.24987030      1.98782718
S         4.68690920     10.90070915      3.81615973
S         4.40876293     10.84352207      0.33176979
S         2.55707860     12.77322483      2.16970515
P         4.44928074     11.95305157      2.06477547
S         6.03877926     13.24987030     10.46572590
S         4.68690920     10.90070915     12.29405975
S         4.40876293     10.84352207      8.80966949
S         2.55707860     12.77322483     10.64760494
P         4.44928074     11.95305157     10.54267406
S         6.03877926     13.24987030     18.94362450
S         4.68690920     10.90070915     20.77195930
S         4.40876293     10.84352207     17.28756714
S         2.55707860     12.77322483     19.12550545
P         4.44928074     11.95305157     19.02057266
P         4.44928074     20.99925041      2.06477547
S         6.03877926     22.29607010      1.98782718
S         4.68690920     19.94691086      3.81615973
S         4.40876293     19.88971901      0.33176979
S         2.55707860     21.81942558      2.16970515
P         4.44928074     20.99925041     10.54267406
S         6.03877926     22.29607010     10.46572590
S         4.68690920     19.94691086     12.29405975
S         4.40876293     19.88971901      8.80966949
S         2.55707860     21.81942558     10.64760494
P         4.44928074     20.99925041     19.02057266
S         6.03877926     22.29607010     18.94362450
S         4.68690920     19.94691086     20.77195930
S         4.40876293     19.88971901     17.28756714
S         2.55707860     21.81942558     19.12550545
P        13.09278011      2.90685177      2.06477547
S        14.68227959      4.20367098      1.98782718
S        13.33041000      1.85451043      3.81615973
S        13.05226326      1.79732180      0.33176979
S        11.20057869      3.72702479      2.16970515
P        13.09278011      2.90685177     10.54267406
S        14.68227959      4.20367098     10.46572590
S        13.33041000      1.85451043     12.29405975
S        13.05226326      1.79732180      8.80966949
S        11.20057869      3.72702479     10.64760494
P        13.09278011      2.90685177     19.02057266
S        14.68227959      4.20367098     18.94362450
S        13.33041000      1.85451043     20.77195930
S        13.05226326      1.79732180     17.28756714
S        11.20057869      3.72702479     19.12550545
P        13.09278011     11.95305157      2.06477547
S        14.68227959     13.24987030      1.98782718
S        13.33041000     10.90070915      3.81615973
S        13.05226326     10.84352207      0.33176979
S        11.20057869     12.77322483      2.16970515
P        13.09278011     11.95305157     10.54267406
S        14.68227959     13.24987030     10.46572590
S        13.33041000     10.90070915     12.29405975
S        13.05226326     10.84352207      8.80966949
S        11.20057869     12.77322483     10.64760494
P        13.09278011     11.95305157     19.02057266
S        14.68227959     13.24987030     18.94362450
S        13.33041000     10.90070915     20.77195930
S        13.05226326     10.84352207     17.28756714
S        11.20057869     12.77322483     19.12550545
P        13.09278011     20.99925041      2.06477547
S        14.68227959     22.29607010      1.98782718
S        13.33041000     19.94691086      3.81615973
S        13.05226326     19.88971901      0.33176979
S        11.20057869     21.81942558      2.16970515
S        11.20057869     21.81942558     10.64760494
P        13.09278011     20.99925041     10.54267406
S        14.68227959     22.29607010     10.46572590
S        13.33041000     19.94691086     12.29405975
S        13.05226326     19.88971901      8.80966949
S        13.05226326     19.88971901     17.28756714
S        11.20057869     21.81942558     19.12550545
P        13.09278011     20.99925041     19.02057266
S        14.68227959     22.29607010     18.94362450
S        13.33041000     19.94691086     20.77195930
S        21.69576263      1.79732180      0.33176979
S        19.84407806      3.72702479      2.16970515
P        21.73627853      2.90685177      2.06477547
S        23.32577896      4.20367098      1.98782718
S        21.97390938      1.85451043      3.81615973
S        21.69576263      1.79732180      8.80966949
S        19.84407806      3.72702479     10.64760494
P        21.73627853      2.90685177     10.54267406
S        23.32577896      4.20367098     10.46572590
S        21.97390938      1.85451043     12.29405975
S        21.69576263      1.79732180     17.28756714
S        19.84407806      3.72702479     19.12550545
P        21.73627853      2.90685177     19.02057266
S        23.32577896      4.20367098     18.94362450
S        21.97390938      1.85451043     20.77195930
S        21.69576263     10.84352207      0.33176979
S        19.84407806     12.77322483      2.16970515
P        21.73627853     11.95305157      2.06477547
S        23.32577896     13.24987030      1.98782718
S        21.97390938     10.90070915      3.81615973
S        21.97390938     10.90070915     12.29405975
S        21.69576263     10.84352207      8.80966949
S        19.84407806     12.77322483     10.64760494
P        21.73627853     11.95305157     10.54267406
S        23.32577896     13.24987030     10.46572590
S        21.97390938     10.90070915     20.77195930
S        21.69576263     10.84352207     17.28756714
S        19.84407806     12.77322483     19.12550545
P        21.73627853     11.95305157     19.02057266
S        23.32577896     13.24987030     18.94362450
S        21.97390938     19.94691086      3.81615973
S        21.69576263     19.88971901      0.33176979
S        19.84407806     21.81942558      2.16970515
P        21.73627853     20.99925041      2.06477547
S        23.32577896     22.29607010      1.98782718
S        21.97390938     19.94691086     12.29405975
S        21.69576263     19.88971901      8.80966949
S        19.84407806     21.81942558     10.64760494
P        21.73627853     20.99925041     10.54267406
S        23.32577896     22.29607010     10.46572590
S        21.97390938     19.94691086     20.77195930
S        21.69576263     19.88971901     17.28756714
S        19.84407806     21.81942558     19.12550545
P        21.73627853     20.99925041     19.02057266
S        23.32577896     22.29607010     18.94362450
S         4.17791653      7.07625246      8.04720783
S         2.70986295      4.66403198      6.23054552
S         6.16996384      5.06017256      6.38299274
S         4.29002380      7.08196259      4.60333204
P         4.30682993      5.95866919      6.32365513
S         4.17791653      7.07625246     16.52510643
S         2.70986295      4.66403198     14.70844555
S         6.16996384      5.06017256     14.86089230
S         4.29002380      7.08196259     13.08123112
P         4.30682993      5.95866919     14.80155468
S         4.17791653      7.07625246     25.00300598
S         2.70986295      4.66403198     23.18634605
S         6.16996384      5.06017256     23.33879280
S         4.29002380      7.08196259     21.55913162
P         4.30682993      5.95866919     23.27945328
S         4.17791653     16.12245369      8.04720783
S         2.70986295     13.71023178      6.23054552
S         6.16996384     14.10637188      6.38299274
S         4.29002380     16.12816238      4.60333204
P         4.30682993     15.00486851      6.32365513
S         4.17791653     16.12245369     16.52510643
S         2.70986295     13.71023178     14.70844555
S         6.16996384     14.10637188     14.86089230
S         4.29002380     16.12816238     13.08123112
P         4.30682993     15.00486851     14.80155468
S         4.17791653     16.12245369     25.00300598
S         2.70986295     13.71023178     23.18634605
S         6.16996384     14.10637188     23.33879280
S         4.29002380     16.12816238     21.55913162
P         4.30682993     15.00486851     23.27945328
S         4.17791653     25.16865349      8.04720783
S         2.70986295     22.75643158      6.23054552
S         6.16996384     23.15257263      6.38299274
S         4.29002380     25.17436218      4.60333204
P         4.30682993     24.05106926      6.32365513
S         4.17791653     25.16865349     16.52510643
S         2.70986295     22.75643158     14.70844555
S         6.16996384     23.15257263     14.86089230
S         4.29002380     25.17436218     13.08123112
P         4.30682993     24.05106926     14.80155468
S         4.17791653     25.16865349     25.00300598
S         2.70986295     22.75643158     23.18634605
S         6.16996384     23.15257263     23.33879280
S         4.29002380     25.17436218     21.55913162
P         4.30682993     24.05106926     23.27945328
S        12.82141685      7.07625246      8.04720783
S        11.35336208      4.66403198      6.23054552
S        14.81346321      5.06017256      6.38299274
S        12.93352318      7.08196259      4.60333204
P        12.95032883      5.95866919      6.32365513
S        12.82141685      7.07625246     16.52510643
S        11.35336208      4.66403198     14.70844555
S        14.81346321      5.06017256     14.86089230
S        12.93352318      7.08196259     13.08123112
P        12.95032883      5.95866919     14.80155468
P        12.95032883      5.95866919     23.27945328
S        12.82141685      7.07625246     25.00300598
S        11.35336208      4.66403198     23.18634605
S        14.81346321      5.06017256     23.33879280
S        12.93352318      7.08196259     21.55913162
S        12.93352318     16.12816238      4.60333204
P        12.95032883     15.00486851      6.32365513
S        12.82141685     16.12245369      8.04720783
S        11.35336208     13.71023178      6.23054552
S        14.81346321     14.10637188      6.38299274
S        12.93352318     16.12816238     13.08123112
P        12.95032883     15.00486851     14.80155468
S        12.82141685     16.12245369     16.52510643
S        11.35336208     13.71023178     14.70844555
S        14.81346321     14.10637188     14.86089230
S        12.93352318     16.12816238     21.55913162
P        12.95032883     15.00486851     23.27945328
S        12.82141685     16.12245369     25.00300598
S        11.35336208     13.71023178     23.18634605
S        14.81346321     14.10637188     23.33879280
S        12.93352318     25.17436218      4.60333204
P        12.95032883     24.05106926      6.32365513
S        12.82141685     25.16865349      8.04720783
S        11.35336208     22.75643158      6.23054552
S        14.81346321     23.15257263      6.38299274
S        12.93352318     25.17436218     13.08123112
P        12.95032883     24.05106926     14.80155468
S        12.82141685     25.16865349     16.52510643
S        11.35336208     22.75643158     14.70844555
S        14.81346321     23.15257263     14.86089230
S        12.93352318     25.17436218     21.55913162
P        12.95032883     24.05106926     23.27945328
S        12.82141685     25.16865349     25.00300598
S        11.35336208     22.75643158     23.18634605
S        14.81346321     23.15257263     23.33879280
S        21.57702255      7.08196259      4.60333204
P        21.59382820      5.95866919      6.32365513
S        21.46491432      7.07625246      8.04720783
S        19.99686241      4.66403198      6.23054552
S        23.45696259      5.06017256      6.38299274
S        21.57702255      7.08196259     13.08123112
P        21.59382820      5.95866919     14.80155468
S        21.46491432      7.07625246     16.52510643
S        19.99686241      4.66403198     14.70844555
S        23.45696259      5.06017256     14.86089230
S        21.57702255      7.08196259     21.55913162
P        21.59382820      5.95866919     23.27945328
S        21.46491432      7.07625246     25.00300598
S        19.99686241      4.66403198     23.18634605
S        23.45696259      5.06017256     23.33879280
S        23.45696259     14.10637188      6.38299274
S        21.57702255     16.12816238      4.60333204
P        21.59382820     15.00486851      6.32365513
S        21.46491432     16.12245369      8.04720783
S        19.99686241     13.71023178      6.23054552
S        23.45696259     14.10637188     14.86089230
S        21.57702255     16.12816238     13.08123112
P        21.59382820     15.00486851     14.80155468
S        21.46491432     16.12245369     16.52510643
S        19.99686241     13.71023178     14.70844555
S        23.45696259     14.10637188     23.33879280
S        21.57702255     16.12816238     21.55913162
P        21.59382820     15.00486851     23.27945328
S        21.46491432     16.12245369     25.00300598
S        19.99686241     13.71023178     23.18634605
S        23.45696259     23.15257263      6.38299274
S        21.57702255     25.17436218      4.60333204
P        21.59382820     24.05106926      6.32365513
S        21.46491432     25.16865349      8.04720783
S        19.99686241     22.75643158      6.23054552
S        23.45696259     23.15257263     14.86089230
S        21.57702255     25.17436218     13.08123112
P        21.59382820     24.05106926     14.80155468
S        21.46491432     25.16865349     16.52510643
S        19.99686241     22.75643158     14.70844555
S        19.99686241     22.75643158     23.18634605
S        23.45696259     23.15257263     23.33879280
S        21.57702255     25.17436218     21.55913162
P        21.59382820     24.05106926     23.27945328
S        21.46491432     25.16865349     25.00300598
