864

Li       41.11138916    -12.01776218    153.02935791
Li       41.26349258     25.39298248     -3.87658691
Li       36.42616653    -70.46549988    127.49336243
Li       60.66602325    -46.61943054    329.17010498
Li      -74.86444092    -12.64958382    131.05056763
Li      -15.51679230    -64.52183533     76.02814484
Li      119.46871185    -25.95685959    -21.39970016
Li      134.26455688    -87.47750092     82.62462616
Li      -97.15490723    -44.55624390   -110.26322174
Li       32.95565414     46.60716248    -98.32656097
Li      -27.81807518    184.80401611   -152.73356628
Li      153.55628967     -5.12479544     72.13118744
Li      -84.28146362    -52.59091949    -55.65391541
Li       56.79602432    -83.99351501    -65.66625214
Li      -36.54292679    -75.81647491    -76.32316589
Li      -80.38139343   -111.13647461     -7.34712267
Li       28.00568771   -100.40207672    -29.57716179
Li       53.80022430    103.78070831    -46.86429977
Li      153.42864990    189.65666199     -0.05067004
Li        6.12053585     78.91989136     42.84329605
Li       46.01969910     50.77189636      3.79912448
Li       36.33216476    -52.60171127      8.78986645
Li       98.19134521     45.24139023   -123.36360168
Li      -15.61923409     46.44783783    220.52357483
Li       36.29442978    122.38355255    178.02073669
Li      -76.11152649    -28.41984177     -8.99860191
Li       11.07153130     -3.44039202    131.47924805
Li       89.26086426     29.80966949     55.81085587
Li       41.43667603    -26.56469536    -13.00508022
Li       71.57821655     15.16085720     85.43397522
Li       62.33328629    -28.40687943    -43.06306076
Li       62.88303757    122.32986450   -110.37628937
Li       12.88344193    -75.96084595     45.28241348
Li      -45.11669159    -17.19397926    -76.12586212
Li       41.94474030     18.33250046   -143.82209778
Li       80.48832703     59.38057327    127.00363159
Li       97.05378723    -78.36016083    118.17134094
Li       11.16510296    -12.28072262    -13.45803547
Li      -49.86871338   -158.16717529    110.36128998
Li       53.86496735     -1.05495906     97.52691650
Li       66.75821686   -159.05671692     21.32889938
Li      -11.12230873    -14.36392021     58.87973022
Li       89.28791809    162.58543396    -46.98141479
Li       58.25868988     94.14945984    105.86386108
Li       24.12306404     88.59891510      4.85305882
Li       23.74323845    133.09722900    186.67559814
Li     -171.16789246   -124.99832916     -8.08354664
Li      -10.42875195    -47.15554428     30.96400261
Li      -67.24346924     58.91858673     67.78793335
Li       32.86427307     13.22657681    114.53955841
Li       33.23218155    -83.35150146     81.47653198
Li      -10.30394840    -17.08103752    122.45394135
Li       45.01540756     -7.30828810     68.33411407
Li      -41.40476227    -41.07361221    -42.54120255
Li      -18.94074440    131.30760193    -93.14739227
Li      161.44500732    220.93884277     59.25104523
Li       40.99041367    103.09587860   -122.81674957
Li      -93.04473877   -208.91061401     46.71267700
Li       14.72824478    -96.12461853    -46.52875137
Li      123.85872650     95.95893860     -4.59594679
Li      -93.03528595     26.06291962   -110.40518188
Li      -96.88320923    -53.41076279    139.45066833
Li       29.42859459     -4.59423971    229.09577942
Li      -10.38557816     24.79936790    -62.92806625
Li      131.55377197     21.87234497    110.24450684
Li       41.01833725    -50.76260757     63.66463852
Li       10.32037354    -91.62221527    270.84985352
Li      -44.34471893    -63.06712723      8.53796005
Li       37.68157959     45.48357010     63.63166046
Li       75.06982422    -12.06118298    -67.34641266
Li       11.09194183    -42.74259949      4.83176327
Li       -5.84649801    -30.99212074     71.87876892
Li       -2.09093118     49.29970169     55.11459351
Li       37.30838013    228.78532410     63.77877045
Li      -32.65291214     -0.97030550    152.31048584
Li       32.83667755     37.18697739    -46.88107681
Li      -97.84701538     36.20632172     59.20278168
Li     -127.38031769   -232.55729675      8.23410702
Li       18.69755936    130.93524170      8.69456100
Li       41.52455521     22.82154083    -50.79118729
Li        1.77868617    118.83785248    -50.76076126
Li       23.88712502    -62.37628937     71.66338348
Li      122.70349121   -100.67790985      7.78947496
Li      -80.00955200   -129.44911194     12.05997086
Li      -67.09812927     -9.96042538     21.24338913
Li       63.04720688     77.39696503    127.33026886
Li      -66.81586456     74.88086700    -88.56639862
Li       19.69763184     59.07513809    -50.52727127
Li       -6.30783987    147.59175110    -93.54011536
Li      -19.64482689     96.61267090     34.72444534
Li      -11.24755383     66.65624237   -186.88197327
Li      -22.84642410    -40.48736572   -186.16130066
Li      113.92873383    -28.01707077    253.99256897
Li       71.55569458    153.12899780     46.53313065
Li        6.91163683    -85.91835022     80.36294556
Li      -63.08603668    -90.21022034     67.81999969
Li      -75.31097412     -4.35345268     67.82559204
Li      -45.46953201    -74.81079102    -59.15390015
Li      110.43561554     70.09399414     13.45100021
Li      101.75455475     64.23078156     34.18244171
Li      -49.00527191    -36.12077332      4.00416517
Li     -118.41383362     78.10501862    -55.92710876
Li       41.02856064      7.14355516    -33.72749329
Li       54.43029785      8.73561478     29.49464607
Li      -37.17156982     15.25781155     42.91154861
Li      -37.06135559    -87.46944427    -34.29935837
Li       -0.00834136     19.51654243    239.87406921
Li      111.12538910     52.38673401     39.24849319
Li      144.59297180    359.09991455     85.36037445
Li      123.63259888     -6.17268991    114.93185425
Li     -114.71495819    -66.40631866    110.76351929
Li      -45.22124100    -19.97479630    123.05101013
Li     -109.99636078     11.02035618    -47.13155365
Li     -142.29629517    -33.03460693     74.55715942
Li     -118.46501160    -78.95232391   -102.53890228
Li       19.19758224      8.22120571    156.89344788
Li      -70.97689819    -62.36379623     50.91914749
Li      -18.51594543    -76.67967224   -140.11199951
Li        4.57283974    -77.71263885    115.10031891
Li      -92.84573364    -73.10453033     29.72209167
Li      103.89517212    116.15201569    -10.52485847
Li      -66.81978607    -54.78404236    -54.98755646
Li       63.35202789    150.45368958     20.46168137
Li       40.85620117    112.00548553    135.38070679
Li      -29.54864693    -29.35395432     78.12502289
Li       19.96328163     72.04412842    139.73484802
Li      127.19646454     84.45669556    -26.04760551
Li      132.21649170    -63.91581726     63.55054092
Li       52.14832306    -10.41360092     56.93005753
Li      -27.98279190    114.51911926    -41.84325790
Li       14.81038284    -26.88859749   -143.94151306
Li       36.52288818    -70.80643463     34.17639923
Li      -25.83809471     28.76173210     27.55496216
Li      -50.18980026     74.33740997     43.58923721
Li       19.53604126     -0.88561511     97.79981995
Li      -36.20747757    -44.32061386    -46.71293259
Li       70.97719574   -163.92433167      8.19152260
Li      -36.05665970     64.58586884    139.08517456
Li      -97.38397217     15.30716896    -84.65459442
Li      -70.66513062    -98.66709900   -131.90989685
Li     -106.09826660   -123.55109406    157.16075134
Li       94.97505188     97.45127106     31.92007065
Li      -18.73087502    -44.17172241    -64.46927643
Li     -166.80708313    -84.15772247    181.31953430
Li       -6.14706469    -27.50394630     38.26672363
Li      -87.85611725    -52.98188019     20.28816986
Li       27.57378197    -61.73775482   -101.05371094
Li       58.44721603     61.92976379     63.87513733
Li       20.19464874     60.15064621    -47.35810471
Li       27.81969070    -79.69139862     76.58236694
Li       74.01339722    -50.92721558    134.15133667
Li     -118.83637238   -173.14117432      4.34553480
Li       58.34410477   -104.96192169     29.88912392
Li      -40.54131699    -76.22268677    -25.12183952
Li        2.01838088    -37.11196518    122.90731049
Li      -49.64838028    -37.33848953    228.31159973
Li     -110.61815643    -95.18206024     42.33548355
Li      119.33705902    224.39128113    -63.30978012
Li       40.49023438    -78.78533173     24.24273491
Li      -54.29090500    -63.22472763    -67.94044495
Li       80.45688629    113.85156250     46.31698227
Li      127.56158447    160.93765259    114.59877777
Li       93.17845154    -16.55931282    153.62522888
Li      -45.13739777     25.29409790     21.04037285
Li     -165.94374084    151.65032959    -29.25817871
Li       75.55078888     18.34169579    152.60404968
Li      -45.60373306     39.66316223     76.29683685
Li       31.34025574    -47.81185913     35.46061325
Li      170.34628296     93.27995300     49.53089142
Li       84.26537323     69.94127655    -25.26129532
Li       -6.38579130     62.31040573    174.19772339
Li       20.73345947    -51.95449829    100.10544586
Li      -37.07157135    -33.13335037   -118.82197571
Li       40.74893570     39.89914703     97.70912170
Li      -15.62820721    107.42893982    115.12619019
Li      -66.78674316    -69.59880066   -105.80492401
Li       14.80352974     -5.21919250    114.48580170
Li      -80.30836487     93.53061676     50.62542725
Li      -32.49420166     43.99303055     24.71323204
Li      -41.70936584    -19.90058517    -43.68204880
Li      102.04237366     34.48310471    -29.09225464
Li        6.36247730      3.82031393    118.41886139
Li        2.69531131    -15.28078651    -29.10713959
Li      -10.30492496    -35.24988174    -55.41668701
Li      -24.06320572    -51.10379028     63.85463333
Li       48.78835297     35.74609756    127.21829987
Li      -86.99979401     52.20501709    108.05297089
Li       53.75704193    -10.47147465    118.58191681
Li       -6.48298407     65.47377014     25.47250366
Li      -24.16282463     67.51970673   -101.79451752
Li       80.19735718    -12.70417309    -67.36729431
Li       76.11505127    -62.36103821     80.08849335
Li       75.21647644     75.27659607     41.57538605
Li       28.53103828    -47.97027969    -13.85488701
Li       70.85362244    136.97911072     34.22087097
Li       58.71317673    136.27336121    -93.07266235
Li      -57.84432983     93.15058899    190.99081421
Li      -53.94373322   -107.98220062     93.20941162
Li       28.44239807     -3.46135902     12.71102619
Li       67.14785004     40.74236679     63.46510696
Li      -49.80936813    -28.60580826    -71.94699097
Li       58.98170853   -146.46118164    123.32438660
Li       56.94912720     66.37306213   -111.56384277
Li      153.70213318     70.00577545     55.37843323
Li      122.49475861    -46.12551117     25.13846207
Li       27.79868889     83.47006989     -7.85888100
Li       93.30541229    -98.44861603     93.36935425
Li       -5.97831917   -217.77940369    169.29389954
Li      -28.39514923     -5.70024776     33.39951706
Li       19.14560890     34.95272446     67.33844757
Li      -75.94039917      7.96712112    -51.40716171
Li        2.91896391    -63.33810425   -143.89854431
Li       31.70781898    -81.91739655      0.01907433
Li       88.96199799    -21.43894386     11.86095238
Li       67.51692200    103.76554871     97.30150604
Li       36.30618668    -58.91268158     42.19963455
Li     -101.84818268    -54.96596146    -12.68536568
Li       75.86596680    -19.93181801     16.67429733
Li     -186.59744263     24.00735092    137.88700867
Li      110.84418488     77.43296051    -25.48559952
Li       23.76118279    -66.20426178    127.36540985
Li     -106.13621521     44.87711716     16.74400711
Li       19.41624260    -71.14051819     68.20367432
Li      127.46606445     76.39484406    -37.80860138
Li       24.11729813    -49.70367050    -80.54405212
Li       32.78219604    -65.40392303    106.49371338
Li      -75.43995667      2.26370835     46.84674454
Li       -6.55236530    138.75611877     55.52778625
Li       54.70715332     77.85253906     71.68459320
Li       28.62507629    165.10897827    -71.28503418
Li       23.53083038    -15.25023174   -136.00863647
Li      -32.80512619   -115.92446136     51.32390594
Li      -39.18682098    -78.93992615    -86.60720825
Li      183.56439209    -33.64068222     38.38891602
Li       71.63532257     47.50981522   -130.81883240
Li      198.97537231    -38.08911896    -36.31821442
Li       24.75564384    -56.28624725     22.20350075
Li       49.80675507     55.07870483     37.95640564
Li       56.93170547    -84.04878235    -48.67293167
Li       75.27572632    -41.84802246     33.78534698
Li      -19.03981781      0.88705337   -156.91362000
Li        1.80510044    -16.38634491    -84.30247498
Li       32.44766617    -86.78862000     42.03415680
Li      -66.87390900   -112.64656067    -67.91300201
Li      -36.80482101    -39.19821548    -21.64186668
Li      -40.81750488     48.20198441    122.97373962
Li        7.10680580    154.87120056    -38.88111115
Li     -127.79429626     52.84938049    126.48970032
Li       88.75255585     83.01760864    -64.12050629
Li       36.83163834     19.42505264    186.59558105
Li       39.18048477    106.03840637    137.81803894
Li      -50.26033401    -26.02461624    -67.63220215
Li       66.74839020    180.91566467     29.75600243
Li      -97.34158325   -231.89270020    -42.70711136
Li      -44.99401474    -46.94992828     30.31157684
Li      139.99462891    167.48106384   -144.21949768
Li      -45.77653885      3.39139605    -51.30193710
Li      -15.70144558    -61.38390732     76.96113586
Li      123.24031830    -37.18689728     67.45796967
Li      122.47946167    110.37866211      1.73433149
Li       45.54709244    132.06277466     25.61879921
Li      -14.28423500    -99.71720886   -114.85260773
Li       49.73078156    -11.36679745     21.43816757
Li      -93.34035492    -91.53831482    -42.93604660
Li        6.71690464    -50.54950333   -106.05693817
Li      -89.05857849   -108.91909790    -25.39758301
Li        2.36665845    -15.28137875      4.54799795
Li      118.88970947     54.31705475    169.60098267
Li      -23.20201111     75.27434540     72.54565430
Li       41.23109818      4.86435127    -72.25209045
Li       -8.23508549   -111.93837738     40.12504196
Li       58.35028076    103.17387390    -38.20490646
Li      -83.97879791    -60.57020569     29.76466370
Li       53.83526611    -44.02079391    -38.46842957
Li     -105.50621033    -41.24025345     12.74335289
Li      -28.00162506     30.89253044     80.32936096
Li       71.86854553    108.37660980     54.84788513
Li      149.72203064    114.10465240     59.76675034
Li      140.81768799    155.95188904     80.59058380
Li      -36.84180832     -3.00331187    144.27000427
Li       45.85142899     68.55126953    -50.55946732
Li      -27.75782013    -56.16746521    -96.99748230
Li     -131.82273865    -26.56031609     59.36068344
Li       57.98305130     22.07724953     46.48168182
Li      -10.47119236     34.26008224   -206.88273621
Li       75.28395844     39.71485519    -54.97949600
Li      -75.25399017    -39.66069794     12.43144131
Li      144.71557617     72.42299652    216.03063965
Li      -79.57194519   -106.89215851     96.67694855
Li       -2.37099648      6.23101425     26.22322655
Li      -44.68319702     -7.85025787     20.59468651
Li     -103.93611145   -126.13139343   -123.80574036
Li      -41.36179352    -46.68707275    193.93695068
Li        7.04227829     28.17211914    105.51618958
Li       75.96056366     10.03194427   -241.97164917
Li       -6.58737183     62.09325790   -114.23495483
Li      101.49643707     -9.81876850     38.18255615
Li      158.17343140      5.24743843    220.53504944
Li       -6.36647987    -66.97798157    -13.07022476
Li      126.97732544     58.15200806     92.88486481
Li       54.46401215    -12.65171528     71.64674377
Li      -23.41860771    -76.02759552    130.94190979
Li       78.00130463    123.04856110    116.86225128
Li      -23.94863701    -19.05908394     84.33625031
Li       97.58470917     65.65477753     97.99438477
Li      -24.03118515     25.83957100     33.21117401
Li       -6.26893377    -31.36241341    144.17152405
Li      101.59117889      3.75748229     63.84461212
Li        6.39569473    -75.09912872    -24.89099312
Li       71.83310699     83.83037567    -62.83187866
Li       15.75551319     31.68007660     -8.05366421
Li      -30.71529770    -21.06515312     19.16075134
Li       11.23888397     32.64788437     29.05721664
Li       50.44718933    -43.64345169    121.31988525
Li       92.95632172     63.84792709     84.94512177
Li        6.53410959    -62.52942657     -8.36443710
Li      -66.65958405    -78.52725220    123.07202911
Li       45.85733795     59.63624191    -89.43959045
Li      174.68737793    127.76852417     59.26384735
Li       93.21609497    181.68354797     51.33300400
Li       71.61872864     95.61320496     29.37533188
Li      152.96006775     14.89318943    -84.29157257
Li      214.25265503      0.69709545     17.50580025
Li     -122.60014343    -95.47582245    -80.53903198
S         0.12127307      6.18922710      0.25107267
P         0.05893816      7.37289381      1.96905899
S         1.57986748      8.76077271      2.04384041
S        -1.67627978      8.40213299      2.19731498
S         0.46018833      6.37482834      3.87813163
S         0.07286742      6.16158628      8.90405655
P         0.18452531      7.43095160     10.51932430
S         1.74541044      8.96403408     10.38245964
S        -1.73124874      8.33297539     10.67727470
S         0.27670681      6.21228266     12.24826336
S         0.30816597      6.42107964     20.80494690
S         0.17805187      6.24757624     17.20662117
P         0.13687772      7.39662600     18.96013451
S         1.68781137      8.73536491     18.88850212
S        -1.76426709      8.30001545     19.25941277
S         0.42069912     15.38606167      3.93375134
S         0.12248165     15.46951199      0.31954417
P         0.10760872     16.44017220      2.14744258
S         1.68542016     17.71763992      1.85262561
S        -1.79056597     17.31818581      2.09212637
S         0.45216069     15.45593071     12.18972492
S         0.10919714     15.13148689      8.78081608
P         0.05901793     16.32733727     10.45306683
S         1.56759024     17.89797783     10.59679031
S        -1.64397597     17.51499748     10.70872593
S         0.38390896     15.46816444     20.75602722
S         0.11584826     15.34323597     17.29804039
P         0.11122558     16.44823647     18.98011780
S         1.75551295     17.76169586     18.92530251
S        -1.82072902     17.31051254     19.16080666
S         0.31343842     24.37487793      3.83939004
S         0.16982004     24.22774506      0.26404399
P         0.13861817     25.34329605      2.05204082
S         1.53457963     27.02932358      1.92222488
S        -1.60975730     26.58245659      2.26454353
S         0.35277808     24.55704689     12.35006237
S         0.09404349     24.45366096      8.72209835
P         0.11402401     25.36758423     10.59819031
S         1.69963610     26.83482170     10.40415001
S        -1.71461964     26.34541130     10.65956306
S         0.44106075     24.37275314     20.71345901
S         0.09482392     24.34923744     17.40146828
P         0.14577432     25.51904488     19.03690338
S         1.69635582     26.86872292     18.90761566
S        -1.83107221     26.45392227     19.06278610
S         9.09398460      6.25259733      3.82032633
S         8.88047314      6.26678467      0.39157227
P         8.73153019      7.44567204      2.08448577
S        10.24989700      8.69433594      1.87683225
S         6.80659103      8.44294167      2.17013049
S         8.98333073      6.45657969     12.29929256
S         8.66868877      6.25983715      8.73779011
P         8.91365337      7.38831997     10.52947521
S        10.34103298      8.75108910     10.48882389
S         6.86196709      8.24455452     10.67634296
S         9.04720211      6.31448650     20.83572388
S         8.66066170      6.33635712     17.34881783
P         8.75873566      7.48067617     18.99318123
S        10.38231182      8.76095963     18.90451241
S         6.91448927      8.21104431     19.03850555
S         9.21684551     15.39876938      3.78701067
S         8.63181496     15.34895897      0.39128038
P         8.66243362     16.55125237      2.14743614
S        10.44618702     17.74516678      2.04387903
S         6.80284309     17.29120255      1.97588336
S         6.90989113     17.33334541     10.70094776
S         8.94818878     15.34116268     12.31711769
S         8.85059071     15.36335850      8.84084225
P         8.76159859     16.54259109     10.58600330
S        10.29323006     17.75459862     10.28873730
S         6.82234383     17.40198898     19.17281723
S         9.03393078     15.38692474     20.78236389
S         8.87054920     15.35573006     17.30459785
P         8.72289944     16.45782089     19.03485680
S        10.31245804     17.72970772     18.82752800
S         6.92978239     26.51156044      2.26502514
S         8.95081806     24.30774117      3.66292691
S         8.82688236     24.18255615      0.46525222
P         8.78491688     25.59340477      2.02449656
S        10.27189255     26.97094727      1.92360473
S         6.79535580     26.31291962     10.64373493
S         9.02528095     24.46496201     12.37675858
S         8.71417141     24.39920235      8.77317810
P         8.78586292     25.56871986     10.51187897
S        10.44365501     26.81957054     10.42557621
S         6.84269810     26.37335205     19.09719086
S         8.94492245     24.32998657     20.70985794
S         8.77527714     24.43865776     17.46803284
P         8.84192657     25.54209518     19.09180641
S        10.36140823     26.88037300     18.75720978
S        15.45957279      8.28434658      2.21228313
S        17.72023392      6.41107798      3.78227878
S        17.42226410      6.21767235      0.30587164
P        17.31914139      7.49015427      2.02891827
S        19.05685806      8.70059395      2.01210427
S        18.93225670      8.87254810     10.36669731
S        15.60441208      8.35906506     10.68621922
S        17.59966660      6.22109318     12.31214619
S        17.41880417      6.19218445      8.85651493
P        17.42658615      7.45785427     10.50946617
S        18.94445229      8.73407936     18.88038635
S        15.51307392      8.32317734     19.01251411
S        17.74371719      6.29500914     20.79579926
S        17.36014748      6.34317923     17.36690712
P        17.42011642      7.40552044     19.06767082
S        19.06387329     17.86005402      1.85439408
S        15.44912910     17.34645653      2.25718713
S        17.56501389     15.31890202      3.76242232
S        17.46501732     15.30076218      0.45533925
P        17.43911934     16.50769615      2.01152110
S        19.11193848     17.75528717     10.39601612
S        15.46528721     17.18869591     10.63280869
S        17.62722778     15.43895245     12.34812832
S        17.33432770     15.37321663      8.76246834
P        17.44352150     16.58018494     10.59451580
S        19.03817558     17.71327972     18.84645462
S        15.46045494     17.28683472     19.24740410
S        17.58425522     15.44541645     20.61868286
S        17.50510979     15.31958961     17.39345932
P        17.39257622     16.57089996     19.01550102
S        18.93326759     26.74991608      1.88615572
S        15.51533127     26.41789818      2.17588234
S        17.70714951     24.39937782      3.83739877
S        17.49013710     24.41356850      0.39665672
P        17.33264160     25.58516693      2.04594183
S        18.90695000     26.75669670     10.53666306
S        15.56624222     26.40974236     10.66705608
S        17.75045967     24.61930847     12.34243488
S        17.38306427     24.36604881      8.64378357
P        17.37319374     25.40810776     10.54222107
S        18.91012383     26.98687744     18.81579018
S        15.64163780     26.44485664     19.25052834
S        17.50396729     24.32563210     20.69331169
S        17.46037483     24.22350883     17.34298706
P        17.46699905     25.58505249     19.01900482
S        10.31261826      0.43133220      6.41188574
S         8.66742992      2.73768449      4.50248003
S         7.22318268      0.04174086      6.41113567
S         8.45307159      2.53438687      8.06851196
P         8.59180355      1.45223951      6.18087101
P         8.63000774      1.50474417     14.84166813
S        10.55780888      0.67614472     14.73606777
S         8.70970249      2.35939288     12.83815575
S         6.97382164      0.30573258     14.79840088
S         8.37806702      2.35315657     16.75631332
P         8.59331226      1.45485628     23.31892776
S        10.55435371      0.57812732     23.32190704
S         8.61653328      2.50448322     21.53943634
S         6.98218060      0.16068919     23.18344116
S         8.50177670      2.49931717     24.99637413
P         8.69476604     10.50298023      6.25423384
S        10.54348183      9.46853256      6.43267250
S         8.49139118     11.63100910      4.61438656
S         7.04983950      9.17243767      6.20368814
S         8.47213364     11.65357780      8.07240009
P         8.58885574     10.50241280     14.80890465
S        10.50367165      9.63502407     14.83088207
S         8.63481426     11.52767754     13.00022602
S         6.99712372      9.17189121     14.67991447
S         8.52354336     11.59151363     16.64956474
P         8.70286465     10.53389835     23.31212425
S        10.43025017      9.46849728     23.30838394
S         8.55982113     11.63829422     21.59777069
S         7.08919096      9.09097481     23.15112877
S         8.46975994     11.69792652     24.99044418
P         8.65500355     19.56974983      6.33977461
S        10.59095001     18.70531464      6.35440874
S         8.61433411     20.53931618      4.49685335
S         6.92971134     18.30724144      6.24563551
S         8.46025944     20.53861618      8.14362049
S         8.46389866     20.81112671     16.47924614
P         8.58408833     19.41947746     14.77228642
S        10.46207714     18.52678108     14.80706406
S         8.63944054     20.77965736     13.17030334
S         7.09833956     18.11808395     14.73934650
S         8.45818615     20.78204918     24.88090324
P         8.65460777     19.45923233     23.33446312
S        10.57417679     18.58845711     23.25216293
S         8.58853722     20.62997627     21.77049637
S         6.97473574     18.19675827     23.12258720
S        17.14751625      2.65986061      7.98032284
P        17.23953247      1.37196922      6.33268404
S        19.16751671      0.44569123      6.39076567
S        17.23634338      2.68903470      4.64009619
S        15.67484379      0.02809658      6.23618221
S        17.10135269      2.56859303     16.60867691
P        17.22221565      1.47920871     14.77745628
S        19.07864952      0.49042681     14.80507565
S        17.36807251      2.66583681     12.94955349
S        15.69487286     -0.00576342     14.82766056
S        17.10290909      2.56726408     24.88619232
P        17.30661964      1.39987290     23.30366325
S        19.14768791      0.51800668     23.30864525
S        17.22780418      2.55528712     21.67058182
S        15.68301296      0.15517111     23.19047928
S        17.05015945     11.53043365      8.02472401
P        17.25026703     10.44592381      6.29861641
S        19.23963547      9.59340286      6.33974314
S        17.31524277     11.64748955      4.55696058
S        15.61081028      9.20934772      6.35884714
S        17.17341995     11.51124477     16.43574715
P        17.28161049     10.34197807     14.73989582
S        19.17209816      9.74521732     14.89009571
S        17.32450104     11.64436054     13.10186481
S        15.51555634      9.18025970     14.79953957
S        15.58373451      9.13194370     23.17705536
S        17.23749161     11.54866791     24.95452309
P        17.25993729     10.50038528     23.20104599
S        19.24803543      9.54945374     23.51530457
S        17.13724709     11.69799995     21.50814056
S        15.67906475     18.11914825      6.41769695
S        17.03702736     20.57393646      8.17064476
P        17.31947517     19.66238403      6.23350763
S        19.02320862     18.62776566      6.28873444
S        17.40969849     20.68015480      4.46609068
S        15.84523964     18.09308815     14.84976768
S        17.06007195     20.65808296     16.49069214
P        17.21886444     19.66598320     14.77110195
S        19.00246048     18.47744179     14.79721451
S        17.33841133     20.76891708     13.05943012
S        15.67231655     18.26500130     23.24944687
S        16.98213005     20.70603752     25.15183258
P        17.21062469     19.49089432     23.32537270
S        19.24399567     18.59358406     23.14802361
S        17.35570335     20.60203743     21.48562622
S        24.43426323     -0.01666058      6.34762478
S        25.74710464      2.61572409      8.04866886
P        25.79744720      1.47554147      6.28605318
S        27.69886398      0.42498964      6.32627249
S        26.00265694      2.69858265      4.56984520
S        24.28007317      0.12868947     14.61220741
S        25.76080704      2.66368103     16.47577667
P        25.97476959      1.35323989     14.94316387
S        27.86466217      0.46888000     14.82672691
S        25.80606079      2.57952452     13.11618614
S        24.33793831      0.16799115     23.18177986
S        25.81645584      2.57582760     24.92362976
P        25.86697197      1.31978929     23.21345520
S        27.77089119      0.58440840     23.34979820
S        25.89044380      2.54485989     21.68782997
S        24.31601524      9.06788158      6.33865833
S        25.78461075     11.61882305      8.07317638
P        25.81965828     10.41508102      6.30882788
S        27.68233681      9.65811348      6.29004431
S        26.07847023     11.66564751      4.56853294
S        24.25877571      9.23110104     14.76798820
S        25.73687553     11.48596478     16.52135277
P        25.94267464     10.52661705     14.81806564
S        27.80749130      9.65472698     14.81550121
S        25.93946266     11.53093433     13.04689598
S        24.45826340      9.08424854     23.22871399
S        25.86735725     11.59890652     25.03427887
P        25.80430794     10.52365589     23.16556549
S        27.62492752      9.55689526     23.39890862
S        25.92571640     11.66553783     21.52739716
S        25.88278008     20.77475739      4.54372406
S        24.36220551     18.09424210      6.28950691
S        25.77639389     20.64978790      8.01186752
P        25.97969437     19.61149597      6.31996441
S        27.68546295     18.53137398      6.41455555
S        25.80617905     20.67925835     13.10673332
S        24.32727051     18.26787186     14.69403172
S        25.86494637     20.58523560     16.43331528
P        25.89403152     19.47002029     14.74841595
S        27.79119492     18.65445900     14.98493767
S        25.94805717     20.60653305     21.58929634
S        24.28788376     18.24916458     23.19970322
S        25.84256935     20.63110733     25.03395081
P        25.85916328     19.40596008     23.18919754
S        27.74476624     18.76189995     23.34351921
S         5.98297215      4.34249640      2.11012697
S         4.77905035      1.76294684      3.72467136
S         4.31674051      1.62619054      0.37445691
S         2.64225888      3.83441782      2.08347940
P         4.41875076      2.92390847      2.07795048
S         6.04079103      4.39916849     10.42890358
S         4.64710093      1.73920882     12.22583389
S         4.46241426      1.69216394      8.88082123
S         2.60801792      3.86488128     10.68982029
P         4.38013363      2.78997946     10.53406143
S         6.02942133      4.21823502     18.92577744
S         4.66393614      1.86418355     20.84523582
S         4.37227964      1.86222386     17.27250099
S         2.61077571      3.68805337     19.10452652
P         4.46493149      2.85491657     19.00050545
S         6.12601233     13.26792145      2.02241063
S         4.61237955     11.02797890      3.80681038
S         4.44524860     10.83164978      0.26739800
S         2.48478985     12.75611782      2.30891609
P         4.47319555     11.83261204      1.96117616
S         6.11763525     13.23183918     10.47551727
S         4.77885246     10.88385201     12.22786903
S         4.44514370     10.83047867      8.85209846
S         2.40868521     12.83898258     10.60626411
P         4.38842344     11.93459702     10.59993458
S         6.01519537     13.34383392     18.93478966
S         4.66646433     10.77516651     20.67234039
S         4.35925055     10.75542068     17.39821434
S         2.54063511     12.82116508     19.07673073
P         4.56314087     12.02731991     19.06879807
P         4.44516945     20.99571228      2.10609317
S         6.01530170     22.29703331      1.93664634
S         4.71838665     19.87288475      3.83957672
S         4.45060158     19.89682961      0.34927648
S         2.51121140     21.88879585      2.14005041
P         4.43110466     20.91656685     10.42187786
S         5.77354002     22.35154915     10.41701698
S         4.56988859     19.90522575     12.18657684
S         4.66507959     19.70569420      8.81270885
S         2.70057940     22.06952858     10.91744423
P         4.44830513     20.96655083     19.03735733
S         5.92930412     22.41299629     18.92962265
S         4.68739319     19.82960129     20.76643753
S         4.39153910     19.82677269     17.33201408
S         2.68423700     21.91434097     19.08437157
P        13.12900734      2.95821834      2.05956173
S        14.72779560      4.20997715      2.11424494
S        13.42217064      1.86667693      3.71164012
S        12.97872066      1.70083058      0.36756736
S        11.10185146      3.75542498      2.11704588
P        13.09901714      2.96852231     10.48012733
S        14.83065701      4.25418472     10.57277107
S        13.45510006      1.78521872     12.27166748
S        12.91891289      1.76956773      8.92420483
S        11.05483818      3.71398497     10.50883484
P        12.90531635      2.94374585     18.82738304
S        14.61446476      4.21050882     19.09568024
S        13.56957054      1.74485207     20.87611961
S        13.08206272      1.66402102     17.27255440
S        11.18051720      3.92750716     19.07092094
P        13.02575588     11.98429966      2.06033039
S        14.70779991     13.22151184      1.86553180
S        13.14920616     10.96251583      3.78686714
S        13.19357204     10.86613369      0.29958197
S        11.27969456     12.68698120      2.35777426
P        13.08873367     11.99412727     10.59560299
S        14.70123577     13.24568939     10.38224220
S        13.33264637     10.80002022     12.16303635
S        13.15122318     10.82787228      8.96722507
S        11.08433342     12.85406780     10.65342903
P        13.03751945     11.93552208     19.00500488
S        14.60822582     13.15902901     19.01828575
S        13.48785210     10.90369511     20.68217087
S        13.11268997     10.81059361     17.35613823
S        11.11014175     12.91094112     19.08710098
P        13.10465813     20.93835640      2.11737013
S        14.59512615     22.33387756      1.99067271
S        13.35945988     19.91564751      3.82016873
S        13.03659630     19.87413406      0.31918281
S        11.26287651     21.88728905      2.12463236
S        11.20623589     21.96669197     10.61964512
P        13.01257038     20.99329948     10.48701572
S        14.57004929     22.25487518     10.61868382
S        13.50585556     19.96485329     12.30366230
S        13.06087017     19.77145004      8.72883415
S        13.04484749     19.92123413     17.34364128
S        11.16718578     21.87187195     19.04922867
P        13.10241318     20.95833206     19.07900238
S        14.66731834     22.31354141     18.91287422
S        13.37687302     19.88500404     20.76647186
S        21.88279533      1.70101881      0.38698131
S        19.93277740      3.84503937      2.35985351
P        21.68088150      2.85734558      2.02430129
S        23.25430298      4.31047058      1.86777771
S        21.82316208      1.77382052      3.72994590
S        21.76445389      1.88134897      8.84656811
S        19.90084648      3.74979067     10.62723923
P        21.67059326      2.85938597     10.61506081
S        23.29318428      4.21846533     10.33361435
S        21.94449043      1.77877355     12.33971405
S        21.70139503      1.81637239     17.29701614
S        19.86166000      3.70468736     19.13845444
P        21.80567551      2.89239407     19.11188889
S        23.36153030      4.30837059     18.81034279
S        21.84790611      1.76706350     20.79463387
S        21.80883789     10.79103184      0.40156901
S        19.90864563     12.89156914      2.24248123
P        21.72064781     11.94335556      2.02317572
S        23.20724487     13.29079628      1.91955996
S        21.92989349     10.80329514      3.78203535
S        21.98800468     10.86605835     12.25920200
S        21.76625633     10.77826786      8.81501484
S        19.80984116     12.82249260     10.69135380
P        21.65597534     11.99701691     10.53567505
S        23.35299301     13.25803757     10.45825005
S        21.93067169     10.98358727     20.85813713
S        21.69444275     10.84259319     17.17465973
S        19.79796982     12.70236778     19.20843506
P        21.76312828     11.98111153     18.93073082
S        23.39050674     13.21167278     18.97420883
S        21.99548721     19.95992661      3.80091047
S        21.69029236     19.89528847      0.32475495
S        19.90048599     21.83812523      2.14523053
P        21.73547745     20.98077011      2.10290742
S        23.25403786     22.27663612      1.99773157
S        21.92290497     19.92373848     12.35687065
S        21.69496155     19.93922997      8.76950932
S        20.01725006     21.85114288     10.62904453
P        21.77131081     20.89821815     10.60975361
S        23.17057228     22.33560944     10.39683914
S        21.94034767     19.94337654     20.74494553
S        21.65218544     19.84510231     17.30101395
S        19.87007904     21.80403709     19.13854408
P        21.80644417     21.03029442     18.98700523
S        23.30913925     22.32962227     18.97658348
S         4.12035608      7.11102152      8.18113136
S         2.60685277      4.74150944      6.20061255
S         6.27435303      5.11195850      6.32607603
S         4.28438807      7.04421711      4.49753332
P         4.37082577      5.82793188      6.38444996
S         4.19762468      6.95500851     16.49214554
S         2.73507547      4.66246796     14.76830578
S         6.13726854      5.08430386     14.88886738
S         4.32921362      7.10012054     12.99295521
P         4.25360346      6.04202366     14.83613586
S         4.24512959      7.16209507     24.93999863
S         2.67645216      4.54095793     23.11083794
S         6.14013720      5.00732136     23.38176346
S         4.23761845      7.12394094     21.64399910
P         4.35696650      6.00846720     23.29050446
S         4.13253880     16.14697075      8.00203133
S         2.75005937     13.65061569      6.29645395
S         6.09740019     14.07308578      6.33562708
S         4.34966230     16.16321945      4.67346430
P         4.32557392     15.03937054      6.27862453
S         4.15538216     16.15083313     16.43799400
S         2.73356009     13.62095165     14.75984573
S         6.19258451     14.00313950     14.86062050
S         4.30874968     16.23134804     13.11438560
P         4.26282263     15.06796169     14.80448532
S         4.23870325     16.16882896     24.96039963
S         2.75462699     13.65386581     23.12959290
S         6.12294531     14.09891510     23.32534790
S         4.30599594     16.12650871     21.60332489
P         4.22970104     15.02464104     23.35048103
S         4.18819571     25.23369598      7.99992228
S         2.67003417     22.64098549      6.25344849
S         6.19671440     23.13596535      6.32578516
S         4.38373995     25.21880341      4.67144442
P         4.21271038     24.07443047      6.33760834
S         4.11818933     25.09930801     16.57496262
S         2.68712521     22.75646210     14.76570702
S         6.13949680     23.19811440     14.77167702
S         4.38303328     25.12697220     12.99484444
P         4.32745457     24.12473679     14.87245369
S         4.15816784     25.13139915     25.01329994
S         2.72223163     22.77534676     23.21402931
S         6.11308622     23.19785881     23.30420113
S         4.33095074     25.17304039     21.49881935
P         4.33098316     24.02453995     23.33838463
S        12.83984280      7.09330130      8.12974644
S        11.31613636      4.61565065      6.18496513
S        14.86936188      5.01862955      6.38656378
S        12.91503334      7.07430506      4.51123762
P        12.93106365      6.04203844      6.37703609
S        12.82439899      7.10346031     16.73530579
S        11.37692070      4.64862108     14.65096951
S        14.78758621      5.06796455     14.79183865
S        12.97025108      6.97963095     12.95077991
P        12.91162014      6.04432583     14.84998608
P        12.84706783      5.96448374     23.30414009
S        12.79026222      7.05506468     24.92446518
S        11.42034245      4.56275463     23.33092690
S        14.74457073      5.02137041     23.29983139
S        13.06633663      7.23761177     21.50820541
S        12.96256065     16.02099991      4.48210859
P        12.98892117     15.01611519      6.31197739
S        12.79869843     16.07340813      8.22207165
S        11.33114147     13.77488613      6.22733259
S        14.79208660     14.18705940      6.34384537
S        12.86851978     16.10833168     13.03417873
P        13.00503254     15.10270309     14.79895878
S        12.75506210     16.14010429     16.59860229
S        11.50906658     13.74070549     14.69929600
S        14.73627567     13.98357201     14.84610748
S        12.88374615     16.22782898     21.51116753
P        12.95704079     15.01057148     23.20998383
S        12.85081100     16.08008003     24.96798515
S        11.37718773     13.69051266     23.23012161
S        14.80353832     14.06328964     23.44510460
S        13.06245232     25.32096863      4.64886713
P        12.96469498     24.01861954      6.39766359
S        12.72113037     25.34361076      8.01347446
S        11.42336845     22.58043861      6.30460215
S        14.70093822     23.03834724      6.22564507
S        12.99143600     25.20648575     13.08969593
P        12.88375092     24.04480934     14.83605099
S        12.77390575     25.31616974     16.59935570
S        11.37879753     22.67075920     14.69581413
S        14.84193802     23.06464767     14.75749016
S        12.98151588     25.19600296     21.63588905
P        12.91211891     24.13771439     23.34992790
S        12.67487526     25.26001740     24.96072006
S        11.38912487     22.71802521     23.22844124
S        14.91316032     22.99427605     23.19415092
S        21.63330269      7.21665096      4.63177299
P        21.59589386      5.93539429      6.38302946
S        21.44995499      7.12007189      7.93064737
S        19.94888687      4.54755354      6.28537893
S        23.46162796      5.02062559      6.35892534
S        21.55620766      7.07226229     13.05146122
P        21.66153336      6.01539135     14.69638920
S        21.44984055      6.95545816     16.51801682
S        19.97989464      4.71136427     14.78032112
S        23.44441986      5.08854198     14.92746544
S        21.62514305      7.12050676     21.61271858
P        21.60963249      5.99445486     23.15331078
S        21.38584900      7.01107121     24.94045448
S        19.95710564      4.67143822     23.32014465
S        23.51239777      5.04483509     23.33580971
S        23.32865143     14.02530193      6.37908840
S        21.61159134     16.21430206      4.60027266
P        21.53445053     15.06587887      6.34237909
S        21.48714638     16.16495705      8.01226234
S        20.12573433     13.60372257      6.25436831
S        23.51881790     14.10972691     14.89810085
S        21.50087929     16.02853775     12.98720646
P        21.61765289     15.01998520     14.71407127
S        21.43640709     16.07062721     16.68754578
S        20.01664352     13.84372425     14.68732929
S        23.46481323     14.09428024     23.35072517
S        21.60994530     16.18782043     21.40857697
P        21.63110161     15.04737186     23.25165176
S        21.40132523     16.02568245     25.05406761
S        19.98367310     13.71837807     23.30076218
S        23.44317245     23.17788506      6.30982447
S        21.68357086     25.15648270      4.47428083
P        21.46528625     24.07196999      6.37667990
S        21.48241234     25.19728470      8.19709492
S        20.01077271     22.70017052      6.23165798
S        23.48803520     23.17068481     15.00417328
S        21.45475960     25.16784286     12.94359875
P        21.72803688     24.07776833     14.69576454
S        21.43442154     24.97615242     16.55594635
S        19.98890877     22.91154289     14.77414989
S        19.98083496     22.75645256     23.14178467
S        23.49369431     23.15742111     23.36398888
S        21.54814148     25.17988586     21.67273140
P        21.56749725     23.91149139     23.14244843
S        21.49852753     25.29308319     25.04111481
