864

Li      -49.97067261    140.45880127    -50.71797180
Li      227.50187683     99.67348480   -123.12083435
Li       77.43986511     73.98400116     27.74903297
Li     -153.40037537    -79.91328430    -25.09146500
Li      -88.24672699    -26.25376511    152.68998718
Li     -201.22633362     30.59465027    160.82264709
Li      -11.28627777     42.05015182    -33.74652100
Li      127.09365845     90.56939697     76.09590149
Li     -144.19456482    -81.20625305    237.56062317
Li       62.86698914     66.44211578     38.22478485
Li       97.49436951    104.95681763    -33.64863968
Li      248.64587402     85.57441711   -165.43879700
Li      -23.43364143    -18.81256104     38.29251862
Li      136.17756653    -26.66136169   -186.21311951
Li       -2.27650571     48.93052292     97.60188293
Li       23.33959961     12.21698666    -37.63366318
Li      -83.64723969    -99.68923187    -16.93014145
Li       30.85641670    -78.19297028     15.74556446
Li       -6.56757927   -166.60368347    -25.34098625
Li      109.39787292   -217.10638428      8.29903698
Li       39.11204910    105.70996094    -14.55839825
Li       88.52182007    -91.41967010     33.53973770
Li     -144.52667236   -205.76467896   -105.58184814
Li      103.02752686    142.57862854   -128.98103333
Li     -140.01593018   -108.12042999     71.81701660
Li      -64.80877686    -12.90231705     37.61465454
Li       18.97690392     85.53231049   -156.71289062
Li      -15.33868790     21.74665451    139.88894653
Li        6.23881197     93.51264191    -80.20232391
Li      -93.04910278     -1.43457246    166.19790649
Li      -54.07669067    -75.45070648    161.39930725
Li       23.54235077    150.88336182    -58.00632477
Li      173.51895142     79.74844360     23.73860550
Li      -49.69247437     26.19456482     63.80473328
Li     -114.46684265   -174.02922058    -54.94223404
Li      -81.44159698     11.73936653    -18.87368965
Li      -75.06975555    -88.29386902   -113.58612823
Li       -5.64617205    156.40887451      7.45782757
Li       10.22778797     22.63922119     76.48910522
Li       54.01998138    128.86851501    -16.32092094
Li       84.74144745    206.19033813    106.70889282
Li       19.30870819     17.13413239   -114.06159973
Li      -15.17484188    110.78604889    -51.28597260
Li       53.72802734     71.19710541   -127.51147461
Li      -62.71417236    -68.83467865     55.17841339
Li      -54.65467453     44.85137177    -93.21421051
Li       40.46748734    -23.70559883    127.07366943
Li      -36.46500397     -3.49563646    -67.71186066
Li       36.43358612    107.45729828     -8.77150249
Li      178.99339294    121.03347015    -76.67755890
Li       45.02932739     80.12244415    135.19786072
Li       92.27269745    -18.44378853   -216.04925537
Li     -105.47107697    -67.32746124    105.69085693
Li      -88.09226227    -10.57234001    191.03585815
Li      -49.74366760     47.81361389     21.48854637
Li       14.58887482    -78.01226807    -93.97663879
Li       84.87027740     46.06352615   -194.61917114
Li       71.15694427    110.12953949     76.43176270
Li       45.39546585     83.58618164     29.92542267
Li      -54.84793091      3.57234168      8.05061626
Li     -117.27365875    -75.13099670     18.79487801
Li       23.51407242     -5.83425760     16.44556999
Li       32.09540558     51.58625412     76.74098969
Li        1.92333329     41.45324326     34.00487900
Li       79.22900391    162.72935486     46.55118179
Li       -2.57317233   -216.72727966     92.96037292
Li       15.48494816     46.55889893    -39.82653809
Li       74.73690033     99.20011902    118.85252380
Li       53.96613312    -34.31114578     17.47503662
Li      -72.96296692    -15.90470695     14.85948849
Li     -101.89884186    189.01257324    -93.62037659
Li       32.45140839   -122.70542908    -12.71808529
Li      -21.35858345    111.09252167    201.48162842
Li       36.95293045    -30.96257210    -67.95758057
Li       29.53281403    104.64292908    122.62070465
Li     -118.41271210   -266.12966919    203.44583130
Li       49.80138397     72.85401917     51.07154083
Li       -7.30070734     44.03561401    262.38195801
Li      -50.26054382     40.39692688     21.05129433
Li      101.26729584    -29.92967987     26.06130409
Li      144.30490112     36.10231400     67.83879852
Li      148.99089050   -100.72126770    208.38391113
Li      -23.91470146     12.61777210    203.19641113
Li       27.76279449    -58.31585693    -16.95587349
Li       72.60395050     33.26604080     19.83891678
Li      114.82763672      2.84614182    -71.63686371
Li       -6.11450815      0.43690926    148.17639160
Li      -36.81581497     44.71393204     33.63958740
Li       82.48722839     43.17787170     69.46794891
Li       93.64854431    -37.28467941     24.99437714
Li      145.33473206    -25.64854240     12.19787502
Li      -31.61876297    -85.09603882    148.15673828
Li      -28.32388306    -23.67560577    144.02818298
Li      157.84085083     41.36984253    -33.94591141
Li       84.82398987    118.61630249     37.66342545
Li      101.86468506    -22.11860085    114.26680756
Li      -19.56653976    180.08717346    -34.21577835
Li       88.66489410     71.48120880    -29.48316574
Li      -88.84846497     17.95844269     42.44136810
Li       10.76143265     -9.77429962    -89.02194977
Li       67.26663208      6.94721317     -4.29979849
Li       75.45909119    105.63292694     93.82127380
Li      105.49655151     62.18667221    169.38171387
Li      -73.98051453     38.21982193   -103.92617035
Li      -96.52710724   -158.38058472    -76.55216217
Li      -19.23604965    136.32063293     25.57219315
Li      -19.18967628    197.17787170     38.32427597
Li      181.89807129    -63.96154022     15.98691845
Li      -10.13224602      1.01656187      3.43605447
Li      -36.18300629    188.23159790     80.86952209
Li       40.78536606    -70.06681061    185.51568604
Li      112.29022980    254.69358826    -48.32450867
Li        6.68027067     89.80493927    -54.95017242
Li      -62.72438049   -165.30342102    -33.33901215
Li     -110.48436737   -145.85670471    -76.54758453
Li      -57.68010712     77.64062500    165.15335083
Li       21.01617813     96.16083527    -40.30033493
Li      -76.03232574     31.37011528     -8.52308750
Li       32.29480362     99.81901550   -152.53062439
Li       46.05968094    177.46705627   -148.77236938
Li      -93.05787659    -51.71476364    119.04959106
Li      101.64482117    139.65527344      4.61979198
Li       24.20633316      4.42085075    -55.14090347
Li      -28.02470207    -65.69719696     38.08040237
Li      157.26582336     92.43786621    119.40534973
Li       80.21522522    152.99757385     21.00368500
Li       -2.26738334    -40.03128052     84.66621399
Li      101.45249176    -95.98335266   -105.73054504
Li        6.54678822    103.22460175     21.04744530
Li       71.13668823    -27.81778908    -38.20470428
Li       23.95614052   -128.18041992     29.86291695
Li       62.73801041     98.38393402      4.29571199
Li       71.67149353    153.49693298     -4.29929113
Li      -36.03580856   -113.37382507     29.60404587
Li      -22.95977592     23.38623619     37.81708527
Li       19.47309303    -88.86532593    164.61820984
Li       84.42675018    106.72556305    -54.57506180
Li      -31.68861580     -3.36906528      3.48175192
Li      109.80696869     48.23705673     -9.13059902
Li      -36.16908646     40.45247650     20.92279053
Li      -75.02469635    -63.99009323    -46.24372482
Li     -129.88098145    -16.88228035     61.53208160
Li     -144.97178650    -19.27415657    168.93466187
Li      -36.79100800     39.39280701   -254.58560181
Li      -32.45843506    -88.14723206     -0.07200591
Li      -28.50397491     33.03597641      0.36700431
Li      -45.18838882    -83.52498627   -122.59922028
Li       79.83068085     20.23617554     25.32882690
Li      144.95446777     -2.00094604     76.06966400
Li       97.38311005     39.05774307     67.07604980
Li       28.10758591   -103.17597961      9.03153992
Li       37.47209549     74.96559906    -71.05812836
Li      -62.64217377     27.92995071     68.23177338
Li      132.09428406     66.00032043     38.33163071
Li       12.08638763     29.70045662    -36.67050934
Li      -18.90212822     46.19313049    -72.25779724
Li       10.57222271    -37.99237442    151.97586060
Li       23.36092758      8.84873486   -139.71232605
Li       54.65843964   -112.49443817     -8.34541702
Li      -23.35022736    -60.97770691   -198.74830627
Li       49.00571442     39.83997345     -8.70516968
Li       28.99822617    -99.33750916    -93.31122589
Li       30.05126190     18.14054108    214.40734863
Li       -1.50211000     -1.55946028    131.74621582
Li      122.31461334     86.09941101     92.99526978
Li      -58.05677414     35.36374664     47.20126724
Li      -25.49083138    -79.51888275   -108.70680237
Li       37.06706238    113.76683807     12.41207600
Li       93.19027710    112.83296967    -72.19104767
Li       86.04363251    137.58776855    -14.71270180
Li      -25.50152588    -37.60353851    -69.63101959
Li      158.42362976     90.53485870    -47.13111496
Li      -53.84235764   -179.99832153     42.45236969
Li       32.81014252     82.69222260   -123.04870605
Li      -32.37917709    -70.32220459    101.86489105
Li      -44.72604370    -62.54765320    215.60739136
Li       55.65694046    -39.54532242      1.62292886
Li      -83.99511719     86.66287231    -67.62185669
Li       15.51286983    -38.14941025    -71.37396240
Li       75.92121124     23.88397980    -12.79160881
Li      -99.27825165   -141.77636719   -196.38174438
Li        2.44855523     41.87798309    -13.76630878
Li      -27.83876991   -107.90879059    114.24503326
Li      -71.69190216    105.65396118    -33.75467682
Li       58.24720001     12.82147789    135.27510071
Li       62.17673492    131.14520264     55.19890594
Li      217.88041687     52.99484634     24.69257927
Li       98.67174530    -48.60657120   -149.56668091
Li      110.26380920    115.90577698    -34.17550278
Li       89.86545563    141.26524353    -47.59342957
Li      -15.21894073   -170.18507385     51.27733994
Li       83.77607727    271.37030029    241.84960938
Li        3.08341002    -54.23001480    271.24682617
Li      -63.23907852     48.44566345     67.20330811
Li       71.26879883   -127.28769684     63.68498993
Li      -45.84782791    -45.68774414    156.89962769
Li       57.15532684     60.74774933   -100.06607056
Li       88.60903168    -21.87450790   -131.75070190
Li       62.69836807     20.47764969    -85.09124756
Li       84.97138977     46.08913422    -29.89052963
Li      -75.14241791   -129.77041626    -89.72946930
Li       49.60568619    130.15940857    -71.68302917
Li      -41.50175476     13.84969521      4.37511206
Li       54.33812332     65.93838501      7.63758755
Li      114.48176575     10.33843803      8.66250896
Li      -62.20341492    -62.25115585    130.96005249
Li     -114.54370880   -175.60185242    -16.99161148
Li        2.83315110   -126.60900116     20.95915222
Li       41.11775589     33.98590851    -50.81850815
Li       23.75753784    205.54846191    -50.17709732
Li       50.09606171    -98.51874542    131.05538940
Li      -54.41355896     72.25796509    106.16691589
Li      -80.15644836   -141.39151001     75.62975311
Li       42.47053528     88.34658051    -36.62446594
Li      187.65686035    157.36384583    -46.32568741
Li      -49.57913208    -24.34926224    115.01921082
Li       10.64263821   -121.55371857    -41.81896210
Li      -62.03773117    -83.10903168     47.19895935
Li      -66.93324280     28.27215004    -29.84277153
Li       80.74936676      6.29600334    -56.90975189
Li     -122.27787018    -49.60701752     29.91982651
Li     -244.49574280    -41.89029694    -34.42135239
Li       19.69554329    -97.29519653    -46.22525787
Li      129.27671814    133.70988464    141.65431213
Li      -36.25781250     91.99124908    -56.44388962
Li      115.03332520    186.44279480     42.70568085
Li      118.22689056     -5.39752436    -51.42063904
Li      -40.95188904    -27.89532852    182.07940674
Li      -71.40222931    -75.04848480    110.39873505
Li       36.71910858     89.74104309     63.62283325
Li      114.91725922    -56.67272949   -106.87854767
Li       86.16754913    103.84187317     95.52954865
Li       32.88850403    -65.13735199    165.89779663
Li     -148.29516602   -131.14710999    -55.44157410
Li      -10.34734726   -122.46355438    -37.96753693
Li       49.79210281    -53.27793503    288.73126221
Li      184.61917114    135.61317444     55.12276077
Li       67.30744934     34.10367966    160.57586670
Li       -6.09181881    337.08660889     98.40146637
Li      -36.86481857      3.91860914     93.08518982
Li       10.40094948     94.43103027    -51.07665253
Li       10.47989655   -155.01931763     -3.40832329
Li       -6.79821110     14.23247719    -24.91603088
Li      174.93283081    342.96176147     92.86672974
Li      -97.07096100     70.20449829     59.24209976
Li     -131.31530762    -89.74339294     -4.68005610
Li       28.53933907     23.98057365   -123.63506317
Li       18.87864876    -67.96389771     84.90232849
Li      -19.02256012     55.03245926   -182.48013306
Li      -90.08153534    -65.75029755    -99.77288818
Li      161.52371216    144.69302368     50.76065063
Li      -19.52127266      9.76028252    135.76206970
Li      -41.40562057    -19.80953407     33.20832443
Li       90.66946411    141.53024292     35.63393784
Li     -206.08419800    -28.84549522    100.81849670
Li       58.18762207   -123.02273560    131.61000061
Li      -58.54507828    -34.06181335    144.77862549
Li       32.87504959     67.63169861     67.84635162
Li     -148.87135315    -11.21091652     -3.48075533
Li      -97.46834564     23.79596710   -169.23979187
Li     -127.45098877   -150.32621765     80.46369934
Li       -2.64395690   -135.71046448     50.47513962
Li      -59.06993484   -100.41175842    228.56072998
Li     -101.25112915     29.98303413      4.85435390
Li       63.19084167    102.15173340   -207.13165283
Li      -15.28185081    152.23649597     92.89717102
Li       31.68537521     -5.96885777    -77.23455048
Li      248.12390137    237.87886047   -170.24903870
Li      106.26890564     23.13079643    -76.25325012
Li      -40.47385788    -99.51335144    -25.38822174
Li      168.53335571     -3.25558352     78.64777374
Li        1.80027544     -9.68614101     38.50143051
Li      145.49935913    236.68669128      0.81193250
Li       58.40740585     91.37888336    -84.37715149
Li      153.82357788      9.83822060     20.85102081
Li       14.60726452     -5.36467361     21.43173218
Li      -79.71463013     28.24839401     71.69599915
Li      -36.33950043   -100.96685791    -71.69936371
Li       44.83861160    107.82550812     55.26213837
Li       -5.81964493    -54.29952240    220.51620483
Li       -5.98080921     38.94013977     12.98316383
Li      146.19543457    118.98420715   -226.13879395
Li       84.32311249    148.42092896     -0.22675757
Li      175.76200867     69.23451996     94.08740997
Li       89.75982666     65.43682098    132.56610107
Li       15.32110596    145.31147766    -76.58021545
Li      -53.34043884    134.08300781    123.23004913
Li       -1.48390865    110.22718811     28.44747734
Li       49.39554977     48.36893845    135.31213379
Li       54.21888733    -21.26395798     55.01729202
Li      -42.94222641   -191.30961609     82.99160004
Li      -40.61534882    177.07405090    249.70925903
Li      149.27246094     77.65181732     34.02939606
Li      -35.85594940   -198.09945679     71.74877167
Li       71.20139313     35.26202011     42.12959290
Li       69.33914185    106.82333374     91.17967224
Li       96.66079712    -49.76193619    -76.52032471
Li      -32.25111771     29.04870605   -118.67987823
Li      131.60714722    -19.16983604    126.85936737
Li       75.48812866    -29.82656288    110.46787262
Li       92.99748993     49.09386444     63.68810654
Li     -123.06080627     -3.21090508     12.16119766
Li       94.54333496    119.19242859     36.01639938
Li       71.73085785     68.79891968     21.01941490
Li      -15.66757107    101.22061157    136.39277649
Li       23.69172096    -11.07769871    173.60473633
Li     -118.65393829   -154.57333374    182.22528076
Li        1.85248196    -80.00337982    110.36298370
Li      145.08537292    136.63816833    -16.66340637
Li       -1.82464314     64.33277893     33.99602127
Li      -27.61308289    -35.06874847   -115.33402252
Li       -6.16837120    237.76148987   -105.45887756
Li       20.94443512    -75.98856354    -64.46173096
Li       21.86177063    111.32663727     99.15824890
Li       35.07963943   -179.11633301     -6.97108984
Li      -41.20062256    -68.12213135    -33.89987946
Li      118.70282745     30.74311066   -105.38249969
Li      -18.60478973    112.96900940    -85.19035339
Li      123.66061401    -51.91507339    191.33506775
Li      -41.74368286    139.99200439   -119.07502747
Li     -140.13790894   -109.93785095    114.64351654
Li      -23.85491180      3.85926557    -55.00869370
Li      -79.37484741     34.05952072    117.85682678
Li      -97.03157806    -23.40948105     63.66683197
S         0.14686425      6.28367329      0.39909357
P         0.15746781      7.49181700      2.18466163
S         1.73965096      8.75594807      1.84131813
S        -1.84341383      8.29808331      2.15486717
S         0.34677121      6.27437925      3.76681566
S         0.03004487      6.26392031      8.78890896
P         0.15777247      7.30301476     10.53539085
S         1.59955657      8.81445980     10.48610783
S        -1.65250373      8.34076405     10.60028744
S         0.41248068      6.37531805     12.32123280
S         0.48321068      6.38361740     20.65756989
S         0.23146193      6.21575928     17.29987144
P        -0.04128431      7.48891544     19.09007263
S         1.62077880      8.63484573     18.92592621
S        -1.75359046      8.38066673     19.15059471
S         0.32527503     15.36966991      3.94785953
S         0.21465074     15.19480705      0.11503630
P         0.13650724     16.39362526      2.08022881
S         1.54701424     17.87090874      1.90077269
S        -1.67682016     17.50097466      2.29930520
S         0.40204707     15.26673985     12.27245617
S         0.01726256     15.29652596      8.94202232
P         0.17780274     16.55523872     10.55569935
S         1.70685613     17.87775040     10.41954994
S        -1.75593603     17.33923149     10.54289150
S         0.36855707     15.32240105     20.73321342
S         0.04411044     15.33417988     17.38087273
P         0.20788616     16.44504166     19.10383034
S         1.56079400     17.85734558     18.86921692
S        -1.63229144     17.37276649     19.03737450
S         0.41635022     24.44701385      3.70426464
S         0.09257180     24.30426407      0.42673269
P         0.13033155     25.57670021      2.02880478
S         1.75327575     26.84218788      2.00882459
S        -1.84611237     26.39547539      2.17282557
S         0.50509769     24.41577339     12.37220573
S         0.03728369     24.41376114      8.82286453
P         0.13497423     25.53296852     10.55103207
S         1.64486158     26.79422760     10.46685123
S        -1.77564228     26.40742302     10.51950550
S         0.41995153     24.41320992     20.72033882
S         0.04509416     24.24476242     17.31302834
P         0.13302794     25.44715500     18.98408318
S         1.57220972     26.96158791     19.00145149
S        -1.62377465     26.49452019     19.10153389
S         9.16603947      6.44209862      3.85620308
S         8.67220688      6.30530882      0.33495423
P         8.76794720      7.29873276      1.95009267
S        10.22185135      8.70052528      2.09938836
S         6.93567085      8.35066605      2.09813523
S         8.99304104      6.34645033     12.23292065
S         8.78872204      6.26292324      8.88901329
P         8.74491596      7.45989084     10.50867271
S        10.32457161      8.74338722     10.40829372
S         6.91168070      8.29016495     10.69211769
S         8.99452591      6.33699512     20.84936142
S         8.80611801      6.30681324     17.25946808
P         8.76574707      7.39173985     19.00945663
S        10.24377155      8.73546791     18.84121704
S         6.95347786      8.32948017     19.16179276
S         8.87554646     15.33973789      3.80408692
S         8.84148788     15.28071117      0.36100516
P         8.83440971     16.42838097      2.04184699
S        10.40828514     17.90237236      1.82984507
S         6.80624771     17.37996864      2.30511189
S         6.92168999     17.36145401     10.53412628
S         9.03934479     15.30968285     12.27073669
S         8.71140671     15.37340927      8.90408897
P         8.82614899     16.47029114     10.67432499
S        10.26710606     17.81776047     10.35337734
S         6.95404196     17.42515755     19.05740166
S         8.98459721     15.28426266     20.76366997
S         8.65218067     15.26616764     17.35089302
P         8.96000195     16.40520477     19.06045723
S        10.21942997     17.94958878     18.89060783
S         6.97557831     26.29605675      2.24976993
S         8.91505623     24.47524834      3.84051609
S         8.73501205     24.39076042      0.36906138
P         8.80412769     25.54378700      1.94598186
S        10.33517170     26.85867119      1.93330431
S         6.92055750     26.45123482     10.84865379
S         8.91586590     24.45595169     12.27663517
S         8.89355850     24.25066566      8.74735641
P         8.77737427     25.57144737     10.46818256
S        10.25667858     26.83616257     10.38880920
S         7.01339149     26.31322098     19.12977600
S         8.87612820     24.37377930     20.98989677
S         8.65486145     24.34970284     17.10285378
P         8.85204220     25.50213623     19.09752083
S        10.37015343     27.02426529     18.80424881
S        15.60240555      8.34992313      2.15335178
S        17.61778069      6.29684687      3.87101722
S        17.39056778      6.30229330      0.32846200
P        17.50580788      7.34154606      2.12178564
S        18.86786079      8.80817890      1.87000000
S        18.82183647      8.79776573     10.53063488
S        15.65496349      8.45260334     10.54187775
S        17.82657623      6.25524950     12.17268276
S        17.37264061      6.14603376      8.92986012
P        17.30145454      7.45085669     10.55762863
S        19.00573349      8.67088795     18.95158958
S        15.49951077      8.19382095     19.19504547
S        17.62346840      6.47972631     20.82058525
S        17.36041641      6.31383085     17.23216057
P        17.49491882      7.44400883     18.91882896
S        18.96289635     17.84538078      1.86867774
S        15.55102444     17.32188225      2.11843085
S        17.62451935     15.33460236      3.90090561
S        17.34857368     15.39332962      0.36188152
P        17.49711227     16.43624306      2.09376693
S        19.02457047     17.79302406     10.48781013
S        15.48773003     17.31660652     10.58759785
S        17.73272324     15.39914799     12.31585312
S        17.32243156     15.34284782      8.87218857
P        17.41383934     16.48134613     10.46611881
S        19.02362442     17.79450226     18.90147591
S        15.48345470     17.35076523     19.22672844
S        17.62317657     15.42364502     20.67003059
S        17.46506691     15.27195454     17.35707855
P        17.38499069     16.49248314     18.96445084
S        18.91934204     26.90713120      2.14892268
S        15.50743389     26.51819420      2.10721207
S        17.82425499     24.42305756      3.81640053
S        17.29287910     24.20392418      0.31621435
P        17.43821144     25.51110458      1.95002127
S        19.05353737     26.78727341     10.36999226
S        15.44297123     26.37000847     10.66321087
S        17.67539406     24.46033478     12.25823975
S        17.45770645     24.38889503      8.81541443
P        17.34949112     25.55851173     10.62822723
S        18.92361641     26.94401741     18.85572815
S        15.58494663     26.40420914     19.10523987
S        17.59257507     24.36000443     20.74073410
S        17.34380722     24.34030914     17.36476707
P        17.54066277     25.51500320     19.05642509
S        10.52279758      0.48810866      6.31688499
S         8.64640999      2.65832591      4.58949804
S         6.99611998      0.08544129      6.31150198
S         8.40529251      2.59506011      8.00479698
P         8.68050575      1.36756635      6.35823870
P         8.68741703      1.46312404     14.70523167
S        10.46026516      0.45199040     14.81050301
S         8.66411495      2.65319943     13.03841114
S         7.09227514      0.12170379     14.89554214
S         8.34728909      2.50773692     16.51627541
P         8.60342026      1.43260002     23.22984695
S        10.45157528      0.64699769     23.29836845
S         8.75732422      2.58934307     21.51720238
S         6.95583677      0.08092492     23.33589172
S         8.48034573      2.44685006     24.97574043
P         8.57136345     10.46838093      6.27657366
S        10.47766972      9.50423336      6.43176556
S         8.62395191     11.77016354      4.58459568
S         7.04876566      9.04450130      6.29759216
S         8.52566147     11.64008236      7.98761415
P         8.67550945     10.35547161     14.88135529
S        10.54971695      9.61700916     14.86756039
S         8.61040974     11.70345688     13.02798080
S         6.91518164      9.13895893     14.72942352
S         8.50013828     11.60862255     16.46563721
P         8.58447647     10.58634663     23.20165634
S        10.61143208      9.61895370     23.37208176
S         8.66384983     11.61963081     21.48407173
S         6.91227531      9.16747093     23.31775856
S         8.47582340     11.43897438     24.98052216
P         8.63476181     19.48493385      6.25842190
S        10.49057007     18.57376671      6.35397387
S         8.62329769     20.71211815      4.68548536
S         7.09873390     18.25956154      6.34415150
S         8.40220737     20.62696838      7.93549061
S         8.41327190     20.67696190     16.60239792
P         8.73610687     19.57081413     14.67841339
S        10.52893925     18.46517563     14.91671371
S         8.45595646     20.67053413     13.05225277
S         7.11874390     18.27678680     14.71527481
S         8.46351814     20.63659286     24.94852257
P         8.72277546     19.53132439     23.31017876
S        10.49931049     18.65750504     23.29670143
S         8.63870811     20.66409302     21.58292007
S         6.92825270     18.16941261     23.22146225
S        17.12574196      2.47795486      7.98956680
P        17.25122833      1.44187987      6.33422565
S        19.25128937      0.55601627      6.39710999
S        17.27551651      2.60542512      4.55842447
S        15.56237221      0.11575519      6.30077600
S        17.02048683      2.55102849     16.49144936
P        17.34793663      1.50470150     14.85986805
S        19.03899765      0.45825005     14.75482941
S        17.32034874      2.62029767     13.04875278
S        15.74167156      0.06489154     14.81632614
S        17.06514740      2.48958325     25.07372856
P        17.24804878      1.41920900     23.23612595
S        19.28459549      0.57428396     23.29308891
S        17.30347252      2.53220367     21.48258400
S        15.56477833      0.18098009     23.27173805
S        17.10274887     11.57103825      8.11452961
P        17.32392693     10.43574429      6.29144430
S        19.30476952      9.59943676      6.40238428
S        17.17058372     11.53972054      4.56356955
S        15.56659412      9.28031158      6.20672035
S        17.11057281     11.55841923     16.56036377
P        17.20961952     10.47152424     14.71091461
S        19.11621094      9.60305500     14.83602333
S        17.35279465     11.66130924     13.02132225
S        15.67553616      9.13316154     14.83753204
S        15.60658360      9.16465473     23.11957550
S        17.25378990     11.57826233     25.04767227
P        17.25609016     10.47784138     23.21150017
S        19.12424850      9.68286133     23.40188789
S        17.22559929     11.52406406     21.57579231
S        15.74361515     18.22400284      6.15288448
S        17.12260628     20.66880608      8.11094379
P        17.32037354     19.65065575      6.39183092
S        19.07870102     18.57726288      6.32923555
S        17.20320892     20.54226494      4.59716892
S        15.70952511     18.26314926     14.73941422
S        17.11023712     20.58433533     16.44790649
P        17.29498482     19.55691147     14.82065296
S        19.12270355     18.61783409     14.85750771
S        17.23018837     20.63757133     13.10441017
S        15.70989704     18.11924744     23.07053757
S        17.15756416     20.85926437     24.91453362
P        17.35285950     19.47644806     23.28950119
S        19.10906792     18.49498749     23.33810806
S        17.14021873     20.70711517     21.74640274
S        24.23101807      0.19257309      6.35934925
S        25.67479134      2.52045012      7.94575119
P        25.87416458      1.33830559      6.25944901
S        27.90744781      0.58937734      6.28781366
S        25.99552727      2.55280066      4.72519588
S        24.38653564      0.03946882     14.67557335
S        25.81420898      2.63152933     16.54426956
P        25.90255547      1.47837758     14.78781796
S        27.69572067      0.47640005     14.85121059
S        25.88489151      2.57249784     13.10990143
S        24.32779312      0.14323714     23.07160950
S        25.99701500      2.45049715     25.09535408
P        25.84949684      1.48052716     23.24658966
S        27.75661278      0.59315735     23.55838013
S        25.75118637      2.53092790     21.38568878
S        24.37159920      9.17438698      6.36472178
S        25.67606163     11.57287312      8.02497578
P        25.96136665     10.47838402      6.25945950
S        27.73274231      9.53756046      6.33203745
S        25.94414520     11.66449738      4.59636402
S        24.36519241      9.27875042     14.83354855
S        25.58829689     11.53128052     16.50947762
P        25.96895599     10.50197220     14.86317539
S        27.81253433      9.54058838     14.71761131
S        25.95119667     11.57591343     13.04752636
S        24.31627846      9.02210045     23.05053711
S        25.87342834     11.79045391     24.93934441
P        25.92273521     10.43191910     23.36981583
S        27.69721031      9.55371380     23.30472183
S        25.87494659     11.62793350     21.69739723
S        25.94067574     20.80090141      4.60608244
S        24.28275299     18.13335228      6.36300516
S        25.79271889     20.57635307      7.90247107
P        25.92107010     19.51739693      6.26801777
S        27.74732208     18.63045120      6.43827295
S        25.88481140     20.67545509     13.09134197
S        24.28809547     18.20846176     14.76543713
S        25.80227089     20.56953049     16.46487236
P        25.95918274     19.54725266     14.72727299
S        27.75148010     18.65876770     14.91779041
S        25.88311195     20.64944077     21.50568390
S        24.35970306     18.23171234     23.22693443
S        25.76992798     20.60733604     25.04991531
P        25.94941139     19.54707146     23.21884155
S        27.72335434     18.62390327     23.35530090
S         6.07006979      4.33453894      2.02468896
S         4.62026834      1.76276600      3.67868781
S         4.42607784      1.62101948      0.44526172
S         2.54981422      3.78400540      2.26019120
P         4.47547245      2.98987532      1.95776558
S         6.22646999      4.26375723     10.35971165
S         4.50307608      1.87121391     12.35267639
S         4.44481182      1.83250844      8.77386189
S         2.48681283      3.59956574     10.78137589
P         4.48071098      2.92287993     10.49032784
S         5.96049547      4.40919113     18.83249664
S         4.54773188      1.69090414     20.71340179
S         4.46691036      1.70508409     17.38240051
S         2.66112685      3.84634066     19.19588852
P         4.50649405      2.83542919     19.02520180
S         5.96038151     13.29660416      1.97033179
S         4.65115690     10.91138840      3.89141822
S         4.31882954     10.89401054      0.26168558
S         2.64516973     12.75567150      2.10861182
P         4.56935930     11.85952091      2.14077616
S         6.04090214     13.23756313     10.33269596
S         4.65380239     10.79386806     12.22458363
S         4.49419403     10.87324333      8.92344093
S         2.48697495     12.80944443     10.63755512
P         4.46548986     12.00813484     10.64493942
S         5.84799528     13.38434029     18.88919830
S         4.60267687     10.70689964     20.80207253
S         4.40676117     10.75002003     17.36649895
S         2.72550941     12.87357330     19.14090729
P         4.56169462     12.00739479     18.94808578
P         4.56646967     21.03201485      2.05575538
S         6.00615978     22.41123199      2.04545879
S         4.68975115     19.87153244      3.91616845
S         4.28804922     19.79192734      0.23641133
S         2.59436989     21.84578133      2.11613631
P         4.47254705     21.15657806     10.48259830
S         6.06680202     22.22956657     10.39849186
S         4.60099697     19.90917015     12.12937832
S         4.54069471     19.84952545      8.97344303
S         2.46056294     21.81188965     10.77377987
P         4.38103247     20.95426750     18.96853638
S         5.86463213     22.35842896     18.86933327
S         4.70263052     19.79101944     20.85519409
S         4.58054972     19.78562927     17.24719620
S         2.60964417     22.06049919     19.20719910
P        13.05643368      2.86700606      2.15002704
S        14.53917503      4.24762917      1.95552921
S        13.37126732      1.75915372      3.73244071
S        13.09121227      1.76048565      0.41835451
S        11.29898453      3.85374880      2.11678672
P        13.04272461      2.88257957     10.63347435
S        14.62733555      4.29710197     10.33025074
S        13.33068657      1.66991425     12.37642479
S        13.06482124      1.85183525      8.87595558
S        11.29104042      3.78712273     10.54671955
P        13.10452080      2.91660070     18.94451714
S        14.47445297      4.19474649     18.97066307
S        13.37835884      1.77885318     20.75380898
S        13.14101505      1.69200003     17.30699539
S        11.26036263      3.90751052     19.17066002
P        12.93619633     11.93272400      1.97434700
S        14.56746578     13.19033337      1.95056975
S        13.39759445     10.83202457      3.74458170
S        13.29134464     10.77488041      0.41569713
S        11.16037941     12.98972321      2.28196406
P        13.07382393     11.89870262     10.40412712
S        14.54856968     13.36874294     10.56808662
S        13.34774780     10.85564423     12.28899479
S        13.01504421     10.72043800      8.82631969
S        11.37248039     12.87500191     10.66749096
P        13.04147625     11.94695091     19.04321861
S        14.73752880     13.29231739     18.87513924
S        13.25286865     10.88045120     20.65549660
S        13.11366749     10.84362698     17.39543152
S        11.21102428     12.75682449     19.18071556
P        12.99718571     20.89907074      2.01872921
S        14.45195389     22.40964508      1.86782444
S        13.27069569     19.77818108      3.76921964
S        13.29821014     19.75481033      0.38749313
S        11.33701134     22.10625458      2.32540393
S        11.24807262     21.89362526     10.57127094
P        13.08287811     21.01592445     10.58295059
S        14.63630676     22.37950706     10.50230789
S        13.38554668     19.85454750     12.23708916
S        13.00516796     19.80833817      8.86748600
S        13.08888340     19.94618416     17.35284805
S        11.34115219     21.95985031     19.04710770
P        13.13871193     20.88529968     19.10977364
S        14.42910004     22.29732132     18.86802864
S        13.36202621     19.85884476     20.77450752
S        21.71617699      1.79060030      0.23391378
S        19.84086227      3.66741228      2.25825906
P        21.65704346      2.87815952      1.99520278
S        23.42818069      4.21654892      2.00735474
S        21.93084335      1.93568206      3.87313938
S        21.68077087      1.87480032      8.83642864
S        19.79112625      3.59824085     10.64261723
P        21.74475288      2.99029851     10.56891251
S        23.42257118      4.13274813     10.42944336
S        21.93687057      1.89613175     12.28322506
S        21.61080551      1.72272778     17.21878815
S        19.96694183      3.74014902     19.09216309
P        21.80539131      2.93675113     19.02862930
S        23.23354530      4.27954626     18.98589897
S        21.96147537      1.81122291     20.82402611
S        21.77116394     10.85139179      0.27338937
S        19.84759903     12.71838379      2.25699878
P        21.72827911     12.06295300      2.05572414
S        23.36332512     13.24466705      1.87240589
S        21.86516762     10.84672165      3.91141129
S        21.92280006     10.81726170     12.30540180
S        21.83496094     10.80085182      8.84256363
S        19.85574150     12.86673641     10.75376797
P        21.65270615     11.93517113     10.47068977
S        23.30675507     13.29974937     10.38486195
S        21.98767281     10.94471169     20.79181480
S        21.75693703     10.88719845     17.25532722
S        19.75854492     12.77270889     19.15653610
P        21.66786003     11.90367508     19.02999115
S        23.40245819     13.21040440     18.91588402
S        21.97202301     20.01951408      3.88250351
S        21.65439606     19.98240471      0.28972793
S        19.75255966     21.65941238      2.15102339
P        21.71034622     21.08248901      2.06308222
S        23.48559952     22.21038628      1.98384225
S        21.91074753     19.81397438     12.08143330
S        21.73129272     19.82034683      9.01879883
S        19.74004936     21.85498810     10.64711475
P        21.78568077     21.07636070     10.63244247
S        23.40971947     22.38833046     10.38300037
S        21.97044182     19.77691650     20.72397423
S        21.79654884     19.85375023     17.43001938
S        19.93029213     21.97312546     19.12559319
P        21.69907951     20.98764610     19.01581573
S        23.17817879     22.35954475     18.85366821
S         4.19892120      7.10095406      7.97796011
S         2.69831753      4.59002256      6.25883722
S         6.14882994      5.01194572      6.45007515
S         4.25886774      7.24502087      4.55025625
P         4.35117054      5.89083672      6.35155392
S         4.08989620      7.10776138     16.42476082
S         2.73842645      4.65776205     14.76728153
S         6.18965006      5.04418087     14.71686077
S         4.40525341      7.06751728     13.20381546
P         4.22871256      5.96404982     14.86673355
S         4.12560940      7.05549049     25.14783669
S         2.71720624      4.62840271     23.31064606
S         6.15582514      5.05577612     23.31806946
S         4.38349438      7.18014956     21.36221313
P         4.27125120      5.91995192     23.22615242
S         4.09557486     16.03730392      8.14741993
S         2.55996585     13.78722000      6.27665377
S         6.35685968     14.20649529      6.24868488
S         4.41711092     15.99139881      4.52704811
P         4.22220707     15.05124760      6.39019108
S         4.07612228     16.27532959     16.44629097
S         2.88395381     13.62048531     14.73531723
S         6.09052563     13.89526367     14.77713108
S         4.28643179     16.25295067     13.16336250
P         4.31794214     15.02887440     14.85701942
S         4.18186665     16.25473022     25.02071953
S         2.83180666     13.55108833     23.19985771
S         6.01737595     14.02890205     23.25590324
S         4.38596869     16.20796394     21.58062172
P         4.23514032     15.03026581     23.31068993
S         4.23106050     25.27171707      7.96787310
S         2.58918929     22.57607841      6.24956512
S         6.17079020     23.19066811      6.34368849
S         4.40485144     25.28419495      4.67964077
P         4.25700998     23.97793770      6.34778738
S         4.09889603     25.06484032     16.67047501
S         2.58149004     22.80477142     14.83264637
S         6.23035860     23.26167297     14.81566525
S         4.39347410     25.15256691     12.91942310
P         4.35191250     24.01811218     14.73682022
S         4.24599409     25.12396812     24.96498871
S         2.56520176     22.73380852     23.15760803
S         6.22546530     23.25308037     23.37035561
S         4.30429125     25.15195084     21.56203079
P         4.31388426     24.03989601     23.31288147
S        12.71311474      6.96420097      8.04127693
S        11.31240654      4.73264933      6.37192678
S        14.87900162      5.09985161      6.32031965
S        13.02758980      7.08357954      4.54405165
P        12.93961716      5.96088266      6.30968237
S        12.92610741      7.04072285     16.51662445
S        11.28009033      4.65744114     14.68094540
S        14.82786179      5.16038322     14.93521595
S        12.93630409      7.06781244     13.09041977
P        12.90001774      5.91317987     14.75235271
P        12.93467808      5.92714357     23.27186775
S        12.89762688      6.96332884     25.00622177
S        11.32672596      4.81045341     23.11806679
S        14.88748360      5.14023924     23.45445061
S        12.82504749      6.99884987     21.51586342
S        13.11941624     16.18620300      4.65974665
P        12.99575615     15.03802204      6.34469271
S        12.65220261     16.16090012      8.00018978
S        11.31361294     13.61334801      6.39202166
S        14.79265404     14.07474422      6.19179821
S        12.99961758     16.35473061     13.19268990
P        12.95185757     15.01765728     14.75519085
S        12.77511883     16.27963448     16.39846611
S        11.40039444     13.48334599     14.80327415
S        14.74515820     13.93715572     14.82603264
S        12.85872841     15.97458935     21.43253517
P        13.03591061     15.09053516     23.35384178
S        12.85417175     16.07873154     25.16689110
S        11.35413456     13.77752304     23.06931305
S        14.77206039     14.15362453     23.34668159
S        12.99639702     25.19877815      4.45801258
P        12.96561241     24.01656723      6.32429552
S        12.80752468     25.05388451      8.09250164
S        11.17163849     22.77390099      6.31435728
S        14.93144321     23.25877953      6.39858866
S        12.89451504     25.28113937     13.15106869
P        13.01188087     23.93799591     14.83424091
S        12.82139778     25.29613876     16.45367241
S        11.31934643     22.68730354     14.67409325
S        14.82705021     23.09665871     14.86526871
S        12.96326447     25.38125610     21.62039757
P        13.00155163     24.02227783     23.29569626
S        12.74241638     25.27832031     24.87154388
S        11.42094517     22.61940002     23.27741623
S        14.74566174     23.00085258     23.30222893
S        21.70246315      7.17815590      4.77093792
P        21.45290565      5.83665705      6.27407408
S        21.51128006      7.09587193      7.85670376
S        19.99266434      4.59849262      6.31464767
S        23.42548370      5.12775803      6.36968327
S        21.56422806      7.20511580     13.03361225
P        21.52494621      5.91806316     14.88287640
S        21.37638474      7.11607027     16.47219467
S        20.00730324      4.67284966     14.75780201
S        23.61438179      4.92760658     14.83351421
S        21.69559479      7.25694942     21.61634064
P        21.52118683      6.05199003     23.21774673
S        21.47864532      7.11859655     24.89057159
S        20.07630920      4.44607258     23.30876923
S        23.31538200      4.97065496     23.33120155
S        23.38655090     13.96759605      6.31180191
S        21.64766121     16.25987816      4.55097628
P        21.53073120     15.05412388      6.38541031
S        21.40629578     16.20327950      8.04444790
S        20.11620712     13.58888626      6.29719925
S        23.40383339     14.13019180     14.95125675
S        21.53234863     16.09560013     13.09741211
P        21.59057045     15.06599712     14.71003056
S        21.55218887     16.08983612     16.54268456
S        20.01054001     13.69254208     14.67273521
S        23.42832375     14.19718933     23.32150269
S        21.54144287     15.98857975     21.54710197
P        21.69963455     15.05462742     23.37243843
S        21.52005386     16.12075996     25.07017326
S        19.90373993     13.71262550     23.05867386
S        23.54785728     23.08215141      6.50304651
S        21.50800705     25.33129883      4.47601652
P        21.71103287     24.02364540      6.17919016
S        21.37017059     25.04954338      8.02896404
S        19.95651054     22.81551361      6.39559984
S        23.49450302     23.21977997     14.86445236
S        21.60573959     25.12510109     13.04017639
P        21.56612396     24.05524063     14.77368355
S        21.44877815     25.06619453     16.54059601
S        19.97350502     22.83691216     14.75737572
S        20.09101868     22.66330528     23.34892464
S        23.35114098     23.07456589     23.20817947
S        21.73090363     25.26408386     21.50850487
P        21.58283043     24.11202240     23.26309395
S        21.33332253     25.19118309     25.03747368
