864

Li      -18.64720917    -34.97039413   -140.51802063
Li      -15.39332390     70.85912323     93.06414795
Li      103.39748383     55.70647430     86.92741394
Li      -25.60000992     -4.67070580    196.93708801
Li      -49.28253174      3.09623075     -0.36599579
Li       95.96683502     11.15627289    222.26583862
Li       75.51715851      3.02882910     84.71648407
Li       41.29826355    124.72190857    216.33927917
Li      -32.66905594    138.10398865     -8.08110809
Li       -1.71178102     43.58338928     89.69725037
Li       80.42820740    150.49389648    -47.16037369
Li      -32.41270065    -90.97168732     71.92671204
Li      -23.47022629      3.01213193    123.19527435
Li       45.83030701     29.78784752    -37.00957108
Li       92.28390503    -56.65681458    -92.20357513
Li       88.80479431     -0.83200186     12.51026440
Li      -54.65242767     -0.13606505    156.96379089
Li      -36.43589020    161.05760193    148.61660767
Li      101.56993103     93.86746979    -42.87224197
Li       58.39093399    148.07748413     88.91758728
Li      -57.77066040   -178.48309326    -80.04261017
Li      -88.26206970    -71.35033417     63.34442902
Li      204.87876892     75.43553162    253.96315002
Li     -119.04145050      8.00800228    -17.10307503
Li       19.71791458    -12.96503925      9.10566521
Li       58.45648575     30.83301163     16.57797432
Li       -5.43783188     47.84452820    -20.13919258
Li      -23.87679291    -46.20366287     92.91588593
Li       -2.18216991    -65.37260437     -3.91872144
Li      -36.94197083    130.55923462     63.79243469
Li       63.40769577    -15.96898270     72.76089478
Li       23.16377258     -2.69325352    -49.93408203
Li       28.06035995    -27.99091721   -119.11804199
Li      119.21105194    167.08901978     97.24137878
Li      223.08299255     82.43296814     96.95699310
Li      -58.21574020    176.40632629    169.54850769
Li       14.76051712   -123.40798187    -25.78745270
Li       41.22101974     73.01369476     50.85219955
Li      -23.69525146     56.36837006   -122.98719025
Li      -24.06546021    104.52761841    254.28565979
Li       36.20653152    -95.63473511    182.32389832
Li       66.94570160    121.11454010     29.77645874
Li     -105.62026215     24.11889839   -140.40144348
Li       -2.49489141    -23.58659172     92.98413086
Li       62.32571030    -55.87625885    160.27841187
Li       45.42490768      9.27824593    -89.22411346
Li       97.49362183     -7.81076002   -114.74601746
Li      131.64912415     20.10969353    153.26400757
Li       58.83990097     54.91645432     34.10502625
Li       80.07981110     35.49336624    -29.73968506
Li       62.48056030    -10.83955002     81.56378174
Li      197.49169922    -89.50436401    113.83134460
Li      -80.39002228    -78.44885254   -102.68570709
Li      -32.64136887    143.64845276     84.60084534
Li       32.04340744     69.38520050    161.56100464
Li        3.44333887    110.71630859    -36.54185486
Li       14.66550159    -18.08797455     21.37854767
Li      -93.23287964    -87.61039734     93.21569061
Li       -1.93843353     63.91927338    -50.65594101
Li       37.02117920     -3.73380303     85.19023132
Li       15.14057541    -17.45447540    -50.96282959
Li       49.78289795     62.75794601     93.34635162
Li       27.81702614     71.79704285    173.94978333
Li      183.26649475    110.39877319     94.26721954
Li       49.27618027    129.77458191     33.92040253
Li      106.58335876     50.68707275     17.28482246
Li       54.24524307    105.17092896     59.75560760
Li        2.12385035   -184.66381836     42.47402573
Li       35.99044418    155.45809937    -41.84500504
Li       32.94620132   -101.72661591    143.52050781
Li      -42.71498871   -137.38471985   -154.83235168
Li      -47.30170822     84.57365417     82.70005035
Li      -10.42022610    -11.31497002    106.60557556
Li      -23.47566414     35.80339432     38.16139221
Li      105.13718414    -41.02088165     97.46179962
Li        1.78352213   -133.88842773    -92.83195496
Li       83.94116974     66.88187408    -25.91530228
Li       41.11046219     94.37205505     89.23361206
Li      162.13439941    290.16314697     25.29478264
Li       76.05710602    109.81616974    -80.65808105
Li      -15.30489349    125.33814240     84.52294922
Li       61.94462967     31.36277390    -25.31060791
Li       96.46121216    100.22956085    118.82815552
Li       71.30174255    255.19578552    258.45446777
Li       15.19403553    -50.63245392     63.93701172
Li       40.31010056     45.15064240   -221.15380859
Li       45.00040054     71.29708862    -51.03625488
Li      106.41709137    135.40563965    152.53773499
Li     -120.85223389     -7.00087261    121.16262817
Li     -171.10090637    -40.97197723     -8.26359463
Li      -23.49153709    -88.16264343     38.77450943
Li      -33.27260590    -91.68470764   -119.46841431
Li      -45.49265671     16.22825623     55.12618637
Li        6.30194330   -193.37518311    152.75492859
Li       41.88404465    -49.73857498     85.03890228
Li      -93.01792145     46.84273911     29.01689148
Li       -1.77289426    172.62625122     88.77300262
Li       41.51513290    133.76031494     55.55403900
Li      -58.13825989    -75.85552216     59.96848297
Li      -84.48028564     -7.10007954    -50.62942505
Li       11.09961224     23.79551697    -29.69041252
Li       41.25038147     82.20200348    -33.39088821
Li       -7.12407732   -109.62560272   -203.95422363
Li       -1.70180941     18.96188354    -98.10938263
Li      -74.02795410    -42.66944504     48.65105438
Li      141.08653259     59.50706863    161.24194336
Li       71.41629028    198.21511841   -182.29801941
Li      -18.94212151    -22.52858925    186.32487488
Li      248.19271851     87.83982849     76.70755768
Li      -32.39294052    110.65819550    135.75363159
Li      188.33074951    -26.16763306     80.12180328
Li      -44.80120850     51.97072601   -147.48083496
Li     -109.44594574    -57.76121521     71.73168182
Li       11.31388283    168.81187439     70.93563843
Li      -36.88661194     48.39428329   -127.46808624
Li     -157.78262329   -177.44433594     29.77401924
Li      166.81636047    -90.56934357     46.62416077
Li     -127.55755615   -109.78715515     29.62213898
Li      -14.65227985    -18.19683266    -12.78786373
Li        2.12867498      7.73726940    -96.94618988
Li     -213.47914124   -132.97254944    148.60842896
Li       12.35169601    183.38291931    -44.58171082
Li       41.63205719    140.46682739    -21.47595215
Li       80.01667786    153.27719116    -97.56968689
Li       15.47001076   -113.63713837   -148.25274658
Li       75.36183167     85.06642914     29.63721848
Li      -66.56357574     68.82038879     46.08600998
Li      -99.28992462     -2.83820653    -31.63855553
Li        6.69319105    -38.35349274     64.04087067
Li       62.07206345     94.80164337   -114.62900543
Li     -174.18783569   -128.11264038   -147.74594116
Li       -2.77410626     85.09618378    -63.27648544
Li      -46.87443924    187.62594604    137.64109802
Li        0.70781851     79.62420654    -35.64789200
Li     -261.98254395     -2.60643506     60.14368439
Li      -62.63129044    178.26304626    -25.65153694
Li       62.16381454    -10.03545475     -0.24015538
Li       88.27515411      1.98826218     54.13712311
Li       19.52027702      8.05354309    -33.96695328
Li       10.94277191     92.07638550   -127.12763214
Li       71.56803894     86.70323181    119.04576874
Li      -97.35339355   -123.41136169    -45.80557251
Li      -92.61463928     56.54079056    139.94221497
Li      -73.30329132    -21.41827393   -183.41610718
Li     -162.54684448   -182.09982300    -71.79917908
Li       19.25999069     98.38581848     29.89011955
Li      -26.78428459    165.03169250     52.68467712
Li       97.75662994     63.23752213     50.96738815
Li      -75.86671448    -10.08151245     67.56343079
Li      153.75808716    136.01913452   -186.31681824
Li       40.70684814      3.64392257    -76.71010590
Li       63.05493164    -99.25217438    105.66315460
Li      123.57554626    -48.74257278    122.63691711
Li      300.72683716    290.61791992    195.92256165
Li       50.03651810   -156.67687988    -80.09260559
Li     -107.32655334   -101.91977692    290.22296143
Li      -15.21118736    183.01782227    -50.94968414
Li       26.51205635    -34.32720184   -116.68745422
Li       36.73443604    139.15414429    -33.89339828
Li       97.61655426    -94.45748901   -241.76878357
Li      122.68596649    107.23179626    143.83879089
Li       66.76121521    -38.49909973    -33.82012939
Li       67.60897827     -8.02701378      3.95017576
Li      -49.97746277    -40.44829559   -186.45596313
Li     -153.30619812   -124.49062347    -21.23583603
Li      -13.36006355     96.56053925    137.83258057
Li       54.41217041    201.77752686    140.33625793
Li       41.49115372    100.42185211     20.99616432
Li       -1.63385022     73.38258362     -5.13439131
Li      135.35423279     38.91533279     66.63806152
Li       95.34606934     43.72933960     65.46058655
Li       40.89914703    -27.06499481    178.08525085
Li      -87.84906006    -47.27535629    107.48863983
Li      -92.44253540     50.56332779    156.41200256
Li       97.58957672    -76.03618622     63.35850906
Li     -107.51758575     33.60884476     95.24543762
Li      -36.23021698     55.63007736   -168.69557190
Li       75.86131287    106.20667267    250.94070435
Li       79.99881744    161.66473389    -55.17206192
Li       -2.37872314    -41.70040894    -34.27693939
Li      187.99119568    -14.59097767   -118.94200897
Li      -80.28052521   -168.96781921    -62.62244034
Li        6.71781206    -19.61274338   -105.53644562
Li       -2.06533027     60.71155548    -25.18161392
Li        6.47575760   -198.11862183     93.09970856
Li      131.33949280    -76.48357391    135.74028015
Li      192.49836731    159.25500488     51.30629730
Li       80.59314728    258.77615356     62.78283310
Li      174.89633179    240.09259033     33.92245102
Li      -36.09598541   -134.82844543    139.49693298
Li       36.27595901    107.09560394    118.17687988
Li       75.01663971     27.13448334     37.98599243
Li       -5.73914814    159.21925354     80.26998901
Li       84.65800476    145.42327881     93.32701874
Li       55.87874985     15.05674267     19.32696342
Li      -71.68239594   -108.58884430     93.33003235
Li      122.34824371     67.67576599    -51.24861526
Li       76.95346832     88.40512848     82.27959442
Li      141.24891663    184.08900452    174.05126953
Li       28.56679535    -90.24857330    110.10115051
Li      -49.68062210    -43.50164413    170.20089722
Li      170.95101929     -2.19278193     38.49617386
Li       54.02890015    146.64891052    127.09072876
Li      127.02983856    280.26013184    -72.31024933
Li        7.49169874     67.66213989    -55.27793884
Li      217.97627258    171.11366272     46.48952484
Li       24.16626740    -62.68714905    144.34069824
Li      -75.84755707   -145.65690613   -102.22180176
Li       41.22594070     91.26829529    -67.70594025
Li      -18.86036873   -212.75823975    -21.52313232
Li       81.67402649     60.50561905     61.75704575
Li      204.93774414    178.23791504     17.33023453
Li      -70.79071808   -107.61788177   -106.16440582
Li      110.69082642    115.82025909     63.80776978
Li       11.37892437     -0.18352968    -76.53515625
Li        5.75900555    -17.97823715     34.06870270
Li      -19.65881157    -51.02327347   -127.83417511
Li      -15.31680870    -36.88810730    165.26185608
Li      -22.88215637     32.04131317   -148.52371216
Li       92.24950409     90.55899811    144.34790039
Li       54.18474197    -12.60781384    -67.74583435
Li     -191.96685791    -19.86486626    216.76998901
Li       15.75492954     22.70597839   -110.21029663
Li     -110.04365540     80.84490204     12.73853207
Li     -179.61270142    -23.07030296   -114.38444519
Li       -1.59083927    -17.27512741     -4.34251690
Li      -17.19931412      0.93117815     94.77980804
Li       10.76093483    -82.22178650     55.15477371
Li      -19.55538177    124.14192200    144.66049194
Li       -6.49041128      5.30438662    -25.21108437
Li     -168.36614990   -165.89324951     -7.11524868
Li      106.19271851    176.96374512    101.82477570
Li       40.76980209     12.31563282    169.21711731
Li        5.80145741     99.52161407   -106.18344879
Li       -1.42031300    115.75363922    115.40450287
Li      -72.00429535    -86.96638489    194.52809143
Li       28.55191994    -33.14919662    106.43926239
Li       71.14085388    -55.21989059   -199.30239868
Li     -118.38600159    -78.55727386    -80.09772491
Li       76.99642944     85.45240021    147.05899048
Li       97.71559906    113.90466309    258.16116333
Li       97.09502411    216.15824890   -105.72181702
Li     -166.84909058    -60.23482513    110.01249695
Li       28.49126816     26.52189064   -165.44932556
Li      -36.85186005    -75.30741882     -8.02047825
Li       15.02441502    105.55714417    153.31491089
Li       48.41652298     42.50339508   -125.04959106
Li      154.94076538    314.43142700    -45.03256989
Li      -45.44937897     48.97057724    -63.42241287
Li        4.68084478    129.73437500     74.99700165
Li      -27.66258430    -59.35419083    207.55270386
Li      153.28208923    135.70875549    127.10289764
Li       14.76675892     30.58255768    169.34803772
Li       -2.16451025    -63.31398010     59.44639969
Li       36.36842346     61.65996552     24.92097664
Li       39.15069580    108.78829956     40.88780212
Li       12.46330070     38.80686951     65.49958801
Li       14.91177845     66.40615082     -4.19045544
Li       84.57259369    -53.51622772     63.29377747
Li      153.12570190      9.54546261    135.78732300
Li      149.27268982     41.70430756     71.69957733
Li      -54.41831970     48.55039215     -8.73487663
Li      136.80050659    236.09590149    156.58235168
Li      -20.10358810     15.26700783    -24.59282303
Li      -41.49416351     13.76799870     25.27797890
Li      176.98289490    -36.40689087   -112.03658295
Li      -41.01193237   -154.92884827    219.74636841
Li       32.10112762    208.25691223     84.84275818
Li       18.84101295     80.12980652    -42.76933670
Li      187.62739563    223.09501648      0.16447577
Li       75.76286316     43.76224136    100.99984741
Li       27.68497467     34.91257095     50.34301758
Li      -88.28272247     36.95091248    -47.05270386
Li       58.00242615    129.91880798     58.77619553
Li       19.56515503    212.78573608   -161.01234436
Li       10.81399441     12.17767334    186.22964478
Li      -19.15868759     52.13329315    115.29483795
Li       28.27594376    128.70184326     67.60575867
Li      -64.83831024     95.92500305    180.91276550
Li      -40.38364792    -75.42208862    308.59085083
Li      -88.12414551    -13.81190109      8.28409004
Li       23.61632347     51.71463776    -33.86197281
Li       71.39175415    -30.55340576    152.85781860
Li      -70.85299683   -212.81224060     88.95023346
Li       49.08153152     39.87413406    -25.56915855
Li      111.18603516     16.22475052     73.26153564
Li      -58.24418259    -25.08077812     50.96005630
Li      -40.25932693     53.75709534    -30.07971764
Li      -40.66430664    141.26495361    113.85922241
Li        6.68307638    -22.99140739     21.27963066
Li      -62.67590332     48.98054886    123.17877960
Li      -28.00402641    -68.49407196     12.74284840
Li      -24.02095222     62.14846802     59.08715439
Li      149.11038208     92.47942352    187.17549133
Li      -84.48957062     -7.55349731    -41.96555328
Li     -101.51436615     87.79567719   -125.14521027
Li     -117.40689087   -169.59481812    -10.99157715
Li       54.18375015     48.15998077    250.46350098
Li      -70.82614136    -16.70063972    122.32649994
Li       32.92176056    119.10221100     53.96778870
Li      -12.83238792     29.75134277    -69.89897156
Li       19.59840584   -140.06132507     12.38146591
Li       15.46473885   -107.67614746      3.84924173
Li       94.05101013    -74.67518616    -27.66065216
Li       34.46883011     10.07630539    -90.69392395
Li     -158.16926575    -93.10475159   -117.64028931
Li       30.15639305     24.32238960    104.35539246
Li       59.07194138     90.80784607      0.07542960
Li       54.30548096     23.42126083    165.08012390
Li      -97.30638885   -163.19839478     50.67768860
Li      127.27083588     48.64013290    -80.30106354
Li      -15.45657444     83.10753632    -42.16508865
Li       45.96287537    258.69418335   -173.92189026
Li       76.52655029     -2.28355527    -70.34348297
Li       23.64620590     66.42730713    -29.80404854
Li      -58.16382217     56.50260925     55.28157806
Li      162.52459717     23.10752296    -29.52193260
Li      -23.86895180    -91.17948914    -37.90589142
Li      114.52088928     77.55042267     12.58957577
Li      -49.72133255    120.15159607     84.26657867
Li      119.11952972    178.15008545     98.04245758
Li      -83.96430969     20.69485283    199.57839966
Li      213.81672668    -32.81172562    131.50520325
Li       -5.16536856     65.54537964     40.40886688
S         0.04233720      6.31338501      0.43054062
P         0.11980841      7.45611620      2.10654664
S         1.66960502      8.77237797      1.93235517
S        -1.70756865      8.27995110      2.06057978
S         0.42187682      6.28085613      3.81407571
S         0.11484102      6.34709454      8.80653000
P         0.17239049      7.38467884     10.51100731
S         1.66770482      8.74676704     10.36276913
S        -1.72667265      8.26439381     10.67457581
S         0.31958461      6.35732174     12.37621498
S         0.29298878      6.50158358     20.81839180
S         0.07345501      6.37546253     17.22219086
P         0.16771254      7.35126305     19.00621223
S         1.75735402      8.71125793     18.89046288
S        -1.74382114      8.15955162     19.18392754
S         0.45443544     15.41636276      3.84101796
S         0.07955840     15.42018604      0.35824773
P         0.06803349     16.50638962      2.14479470
S         1.75774884     17.71521950      1.92622185
S        -1.81547940     17.27566719      2.07511735
S         0.35215673     15.48435593     12.17170238
S         0.04047162     15.22863293      8.87124348
P         0.20107965     16.46708488     10.41464710
S         1.65950346     17.82771111     10.55938148
S        -1.70438671     17.32470322     10.71084309
S         0.39059031     15.33877754     20.77944946
S         0.07756379     15.39409733     17.33661842
P         0.19511031     16.54318237     19.16388893
S         1.80417383     17.77009201     18.81180000
S        -1.91881669     17.28892708     19.03479004
S         0.47991300     24.23520279      3.59088802
S        -0.02894837     24.13822174      0.59568948
P         0.20946229     25.52780342      2.03927064
S         1.48329782     27.06491089      2.09109521
S        -1.59461474     26.59783745      2.02486515
S         0.37454736     24.30096054     12.32471848
S         0.01278105     24.39910507      8.93603325
P         0.14506266     25.48548889     10.57471561
S         1.64259994     26.97824669     10.37443447
S        -1.62807274     26.39874077     10.52336311
S         0.44134438     24.37950897     20.59611511
S         0.09150754     24.13784027     17.37065697
P         0.12197297     25.65452003     18.98572540
S         1.69599795     26.91200638     19.02568436
S        -1.80469036     26.48441315     19.14230156
S         8.93063450      6.18704128      3.91807556
S         8.76170349      6.19210625      0.30835906
P         8.84919262      7.45382214      2.06301761
S        10.23550415      8.89450550      1.85386419
S         6.98944521      8.37513351      2.19930005
S         8.91129684      6.28410053     12.19112301
S         8.93470383      6.12128592      8.83908176
P         8.75372505      7.37865019     10.51231480
S        10.21070290      8.84351158     10.34939003
S         6.95280218      8.47250271     10.83923340
S         8.98619652      6.32665396     20.79804420
S         8.75578976      6.37296724     17.37892914
P         8.73256874      7.49602604     19.00788689
S        10.34910679      8.70667839     18.82785606
S         6.93884897      8.20172119     19.10852432
S         9.06167698     15.35171700      3.84430361
S         8.78713131     15.30454445      0.34282270
P         8.73342609     16.54686165      2.06223536
S        10.35605526     17.76708794      1.92692292
S         6.82425022     17.36499023      2.16630530
S         7.00119972     17.36282730     10.69714546
S         8.94651890     15.43416691     12.36573696
S         8.70051193     15.27791500      8.70277405
P         8.82218170     16.32382774     10.52741718
S        10.29514694     17.92887497     10.43858147
S         6.90995455     17.41943932     18.95687866
S         9.13609695     15.28074169     20.81059837
S         8.67263222     15.33608055     17.35372734
P         8.78583527     16.45302200     19.09933472
S        10.25980473     17.84272575     18.90381432
S         6.78996325     26.25449181      2.21986771
S         8.94604778     24.47763062      3.80793548
S         8.74610519     24.40242577      0.35618186
P         8.82509708     25.64738274      2.05349135
S        10.45844555     26.78612137      1.90481627
S         6.95408392     26.33641624     10.74831009
S         8.87946224     24.46011543     12.41313839
S         8.77477360     24.39819527      8.71835518
P         8.81777000     25.47046471     10.51952171
S        10.33931923     26.89683723     10.33206081
S         6.74329233     26.20088768     19.14548683
S         9.02579212     24.65827370     20.80326843
S         8.69400692     24.51708031     17.25343704
P         8.76737499     25.46547318     18.96381569
S        10.53322792     26.72013855     18.95373535
S        15.51617813      8.27905846      1.99691880
S        17.79549217      6.21786118      3.66918230
S        17.20098877      6.10885048      0.51229799
P        17.37393570      7.61423588      2.05919480
S        19.09334183      8.88806248      2.10489273
S        18.98007774      8.73027897     10.34448910
S        15.54044056      8.27139950     10.66160679
S        17.62985802      6.37712908     12.36223412
S        17.42613983      6.35182619      8.76313686
P        17.40445709      7.36909199     10.60275269
S        18.92751503      8.77587700     18.91387177
S        15.53383827      8.41713905     19.15278053
S        17.72037125      6.32789898     20.77233124
S        17.46265984      6.21596384     17.27822304
P        17.33419800      7.36262608     19.00389862
S        19.01105690     17.77712631      2.05278182
S        15.48566532     17.37146950      2.17297840
S        17.76084709     15.46601772      3.85013986
S        17.37368011     15.22919369      0.19425635
P        17.34779739     16.48944092      2.07279301
S        18.98542213     17.90847397     10.32235050
S        15.53389931     17.41727829     10.59463882
S        17.66673470     15.19495296     12.32317924
S        17.42134666     15.30557156      8.94226933
P        17.37248230     16.50758553     10.54998398
S        19.04335594     17.75612640     18.91926003
S        15.46820545     17.27727318     19.10533142
S        17.68778229     15.46840572     20.87898254
S        17.34491920     15.40776825     17.23874474
P        17.43785095     16.42135620     18.97790527
S        18.93028259     26.80787849      1.96936154
S        15.51991177     26.42004204      2.06238675
S        17.77143669     24.35770988      3.80869222
S        17.36060905     24.37816620      0.45229429
P        17.39853287     25.60273170      2.04941893
S        19.07355690     26.91159630     10.43297577
S        15.55790615     26.26258659     10.79329014
S        17.47736359     24.49847794     12.07767773
S        17.37448883     24.23918915      8.88057613
P        17.50094032     25.65651321     10.54783058
S        18.92375755     26.91007423     18.91172028
S        15.52054787     26.48979378     19.17378807
S        17.66046143     24.39584351     20.83357239
S        17.41485786     24.26453781     17.21153259
P        17.46335220     25.50288010     18.99002075
S        10.64706612      0.49856675      6.28568983
S         8.65295601      2.54163671      4.64828444
S         6.99261999      0.18136141      6.30024529
S         8.38150978      2.55935884      8.02556229
P         8.57332706      1.41520000      6.31983137
P         8.67451572      1.52159011     14.79083061
S        10.40978146      0.54513001     14.87003613
S         8.56922913      2.47263503     12.99219227
S         7.08488607      0.15026188     14.67623425
S         8.51251030      2.51012707     16.63958359
P         8.55908203      1.44190824     23.30598640
S        10.39404488      0.48065576     23.23672295
S         8.71139431      2.61814904     21.52484512
S         7.10006142     -0.01566570     23.21371460
S         8.48241138      2.67198515     25.07837296
P         8.66429424     10.39517212      6.33499813
S        10.60977840      9.67948818      6.27876234
S         8.66234398     11.50493336      4.55183363
S         6.93948603      9.32763386      6.30305099
S         8.37467194     11.51764202      8.11148453
P         8.60853577     10.45670891     14.83593369
S        10.47492981      9.66174603     14.79056549
S         8.67300606     11.53794479     13.03390884
S         7.03618479      9.24448872     14.75741100
S         8.45601940     11.52607536     16.55259132
P         8.58523655     10.45824432     23.26755142
S        10.71508980      9.72735786     23.31053734
S         8.66650581     11.50565147     21.52688026
S         6.82752562      9.29938889     23.26236725
S         8.45352554     11.43637466     24.99099922
P         8.60614681     19.58503151      6.35767603
S        10.54082203     18.51685143      6.26393890
S         8.62330532     20.61992073      4.65353346
S         7.06785107     18.18122864      6.21426868
S         8.41047001     20.75772667      8.09148502
S         8.40535164     20.70078659     16.47665977
P         8.71435261     19.45199394     14.72823048
S        10.48520088     18.52200508     14.86220932
S         8.55365944     20.74930191     13.12514400
S         7.09371328     18.23214340     14.77450275
S         8.58205318     20.64195442     24.87690735
P         8.57982159     19.50903893     23.32728958
S        10.47521973     18.58809090     23.43029976
S         8.57144547     20.79219246     21.53551102
S         7.03915882     18.12689590     23.19035721
S        17.03104973      2.53428864      7.94441032
P        17.32160950      1.42846978      6.28413153
S        19.22934723      0.34597084      6.44886589
S        17.13585472      2.71836567      4.57335949
S        15.75068092      0.16948040      6.32763195
S        17.06422234      2.52380466     16.48837662
P        17.24510384      1.43976402     14.78701591
S        19.16004562      0.55630678     14.77049828
S        17.35156441      2.55774403     13.11258411
S        15.64500332      0.11933990     14.81027222
S        17.22750664      2.57273054     25.09392929
P        17.23182678      1.42460322     23.32069778
S        19.12615013      0.65769887     23.30221367
S        17.29359818      2.44575739     21.54288292
S        15.58640671      0.09565338     23.10042000
S        17.11602402     11.48618221      8.09422398
P        17.29603577     10.46162319      6.21899509
S        19.11704636      9.57591724      6.46584272
S        17.21253777     11.65981197      4.46565437
S        15.72602749      9.24359703      6.33146572
S        17.15199852     11.59854698     16.46224594
P        17.31834602     10.43095779     14.68777180
S        19.10438919      9.53516960     14.95157528
S        17.17967224     11.69395065     13.11421680
S        15.71402645      9.16746235     14.74955940
S        15.71141720      9.08318424     23.33617973
S        17.10235023     11.54533768     24.91031265
P        17.30214691     10.50735855     23.23814583
S        19.02707481      9.55663300     23.33716583
S        17.32489204     11.73617172     21.53553200
S        15.78013039     18.04594803      6.28602076
S        17.15683746     20.64993095      8.03077888
P        17.33119392     19.66451073      6.34302282
S        18.91634178     18.54855919      6.38623953
S        17.28436470     20.75451660      4.53434086
S        15.66400814     18.14012337     14.73364925
S        17.18076134     20.69384575     16.49059677
P        17.17133141     19.46410370     14.79760933
S        19.09492493     18.68122864     14.80957317
S        17.35240555     20.67734528     13.13767815
S        15.59488773     18.25775909     23.26106262
S        17.12235451     20.59150887     25.04240608
P        17.23255730     19.49379349     23.15040016
S        19.22011185     18.69327354     23.33957291
S        17.29560089     20.62131500     21.56090546
S        24.30986595      0.14988697      6.44994640
S        25.70720100      2.40420914      8.09541702
P        25.88680267      1.44247556      6.16628599
S        27.71985054      0.63803548      6.33312607
S        26.05965805      2.56244469      4.52961159
S        24.46047020      0.12539063     14.74403191
S        25.74800110      2.53205419     16.54291916
P        25.98430824      1.50538826     14.77126789
S        27.70432281      0.39167094     14.93112373
S        25.78959465      2.64468884     12.97886848
S        24.34067917     -0.02014536     23.17869949
S        25.76288033      2.77058458     24.92593193
P        25.89434624      1.31474507     23.30167389
S        27.74156189      0.45113608     23.24745750
S        25.94416618      2.67638469     21.70573425
S        24.25907707      9.18433189      6.32420444
S        25.75641060     11.54791355      7.97895479
P        25.89942932     10.43480015      6.25041103
S        27.75919151      9.69608307      6.31599379
S        26.00969696     11.56308746      4.70768738
S        24.28948402      9.31869316     14.76559258
S        25.71616173     11.45887852     16.61054993
P        25.90393639     10.49357891     14.81773376
S        27.86323547      9.64980316     14.82536983
S        25.91114426     11.50726509     12.95054531
S        24.31543732      9.17326736     23.17526436
S        25.66814423     11.69290733     24.99970627
P        26.03140068     10.44400215     23.37861633
S        27.79923630      9.50444031     23.22788048
S        25.87408257     11.61191559     21.58065033
S        25.90276909     20.49422646      4.53544807
S        24.35827446     18.32889175      6.22829485
S        25.76751518     20.53923607      8.14711380
P        25.87373543     19.61545181      6.32089710
S        27.78063774     18.68398857      6.34789610
S        25.92717171     20.61951637     12.91196060
S        24.19886208     18.34152794     14.84640408
S        25.79084587     20.40055275     16.58715820
P        25.91482544     19.50381470     14.66891003
S        27.85262489     18.79258156     14.95029545
S        25.90983963     20.48195457     21.59001732
S        24.33244896     18.29713821     23.06676292
S        25.80686760     20.70159531     25.08603668
P        25.81889725     19.47869301     23.38334846
S        27.81301689     18.69775963     23.23610878
S         5.93674660      4.31645966      1.81457329
S         4.57034063      1.66185904      3.70449615
S         4.51174021      1.74586296      0.47986814
S         2.62790155      3.83346128      2.20110369
P         4.49566126      2.93261337      2.17390990
S         5.96214628      4.31680679     10.51421452
S         4.73838711      1.72766566     12.17670250
S         4.36212158      1.66414690      8.91334343
S         2.62640166      3.83273649     10.57405281
P         4.45184278      2.94947386     10.58278656
S         5.91447306      4.29369688     18.98141479
S         4.79907274      1.73410881     20.78985023
S         4.32500362      1.79003978     17.37126160
S         2.66196036      3.84068131     18.96630478
P         4.43998480      2.82817507     19.04110146
S         5.98369646     13.26523972      1.92066574
S         4.70330191     10.80434132      3.80694413
S         4.44125843     10.84828568      0.38210499
S         2.50729108     12.86143303      2.12616253
P         4.50723600     11.94065666      2.13681102
S         6.04808283     13.16894913     10.55880547
S         4.84003830     10.92680931     12.30903149
S         4.32787228     10.87062550      8.80302906
S         2.46447873     12.77943707     10.51751041
P         4.46072960     11.97531509     10.57236862
S         5.99999762     13.31592464     18.86922455
S         4.61750078     10.83436298     20.69833946
S         4.49849606     10.77608681     17.31951523
S         2.59422636     12.84631634     19.19586754
P         4.42993212     11.94749737     19.06789398
P         4.42720366     20.97964668      2.08066773
S         5.88981533     22.37557030      2.01663470
S         4.73301697     19.84623718      3.70286870
S         4.43417501     19.77337456      0.42383912
S         2.65584898     21.97587967      2.14676762
P         4.47085619     21.03550911     10.56105042
S         6.11324215     22.22904968     10.45967007
S         4.68438339     20.00351715     12.34098244
S         4.41375017     19.92213058      8.73325634
S         2.45931315     21.76240158     10.66540146
P         4.45728016     20.99419975     19.08348083
S         5.93740273     22.29560661     18.91571426
S         4.67919159     19.91666985     20.67324066
S         4.47066450     19.84413528     17.33271408
S         2.59654403     21.90059090     19.14622116
P        13.12876987      2.84528947      2.10816884
S        14.56253242      4.28807497      1.85238600
S        13.25106812      1.71615326      3.75438571
S        13.17992592      1.75949514      0.42718521
S        11.23723888      3.87827158      2.22958827
P        13.05805969      2.91453576     10.45593262
S        14.55405998      4.47342491     10.58770180
S        13.40821362      1.63277996     12.28754425
S        12.96278095      1.53398168      8.84592819
S        11.37401390      3.93491888     10.57967472
P        13.04533863      2.85071993     19.12163162
S        14.56897163      4.19322634     18.79781151
S        13.32863903      1.75121033     20.78291130
S        13.22203732      1.80717897     17.29302406
S        11.19170856      3.88513398     19.15729141
P        13.00949287     11.86238575      2.08342791
S        14.64154434     13.32662868      1.95967555
S        13.33385849     10.85230732      3.79143262
S        13.07834816     10.83884335      0.38046739
S        11.29223347     12.83712959      2.15586853
P        13.09063339     11.82375908     10.52561569
S        14.52568340     13.39581776     10.45973110
S        13.37736130     10.75582218     12.36681461
S        13.09032345     10.73683739      8.77356720
S        11.27423477     13.00374031     10.63342571
P        13.12124443     11.98223495     18.97933769
S        14.67015648     13.42103004     18.93427467
S        13.21516609     10.80676746     20.64759064
S        13.03981590     10.71515083     17.39842606
S        11.31289577     12.79618835     19.18820190
P        13.11859894     20.98745346      2.06702995
S        14.76200771     22.26838303      2.00591493
S        13.30679417     20.02750778      3.80407929
S        13.03223801     19.91494751      0.29906362
S        11.13955116     21.75268364      2.19422626
S        11.20960236     21.85748291     10.60907459
P        13.15959835     21.12989998     10.60530949
S        14.64893818     22.36337662     10.44739628
S        13.31572247     19.81605530     12.21542740
S        13.02672386     19.78900719      8.88465881
S        13.13549137     19.81034279     17.25073433
S        11.14624310     21.87564278     19.28540802
P        13.13980865     20.99053192     18.85100937
S        14.61990738     22.21502113     19.03633690
S        13.31846046     20.05953979     20.71997070
S        21.68643951      1.72624362      0.44748247
S        19.73467255      3.71907115      2.12659812
P        21.69764709      3.04678392      2.11253881
S        23.43564796      4.21100521      2.00885534
S        22.02008247      1.79103768      3.67638826
S        21.81617546      1.68452609      8.84476280
S        19.85528564      3.84206891     10.75578403
P        21.68846893      2.91302443     10.50851440
S        23.26908112      4.23871613     10.45008564
S        21.94517136      1.81125426     12.19942379
S        21.69490814      1.70740581     17.38160706
S        20.05872154      3.84954286     19.17430305
P        21.84675789      2.77203012     19.01249695
S        23.14158821      4.41565180     18.89011955
S        21.83759117      1.74016070     20.69042778
S        21.70573997     10.71894455      0.37439939
S        19.77682495     12.84838963      2.13422060
P        21.60899925     12.02246475      2.07974339
S        23.38045311     13.26017189      2.08476424
S        22.09945869     10.87277031      3.69761920
S        21.98152161     11.05390549     12.45606613
S        21.74849129     11.01040554      8.65361309
S        19.75782776     12.72663689     10.68631840
P        21.70608902     11.78952026     10.53740311
S        23.38085175     13.13434410     10.42615509
S        21.93522072     10.68270206     20.68227577
S        21.60535622     10.67730713     17.45374680
S        19.97311592     12.91162491     19.07367516
P        21.84842110     11.93829060     18.96849251
S        23.21750832     13.50995255     18.96926880
S        22.08134842     19.89486694      3.78445148
S        21.72946548     19.84623146      0.34664327
S        19.81030083     21.92892647      2.11357546
P        21.67559052     21.00013733      2.11953831
S        23.27703667     22.28124428      2.00789213
S        22.11463547     19.76483917     12.24485302
S        21.68493843     19.86165237      8.92020798
S        19.82914925     21.95623779     10.46963692
P        21.68482971     21.03085136     10.69721889
S        23.26049995     22.33886909     10.43307686
S        21.95116997     19.90275574     20.78794670
S        21.82320976     19.68836975     17.16071892
S        19.82732964     22.05667686     19.28562164
P        21.71721649     20.85808945     18.94552612
S        23.25622940     22.44068336     18.96686363
S         4.05494976      7.13494778      8.03532124
S         2.82584643      4.57755327      6.30907774
S         6.06698751      4.93457556      6.25216055
S         4.37125635      7.10241413      4.66029167
P         4.33656979      6.09628057      6.33113718
S         4.14205122      6.98390055     16.45574570
S         2.70968723      4.57703781     14.90662956
S         6.09613037      5.08174706     14.85663700
S         4.43440580      7.22244072     13.02675629
P         4.27110720      5.97657156     14.72899532
S         4.12827253      7.15888929     24.75167274
S         2.74744916      4.56344271     23.27103806
S         6.13053656      4.97038746     23.30675125
S         4.33335400      7.24548101     21.76113129
P         4.31527328      5.90092230     23.27601624
S         4.19720697     16.20415115      8.00349522
S         2.84106112     13.65333366      6.28826618
S         6.13471556     13.99230766      6.45502949
S         4.27389002     16.28075218      4.66132212
P         4.20423222     14.93931293      6.17454576
S         4.23372889     16.21618080     16.52767372
S         2.65149355     13.69882774     14.58010674
S         6.19094515     14.09353447     14.91915989
S         4.16861439     16.09832191     13.16715050
P         4.41344404     14.96382523     14.78249264
S         4.15749598     16.19062424     25.03647804
S         2.67670941     13.66492367     23.14188385
S         6.22238255     14.03550243     23.32158089
S         4.25291872     16.14038277     21.54671478
P         4.34643841     15.04191494     23.32150269
S         4.17384148     25.20403671      8.12294483
S         2.71773934     22.63133812      6.35056353
S         6.06223011     23.16666031      6.36997986
S         4.41256285     25.27925110      4.56066418
P         4.28756762     24.02077103      6.17864609
S         4.03450108     25.25823212     16.42771530
S         2.67517924     22.58965111     14.89341831
S         6.20181084     23.04894638     14.71675205
S         4.46987677     25.39375687     13.08581638
P         4.27204561     24.01114082     14.85536003
S         4.33707142     25.13960838     24.95827484
S         2.85469913     22.58435440     23.21357155
S         5.99115276     23.08111954     23.49947166
S         4.28226519     25.35971642     21.44558907
P         4.18527269     24.14136124     23.24878120
S        12.85036182      7.21133995      8.02071285
S        11.45783329      4.42853832      6.27360725
S        14.70230770      4.89647245      6.39219999
S        12.98109436      7.27588701      4.60783958
P        12.87803745      6.03132343      6.29230690
S        12.88760757      7.09881496     16.55518532
S        11.46043777      4.58685637     14.72105598
S        14.73084068      4.99270391     14.94009399
S        12.91854000      7.19365311     12.99558926
P        12.87200260      5.96942520     14.76402950
P        12.85146427      5.92864370     23.24003220
S        12.85676670      7.16753769     24.90971184
S        11.42475700      4.59493971     23.18097687
S        14.82151699      4.96426868     23.37584496
S        12.91422367      7.18467665     21.65882111
S        12.94128609     16.17889595      4.74036694
P        12.91978168     14.96729660      6.34067678
S        12.82663345     16.29590416      7.99931097
S        11.34094620     13.60101509      6.17524433
S        14.84240627     14.02769852      6.33271265
S        12.79940796     16.21557808     13.07657051
P        12.97626877     14.98149109     14.81304264
S        12.91730022     16.08775902     16.40951538
S        11.30840015     13.70571232     14.65490055
S        14.87160110     14.08075047     15.02359104
S        12.86153221     16.15430641     21.57067871
P        12.95163822     15.12824345     23.27856827
S        12.89264297     16.21907234     25.03619385
S        11.44869995     13.58737946     23.09436417
S        14.71762562     13.98728466     23.38689613
S        12.82395172     25.14423943      4.65708494
P        13.05371094     24.04519844      6.35002470
S        12.80205822     25.16098022      7.98637962
S        11.43108273     22.83853722      6.18073559
S        14.76480961     23.11393166      6.41440582
S        13.02642345     25.29853249     13.21888447
P        12.98254585     24.01432037     14.76935005
S        12.68298054     25.22855377     16.37486076
S        11.31409454     22.68739510     14.85007763
S        14.86714649     23.07303238     14.76296520
S        12.97580147     25.09621239     21.66665268
P        12.90400791     23.90014267     23.27998734
S        12.93034554     25.24032784     25.00879478
S        11.14624691     22.73586273     23.08377838
S        14.91411686     23.32540512     23.32753372
S        21.44082451      7.11475754      4.59515238
P        21.69142723      5.84035492      6.34623146
S        21.45688438      7.19648933      8.09701061
S        19.97233963      4.69550419      6.12892151
S        23.53143692      4.98995590      6.42118597
S        21.46316338      6.96598196     12.98895454
P        21.64742661      6.00369596     14.80938530
S        21.51720428      7.00160599     16.62704659
S        20.03818512      4.77395105     14.61481667
S        23.42543411      5.09738541     14.93729496
S        21.63290596      7.17413568     21.53343391
P        21.59129906      5.98602390     23.25764656
S        21.42383385      7.04863834     24.95717621
S        20.12234879      4.62190866     23.29202271
S        23.31912041      5.01131248     23.32570457
S        23.50925827     14.02600956      6.18231964
S        21.68981552     16.12693977      4.47077417
P        21.60588646     15.03098202      6.42324448
S        21.32067871     16.25889015      8.26087475
S        19.96436501     13.63015270      6.25390959
S        23.47134972     14.07829285     14.77818298
S        21.62790489     16.03193855     13.07837009
P        21.48513985     15.11277485     14.82801914
S        21.46762657     16.17837524     16.63711166
S        20.03387070     13.67437935     14.65644836
S        23.45543861     14.06936359     23.28042221
S        21.51943970     16.09420776     21.52096748
P        21.63092232     14.95205688     23.45054626
S        21.43969154     16.19662285     25.03660011
S        20.04536247     13.75803947     23.08401489
S        23.54355812     22.93762970      6.46180630
S        21.32045174     25.26791573      4.73848820
P        21.74997902     23.94085121      6.33961535
S        21.40255165     25.32170296      7.92497683
S        20.07836533     22.83123589      6.12339163
S        23.42162132     23.16492081     14.87345600
S        21.66655159     25.28239250     13.12053585
P        21.55963326     24.00030899     14.66239929
S        21.44108963     25.14624596     16.46493149
S        19.99953461     22.70749092     14.85117531
S        20.07536888     22.52315140     23.25079727
S        23.31208229     23.08626556     23.29551506
S        21.71634102     25.34314346     21.52336311
P        21.48296356     24.00201797     23.18407440
S        21.49906540     25.34683990     25.10973167
