864

Li      157.37619019    206.35481262    -60.03393173
Li       53.71497726    170.42027283   -119.02964783
Li       67.07615662     85.56694794    -38.41645813
Li      -58.85094070   -152.00816345    102.57690430
Li       10.89990044     92.09950256    105.96230316
Li       37.95262146    -33.34793854    -26.89904594
Li      -31.75209618     90.77645874    131.17875671
Li       47.80753708     92.94815826    243.58259583
Li      -27.78930283   -119.83660889     38.75677109
Li      -89.64618683    -93.08110046    -14.44189644
Li       72.19983673     29.57975388    -45.04109955
Li      -10.94199085   -150.25988770     50.40216827
Li       39.29782104   -105.36316681    116.67568207
Li      131.88932800    107.36634827     21.29429817
Li       75.96060944    169.76649475     38.48147964
Li       79.75971985     -1.13169372     16.79889297
Li      -93.32130432    -22.75469017    -16.75687408
Li      -72.70909882     -2.72226334    -40.43668747
Li      -44.52488708    124.71772766     30.66778946
Li       30.36347961    -33.01845169     91.79471588
Li       23.29378891    150.65161133    -41.88044357
Li      -15.21677113    -16.52209663    -42.10936356
Li       -2.11353779   -136.81094360    -17.32446861
Li      183.29507446    142.88580322    -10.90084267
Li      196.97491455     27.80946922     54.71146393
Li     -131.61421204    -22.97071457     88.99407959
Li      -45.59717178    -50.99283981     64.07352448
Li       57.81394577     26.87011528   -139.61674500
Li       76.03865051    145.71989441    -58.86037827
Li       66.86743927    -95.93696594   -122.58750916
Li       82.60221100     57.38726425     23.14966774
Li       -6.78473330     71.24974823    -34.35575485
Li     -119.11634064    -19.62999535    -46.09085083
Li       49.52605438     90.73512268      0.34268984
Li      -24.06049347      7.15366364    177.01820374
Li       96.86454010    152.57321167     58.70530319
Li      -44.55215073    -22.63493729     21.22789955
Li      -23.64953995    -67.00617218     21.06170845
Li      -36.87750244    -87.32284546    200.46258545
Li      -94.72331238     19.90403557    154.71321106
Li      140.77700806     22.59959221    -72.03343964
Li       62.61022949    170.63397217    151.83721924
Li       97.11252594    -25.36454964     59.94319534
Li       -6.81668425     -1.50398314    -93.57115173
Li       68.91963196     61.32999802    -10.77892590
Li       50.60143661    -98.63218689     37.60023499
Li      106.26614380    -21.60164261     59.96209717
Li       -2.34424543    -42.14772034    -17.65522957
Li      -15.61930370    -91.47593689    -76.54600525
Li       41.00502777     19.02205658     42.53211212
Li      -76.38584137    -64.39968872    109.79656219
Li      -32.08617020    -33.29906845    -20.72527885
Li      -66.85564423    -67.25289917    -16.58097267
Li      -45.22354889    -74.71160126      4.83530521
Li     -156.71980286    -49.54141998    -55.36353683
Li       75.86389160    -58.00020981    178.12644958
Li      112.37857056   -161.11428833    -65.96622467
Li       15.20457363     -2.86271167     50.80561829
Li      -28.64498520     21.21789360    109.83001709
Li      -32.60516739    -52.50829315     28.82021141
Li       15.30799198     39.78101349     -4.36191940
Li        2.60033607      5.02738190    114.16329193
Li     -101.10555267    -21.90390968   -186.17687988
Li       77.87534332     79.46680450     14.95683861
Li      105.13240814    112.78359985    228.48678589
Li      140.29676819    198.27073669     -8.50657272
Li       62.90832520    131.95515442   -118.39069366
Li       41.10679245     18.57109833    -76.10344696
Li       23.77602386    103.00777435   -110.54911804
Li       93.50077057    -47.03153992     72.90090942
Li      135.92436218    148.23963928    -55.09589386
Li     -135.66912842   -130.10797119   -114.99748230
Li       21.49353409     23.74663734    103.27821350
Li       -5.98187304    -60.66511536   -156.37367249
Li     -175.34321594   -135.85275269    245.74450684
Li       -7.76195335    -34.22494888     27.62753677
Li     -105.93801117   -146.03155518   -127.85778046
Li       23.58806038     93.99999237    106.18186188
Li     -140.74635315     27.37262917     76.63949585
Li       41.09981537    -55.34864807     16.89834213
Li      -27.64277649    -17.19531059     54.80003738
Li      -79.70981598    187.50738525     29.82903481
Li       75.99829102   -224.93374634     25.58021927
Li     -131.34938049     82.43347168   -182.53729248
Li       88.57619476     73.68849182    -67.77517700
Li       28.28248215    128.20693970    135.88560486
Li      122.90162659     11.01189423     96.47953796
Li      -61.87757492    160.73957825     39.03568649
Li       29.50032997   -151.17196655    -61.88835144
Li      -36.28294754    254.32310486     29.51024246
Li     -218.30535889     57.33779144   -122.11209869
Li       -6.29102135    -67.06964111    -29.69365883
Li      -36.11241531    -35.21060944    139.52279663
Li       84.14954376    -39.59533310    102.01427460
Li     -144.76405334     71.76476288     46.77355576
Li       54.02089310     47.48310089    152.04795837
Li       10.86462116   -105.14469910    131.32710266
Li      184.23144531     65.44029999     21.65594673
Li       79.85619354    164.50149536     59.58384705
Li       50.64126968     13.70221043    -29.68640137
Li       98.07398224      9.06840324      8.24226665
Li       58.24813080    100.15317535     59.45513153
Li      149.13890076    192.72108459    117.87588501
Li       85.98441315    106.22699738    -69.77847290
Li       48.92725372     81.01519775    -59.13502884
Li      114.91770935     75.34427643     -9.01854801
Li       -2.65195179     76.01756287    309.56179810
Li      174.67018127     82.69525146    -76.22318268
Li      -19.05719757    -53.36945724    198.76689148
Li       71.65915680    111.49837494     -3.93617558
Li      -45.14005661     45.86115265    144.26277161
Li      -53.91872787   -138.08782959     89.04639435
Li     -127.71781158    -16.56034660    -84.18489838
Li       -5.50838518     38.76702499    107.72668457
Li        6.19552946   -255.82740784   -109.32360077
Li      -14.54373455    147.48722839     47.53951645
Li      -26.74865150    -20.30868912    158.44700623
Li      183.28511047    261.06729126    101.48884583
Li        4.58341789     34.18783188     95.03024292
Li       63.45790863    129.82598877    -80.65787506
Li       49.05450058    217.04974365     25.46018791
Li      127.11700439      3.19115758    -59.90687180
Li     -139.57531738    -49.64852524     72.21900177
Li     -148.87609863   -227.90429688    191.02824402
Li      -36.88626480     97.13637543    119.02237701
Li      -66.92684174    -52.48117828     20.76536369
Li      -10.64369297    -41.57417679   -114.65437317
Li       28.54704475     41.77744675    113.84004974
Li      -23.75583649    -64.13327789     55.36881256
Li      -32.09321594   -214.17991638     38.37238693
Li       65.94086456    250.59373474    -66.72307587
Li       41.21058655     87.70328522     79.97521973
Li       84.05343628     66.30228424     -9.10218334
Li      -44.64199448    -58.73073196    118.84915161
Li       37.32559967    177.17881775    -55.62525177
Li      -27.94983101     61.63149643    -29.06731224
Li       40.63382339      9.25416660    -63.54998016
Li       80.48210907     86.80122375      3.77557349
Li      -66.37220764     26.82148170     63.33583450
Li       75.58925629     72.18749237    -33.78157806
Li       34.79957581   -115.99929810   -158.86344910
Li      109.72201538    111.83258057     -8.70107746
Li       41.72460556    127.79693604     -4.40339661
Li      119.92810059    -11.51153183    149.81889343
Li     -101.82688904    153.30467224     89.02248383
Li      112.46424866    -68.42208862    128.65939331
Li      -11.15764904     42.28145599   -152.37518311
Li      -88.38144684     -8.71463680    131.10185242
Li      -10.88613224     -3.41555238    -67.75908661
Li       19.89121437     50.99023438    -81.26078796
Li      226.55897522    149.78707886    127.23117828
Li       27.99887085    -94.59843445    110.66938782
Li       75.38604736   -222.48329163    -88.80699158
Li      -41.35123444     30.73495483    127.09501648
Li       -4.35841942     96.07340240     79.36607361
Li      -18.69360733     22.55953026     63.44693756
Li        6.39917660    -65.78605652    186.76460266
Li       -9.43301010     43.35966492    -11.42908478
Li        6.34945726     12.72151089     63.70177841
Li       10.79624557    116.84080505     63.76165009
Li       63.15806198     86.94969177    -13.20161247
Li      167.09071350    204.25451660    102.14093781
Li       -4.57173061     77.98902893   -168.06425476
Li        6.53801727    224.14990234     84.87934113
Li     -111.25665283     67.77008820    207.66758728
Li      -49.52009964     20.74014473    139.84820557
Li      -53.38550949     10.49888420    198.66412354
Li       58.34566116    190.28892517      0.24816327
Li       76.05799103    179.30364990    -20.96431732
Li      -88.27956390    -83.52268219    -20.48239708
Li       15.28108692    196.14933777    152.64578247
Li      -15.72477818    -43.77753448    153.27314758
Li       92.90342712     21.65293503     54.82949829
Li      -58.47531509    -82.48638153     30.27601433
Li      -53.84570694     67.08186340    -38.08786774
Li       -6.64118958    143.50044250   -106.01131439
Li      -40.99758911     11.42331982     89.59109497
Li       -2.13652110    -10.86036396     46.55439377
Li      -20.15514755    112.43077850    109.76260376
Li      105.57694244    158.46057129    -67.84049988
Li       84.00461578     63.05094528     51.07977676
Li      171.07760620    106.38868713    -54.54249573
Li       40.98441315   -126.07038879    -84.40260315
Li      -71.10367584     91.51654053      8.76134109
Li      107.12648773     47.73961258     56.38015747
Li     -135.68666077     20.91681862    -26.14047623
Li       35.92617798    -76.82613373   -237.75991821
Li       50.23971939    106.96839142   -130.98593140
Li      -75.46639252      5.17183304     97.19606781
Li       59.94021225    -43.07592392    -56.93155670
Li      -36.67992783     55.01113892    -93.00543976
Li        1.64677799     -0.81112075    -76.51406860
Li      105.29487610    -43.62854385      8.83287907
Li       15.41802692     82.74254608    -81.30687714
Li      -14.77898121     46.01249313     55.06290817
Li      -45.79747772   -114.71227264     32.67377853
Li       -5.87059498   -117.72473145     -4.28799915
Li      -48.94663239    -85.12425232     54.65472412
Li       -6.73832893   -219.60202026   -102.25531769
Li       60.35826874     79.78829956    125.21809387
Li     -149.04089355   -117.07859039      0.27166912
Li       40.95385361    -23.43691826    -93.56690216
Li      -97.69527435   -127.29962921    245.82061768
Li       32.99491119    -80.54440308     80.29965210
Li       24.22719193     19.38343811   -123.57266235
Li     -128.10566711    -94.98162842     67.74994659
Li     -188.15907288   -284.69396973    -84.68130493
Li        2.64872217     83.85720825   -110.73539734
Li      -97.46463776     75.48419189     24.99647331
Li      -32.70690918   -155.14488220     -0.44807830
Li      105.78785706    -16.14388847   -127.09889221
Li       -6.21328354    -93.68690491    -13.01415253
Li       97.27882385    -19.03105736    -12.68337440
Li       39.89577866    -72.62213135    -17.31845665
Li       -5.17227745    119.79877472     22.62627411
Li      162.03988647     23.95226669     29.30629730
Li       15.39481449    -98.91738892    122.66874695
Li     -180.81474304   -133.99047852     27.47693253
Li       33.00644684      7.82351685    -54.99532318
Li      -21.13014603     12.11021042     57.27428055
Li       15.22933388    -98.96738434    229.26535034
Li        2.08647537    156.08409119     42.69384766
Li      -27.54928017   -185.36529541   -122.79399109
Li     -127.17290497    -44.38153839   -318.46319580
Li      -64.92876434     23.89853477    -82.80921936
Li       32.50984955     12.85193539    -46.40734482
Li      -59.88239670    -16.59812927     10.10159016
Li      -14.85640335     56.67704773     64.50421143
Li      -92.85618591      1.83820856   -110.09751892
Li      -58.03025818    -69.97837067   -139.61795044
Li      -49.86822510     -0.77907085    207.81697083
Li       79.88176727     95.41953278   -101.59617615
Li       32.80872345     88.43958282    -88.00075531
Li       84.58299255     23.70121002   -106.21664429
Li      -23.38744736   -112.10951233    220.69927979
Li      -28.13356018    143.14549255   -136.36398315
Li      -75.85774994      7.97022581     -3.82178974
Li      134.49278259    133.76440430     19.54129219
Li      -66.96189880    -55.29136276    -29.62920952
Li       45.98413467     32.64362717    -47.36508560
Li      -58.27255630     32.61441803    -84.60115051
Li       71.73205566     17.28401375    101.69474792
Li       66.69181824    -14.61123848    143.95237732
Li       50.27667618    136.58213806   -301.19622803
Li       32.95724869    -43.88677216    -98.01152039
Li       88.79296112    -55.27094650    106.38182831
Li      -74.80992889    126.74526978   -105.97116089
Li       36.93814850     95.77661896    114.34718323
Li       62.90732574     23.49689865    -25.09420967
Li      -66.09466553     74.95769501     13.26621437
Li        6.87667179     16.47946548     72.52352905
Li       36.23038864    -13.70069027    169.50659180
Li      -49.71754074     52.53935623     89.12715149
Li      -58.62339401   -109.61054230    194.73805237
Li      131.47171021    161.59436035    161.01570129
Li       -5.64198446      4.95179367   -143.74066162
Li      119.57087708     22.94760704    -33.97201538
Li      -53.54740524   -171.00045776    198.89837646
Li       54.38249969     29.77132988    208.19502258
Li       89.27975464    313.22518921     29.34085464
Li        6.44706059     64.05384827     63.08935165
Li       79.11162567    101.43436432    130.19358826
Li      -84.36315155   -142.49099731     -8.19493961
Li      -88.27514648    -89.68997192   -271.25863647
Li      -37.14639664     60.40712738     42.78659058
Li       75.53496552     39.95935440    -25.78507423
Li     -132.12895203   -129.72660828    -25.51816940
Li      -23.63921165    -33.15647888    -54.89131927
Li       28.42511559     23.55716324    -76.29718018
Li     -140.48306274     42.65995407     80.19412231
Li      -70.99918365    -62.46470261    -46.77383423
Li      -14.44641685     -0.32060602     76.22241211
Li       83.60791016     11.83478642    176.61335754
Li       36.15190506    -46.72317886    -17.63678169
Li       70.98326111     71.33045197    131.76412964
Li      -80.45663452   -114.24375916     72.44377899
Li      -63.05562973    -51.19042587    100.94903564
Li     -179.62814331     62.09375000     80.91017914
Li       75.34682465     18.01473618     84.74638367
Li      -80.49190521   -160.34365845    -26.92106819
Li       -6.85833406    -22.91075516     50.90874481
Li      -28.33421707    -68.69078827   -161.31401062
Li       11.69062710     60.56649399    -49.16669464
Li      115.26747894    135.54067993    110.26091766
Li       19.41381454    119.30529785     16.91247177
Li       10.34911823    -10.41678905     33.23953629
Li       44.84938431     40.43966675   -143.94500732
Li       19.23113823    129.48448181    -16.73145294
Li       -1.47854364     73.22752380     12.27769661
Li       72.72394562    -31.40379524    -33.76221085
Li       17.89400864    -52.27832794     44.18996811
Li        5.49669361    -54.35987854    -67.79934692
Li      -84.55211639     -5.18473434    -12.76204681
Li      183.52058411    245.83306885   -106.95041656
Li        6.80713320    -34.92539978    -89.19698334
Li      -36.75405502    233.10150146      8.32593822
Li       92.76161194     57.72140121   -237.30964661
Li       66.61274719     12.32615089     33.55818939
Li       54.57096100     14.64351654    -21.75324440
Li      -19.53532982   -183.94876099    178.55091858
Li       23.98001289    -77.93650818    135.30212402
Li      -71.56069183      3.78982139    131.73100281
Li       83.96379852    105.42704010     25.64969444
Li     -119.02413940     44.19451523     -9.08407307
Li     -161.49650574    -57.66686249    -72.40447235
Li       84.25804901    -33.92542648     -3.11849904
Li      125.08556366      5.94899750     19.30387497
Li       93.10577393    136.59292603     88.70011902
Li      -41.30818558     -9.49224281    292.45892334
Li       53.99919128   -124.78750610     79.78312683
Li      -36.65791321    -59.34291840    -89.03821564
Li        8.63348675     83.22568512     27.40560341
Li      -40.91061783     -3.45963264    -64.10737610
Li       10.72038841     89.94349670    122.97358704
Li       97.64898682    135.31820679    -80.29366302
Li      -33.71846008    224.32186890      6.89393473
Li      100.96656036     63.19121933    -42.62620544
Li      -14.56937218    -21.73712540     -4.59481335
Li      -64.21332550   -141.90403748    -95.13099670
Li       49.97694397     28.21990776     12.86593819
Li     -154.00636292   -134.30497742    -89.96385193
Li      175.69699097     18.60368156     38.08193588
Li       -6.44044685    -28.33649445    216.17605591
Li      114.20536041     52.91459656    143.64878845
S         0.04837509      6.15270329      0.47371560
P         0.13858612      7.49517870      1.99046862
S         1.64881825      8.77900887      2.07986856
S        -1.74557662      8.34956837      2.13671303
S         0.45649508      6.32755756      3.65938187
S         0.18442219      6.23473310      8.74843884
P         0.08141994      7.38494635     10.52702904
S         1.64099181      8.81086063     10.35975838
S        -1.65491915      8.33283138     10.75227356
S         0.29283756      6.33689451     12.34414291
S         0.44324502      6.50542402     20.79124641
S        -0.09317905      6.28017950     17.25932121
P         0.22926055      7.40734529     18.89237785
S         1.74264371      8.72690678     19.10536766
S        -1.77218652      8.18117142     19.06899834
S         0.33392569     15.21803093      3.81496763
S         0.06453521     15.35792446      0.50004566
P         0.20807017     16.46978569      2.11836910
S         1.58480620     17.90635681      1.83771706
S        -1.64227474     17.38047791      2.07340097
S         0.42167705     15.44552803     12.31426334
S         0.05674931     15.38103485      8.81850243
P         0.09859574     16.50401878     10.55766296
S         1.71045339     17.73588943     10.44874763
S        -1.74213850     17.26727295     10.59350967
S         0.40045512     15.37699032     20.69691849
S         0.00321505     15.27655888     17.39951897
P         0.12186228     16.50712967     18.97391701
S         1.74555075     17.87245941     18.97855186
S        -1.72495449     17.30071068     19.07118225
S         0.39381796     24.49793243      3.73609018
S         0.09145232     24.22242546      0.31189230
P         0.01025850     25.39158821      1.98919344
S         1.78966320     26.99637985      2.06199217
S        -1.74286139     26.45101738      2.24093628
S         0.29734817     24.39131546     12.31802940
S         0.15412472     24.44376373      8.83813381
P         0.11135051     25.43679810     10.65813828
S         1.67259014     26.89848709     10.27480316
S        -1.68964267     26.39051819     10.64700031
S         0.32643092     24.44505310     20.78290749
S         0.12637408     24.39269829     17.28028488
P         0.11196076     25.50125504     19.07527161
S         1.68296945     26.85977936     18.83935356
S        -1.70194352     26.36429024     19.14571762
S         8.91726685      6.56914043      3.68186569
S         8.84781837      6.30896330      0.33317026
P         8.73816776      7.50801277      2.01255989
S        10.53523064      8.59452820      1.94724846
S         6.72421741      8.12380886      2.36605501
S         9.05125141      6.40531349     12.23437023
S         8.61485100      6.23959494      8.89739990
P         8.78497505      7.47621012     10.41441154
S        10.37756634      8.77532768     10.56720161
S         6.93564939      8.20692539     10.61442566
S         9.16958141      6.32164240     20.86910439
S         8.62158966      6.32701254     17.31909752
P         8.80930901      7.29836035     18.98541451
S        10.16540432      8.77266598     18.99346924
S         6.99923706      8.37763786     18.95339203
S         9.02315426     15.22055912      3.75701690
S         8.91174126     15.23254681      0.47772622
P         8.73273849     16.52316856      2.01467228
S        10.24765778     17.83437920      1.85705888
S         6.84722519     17.52374077      2.23449707
S         6.88429070     17.39928627     10.64676762
S         9.00633526     15.29626751     12.17691994
S         8.79188824     15.24780655      8.92390251
P         8.75656605     16.53918076     10.61340427
S        10.32424831     17.85239792     10.37358475
S         6.90495396     17.40303993     19.25844002
S         8.89012051     15.29847145     20.68904305
S         8.82234097     15.20051193     17.38975716
P         8.77539062     16.47248459     18.93953514
S        10.37116241     17.95816231     18.84214020
S         7.05224037     26.32779312      2.20613575
S         8.92420769     24.47790527      3.72505736
S         8.63466549     24.27491951      0.37525684
P         8.86805725     25.52490807      2.00789762
S        10.28795147     26.95835304      2.02639318
S         6.98929071     26.44019127     10.66890049
S         8.99904346     24.35969543     12.28053570
S         8.73193645     24.28933907      8.90394402
P         8.75149345     25.51005173     10.42576218
S        10.29139137     26.96409798     10.44905376
S         6.88803434     26.46674919     19.25670052
S         9.01143360     24.46037483     20.72205353
S         8.93503952     24.34163475     17.30830383
P         8.68592739     25.56100464     18.98214531
S        10.24048805     26.73534584     18.85116386
S        15.56373501      8.31865501      2.26352143
S        17.57592392      6.27352190      3.74481320
S        17.43624878      6.16174507      0.40786174
P        17.45532608      7.53885221      2.00366640
S        18.95146942      8.81272888      1.92073405
S        19.00073624      8.70963001     10.48936272
S        15.50546169      8.31041813     10.62658024
S        17.75441170      6.37686539     12.23501587
S        17.39874268      6.22842979      8.82813072
P        17.31870270      7.47809124     10.55345154
S        19.12693787      8.63158035     18.90090561
S        15.44237232      8.05995464     19.15657997
S        17.58456802      6.49145460     20.76101685
S        17.32574463      6.38993216     17.30732727
P        17.50476456      7.53236055     18.99497223
S        19.00931931     17.84445763      1.90617943
S        15.61611080     17.24561882      2.26789665
S        17.52656174     15.45170307      3.85881996
S        17.38366890     15.33856678      0.29279372
P        17.44675064     16.45161438      2.01530313
S        19.08987999     17.94550705     10.22309685
S        15.54709244     17.25033951     10.68460560
S        17.45628548     15.31016922     12.31342793
S        17.38888741     15.35722160      8.81970978
P        17.50215530     16.46932602     10.69657326
S        18.96012497     17.70402145     18.93827820
S        15.40681744     17.44683075     19.21394730
S        17.74405670     15.43418026     20.82975197
S        17.51090240     15.25477695     17.18449783
P        17.35747147     16.49357986     18.95289421
S        18.92284775     26.87885475      2.05610561
S        15.55627441     26.42854500      2.13152122
S        17.71227264     24.43489265      3.63606954
S        17.32536125     24.28097534      0.49723521
P        17.46632385     25.54116440      2.02022886
S        18.99285507     26.94445610     10.44836617
S        15.51922894     26.51996040     10.64032936
S        17.73451996     24.32349777     12.19037151
S        17.44330978     24.25300980      8.95712471
P        17.28706741     25.52288628     10.49433804
S        18.86440277     26.81503296     18.69931984
S        15.65916157     26.43961525     19.23516083
S        17.55713272     24.41971397     20.77882004
S        17.59496307     24.44721794     17.29948616
P        17.30182076     25.43939018     19.11199760
S        10.42068672      0.50715369      6.33320808
S         8.62950993      2.58735228      4.45831585
S         7.04772854      0.05556282      6.23099375
S         8.47985458      2.56767917      8.12614441
P         8.67309284      1.48060107      6.43486691
P         8.61638832      1.35290921     14.77388954
S        10.60414982      0.44792911     14.84681129
S         8.57697392      2.64089894     13.15570545
S         7.01971722      0.13192105     14.74631214
S         8.43171501      2.62034512     16.44557953
P         8.66228485      1.47034228     23.41787910
S        10.43989182      0.47245762     23.23858070
S         8.60645962      2.52832413     21.42076111
S         7.11585283      0.13438320     23.16058731
S         8.42601585      2.59249306     25.12564087
P         8.64340210     10.48803425      6.32555485
S        10.57928944      9.60531044      6.42201805
S         8.56285954     11.58604813      4.60973310
S         6.97034311      9.23394203      6.24662542
S         8.49396992     11.51469517      7.97587681
P         8.65422344     10.53536987     14.73888016
S        10.53732014      9.56720066     14.87100697
S         8.59355545     11.58520222     12.97247887
S         7.00916433      9.20039654     14.75717545
S         8.45596790     11.54147339     16.62756729
P         8.56139946     10.43432426     23.16293335
S        10.45156670      9.57787323     23.34291267
S         8.71392059     11.74854279     21.53352547
S         7.09754848      9.17730236     23.41745186
S         8.42263794     11.48816109     24.89795303
P         8.75020409     19.67897034      6.24038792
S        10.48511314     18.43414688      6.38785124
S         8.56077290     20.75726318      4.52330685
S         7.14819479     18.24785995      6.41701651
S         8.30921268     20.54571342      8.00834751
S         8.51200104     20.43655777     16.67874146
P         8.52045536     19.57436943     14.76144981
S        10.46589279     18.88036156     14.78091812
S         8.78087711     20.44048500     12.95669651
S         6.96645212     18.32861900     14.79007149
S         8.44416237     20.56498337     24.98889351
P         8.69286537     19.61957932     23.23437881
S        10.48662758     18.50726509     23.41635513
S         8.51477146     20.72755814     21.45917130
S         7.11311960     18.24254799     23.25840569
S        17.08300400      2.55869150      8.06208324
P        17.26274490      1.44541323      6.20063829
S        19.11079979      0.47613475      6.37300491
S        17.27507019      2.60861588      4.61299276
S        15.73492432      0.10829644      6.32683706
S        17.03966522      2.61094999     16.38057327
P        17.34889030      1.42243135     14.80511284
S        19.11671638      0.39770815     14.82884598
S        17.22266960      2.67823410     13.17456150
S        15.74152851      0.08704631     14.78026962
S        17.08202553      2.52777195     25.06457901
P        17.33239937      1.44831705     23.29506874
S        19.06405258      0.48355967     23.32617378
S        17.24321747      2.61132503     21.42617416
S        15.74721622      0.12627687     23.24727440
S        17.06468964     11.57913399      7.99811363
P        17.24490929     10.51144981      6.32817698
S        19.17968369      9.53792191      6.32520866
S        17.30294609     11.64354610      4.60865879
S        15.67370415      9.15677547      6.31973982
S        17.07883263     11.51214600     16.50238991
P        17.22241211     10.49015331     14.74487019
S        19.14524651      9.62788391     14.80604649
S        17.36640739     11.62143707     13.06105995
S        15.65226746      9.17648220     14.85294533
S        15.58589554      9.12194920     23.28899956
S        17.10879898     11.53430271     24.98278046
P        17.29969406     10.50709629     23.25134659
S        19.11857986      9.65277004     23.28919411
S        17.35482979     11.61256027     21.54546356
S        15.72090054     18.20663261      6.32900810
S        17.07052231     20.59909630      8.07755089
P        17.25447845     19.58307266      6.31921005
S        19.10049057     18.60380745      6.32225084
S        17.31986809     20.66808319      4.53157330
S        15.61806679     18.24452019     14.68702412
S        17.10140419     20.66999817     16.56831551
P        17.34296036     19.51725769     14.78977871
S        19.19068146     18.62470436     14.83199215
S        17.21616173     20.60197067     13.09173012
S        15.66194344     18.11365509     23.23108101
S        17.19052696     20.68364334     24.84966660
P        17.22505569     19.43239594     23.30031776
S        19.06456184     18.66345024     23.33177567
S        17.32316780     20.76242065     21.64661026
S        24.39913177      0.12040614      6.15427923
S        25.86597633      2.58707190      7.90347099
P        25.90659142      1.39120591      6.36481428
S        27.71937370      0.49849319      6.45925951
S        25.79297829      2.59812999      4.69932032
S        24.43797684     -0.03858581     14.82853031
S        25.79142761      2.54059100     16.46507645
P        25.83422279      1.54736412     14.78550148
S        27.66697311      0.41011313     14.88938713
S        25.95099068      2.74113870     13.00020027
S        24.26718140      0.22754252     23.27988434
S        25.67027664      2.43010426     24.98272133
P        26.02749062      1.46857131     23.26638031
S        27.82845116      0.56209034     23.30129242
S        25.89476395      2.50963140     21.52802086
S        24.40272141      9.10733318      6.18690443
S        25.83410072     11.66989136      8.01869392
P        25.87761879     10.48320580      6.34033394
S        27.70107460      9.52845383      6.39486599
S        25.86754799     11.63898087      4.63951445
S        24.19990540      9.26085186     14.71423531
S        25.76692009     11.52275372     16.46875000
P        25.92347527     10.47736835     14.77611732
S        27.93636513      9.63106346     14.87731266
S        25.85796165     11.53562927     13.13195992
S        24.35285378      9.23196507     23.40101814
S        25.61312675     11.47875118     25.02587509
P        25.95723724     10.50935650     23.20863914
S        27.75392151      9.58384228     23.24234772
S        26.00863838     11.62484074     21.47845078
S        25.80114555     20.75472641      4.63852024
S        24.30482864     18.16531181      6.21544552
S        25.78901863     20.74503708      8.02970600
P        25.95450401     19.46723175      6.24486256
S        27.83618736     18.52444267      6.44852829
S        25.85591316     20.77938271     13.05939674
S        24.43416977     18.07561874     14.73628807
S        25.81474495     20.70055389     16.51113701
P        25.95183372     19.60321999     14.73741722
S        27.62893295     18.50260162     14.92282104
S        25.86962318     20.79070663     21.63243294
S        24.42032623     18.08217049     23.21966743
S        25.78222656     20.72818565     24.89097977
P        25.98872757     19.54841232     23.25679398
S        27.62594223     18.51003456     23.35809326
S         5.98594713      4.27020788      2.03657651
S         4.67690802      1.78307104      3.76779389
S         4.42662144      1.69877803      0.43111187
S         2.60090923      3.79817581      2.22348881
P         4.45046520      2.94028497      1.90585780
S         6.09008837      4.25857067     10.45845222
S         4.69729853      1.78157675     12.36024189
S         4.32296228      1.80759180      8.81531429
S         2.50168967      3.70807338     10.56664371
P         4.53157330      2.93450785     10.55965996
S         6.02537727      4.29756832     18.90869331
S         4.59638119      1.84484053     20.72607422
S         4.39848995      1.75123394     17.26604462
S         2.65040994      3.71803308     19.15952110
P         4.47088766      2.87667727     19.09130669
S         5.98985672     13.37727165      2.07024169
S         4.67220354     10.87548733      3.73717570
S         4.40707350     10.67175579      0.32233813
S         2.57757711     12.89622974      2.23815608
P         4.49567938     11.89775181      2.00012517
S         6.06842899     13.17372513     10.42307472
S         4.64343786     10.96244717     12.34949207
S         4.43427896     10.94069386      8.79145145
S         2.54136372     12.69220924     10.68481064
P         4.45344353     11.95124149     10.50978661
S         6.04809046     13.28461838     19.06438065
S         4.78794098     10.88208675     20.70407677
S         4.32991409     10.75695515     17.33237839
S         2.49854159     12.83087349     19.05535507
P         4.47727728     11.96629524     18.99207115
P         4.52816391     21.03773689      2.10671258
S         6.00707817     22.38578796      1.93296885
S         4.69733667     19.77933311      3.87378955
S         4.35947084     19.87470055      0.38422975
S         2.55144668     21.87512779      2.07396340
P         4.36844301     21.06521416     10.68371964
S         6.03115463     22.30909538     10.26973534
S         4.62964678     19.79762268     12.25720787
S         4.57277918     19.89143562      8.87281132
S         2.53603601     21.89025497     10.68106174
P         4.35204697     20.96022034     18.99574661
S         6.08367491     22.32247925     18.95837402
S         4.70973110     19.95041275     20.73014259
S         4.46728992     19.84364891     17.29555321
S         2.52475905     21.87328720     19.16856956
P        13.10174847      2.91950798      2.03503847
S        14.68334293      4.36482430      1.99656034
S        13.25377083      1.77108788      3.71322131
S        13.07451725      1.62851346      0.37227392
S        11.24523830      3.80587697      2.25213122
P        13.06012821      3.00286889     10.48258972
S        14.73784924      4.22462511     10.30902958
S        13.26960373      1.68723106     12.40273571
S        13.16107750      1.83191442      8.87286854
S        11.12854099      3.74600768     10.69046593
P        13.05547428      2.84913278     18.94586945
S        14.69054508      4.38567114     19.05668068
S        13.31403065      1.83717692     20.66076469
S        13.03095818      1.58887494     17.28443909
S        11.26603222      3.82655931     19.19893265
P        13.09324169     11.96520901      2.13757968
S        14.71731186     13.33678150      1.87804818
S        13.22480679     10.83513832      3.89704657
S        13.05743027     10.85374737      0.27078947
S        11.26553345     12.72991467      2.18925095
P        13.12499905     11.90965271     10.55192566
S        14.80448437     13.16052914     10.41037750
S        13.24942684     11.04690838     12.44199276
S        13.05857849     10.97917175      8.64241123
S        11.12191868     12.62263775     10.71334171
P        13.08690262     11.93543530     18.98482513
S        14.68015957     13.25606537     18.92264938
S        13.24361801     10.94643497     20.70024872
S        13.12127113     10.81448841     17.29964256
S        11.22616005     12.76735306     19.24065018
P        13.14443207     20.98143768      2.06525898
S        14.60402775     22.45502090      1.95220065
S        13.33310318     19.74639702      3.75340748
S        13.02620697     19.82124901      0.50357497
S        11.25229740     21.94666481      2.09581113
S        11.06309032     21.77887344     10.58728123
P        12.96768761     21.07299995     10.59501076
S        14.85768890     22.26294327     10.51268673
S        13.42787361     19.96241760     12.21385288
S        13.03771305     19.87665176      8.85268497
S        12.94730377     19.77282524     17.32617760
S        11.36869240     21.88925934     19.06055641
P        13.14253807     21.02477455     18.96338463
S        14.52338219     22.38497353     19.05794716
S        13.37808704     19.88041115     20.73921776
S        21.71988297      1.78981447      0.34253094
S        19.86577606      3.69649649      2.24045157
P        21.74927330      2.95467305      1.95732915
S        23.32165337      4.19378901      1.98397434
S        21.91966057      1.85623372      3.84229422
S        21.77063751      1.82558143      8.85682869
S        19.96105194      3.78752232     10.70733356
P        21.84418297      2.83927107     10.58916664
S        23.19220543      4.30120897     10.28758526
S        21.81139755      1.73349595     12.32040310
S        21.68240929      1.65017092     17.23234177
S        20.01304626      3.87706184     19.13579559
P        21.74046135      2.87837458     18.94444847
S        23.12507248      4.29392052     19.03039169
S        22.01496124      1.78888261     20.80366325
S        21.77748299     10.63884640      0.34327421
S        19.91980553     13.01905918      2.21560907
P        21.73932838     11.92141533      2.07230282
S        23.15354919     13.39413643      1.99004734
S        21.98574448     10.74584293      3.74925971
S        21.94046974     10.83090687     12.34580803
S        21.75465393     10.85621643      8.79246330
S        19.85009384     12.75289726     10.66130066
P        21.69352722     12.05525017     10.58901978
S        23.33560944     13.22858715     10.37272167
S        21.92895126     10.70976257     20.54584122
S        21.68009567     10.62337589     17.47650719
S        19.84556580     12.88991356     19.12857246
P        21.83533859     12.07822037     19.04378700
S        23.28922653     13.42336559     18.95531082
S        21.92782784     19.90641975      3.85634255
S        21.84646988     19.82019424      0.29518753
S        19.89086342     21.96039200      2.31380224
P        21.66836739     20.91386223      1.95664513
S        23.23996353     22.34760284      1.94457972
S        21.96905518     19.84420395     12.27249432
S        21.66193008     19.90223885      8.88580894
S        19.97115517     21.90388870     10.56069279
P        21.77129173     20.89242172     10.63045311
S        23.20356750     22.40498734     10.41327190
S        21.97276115     19.81762314     20.80879974
S        21.70861816     19.81692886     17.30223465
S        19.85719681     21.97295189     19.11743546
P        21.81246185     20.92684364     19.00085449
S        23.22735977     22.41456413     18.91923523
S         4.16740036      6.94394541      7.99753952
S         2.49693680      4.77384472      6.32457161
S         6.34172964      5.22386360      6.43601513
S         4.32298231      7.08596325      4.59393597
P         4.32620716      5.80835629      6.23257113
S         4.00738192      7.03235674     16.45477867
S         2.76313257      4.73936892     14.83639908
S         6.18956947      4.99603367     14.77116489
S         4.32813787      7.09397173     13.13152409
P         4.36847401      5.98008633     14.78272533
S         4.19150352      7.06130171     24.94582176
S         2.65387416      4.74040174     23.14328384
S         6.30099916      5.04060364     23.42177963
S         4.17780399      7.05994129     21.63619614
P         4.33124733      5.93814135     23.21754265
S         4.12127161     16.01481056      8.15591812
S         2.66597056     13.65605927      6.38667965
S         6.14646578     14.14053249      6.34955311
S         4.42244434     16.16702080      4.42999458
P         4.29814959     15.09679317      6.26354313
S         4.23313189     16.21138954     16.34318924
S         2.77321219     13.67188358     14.63512421
S         6.13948584     13.98315430     14.98900795
S         4.12210989     16.23176765     13.25465298
P         4.38947010     14.97279930     14.75362682
S         4.16518927     16.08849144     25.04601479
S         2.81070542     13.72106171     23.18597603
S         6.16540003     14.01481915     23.35892296
S         4.25161123     16.14795685     21.44386101
P         4.26010084     15.10309982     23.33380699
S         4.22176456     25.05397415      8.05279827
S         2.67082357     22.77065277      6.25314093
S         6.16809511     23.20569801      6.45267916
S         4.28091383     25.17789650      4.49980783
P         4.31321764     24.09640694      6.32950687
S         4.18056774     25.31287766     16.50624657
S         2.71546793     22.62008286     14.66407108
S         6.10882664     23.09129906     14.79483604
S         4.32022715     25.19992447     13.18622875
P         4.33030653     24.07988167     14.82670593
S         4.04808903     25.16746330     24.94814682
S         2.50765634     22.73280334     23.33249855
S         6.34629154     23.16737556     23.26928329
S         4.38399696     25.27236748     21.57738304
P         4.37073898     23.95997620     23.23800468
S        12.69044113      7.08393097      7.93209505
S        11.26168442      4.74563313      6.31687069
S        14.99040127      5.02407312      6.34957170
S        12.92246628      7.11301231      4.74617863
P        13.00910091      5.87147093      6.24017620
S        12.71420002      7.10800076     16.47030449
S        11.43112946      4.60093021     14.81257057
S        14.80262375      4.96067047     14.74377251
S        13.04137707      7.13581371     13.12829781
P        12.88038349      6.03838587     14.82301807
P        12.91318035      5.90879822     23.23446274
S        12.90271473      6.94580269     25.07655144
S        11.28153896      4.74481535     23.19132614
S        14.86461639      5.17928505     23.45010376
S        12.90877914      7.06068945     21.41275597
S        13.00215912     16.26958084      4.59953785
P        12.83517456     15.01079082      6.30303764
S        12.81268406     16.21665001      8.03457642
S        11.44953442     13.58096218      6.29243469
S        14.76862335     13.99430466      6.35744429
S        12.92752838     16.33144188     13.05843258
P        12.93838024     15.01705742     14.73725510
S        12.78583431     16.17385674     16.46574211
S        11.46204281     13.60352707     14.80707550
S        14.75790310     13.94661903     14.90653706
S        13.02434921     16.14016533     21.66850090
P        12.99204922     14.96149635     23.25850296
S        12.68710518     16.19720268     24.97163773
S        11.31659031     13.69374657     23.26626587
S        14.85342121     14.07799911     23.20110893
S        12.99417591     25.04630852      4.54077721
P        12.93674946     24.10755920      6.19713402
S        12.73296452     25.01857185      8.16197491
S        11.36007118     22.90329742      6.33807755
S        14.84766960     23.22927284      6.34546375
S        12.95933628     25.17145348     12.93620300
P        12.83872032     24.12553215     14.83477783
S        12.91929913     25.09597969     16.59667397
S        11.43267822     22.72607994     14.69660282
S        14.71826363     23.18657684     14.91410351
S        12.96139240     25.12551689     21.50556755
P        12.92342663     24.11194992     23.16473961
S        12.86210060     25.09228325     25.09046173
S        11.34318352     22.76086235     23.21863747
S        14.78107548     23.21454620     23.38341904
S        21.70096779      7.06889915      4.62860584
P        21.53838921      6.02734709      6.25430536
S        21.40405655      6.96060038      7.99328852
S        19.98049355      4.67705965      6.37530804
S        23.46379471      5.10951900      6.33386564
S        21.49087906      7.00452185     12.98660660
P        21.65757561      5.90401077     14.88384247
S        21.49812317      7.04635763     16.60326004
S        19.81099892      4.74546480     14.60465050
S        23.63418579      5.13887262     14.90167427
S        21.51840591      7.10926580     21.54798508
P        21.65568161      5.99973392     23.27238655
S        21.39665604      7.20287752     25.09279442
S        20.07354355      4.62222433     23.15147018
S        23.44740677      4.90838432     23.30185509
S        23.64817810     14.16886711      6.46714687
S        21.50037575     16.16078758      4.62867403
P        21.68264961     14.84286976      6.24168730
S        21.44554710     16.07946205      7.99400473
S        19.81586456     13.81458855      6.25343084
S        23.53412247     14.03011036     14.84783554
S        21.49944687     16.08103180     12.95634651
P        21.66287613     15.06175709     14.82917786
S        21.37229919     16.09283829     16.64490128
S        20.02319717     13.80828667     14.69991112
S        23.44362640     14.09005451     23.28877640
S        21.62250137     16.15220070     21.63906097
P        21.61365128     15.02015877     23.29082870
S        21.45368958     16.18872070     24.95843506
S        19.95679474     13.62147427     23.19001579
S        23.46267319     23.13573456      6.21197605
S        21.70123863     25.21180534      4.71457434
P        21.56092453     23.94449997      6.39871168
S        21.37496758     25.31031609      8.00126743
S        19.98866844     22.69710159      6.26375866
S        23.46447754     23.10171890     14.92076874
S        21.53634071     25.20971870     13.03318501
P        21.57651138     24.09673882     14.75838184
S        21.48645210     25.15812492     16.55252838
S        20.02521896     22.73833847     14.71089935
S        19.94898796     22.71719551     23.09783173
S        23.52278519     23.11562157     23.32916832
S        21.53249741     25.15857315     21.68550110
P        21.59569168     24.03737831     23.30141258
S        21.48969650     25.27384949     24.95356178
