864

Li      103.22226715   -210.36936951     49.39771652
Li      -35.36629486    -65.36988831    226.29006958
Li       19.73609543     41.87011719     88.80585480
Li     -127.30180359    -88.27861786   -182.22851562
Li       56.58813095   -142.32345581     74.24104309
Li      235.60345459   -256.57791138    136.01506042
Li      -73.80965424     15.16532516    273.46725464
Li       45.69701385   -166.73893738    -38.31726456
Li       88.39174652     19.74059677    195.03244019
Li      114.19031525    381.72079468   -142.63087463
Li       71.53911591   -102.85232544   -131.65690613
Li      -88.43409729   -165.43595886   -305.23281860
Li      119.51116180    145.61297607     20.84569168
Li      101.38059235      3.51297832     33.40111160
Li       89.09552002     23.75073433    172.65043640
Li      -93.42316437     65.08684540     51.87280655
Li     -106.17839050     67.00123596   -118.96878052
Li      183.21334839    -55.56703186     50.18846130
Li      153.46015930     57.90034103   -241.31274414
Li      -49.22276306    153.63131714     59.13732910
Li      -97.14135742   -162.29380798    -67.54232788
Li      123.03609467    -22.71355820    161.00521851
Li      190.20724487   -137.37536621     14.20623684
Li      131.54852295     38.15174866      9.13621998
Li      145.07211304    173.19096375   -267.26068115
Li      -10.61872482    304.01693726     25.47327614
Li        1.81115162    162.32537842    224.58676147
Li       32.11190796     90.61433411     16.98867989
Li       71.72917938    132.04483032     -4.36215305
Li       49.54064941    159.64910889    156.19868469
Li       10.31080532   -136.71984863      7.96793461
Li      -36.87560654    -80.43130493     25.43750954
Li      150.34997559    151.46762085   -235.51814270
Li       49.56925583    -93.06513977     59.49143982
Li      228.28254700     65.53604889     99.26441193
Li      -44.85082245    -10.30342388    127.05347443
Li      192.46719360     85.95178223     29.48132896
Li       67.89170074    348.52050781    207.90924072
Li        0.04689242    -25.28741074     -6.53455591
Li      158.42900085     29.93708038    -79.93524170
Li       10.40757465    -10.99648094   -162.43937683
Li      103.86824799     45.69784546     79.68464661
Li       75.51812744      9.03666592     67.90939331
Li      -15.93214512    137.36703491    153.51112366
Li      -33.01646805    -55.14146805     21.30695152
Li      235.88543701    367.52465820     54.89307022
Li       92.95930481   -109.74819183    -12.36628246
Li       45.00857544   -101.04113770     -8.72661209
Li      -10.27637196   -258.24502563   -279.98284912
Li       -1.45091867    -37.81729126   -241.18806458
Li      110.33462524     18.83472443    110.32914734
Li       80.60253143    195.93569946     36.92159271
Li       66.92774963    -12.49120426    -42.30950546
Li       66.96119690     70.22112274     42.45331573
Li     -149.46195984     63.01269531     59.17667770
Li     -114.88087463   -111.32639313    195.60787964
Li      -86.58442688    -68.12433624    163.39616394
Li      127.92576599     49.36551285   -165.18775940
Li      -25.86622620    -74.29607391   -163.15499878
Li       41.63210678   -143.13838196    -98.19522858
Li        6.51600552     61.33011246    -54.59789658
Li      -46.06126785    -14.62226963     59.14071274
Li     -152.93220520    159.43350220   -259.03091431
Li     -127.74582672    -61.73026276   -160.83714294
Li       32.03042603   -249.06398010     12.85205078
Li     -135.91390991     92.72665405    -17.52117729
Li     -175.38011169   -195.58758545    109.93122864
Li      -46.10684204    -38.84880447     77.76468658
Li       15.42199230    167.02900696   -258.83065796
Li      -49.75907898     86.96607971   -135.14651489
Li     -217.63998413    -67.84527588    207.83044434
Li       66.56472015    -81.59612274    156.82508850
Li      162.63490295    177.17605591   -122.95634460
Li       97.84700012   -103.25745392    220.71025085
Li      -14.45624447    -63.23037720    -55.09732437
Li      192.09115601    155.27014160     76.67742157
Li       24.49760628   -116.78837585     20.76405907
Li      -66.49840546     77.82188416     12.51150703
Li      -84.78442383   -122.59799957     72.13524628
Li       71.31292725     28.70711136   -173.54237366
Li     -103.01441193    122.18693542   -212.71704102
Li     -144.03036499     39.18046951    -12.13431072
Li     -114.81554413   -132.14001465    -97.16686249
Li      -49.70545578    -33.60483932    -45.60758209
Li      -73.79457855   -169.17053223     65.45673370
Li      115.09314728    267.47018433   -118.59481049
Li       40.05140305    -87.44592285     58.01140213
Li      -87.18225861    236.65979004   -141.30580139
Li       88.14559937    113.28312683   -101.78067017
Li       88.55187988    -88.88166046    156.41813660
Li      -50.17160416     32.05855179    161.05288696
Li       71.27435303    -15.66633987     50.62415695
Li      239.58843994    401.51394653     -8.91131973
Li      114.03331757    152.51921082    126.21486664
Li       19.00358963    182.91346741     51.56299210
Li      -70.86311340    -16.73393440   -233.75697327
Li      -58.24029160   -329.20117188    -42.20309067
Li       93.26994324     67.51628113   -114.18888855
Li      -22.88680649      8.90015793     63.51192474
Li      -62.70505524    142.48870850   -219.85319519
Li      -98.26473999    -22.82433319      4.00130796
Li      -24.05057335     80.59968567     63.69562912
Li       28.35849190     14.09827042    -50.52246857
Li      -28.06150055    -56.78862381     51.07809830
Li       36.46134186     53.10266495     -0.21766786
Li       32.34812164    -21.14922333     59.63277054
Li      136.08032227    226.43025208    -50.68334198
Li       67.48660278    163.49255371     -8.27787209
Li      -11.05116081    135.80125427   -118.54490662
Li      -84.39898682   -115.36558533     -4.76108313
Li       97.09371185     83.27218628     93.49148560
Li        6.61517906   -101.83422852      0.09428394
Li       41.11963654   -288.79519653   -101.75131989
Li        6.22516251    193.61033630   -136.09353638
Li     -222.05514526    -57.92928314    -72.53170013
Li       49.73463058     66.94792938   -122.90743256
Li     -157.77035522    -11.85556793     25.92340469
Li       49.78697586     54.41687393    182.14044189
Li      -88.93974304    -60.35213852   -136.45271301
Li      193.13575745    104.53739929    152.63653564
Li       81.69765472   -110.80025482    154.37867737
Li       36.13260651    143.24955750    -43.10080338
Li      197.06143188    172.76023865     80.19607544
Li       54.26839066    154.93528748     12.40544701
Li      183.93569946     57.39943314   -280.13696289
Li       54.39090729    143.88169861     -0.04332300
Li       10.69856548   -203.71136475    -59.18972397
Li      153.35467529     30.65676689    -54.79760361
Li       71.51383972     68.45924377     80.42943573
Li       63.00561905    189.31382751    -71.90845490
Li       10.70227909    -35.09606552    237.29927063
Li       41.91682053    -22.55303001   -160.99291992
Li      110.33775330     54.88311386     46.37612534
Li      -96.83854675   -155.70350647    335.54278564
Li      149.04177856     48.04672623      8.22146225
Li     -169.31619263    -69.93193054     74.28848267
Li     -239.88616943   -169.38389587    170.13627625
Li      130.13250732   -133.28379822    137.52000427
Li       18.89964485    -73.22662354      8.31357193
Li      278.78762817    309.14367676     62.95130539
Li      -44.80320358   -182.43005371     12.81829071
Li       88.79376984     95.67175293    198.84831238
Li      121.90716553    -52.34337616     77.63374329
Li       92.46875763    153.84266663    -93.06940460
Li      -14.71699810     75.46001434     -4.02601862
Li      192.77468872    258.37527466    -42.14591217
Li      -14.95883465    288.11859131    156.51399231
Li      -53.91584396    -75.08921814   -402.76574707
Li      136.52279663     55.42426682   -241.79582214
Li       -6.37076235    -94.25050354    152.93873596
Li     -101.27023315    -26.41338730    -72.12979126
Li        2.72694016    114.03489685    105.63362885
Li     -144.34906006    -18.52278709    -89.06383514
Li     -187.42765808    -51.66300583    -80.02906036
Li       50.40131760    -71.40720367   -169.04496765
Li        2.62930751   -184.40200806    178.93867493
Li      144.49496460    214.12794495      9.13307858
Li     -106.78559875    -81.59967804    -17.25991821
Li     -131.74476624   -162.11053467   -237.21110535
Li      354.19689941     82.89400482    239.67192078
Li       90.98337555    328.04486084    150.21032715
Li      101.53440857     27.71689224    -25.45729828
Li      -38.69347763     67.39043427     16.40785599
Li       82.59261322     87.93549347    146.18299866
Li     -183.12377930    -17.47455215    199.01620483
Li       17.85512924    -58.75845718   -137.59638977
Li     -251.56587219   -110.83905029   -231.83334351
Li       -8.11987019     80.04331207     82.35823822
Li     -242.85191345    -90.68149567   -109.88639832
Li       11.12495518     -6.56887531   -241.13673401
Li       10.67703438    279.25640869    -20.96185303
Li      -23.05619431     17.92215157    -46.91438293
Li      -97.13910675      0.67895651   -110.07423401
Li     -153.88537598   -181.76773071   -131.45091248
Li     -206.95201111   -188.21029663    103.67707825
Li      206.06179810     94.98114777    215.82984924
Li     -166.24182129    103.00755310    -80.38911438
Li       -1.64445484    131.08827209     33.99601746
Li      106.09058380    119.89134979    -37.80132294
Li      257.01083374    339.07754517    -80.87669373
Li       80.56237793    -39.49358368    -63.95740509
Li      178.99389648    129.67837524     41.42447662
Li       42.69457245     97.84538269    107.88503265
Li      129.75289917     95.00549316     23.31397629
Li      118.57273102   -199.10215759    122.82454681
Li       12.96278667   -159.89204407   -112.02893829
Li       67.23878479   -210.28334045     89.00560760
Li      -50.10576630   -191.19703674   -237.90757751
Li      200.82165527    251.81919861   -113.73581696
Li      174.72984314     44.44880295    228.59939575
Li      192.67643738     26.87561035    -84.98624420
Li        8.53358936    -34.46971512    -65.65871429
Li       50.13085938     55.18587112    173.45628357
Li       46.15533447   -103.37821960    156.50659180
Li       87.87896729    -92.61181641    184.52444458
Li      -13.81630898   -106.16752625     32.20579910
Li       28.66356087   -112.80833435   -160.88623047
Li      -93.01693726    -49.17177200    -16.82898521
Li      -28.36816025     33.43158722    119.73670197
Li      -71.35979462    -24.01651192    186.24301147
Li      174.84086609    113.03668213    127.21991730
Li       27.50525284      8.13092995    -17.04904747
Li     -235.64540100    126.93054199    -76.25350952
Li       88.05887604     92.23494720    325.71200562
Li      187.17813110    289.31225586     88.94160461
Li       84.57604980     -8.64392853    182.07125854
Li       75.07105255    310.58071899     16.31031036
Li     -131.98437500     48.87537384    -71.84474182
Li      -23.55437660    111.20020294    -34.07723236
Li      105.71409607     98.29966736   -136.15722656
Li      153.08836365   -101.99784088      9.10461521
Li      -23.29469490    146.98893738      4.70410776
Li       -1.52820611    -56.29638290    -79.47742462
Li        6.47055101   -102.32754517   -263.17059326
Li      170.98526001     34.11030579    157.17919922
Li      153.81903076   -216.93667603    -89.06631470
Li      135.42834473   -123.23639679    -25.87416458
Li       97.49754333    102.24907684      4.29650402
Li     -135.64949036    120.73652649     67.69302368
Li      145.48861694    -31.79147720     12.51010895
Li       41.20858002    -29.13009644     46.84681320
Li     -153.62519836     35.36937714     30.08808327
Li     -156.69764709    -65.34310913   -332.93438721
Li       19.19803047    143.65721130     -0.43007016
Li       -2.52260423    -93.31988525    144.54110718
Li      114.85792542    150.56896973    179.08821106
Li     -205.61895752    -59.28892899    -50.98091888
Li      -45.49111557    -35.97303009    -33.91573334
Li       36.70651245   -152.13124084    211.97827148
Li      -69.76338959     67.16858673   -218.38623047
Li      233.64628601    106.74511719     82.46962738
Li     -127.07774353    -26.92674637    135.59184265
Li      -54.48298645    -45.10477829    -25.55811882
Li       62.33654404    251.89077759     92.71009827
Li       45.18898010    185.51441956    101.76668549
Li       62.77621841     83.14497375    -30.72323418
Li       -4.34787416    -57.36355209    120.76129150
Li      248.33189392    143.56584167    118.38198853
Li     -101.27625275    -36.79169083     21.02301025
Li     -261.77337646     21.92984200    -29.35642815
Li     -131.90119934   -174.09394836     80.90656281
Li      -45.10478210   -300.82336426    259.07705688
Li     -162.19990540   -236.63168335     80.95574951
Li      -23.46389198     29.16943169    165.10977173
Li      171.33279419    277.99179077    225.86164856
Li      -31.83829880   -172.14961243    110.25024414
Li      -70.98532867      1.45255256   -123.86505890
Li      118.37515259    129.87907410   -203.88163757
Li       -2.54169703    207.91302490    144.01470947
Li       14.89260578    193.68855286     12.67977905
Li      -19.06147766     -7.15350294    -24.54429626
Li      214.24386597    221.15849304    -38.10767365
Li      122.55846405    216.04649353   -237.65568542
Li      -19.76914978     24.23531151   -219.05068970
Li      -30.80364418    169.20700073     10.97025776
Li      -36.49788284    -95.15757751    123.22584534
Li       54.38697433    -30.84458733     80.38864899
Li     -183.36468506   -207.21902466     88.84827423
Li     -174.67086792    -98.37813568    -46.99192810
Li     -308.35546875    132.09478760   -114.77707672
Li      111.89009094    372.03985596     -6.13032103
Li      235.26223755    -16.44115639     68.74301910
Li       97.79471588     36.34241104   -233.32353210
Li       32.05689240    205.12527466    216.21337891
Li       36.34888840    -49.86387253    -12.53572655
Li      136.85771179     -4.24830294    101.77051544
Li      -14.97345066     43.05694962    -38.71832275
Li      -27.95264816     87.66026306   -208.11824036
Li      179.15730286    112.37611389    101.67526245
Li     -166.93740845    -90.41109467    -25.65834236
Li      -90.69136047     33.27813339   -176.17575073
Li        6.33339977    103.32609558     54.95430756
Li       88.40245056     59.21125793    -29.69525528
Li       11.69202328     50.10083008     67.89777374
Li       15.75332642     82.13269806     96.91708374
Li      209.91166687    -69.92568970   -102.77067566
Li       -7.02553797     18.03103638    -21.35409546
Li      209.59933472    147.15545654    -80.59812164
Li     -275.05050659    -77.04168701    296.82281494
Li     -174.46965027   -254.88856506    -29.50186729
Li      200.55210876     80.32231140    -51.27990341
Li       97.81204987    -39.94847870    136.05143738
Li       41.26279068   -205.32655334    -59.11196136
Li      -42.42819595     61.78045654   -128.54974365
Li       32.59555054    140.04681396    199.25321960
Li     -248.56915283   -124.97851562     -8.18993378
Li       75.32106781   -115.02693176     -1.01337206
Li       67.84639740     63.79800415    -67.50396729
Li     -140.80120850     11.40033531    109.14717865
Li       32.29487610   -114.00341797   -283.85696411
Li      127.41629028    -56.81499863     67.62184906
Li     -109.91123199     84.09501648    140.50402832
Li       45.56708527    -16.00459480     29.32899666
Li      135.13537598     39.83252335     67.49945068
Li      184.36351013     72.40794373   -279.72201538
Li       62.78626633     80.44535828     98.02079773
Li       58.25684357    -70.17176056     38.81062317
Li     -166.26162720   -254.91714478    -88.71611023
Li      -51.92236328   -152.50819397     27.15410995
Li      283.13128662    193.18376160     80.67214966
Li      135.89001465    162.22149658    101.43437195
Li       37.00379944    174.02494812    106.49503326
Li     -184.07487488    172.02555847    233.04048157
Li     -222.39572144     26.75639534    -63.88311386
Li      207.47958374    128.14758301     61.70520020
Li      123.22492218     -9.82286358    174.20936584
Li      170.47897339    112.02989960    160.69340515
Li      -31.75496483     78.14984894   -124.07646179
Li      136.56126404     94.94805145    123.05643463
Li       80.21236420   -166.43154907    263.10940552
Li       71.24820709    164.17732239   -245.23857117
Li       91.82398987   -147.49330139      2.13868642
Li       19.13480568    -65.99418640    244.87133789
Li      161.83456421    232.69337463   -110.24089050
Li       64.79493713    114.68756866   -234.94209290
Li       58.45265198     69.92242432     58.83386230
Li      -27.97812080    278.39364624    -88.89786530
Li        5.71251011    112.09941101     24.86061287
Li      205.08226013   -197.79698181    -42.76054764
Li      161.87313843     79.14247894    170.21723938
Li       45.30791473     -0.99753910    165.52978516
Li      149.41944885    345.14025879    -38.34469986
Li       22.26502991   -165.45346069    -14.93838120
Li      296.33276367    198.34590149   -156.99258423
S        -0.03384022      6.19055271      0.40744317
P         0.15883890      7.51695395      1.98985493
S         1.79854310      8.79176903      2.09503341
S        -1.81447661      8.23323059      2.11468363
S         0.43832192      6.37225151      3.73311138
S        -0.04408000      6.23807955      8.93848705
P         0.15298352      7.46702147     10.55879688
S         1.84331238      8.86987400     10.48326874
S        -1.80887020      8.22944546     10.54077530
S         0.40384215      6.29863787     12.21139622
S         0.34958813      6.40054417     20.80392456
S        -0.04879893      6.23477888     17.30393982
P         0.20944165      7.41455650     18.85086060
S         1.74669635      8.84178829     19.02835846
S        -1.70781803      8.20960522     19.12881660
S         0.22566587     15.44455624      3.86634111
S         0.10475092     15.27439404      0.26282385
P         0.18706056     16.42243004      1.96360552
S         1.84168422     17.91130638      1.92606926
S        -1.81081402     17.27828217      2.32039356
S         0.37559858     15.33117390     12.17772102
S         0.07473620     15.23137379      8.93097210
P         0.13989802     16.48471832     10.53619862
S         1.72042787     17.90201950     10.45160675
S        -1.76391828     17.38380051     10.63545609
S         0.46844688     15.39535904     20.84488297
S        -0.01348675     15.44349575     17.31791687
P         0.16270138     16.39083290     19.09692192
S         1.72648740     17.79539490     18.90680504
S        -1.79663038     17.30480576     18.95774651
S         0.28450283     24.63171387      3.92410541
S         0.03459159     24.49147606      0.21036918
P         0.21478546     25.43544579      2.02636123
S         1.71356571     26.78176498      1.95652390
S        -1.69815457     26.22043419      2.22400928
S         0.45647353     24.43842888     12.24182606
S         0.16468412     24.34405136      8.87790680
P         0.02907867     25.40791512     10.50639343
S         1.60406232     26.85595894     10.45707226
S        -1.71132755     26.51354408     10.64774227
S         0.39333212     24.33251572     20.69341278
S         0.07366197     24.20042801     17.32338905
P         0.19421716     25.46190834     19.06558609
S         1.57456064     27.01157761     18.94012070
S        -1.68718088     26.55530357     19.10069656
S         9.21388531      6.28529787      3.72055936
S         8.68137264      6.20860958      0.43245760
P         8.74382019      7.42983723      2.13510776
S        10.26441002      8.75997829      2.05026722
S         6.85940552      8.41806984      2.00667787
S         8.96939468      6.23414278     12.37746334
S         8.72050190      6.25045061      8.81468105
P         8.77636337      7.36080217     10.55839729
S        10.30248165      8.91182423     10.35724258
S         6.99525928      8.34222412     10.62492466
S         8.99166489      6.39655924     20.76112747
S         8.70338440      6.28457451     17.31695175
P         8.77441025      7.50636387     18.96631622
S        10.45265961      8.73608780     18.92811203
S         6.84181595      8.18081188     19.14732170
S         9.17004395     15.33100319      3.72753954
S         8.72934723     15.32731533      0.49066076
P         8.84105110     16.39653778      2.09119654
S        10.24557209     17.78184509      1.99058580
S         6.78018713     17.49338531      2.04359293
S         6.93045044     17.38623810     10.67601299
S         8.95740795     15.30245972     12.16282082
S         8.71102333     15.20902252      8.98603725
P         8.84002113     16.48516464     10.45497894
S        10.32726574     17.95021820     10.44933987
S         6.83076620     17.41561127     19.13236809
S         8.99195576     15.30215836     20.70655632
S         8.82924938     15.36437511     17.45966721
P         8.81035805     16.43647575     19.02737808
S        10.30282784     17.81282425     18.79593468
S         6.90912628     26.47702599      2.25662303
S         9.00654030     24.52335167      3.85356236
S         8.83562565     24.36273193      0.21808212
P         8.81186867     25.40479660      2.08501816
S        10.20204830     26.79188919      1.93007946
S         6.87571526     26.45790863     10.71942234
S         9.00710106     24.39933586     12.08733845
S         8.80982876     24.23890495      8.98017311
P         8.75457191     25.59185982     10.48541355
S        10.31604290     26.87815285     10.45787907
S         6.84301519     26.54659271     19.06204414
S         9.14778328     24.32007790     20.63551331
S         8.76632118     24.19740295     17.38062286
P         8.67199516     25.57142067     19.08515930
S        10.33133411     26.92996979     18.96053123
S        15.47035980      8.38398647      2.21275783
S        17.65348053      6.30361891      3.84743857
S        17.39416122      6.15637827      0.26654562
P        17.40755081      7.35271168      2.05747223
S        19.05552673      8.90247345      1.95821321
S        18.83518219      8.68186378     10.22358418
S        15.58582401      8.35970116     10.73195934
S        17.57745171      6.32809973     12.38541698
S        17.56842232      6.37154245      8.74789333
P        17.41443062      7.35814619     10.64686775
S        19.00434113      8.74761200     18.73867607
S        15.45438957      8.30592823     19.17574310
S        17.57794571      6.31849146     20.83023262
S        17.48620033      6.35833168     17.27966690
P        17.45998573      7.36937237     19.10005760
S        18.84717369     17.72195816      1.83003938
S        15.66873455     17.31996727      2.19411111
S        17.60525703     15.42574978      3.83393550
S        17.46928596     15.41011238      0.30668992
P        17.39003181     16.45426369      2.18188572
S        18.99580002     17.86374283     10.42109489
S        15.59452343     17.32313156     10.68841362
S        17.60718346     15.37576008     12.18579960
S        17.39385223     15.24894047      8.88639450
P        17.38909149     16.52280426     10.55074692
S        18.93315125     17.80824852     18.95672989
S        15.51845169     17.44113922     18.98588753
S        17.82401085     15.38538361     20.76368713
S        17.34630394     15.33545876     17.30954742
P        17.35745811     16.35856247     19.10882759
S        18.92756271     26.88770103      1.86962390
S        15.60999966     26.41771126      2.18696117
S        17.60767365     24.37143135      3.65198231
S        17.45187378     24.33815575      0.49602062
P        17.38313866     25.54972458      2.14067149
S        18.98071289     26.92195892     10.49990845
S        15.56993961     26.44205666     10.72094154
S        17.65521049     24.49315834     12.19256592
S        17.40384483     24.28537560      8.86285686
P        17.37009621     25.41768456     10.45284557
S        18.94134712     26.90179825     19.13540077
S        15.61563301     26.36388969     19.08185005
S        17.73232460     24.54805374     20.71855545
S        17.20443916     24.25920486     17.27330780
P        17.49014282     25.48973656     18.90875816
S        10.41159439      0.65966803      6.37528276
S         8.71043587      2.53835511      4.49362898
S         6.99574661      0.12939520      6.34634304
S         8.50014687      2.40231872      8.08142567
P         8.63153648      1.46818960      6.28163338
P         8.78361893      1.43471789     14.75786972
S        10.44062138      0.34329632     14.63605499
S         8.64059734      2.55550766     13.10167122
S         7.19035530      0.17084098     14.82030678
S         8.19944096      2.69242501     16.65185356
P         8.67986774      1.46845126     23.31324387
S        10.60011292      0.55117118     23.32203102
S         8.58354378      2.51161242     21.53186226
S         6.88025665      0.08405638     23.12935066
S         8.50732422      2.58264446     25.06340218
P         8.65709686     10.42964745      6.32033539
S        10.50185108      9.55875683      6.35773754
S         8.63565922     11.69051361      4.66252375
S         6.96199703      9.06310081      6.25093985
S         8.49372578     11.68402481      7.98809481
P         8.66125965     10.54185390     14.84281921
S        10.49709606      9.64298630     14.81271839
S         8.67299366     11.57187939     12.98296738
S         6.94909430      9.15378380     14.76196861
S         8.47002792     11.51935768     16.57017326
P         8.57228565     10.54248142     23.28977585
S        10.45796680      9.33912373     23.33156395
S         8.57863522     11.78945446     21.58234978
S         7.17704487      9.01296139     23.21566963
S         8.46151161     11.74586201     24.93973160
P         8.66325760     19.48017502      6.35119295
S        10.61589909     18.59457397      6.24447870
S         8.66923046     20.64999390      4.57535505
S         6.96861649     18.26127625      6.31736517
S         8.33353615     20.67117119      8.09228897
S         8.43616295     20.63653183     16.49850464
P         8.66295433     19.50080299     14.81161594
S        10.47895432     18.58834457     14.83769035
S         8.62766838     20.73420334     13.03203392
S         7.04478979     18.19800949     14.78973866
S         8.47149467     20.56921959     24.94966888
P         8.61840630     19.38838196     23.23643494
S        10.48674107     18.79460335     23.28003883
S         8.76056385     20.67835617     21.56621933
S         6.91180754     18.22350502     23.32491302
S        17.01873779      2.57228613      8.01034546
P        17.34895325      1.46181118      6.27707624
S        19.20445824      0.38478008      6.37719679
S        17.20156479      2.66237140      4.59309816
S        15.69575977      0.11646079      6.32044220
S        17.07382965      2.50124860     16.53181076
P        17.28720093      1.43565392     14.72834969
S        19.30758667      0.46567187     14.91301632
S        17.13877678      2.54118657     13.06416035
S        15.65997791      0.25305858     14.72941113
S        17.09421921      2.48866129     25.02886200
P        17.37401009      1.43733037     23.25075340
S        19.16426849      0.59049135     23.32270622
S        17.21315002      2.45443821     21.56819534
S        15.62467957      0.22595558     23.18724823
S        17.02079773     11.55661297      8.10339642
P        17.31315422     10.47390461      6.23774624
S        19.26975822      9.60636711      6.30946875
S        17.27936935     11.52437592      4.61958647
S        15.58517647      9.26628876      6.30662251
S        17.32241058     11.63471413     16.58100700
P        17.19765663     10.57286263     14.84499454
S        19.10263443      9.56257725     14.97392178
S        17.14554977     11.57317352     13.02547169
S        15.69607639      9.08758926     14.54532528
S        15.53878498      9.20829773     23.26452827
S        17.08050728     11.48047161     24.98160553
P        17.34790802     10.50786018     23.31091309
S        19.17687607      9.69216919     23.27322578
S        17.32536507     11.53990555     21.52954102
S        15.58010101     18.24227905      6.21180153
S        17.08685303     20.67911911      8.07283783
P        17.36349869     19.48491478      6.34590626
S        19.15969467     18.69354439      6.28456783
S        17.27981949     20.55749321      4.66538668
S        15.68023682     18.10299492     14.77189064
S        17.14367294     20.74795532     16.38065338
P        17.23173141     19.38252831     14.80951977
S        19.01479530     18.68439674     14.75943470
S        17.39504623     20.73599052     13.24801350
S        15.80056477     18.18765640     23.35400581
S        16.99478912     20.66404724     24.94685745
P        17.29509926     19.53480721     23.20392418
S        19.03631783     18.53538132     23.23780632
S        17.34087181     20.73715591     21.61357880
S        24.54863167      0.03302154      6.26279163
S        25.77878189      2.63637447      8.08498383
P        25.84037971      1.46193159      6.33490944
S        27.51776505      0.48897552      6.28089476
S        25.99624062      2.57741070      4.61654711
S        24.23824692      0.17304140     14.92664528
S        25.60640144      2.40235496     16.51464653
P        25.94986343      1.46768677     14.82170200
S        27.83416939      0.59100050     14.72242546
S        26.05684280      2.56382632     12.98450661
S        24.23658752     -0.06696674     23.32674980
S        25.76046371      2.61051393     25.02455330
P        25.87988853      1.36392522     23.28175545
S        27.66636658      0.62486583     23.19746590
S        26.13983727      2.66204023     21.52829170
S        24.39709282      9.12366867      6.35894394
S        25.78105545     11.54453850      7.95424271
P        25.79281425     10.49804306      6.27154350
S        27.72135925      9.56946659      6.37780714
S        25.98785782     11.69265556      4.61543369
S        24.31542778      9.16653538     14.82454872
S        25.62889290     11.59520721     16.57949257
P        25.97041893     10.56496143     14.74143410
S        27.77491188      9.55302715     14.71221256
S        25.99657249     11.55091763     13.10950851
S        24.35991859      9.13209152     23.25151443
S        25.67680359     11.67487240     24.94975090
P        25.96170235     10.45145988     23.30106354
S        27.75338554      9.50101280     23.23907280
S        25.93412018     11.66734886     21.61807251
S        25.96536636     20.72477913      4.60432577
S        24.36699867     18.18777847      6.34139776
S        25.58118439     20.73787308      8.05090427
P        25.95000839     19.52796364      6.37494850
S        27.82197380     18.48041916      6.20991325
S        25.91794014     20.71050072     13.04277134
S        24.24990463     18.27126122     14.82611179
S        25.75461960     20.51906776     16.43190384
P        25.90417290     19.47954941     14.77005386
S        27.85733604     18.67678642     14.89732838
S        25.78737831     20.62761879     21.71025467
S        24.28677559     18.32237625     23.19714355
S        25.64204025     20.66718292     24.88064003
P        26.10782433     19.48705482     23.27056885
S        27.86688232     18.55319023     23.29983330
S         6.18812943      4.29800892      1.94597793
S         4.59712648      1.82942164      3.85532880
S         4.45049000      1.75198233      0.29818413
S         2.45627594      3.71996164      2.27316999
P         4.44877195      2.88941193      1.99520874
S         5.98462820      4.25752735     10.41936111
S         4.64016485      1.80017281     12.25145531
S         4.49967003      1.69215620      8.77095795
S         2.62056041      3.80459785     10.72493649
P         4.39390278      2.93591428     10.59479904
S         6.00101376      4.32670879     18.84771729
S         4.61119795      1.73409998     20.69207954
S         4.50127888      1.74192631     17.39587212
S         2.60923505      3.83186150     19.18296814
P         4.41698694      2.85294890     19.03094864
S         6.13190126     13.25071049      1.90998828
S         4.58574677     10.91739559      3.71696639
S         4.49204636     10.83845615      0.37727758
S         2.51941657     12.72121048      2.26667285
P         4.41037655     11.99400043      2.10054922
S         5.96665430     13.36708355     10.46379280
S         4.62224960     10.83296108     12.15467548
S         4.45759821     10.73379326      8.92967129
S         2.72329450     12.83558750     10.71833038
P         4.36825800     11.95087814     10.49152374
S         5.99586248     13.42824364     18.87376785
S         4.62691545     10.72293377     20.64726639
S         4.43656731     10.70112991     17.38335991
S         2.61757302     12.88991547     19.12500381
P         4.46440697     11.97904015     19.12332916
P         4.36374712     21.03960609      2.06250644
S         5.92003679     22.30465317      1.92290616
S         4.73412704     19.79649162      3.78688836
S         4.50957012     19.85998917      0.44801894
S         2.61041975     21.95201111      2.14984012
P         4.37318182     21.03494263     10.54951477
S         6.13833284     22.11099434     10.41631603
S         4.69683266     20.07196999     12.40472126
S         4.46112108     20.05222702      8.71978092
S         2.46875310     21.68245697     10.66963482
P         4.33765650     20.93136597     19.08374786
S         6.03087711     22.26403046     18.90797234
S         4.74575949     19.96618271     20.96492767
S         4.46443987     19.92299652     17.07424164
S         2.55827951     21.86449051     19.12049103
P        13.23995018      2.84732270      1.99983251
S        14.69997787      4.22958469      2.03734398
S        13.36183357      1.84227920      3.83531022
S        12.96367359      1.82355773      0.38682020
S        11.09788418      3.74460936      2.10871983
P        13.09325123      2.96074724     10.62989140
S        14.52176952      4.29114389     10.43704987
S        13.33130741      1.71091950     12.20561314
S        13.11299706      1.63908732      8.83548260
S        11.29900074      3.88931584     10.65466499
P        13.00830078      2.73414683     19.02113342
S        14.49653435      4.20997810     19.01568031
S        13.42948818      1.88737273     20.69047356
S        13.14369297      1.71099854     17.26547432
S        11.27742004      3.94100595     19.15648842
P        13.13031483     12.04742622      2.10811138
S        14.78212738     13.28810215      1.95086098
S        13.31294346     10.82434464      3.81656098
S        13.04476357     10.80143547      0.33808944
S        11.08943939     12.76228142      2.15808916
P        13.03398228     11.99131584     10.44687748
S        14.59131622     13.35117245     10.44230270
S        13.24905777     10.81198597     12.28184700
S        13.17754555     10.67077160      8.77778816
S        11.30440807     12.89643383     10.80765915
P        13.18589306     11.96364975     19.04741478
S        14.67076492     13.33541584     18.97472000
S        13.33405495     10.84171581     20.78038597
S        12.90367508     10.84842300     17.33967400
S        11.26709080     12.73153400     19.00794792
P        13.15663433     21.09248161      2.10436225
S        14.59640026     22.32985497      2.03353786
S        13.31837654     19.91915131      3.79192495
S        12.93733597     19.84860802      0.34293196
S        11.35173607     21.76445389      2.09882712
S        11.21971989     21.81575966     10.59753036
P        13.10177135     20.98302269     10.62829018
S        14.67766094     22.31944275     10.42254257
S        13.32660294     19.91452599     12.30712795
S        13.03286171     19.91807365      8.80715656
S        13.00564671     20.00879288     17.19977379
S        11.24410152     21.77235413     19.08087349
P        13.17739010     20.92487144     19.05543709
S        14.62100029     22.25317383     18.90530205
S        13.31305122     19.98965073     20.90903091
S        21.76165009      1.83012903      0.27326131
S        19.83777237      3.82856250      2.19751382
P        21.75150681      2.77211690      2.05008745
S        23.24420738      4.20569420      1.94622314
S        21.98118782      1.84829175      3.90265179
S        21.69088745      1.71299958      8.73767376
S        19.95695877      3.85152602     10.66436291
P        21.73949623      2.80722690     10.47972775
S        23.21031570      4.32389164     10.49384594
S        21.97826004      1.79034507     12.38198280
S        21.70646858      1.75797713     17.41064644
S        19.71390915      3.73647380     19.10491943
P        21.60329056      2.97745109     18.91093254
S        23.47427559      4.19974327     19.01442528
S        22.07333374      1.82013679     20.70458031
S        21.64896011     10.73554897      0.41550982
S        19.78161621     12.71726799      2.23089266
P        21.80042648     12.10025311      1.91751420
S        23.41486931     13.28300667      2.07238555
S        21.93211555     10.88931084      3.72892308
S        21.88957596     10.95505047     12.44086742
S        21.81953621     11.01147652      8.70679474
S        19.81526756     12.75218201     10.72281837
P        21.75195885     11.84342480     10.58864880
S        23.29999924     13.15451336     10.30216980
S        21.98009682     10.67209721     20.83307266
S        21.77693367     10.87880898     17.38568497
S        19.86559486     12.88989544     19.05232048
P        21.76254463     12.01710033     19.10491562
S        23.19153023     13.26465511     18.77610970
S        21.99738121     19.90727043      3.81547880
S        21.58106041     19.79401779      0.32268462
S        19.77990913     21.85828590      2.12461400
P        21.78620148     20.92458344      2.03078794
S        23.43295479     22.46467781      2.07551479
S        22.11324692     19.79866219     12.24954033
S        21.49930000     19.82184029      8.88262272
S        19.91901588     21.90456200     10.38994026
P        21.72502899     20.92815399     10.70255566
S        23.31883049     22.49573898     10.54051685
S        22.09176064     19.92438507     20.77635956
S        21.66991997     19.88662529     17.32813263
S        19.78397179     21.92131996     19.05078888
P        21.80691528     20.97008705     18.97855186
S        23.22564316     22.24796486     19.01396751
S         4.14097738      7.02000093      8.06178093
S         2.79869795      4.71219301      6.27549314
S         6.16265678      5.02812433      6.36633539
S         4.30855799      7.05452824      4.57733297
P         4.24148369      6.02862167      6.30619669
S         4.21061468      7.10925674     16.42249298
S         2.82416034      4.60415077     14.77226067
S         6.12508011      4.98673058     14.91294479
S         4.31076717      7.22134161     13.13677406
P         4.17964649      5.91823244     14.73033619
S         4.22179985      6.93663025     24.98050690
S         2.57890058      4.79373741     23.22627068
S         6.28119659      5.25517893     23.37543297
S         4.34078836      6.99350595     21.57762718
P         4.22927237      5.85863113     23.20433807
S         4.16384220     16.11939812      8.13031960
S         2.84949493     13.68132401      6.23285818
S         6.04504871     14.06279850      6.32476234
S         4.33463287     16.10020638      4.51495075
P         4.25998545     15.11200619      6.38699770
S         4.32402658     16.19288254     16.54328728
S         2.80595803     13.66638470     14.56669807
S         6.06561184     14.09261894     14.94768238
S         4.20350075     16.12024498     13.09228802
P         4.25369167     14.99978256     14.82818222
S         4.24541950     16.05552292     25.01309013
S         2.66144514     13.54105949     23.33053589
S         6.06649017     14.19561863     23.34949303
S         4.47926950     16.21116257     21.51277351
P         4.19827843     15.07097435     23.15666008
S         3.99704242     25.31176376      8.17236328
S         2.81963921     22.69798660      6.27804089
S         6.10875273     23.00283813      6.18749952
S         4.36587429     25.17291260      4.59592104
P         4.36527777     24.11993217      6.35497475
S         4.21277237     25.08027649     16.64632797
S         2.70696425     22.85490799     14.66196537
S         6.19285727     23.20376396     14.91983986
S         4.22671700     25.08418465     12.95125484
P         4.31558466     24.08097076     14.79771614
S         4.12155151     25.22520065     24.91920662
S         2.78330708     22.83877945     23.16776085
S         6.26975489     23.01620865     23.38527107
S         4.16044474     25.20006180     21.69164467
P         4.31998777     24.02184296     23.20014763
S        12.73696709      7.15979671      7.87467575
S        11.37871265      4.54648685      6.33740759
S        14.75942230      4.97996521      6.29753256
S        13.02597713      7.21870089      4.75407076
P        12.97174358      5.93534565      6.32405949
S        12.79590893      6.96458483     16.56738472
S        11.38365364      4.63024235     14.82319546
S        14.69399071      5.12771845     14.80511761
S        13.07160091      7.05090857     13.00939941
P        12.92611599      6.07147264     14.77109718
P        12.89990139      5.99888945     23.30057716
S        12.63347244      7.22290897     25.02052116
S        11.62781143      4.51158190     23.36748695
S        14.61205673      4.83372116     23.14992905
S        13.09713554      7.27535486     21.52893257
S        13.04494476     16.21884537      4.64273739
P        12.92393303     15.01120663      6.24100780
S        12.82045746     16.03750992      7.92671633
S        11.29837513     13.64234638      6.37640429
S        14.78348541     14.16239357      6.39805555
S        12.92385006     16.23200607     13.16127586
P        12.98588181     15.02272224     14.72213459
S        12.79405880     16.09097099     16.38109207
S        11.41439342     13.68231106     14.80063915
S        14.75512218     14.04468536     14.90938759
S        13.04399204     16.11332130     21.45895767
P        12.90682507     15.02458858     23.22645569
S        12.81150723     16.07492828     25.11653328
S        11.32074165     13.68380070     23.26240540
S        14.78754711     14.17611980     23.30057335
S        13.01205826     25.06540680      4.45269823
P        12.89072132     24.06451416      6.37160587
S        12.85435104     24.99481201      8.12878132
S        11.19707870     22.84069824      6.25716352
S        14.91585732     23.33811188      6.37911654
S        12.87908268     25.27541733     12.92587566
P        13.07026005     24.03169441     14.77456379
S        12.71214294     25.18494415     16.62924767
S        11.27039146     22.75812149     14.76982498
S        14.94429874     23.05225182     14.87680149
S        12.91166401     25.30132294     21.64636993
P        13.01207924     24.07074165     23.20701408
S        12.74666023     25.24894142     24.91935539
S        11.42455864     22.67998505     23.25365639
S        14.77923298     23.00276375     23.33786583
S        21.60818863      6.94760466      4.49556637
P        21.57125854      5.85827494      6.32016659
S        21.47816658      6.99618387      8.19741440
S        19.85420418      4.79874563      6.20743132
S        23.57700920      5.23686266      6.36703587
S        21.50181580      7.18751144     12.99576378
P        21.70448685      5.95268965     14.76551723
S        21.40265083      7.07777452     16.54409027
S        20.02878380      4.66504049     14.75720310
S        23.45561981      4.95786810     14.91343117
S        21.63597679      7.02924490     21.58045006
P        21.55038834      5.93437004     23.39112854
S        21.44289017      7.15013933     25.03343964
S        19.94597054      4.64623117     23.13710976
S        23.51288605      5.08027601     23.22840118
S        23.79109383     14.20914459      6.46080923
S        21.47780037     16.08499336      4.65102720
P        21.67538452     14.85007668      6.27379942
S        21.42323494     16.01707077      7.96294641
S        19.72485352     13.90553570      6.23745394
S        23.47152519     14.15548992     14.77335930
S        21.62385941     16.06968498     13.09647655
P        21.65439415     14.91854572     14.75711918
S        21.37100601     16.13869286     16.59880066
S        19.97086906     13.78673649     14.74996567
S        23.55101395     14.03992081     23.34917068
S        21.63773537     16.23575020     21.62859535
P        21.49707031     15.04578400     23.19153404
S        21.45821190     16.15220642     24.92441177
S        19.94227028     13.59981728     23.27002525
S        23.54294586     23.12678337      6.41695070
S        21.50187492     25.21076965      4.60562658
P        21.65458679     23.97158051      6.33880043
S        21.45166397     25.20318985      8.02833748
S        19.94058418     22.78805542      6.19853354
S        23.44311714     23.09436226     14.86335754
S        21.60931969     25.30745316     13.10284996
P        21.59354782     24.03575325     14.81123447
S        21.43939590     25.18596840     16.41702652
S        20.00420380     22.67902374     14.78309345
S        20.10768890     22.67073059     23.27040672
S        23.39425468     23.06036949     23.29879379
S        21.65916443     25.22185516     21.46772957
P        21.49142647     24.23284531     23.31132507
S        21.43357277     25.12347412     25.01956177
