3075

Na        2.30826712     -0.12422559      4.31221771
Na        2.39030766      0.06352262      9.20134354
Na        2.09865189     -0.18604711     13.81796837
Na        2.22968864     -0.11307491     18.39900398
Na        4.47582483     -0.27032933     20.55987167
Na        2.30899549      0.15039232     27.54983902
Na        2.43999648     -0.32994390     32.16638947
Na        2.37989759      4.67524004      9.02777290
Na        2.17179823      4.76991796     13.61750031
Na        2.14711308      4.34666395     18.02691650
Na       -0.10061293      2.28970075     23.08982849
Na        2.24505901      4.67502832     27.44141960
Na        2.11797619      4.71959639     32.09005356
Na        2.28921938      9.11981773      4.45179987
Na        2.17172432      9.50320244      9.10515118
Na        2.46012163      9.19295311     13.95887852
Na        2.18268967      9.40044975     18.37223434
Na        2.26650524      9.16871071     22.99244118
Na        2.21607590      8.90954113     27.59718132
Na        2.20794773      9.17031765     32.10958481
Na        4.42691660     11.38299656      4.37820864
Na        2.39054847     13.69587898      9.31529808
Na        2.27024341     13.90499115     13.80269718
Na       -0.07710735     11.55173779     18.38473701
Na       -0.17353633     11.30109406     22.84043121
Na        2.19706202     14.08716965     27.33867455
Na        0.06093602     15.94242001     31.86120033
Na        2.36834145     18.07123947      4.58130836
Na        2.43400788     18.18804932      9.21758461
Na        2.26417279     18.54889679     13.80389118
Na        2.20208549     18.19697189     18.30470276
Na        2.42113853     18.15473938     23.08474541
Na        2.41418529     18.41798019     27.62514114
Na        2.30633307     18.72297668     31.75601387
Na        2.20354462     22.71997261      4.29472399
Na        2.16183996     22.99368668      9.02592754
Na        2.25068283     22.85030746     13.67750549
Na        2.57685876     22.46576309     18.29424667
Na        4.85621023     20.61159706     22.76009941
Na        2.54125834     22.81187248     27.19999504
Na        2.29764414     22.85948181     32.43175888
Na        2.27338910     27.69273376      4.44674969
Na        2.04112554     27.25889969      9.11971283
Na        2.05311394     27.37640190     13.81574154
Na        2.56735229     27.27660751     18.58626938
Na        4.53272963     29.65868759     22.86783028
Na        0.00639183     27.87086105     25.29581642
Na        2.11421442     27.75867081     31.70628929
Na        7.02359533      0.26299757      4.60234118
Na        7.06680107     -0.18382552      8.77518654
Na        6.77863407     -0.00278140     13.87768745
Na        6.88375425     -0.06024384     18.08848763
Na        6.76001024      0.14006926     22.86132431
Na        4.65605354     -2.23023748     27.18318176
Na        6.92970657     -0.05759289     31.81175804
Na        4.67375612      4.84635687      6.87047720
Na        6.75109673      4.38446903      9.17682648
Na        6.82511330      4.61154270     13.50545883
Na        4.63141918      4.79272175     20.44032097
Na        6.96653605      4.32423210     22.84013176
Na        8.93361187      4.85445023     29.87472153
Na        6.80053377      4.13514900     31.87901878
Na        9.09320927     11.58025646      4.47063017
Na        6.93962860      9.19573975      9.77407360
Na        6.80827808      8.96819782     13.72565746
Na        6.62658787      9.14395332     18.16890907
Na        6.85200167      9.58551598     22.92755318
Na        4.38442469     11.29341125     27.34185982
Na        6.91070032      9.17800903     32.19526672
Na        6.86635590     13.64835167      4.68007803
Na        6.88684082     13.57357407      9.08166313
Na        6.87026072     13.64670944     13.89182854
Na        6.63104916     13.97378159     18.47729874
Na        6.83671427     13.60737991     22.94341660
Na        6.95304823     13.51335335     27.19842911
Na        6.89166880     13.57774448     31.99774361
Na        6.83671713     18.08794594      4.36247492
Na        6.86714172     18.42683220      8.88762760
Na        6.87965536     18.15540123     13.31911659
Na        6.82233715     18.23516083     18.54268074
Na        9.33306503     15.90252304     22.83556557
Na        6.90288353     18.25659561     27.33930779
Na        6.94105911     17.99400902     32.27364731
Na        6.85371065     22.83218002      4.63148594
Na        6.73113203     22.44547844      9.16388416
Na        6.92771530     23.07555199     13.72233391
Na        6.98808479     23.12003899     18.32804871
Na        6.77932644     22.94292831     22.91636086
Na        6.96756697     22.86377907     27.34489822
Na        6.79993916     22.64468575     31.83068466
Na        8.66702843     27.48324585      6.87680578
Na        6.75248957     27.43813324     13.53621483
Na        9.30966759     29.45775223     18.33909416
Na        4.80999422     27.74509621     20.60167503
Na        8.99497986     27.59844589     29.74046326
Na        6.72917318     27.60944557     31.98511124
Na       11.14372349      0.09652271      4.33810854
Na       11.56062698     -0.04557534      9.45035458
Na       11.44877148      0.29797190     13.56021118
Na       11.25111198      0.40117037     18.34741402
Na       11.41093636      0.14951955     27.16275024
Na       11.12698650     -0.13539504     32.22679520
Na        9.23760700      4.37206650      6.91305065
Na       11.34514618      4.76146507      9.20408154
Na       11.50762081      4.75802279     13.56544781
Na        9.17606258      4.65849066     20.80305862
Na       11.52975273      4.66311646     23.08664894
Na       14.11114025      2.05070066     27.28957176
Na       11.31323719      4.13517952     31.91337585
Na       11.39620876      9.05685329      4.31325531
Na       11.43798447      9.10177708      9.28600216
Na       11.25698090      9.29051781     13.63000584
Na       11.48647594      8.91623974     18.42763329
Na        9.22477436      9.37571335     25.12670517
Na        9.12908077      6.90733576     27.57634163
Na       11.54183102      9.03702545     31.85284042
Na       11.32362461     14.01548767      4.65389585
Na       11.40010452     13.75441933      9.01572704
Na       11.34464455     13.71066570     13.81052017
Na       11.42133427     13.79756451     18.45045662
Na       13.81687260     11.35017681     22.79952431
Na       11.43368912     13.69916439     27.34021187
Na       11.47235298     13.63491535     31.73100281
Na       11.66878891     17.85630798      4.67228317
Na       11.19057560     18.00506210      9.15444469
Na       11.53457451     18.31428337     13.75584316
Na       13.99205780     20.58935928     18.01961517
Na       13.83610725     18.11285973     25.20952606
Na       11.20901585     18.05112457     27.47029686
Na       13.63614464     20.64308167     32.07010651
Na       11.25777340     22.91071510      4.68386650
Na       11.48282242     23.10004044      9.04432201
Na        8.91745377     22.76157761     16.12968636
Na        9.12353325     20.69017029     18.22255898
Na       11.39376450     22.96387863     22.54532814
Na       11.24705505     22.74974251     27.39127159
Na        8.90496063     25.15329170     32.20378876
Na       11.35033226     27.64192009      4.64163160
Na       11.34050369     27.13856316      9.24805927
Na       11.41633701     27.78721619     13.81934166
Na       11.43413925     27.11704063     18.24661827
Na       11.42452621     27.37360382     22.59136200
Na       11.41697311     27.72073555     27.44967842
Na        8.93846035     27.64066696     34.31177902
Na       16.04983711     -0.12207254      4.31075573
Na       15.85894012     -0.05998961      9.01075077
Na       15.99817753     -0.00413473     13.51647282
Na       15.83508968     -0.30321634     18.55238914
Na       15.94274521     -0.10756771     23.06618118
Na       16.03910446      0.25015229     27.51564407
Na       15.90398884     -0.13792630     31.97893524
Na       16.15377998      4.80049610      4.69177389
Na       15.98339081      4.78652048      9.11712742
Na       13.95652008      4.79936361     16.05846977
Na       13.87888813      2.36156249     18.55516434
Na       16.01956367      4.28614283     22.51263046
Na       15.86259460      4.60881424     27.69269371
Na       15.85792351      4.54197788     31.98173523
Na       15.85956383      8.89844418      4.61777353
Na       15.82297421      9.13450813      9.37040806
Na       16.12606239      9.04442692     13.47807312
Na       16.06960297      9.28604889     18.04049873
Na       15.90524387      9.19776630     22.88566017
Na       16.00095940      9.24958420     27.51782227
Na       16.20025063      9.31309414     32.20950699
Na       15.86932182     13.56164742      4.59175587
Na       16.03853798     13.80582523      9.04832172
Na       15.85106659     13.38823128     13.59833908
Na       16.22961044     13.65047550     18.23658562
Na       16.09974670     13.80570507     22.63240242
Na       13.91004753     13.58617687     25.22260857
Na       13.98299885     13.99269867     29.54707336
Na       15.82494068     18.20224953      4.63035202
Na       15.69380856     18.04648018      9.19797897
Na       16.11598969     17.99335480     13.61761570
Na       18.15813637     18.41471100     20.38941765
Na       16.10954475     18.16519547     22.72328377
Na       13.87661266     15.94050121     27.47908020
Na       16.12780762     18.19755554     32.11530304
Na       16.02235794     22.77789497      4.78147888
Na       16.42400742     23.17943764      9.23522472
Na       13.90059566     20.65548897     13.90377808
Na       18.12735939     25.08762550     18.31085205
Na       15.78972816     22.65007973     22.80418777
Na       16.12997055     23.06599236     27.20175362
Na       15.97607040     22.68959808     31.74529648
Na       16.08222580     27.12354088      4.65635347
Na       16.10331345     27.64333534      9.20576477
Na       15.99114609     27.32738113     13.48966122
Na       15.84290600     27.55972481     18.35539627
Na       15.97373772     27.15100670     23.00373268
Na       16.02294922     27.49470901     27.39294815
Na       16.05669022     27.39575005     32.01115036
Na       20.59103012     -0.11143339      4.48853350
Na       20.68948936     -0.10159135      8.93847179
Na       20.65842056      0.02297308     13.94482231
Na       20.45310402      0.26213682     18.52602196
Na       23.18466187      0.04303701     20.77409172
Na       22.75687027      2.15255094     27.62309265
Na       18.34092140      2.17016387     32.02050781
Na       20.68665123      4.78517914      4.56300068
Na       20.72156334      4.83528042      8.98257923
Na       20.63482094      4.56118393     13.65636444
Na       20.48189926      4.51571846     18.29665184
Na       20.44780922      4.38657951     22.67399788
Na       18.17816544      4.57152081     25.03259277
Na       20.66340256      4.37603331     32.31457520
Na       20.25807571      9.23796844      4.80432367
Na       20.50849533      9.31301594      8.95669174
Na       20.65287399      9.42036915     13.66072178
Na       18.09543610      7.04047012     18.51916695
Na       20.51496124      9.23554707     22.84250641
Na       20.57893181      8.87767220     27.37178993
Na       20.61354256      9.08080864     32.17531204
Na       20.51557159     13.71512032      4.73768282
Na       20.33910370     13.92651558      8.78842831
Na       20.68616295     13.42509937     13.77427864
Na       20.70214462     13.60754490     18.23065186
Na       20.37271881     13.55161762     22.95380974
Na       20.84970856     13.79828358     27.70648575
Na       20.81422806     13.83895683     31.81725121
Na       20.78884125     18.26338005      4.68766403
Na       23.06410980     20.48466110      9.66953564
Na       20.50219536     18.23743629     13.28671455
Na       20.59319115     18.33975792     18.04121399
Na       20.64513016     18.37788391     22.91207504
Na       20.51149178     18.06226540     27.38260841
Na       20.71876335     18.29657173     31.80720520
Na       20.60923195     23.16485214      4.52274704
Na       18.36748314     20.56821442      8.98007298
Na       20.71848679     22.73611259     13.66817760
Na       20.62605667     23.09469604     18.40736771
Na       20.40854645     22.94200897     23.18410873
Na       20.51906776     22.72126389     27.39654350
Na       20.38366508     23.01752090     32.16911697
Na       20.56556129     27.59847260      4.53590918
Na       18.32630539     29.92458534      9.12926483
Na       20.55868721     27.34969902     13.57780647
Na       20.71155167     27.42553139     17.95217514
Na       20.42603493     27.15035820     23.17971992
Na       20.46360016     27.15222931     27.43592644
Na       20.67299080     27.39703941     31.72596741
Na       23.04535675      0.09991708      2.20245743
Na       25.01975632      0.42613292      8.97759628
Na       25.09101105     -0.01788713     13.69787693
Na       25.15417480      0.03309355     18.45824623
Na       25.27303696     -0.04950933     22.96073151
Na       22.69741440     -2.45886016     27.44908142
Na       25.00902367     -0.25166237     32.16565323
Na       27.50180435      4.16060114      6.95865250
Na       27.71414185      4.61732292     11.33180428
Na       25.00660324      4.32597637     18.62623215
Na       25.02798653      4.35394335     22.98331070
Na       25.40346909      4.41114855     27.51264191
Na       24.98402596      4.60362339     31.97215462
Na       25.26537704      9.16500473      4.46788120
Na       22.81510925     11.31604290      9.12672615
Na       22.70135689      6.84632158     13.63062477
Na       24.74872017      9.30289078     18.12330246
Na       25.02130318      9.26438141     22.78094101
Na       25.20845413      9.12799931     27.20729256
Na       24.99986267      9.19826508     31.88653946
Na       25.22156906     13.84047413      4.87796402
Na       25.41815376     13.57043266      8.84940243
Na       25.07236290     13.45017338     13.80236626
Na       25.06004143     13.77602482     17.93546295
Na       24.91473198     13.59403801     22.67630196
Na       25.22145271     13.68419075     27.29401779
Na       25.27174377     13.46820450     31.69404030
Na       25.18101692     18.39598274      4.73861456
Na       24.99492645     18.46121407      8.84348392
Na       25.15168571     18.21332359     13.60680008
Na       25.09302902     18.38062096     18.34743118
Na       25.32506943     17.99575424     22.60934258
Na       25.25797272     18.24511909     27.43412209
Na       25.11427307     18.45819092     31.91983986
Na       25.12322617     23.17100143      4.73180532
Na       22.49063683     25.03262520      9.16081619
Na       25.38836288     23.25841141     13.62306118
Na       25.37958527     22.67019081     18.11085320
Na       25.03189468     22.67003632     22.68062973
Na       25.36767769     23.14480209     27.45652962
Na       27.56437492     20.51915359     32.09662628
Na       25.03366852     27.66321754      4.66121626
Na       25.13100052     27.07530212      8.84969997
Na       25.17321777     27.62483215     13.80687141
Na       25.08837891     27.55784035     18.30173683
Na       25.14767075     27.50541306     22.73580170
Na       25.01301765     27.26783371     27.31994438
Na       25.11875534     27.39368057     31.78347969
Na       29.52313423      0.11511023      4.50129604
Na       27.23077011     -2.40465617      8.95721436
Na       29.57618904     -0.09032248     13.91657543
Na       29.68231964      0.01787255     18.46923828
Na       32.29396439      2.29956341     27.17386627
Na       27.78017426      2.43030787     27.25181961
Na       29.75342178     -0.12202034     32.05261993
Na       29.67813492      4.67608881      4.54227114
Na       29.70926666      4.71793795      9.00431061
Na       29.77852249      4.43061495     13.83526039
Na       29.78595161      4.38467264     18.10201645
Na       29.63362503      4.33289623     22.80478859
Na       29.61036682      4.61976814     27.50667572
Na       29.46177292      4.46807384     32.13412476
Na       29.80270386      9.19022083      4.54687929
Na       29.74922180      9.05846500      8.93989468
Na       29.77103424      9.15065765     14.06037331
Na       29.64025307      8.85157871     18.22193336
Na       29.52297974      9.12842178     23.06464195
Na       29.77651787      9.42278862     27.72564316
Na       29.76740646      9.27749634     32.06453705
Na       32.01151657     13.87726116      2.27985716
Na       29.81638908     13.93496799      9.35226059
Na       29.84345245     13.54680347     13.58119297
Na       31.69817924     13.66726875     16.21750069
Na       29.92035294     13.87988853     22.83608055
Na       29.63074303     13.79289532     27.17162895
Na       29.66331291     13.74776840     31.96442795
Na       29.66812134     18.35779381      4.83799982
Na       29.87199211     18.40063858      9.26094437
Na       29.62762642     18.40085220     13.96555996
Na       32.59777451     20.53489113     18.33059692
Na       32.41078186     20.35593987     22.61822128
Na       29.56526756     18.46702766     27.26007843
Na       27.28634262     16.08057404     32.12029648
Na       29.60827446     22.51251984      4.70384026
Na       29.70770454     22.89705276      8.99379635
Na       29.70647621     22.90037155     13.87036037
Na       29.93279266     22.94192886     18.28856087
Na       27.67759705     22.81979942     25.14530754
Na       27.71368217     22.97444534     29.70263290
Na       29.41306877     22.75837708     32.16999054
Na       31.74129677     27.05494881      6.92397976
Na       27.40599251     27.37230492     11.53133774
Na       32.12546539     29.23125267     17.68698883
Na       29.58907127     27.13188553     22.91876602
Na       29.78436470     27.50175858     27.46393394
Na       29.69625854     27.41477966     31.91149521
Na        0.07862300      2.30754614      4.93564796
Na        0.01531620      2.36951947      9.34475136
Na       -0.06666965      2.33219290     13.83026695
Na        0.17753626      2.17803454     18.18663216
Na        0.16196632     -0.17737581     20.56659508
Na       -2.21087313      0.01346421     27.56327057
Na       -0.00347699      2.35273290     32.04180527
Na       -0.05286092      6.89097977      4.81098223
Na       -0.02627137      6.94667912      9.22493839
Na       -0.28149861      6.94105577     13.47562122
Na       -0.06991209      6.78101397     18.08230591
Na        0.31912285      6.60195255     22.44832993
Na       -0.15334269      6.97863054     27.22281647
Na        0.55874705      6.92128229     31.96597099
Na       -1.96727240     13.68049812      4.57863092
Na       -0.31201208     11.70527077      9.08506393
Na        0.28271598     11.50487614     13.61133862
Na       -2.32949305     13.78734970     18.11056900
Na        0.09353899     13.47476387     20.64805984
Na        0.23422331     11.51481628     27.36510658
Na        2.22743630     13.47436047     32.28129196
Na        2.41593766     13.85942650      4.67407894
Na        0.36509508     15.96152878      8.91931725
Na        0.05425693     15.95207977     13.80096817
Na       -2.13564992     18.03136826     18.24437904
Na       -2.23940992     18.28032494     23.10221672
Na        0.07772195     16.06442451     27.47376633
Na        0.03216341     11.59517860     31.95930099
Na       -0.04864486     20.45909309      4.54103279
Na        0.08896403     20.55772209      9.31003761
Na       -0.23649748     20.53369141     13.89345551
Na       -0.16694200     22.73123932     20.60295296
Na       -2.45755148     22.74783707     22.86896515
Na        0.04850774     20.75378609     27.59403038
Na        0.12069145     20.61462593     32.03189468
Na       -0.28874689     25.20973015      4.50689173
Na        0.10952123     29.64919853      8.98812103
Na       -0.25960055     25.05973053     13.31008911
Na        0.26460636     25.06455994     18.36193275
Na        0.23250110     25.19657516     22.83577156
Na        0.19707774     25.28961945     27.57267380
Na       -0.08779979     25.34872818     32.27862549
Na       -0.38507396     29.70544052      4.78634214
Na       -2.38611293     31.73936653      9.26211357
Na       -0.04952770     29.70527649     13.63609886
Na       -2.11799335     27.23297501     18.08517265
Na        0.00007934     31.76510239     25.23818588
Na       -0.02675695     29.81012344     27.49208832
Na       -0.30656222     29.82084084     32.27194977
Na        4.77488661      2.33217597      4.38158751
Na        4.56135082      2.23401928      9.31011105
Na        4.44867849      2.43368363     13.68646717
Na        4.85192108      2.21265364     18.47464180
Na        4.66309500      2.42194986     22.70116043
Na        4.89501286      2.49231172     27.39187813
Na        4.26374388      2.20396376     32.06847382
Na        4.28065300      6.90520954      4.39865017
Na        4.23159885      6.90308046      9.30595493
Na        4.58113241      6.71356821     13.90966702
Na        4.37356806      6.71437645     18.16026306
Na        4.48794270      6.87306499     22.96228790
Na        4.77187490      7.01688766     27.48698616
Na        4.71753216      7.06182718     31.66249847
Na        6.70411825      9.45554447      4.56836081
Na        4.62465906     11.52547932      9.15494537
Na        4.67989683     11.51535702     13.75772190
Na        4.44786215     11.45002460     18.42100143
Na        4.73691034     11.60046387     23.21306229
Na        4.72658587     14.05055618     25.35614777
Na        4.19857883     11.63574600     32.06373596
Na        4.72019815     15.74278069      4.53786087
Na        4.80105209     15.98007488      9.04331684
Na        4.71388721     15.99301434     13.54718208
Na        2.33764839     13.66790771     17.94311905
Na        6.80748367     17.97468567     22.80535507
Na        4.40337944     16.02717018     27.09500122
Na        4.25432920     15.96291637     32.09409332
Na        4.53671694     20.64637184      4.33464909
Na        4.26288700     20.54327774      9.15959358
Na        4.33089828     20.51042175     13.73192120
Na        4.89314270     20.39761543     18.27910995
Na        4.52910376     18.47048569     24.99052048
Na        4.49238682     20.58179474     27.54036522
Na        4.67405224     20.49236298     31.94830132
Na        4.14665318     25.09734726      4.95652437
Na        4.47327757     25.18496704      8.87433338
Na        4.57707310     25.19971275     13.93210983
Na        4.78889465     25.05349922     18.35720062
Na        4.62108278     25.03177261     22.52357101
Na        4.71375751     25.09283447     27.70474243
Na        4.41040087     25.27745247     32.00116730
Na        4.67318535     29.88697243      4.26263857
Na        4.54999256     29.66535950      9.33160782
Na        4.45249557     29.66853523     13.85544491
Na        7.18390322     27.55400658     18.67794037
Na        4.42191172     27.12092209     25.25760651
Na        2.12500215     27.56503487     27.18165588
Na        4.54954910     29.78372002     31.98472786
Na        9.35275364      2.49069667      4.57303762
Na        9.01697063      2.11027265      8.96020794
Na        8.89693069      1.99562287     13.62035275
Na        8.68288136      2.36797953     18.23924637
Na        9.45349121      2.32682443     23.02269173
Na       11.51676083      4.41043806     27.34954071
Na        8.81204605     -0.00296068     29.72250175
Na        9.13752747      4.65976000      2.41934037
Na        9.07233334      6.57281637      9.19661522
Na        9.21650505      6.95863581     13.37982655
Na        9.14004517      6.75781250     18.48465157
Na        8.94009399      6.82427406     23.25137901
Na        6.70127010      4.55685854     27.40341759
Na        8.72036362      6.91319084     32.07235718
Na        9.08314896      8.96328831      2.18953323
Na        9.20670414     11.32708168      8.81107140
Na        9.09659481     11.50411129     13.94761086
Na        9.32028389     11.40431118     18.41928673
Na        9.33037663     11.55971050     22.92378616
Na        9.05817699      9.03158474     29.43523407
Na        9.43992043     11.28353500     32.12567902
Na        9.13938713     15.96788979      4.49451542
Na        9.05913639     16.05159378      8.92803288
Na        9.19511700     16.11049271     13.58221817
Na        9.33186054     15.75237179     17.88292503
Na       11.39771748     18.40975761     22.85915947
Na        9.42805195     15.78454781     27.27981186
Na        9.27118778     15.81371117     31.59780884
Na        9.01097298     20.60887718      4.66132545
Na        9.39252663     20.59344482      8.99405861
Na        8.88195515     20.38158035     13.62892056
Na       11.39529705     18.54138947     18.09398079
Na        8.96516228     20.42399597     22.83459663
Na        9.24682903     20.55135155     27.01127243
Na        9.23184395     20.43742180     31.98095894
Na        6.74239016     27.44899940      4.72859907
Na        9.06849098     25.04927444      9.20004654
Na        9.34937668     24.86171913     13.72073174
Na        9.42854309     25.22288513     17.99484253
Na        9.26939487     25.31774902     22.78441238
Na        9.32400608     25.09626579     27.64667130
Na       11.46514130     27.07611465     32.26910019
Na        9.34826279     29.76799774      4.67448950
Na        9.08048916     29.69907570      9.46274948
Na        8.75428677     29.53215599     13.90524960
Na        9.17672825     29.77355003     23.04207420
Na        9.07643032     30.01129913     27.39908791
Na        9.26415253     29.75548744     31.96508026
Na       13.83127308      2.47465372      4.68432713
Na       13.56698895      2.36074305      9.18131828
Na       13.93465328      2.51057458     13.95127392
Na       11.42760849      4.14862823     18.28607559
Na       13.70868683      2.29139209     23.05436134
Na       13.69483089     -0.68573231     25.15456200
Na       13.52976799      2.15103412     32.45011520
Na       13.82777500      6.82581043      4.67919874
Na       13.83161640      6.82204866      8.83400154
Na       13.56872845      6.90225840     13.22263718
Na       13.69434929      6.83598137     18.13861465
Na       13.71672440      7.10119009     23.17842102
Na       13.80480576      6.98543453     27.46390152
Na       13.70444202      6.73688984     32.05973434
Na       13.60750580     11.44402027      4.45554495
Na       13.85132217     11.32825947      8.89962196
Na       13.65583611     11.32925701     13.84038353
Na       13.67407322     11.64756107     18.27983475
Na       11.47786045      9.20855618     22.63952446
Na       13.71746922     11.51930332     27.41299629
Na       13.65800667     11.16163158     31.98970795
Na       13.68784237     13.80672359      2.43166065
Na       13.84449863     15.99571419      8.88366890
Na       13.26290607     15.97509289     13.64563751
Na       13.62227154     16.04798889     17.97778320
Na       11.77576065     13.38050270     22.60724258
Na       11.44597530     18.07809830     31.97970772
Na       13.40570545     20.70597267      4.59127855
Na       13.77856827     20.67415237      9.39433670
Na       13.68131161     22.81375122     11.38192272
Na       13.68441200     18.09186554     16.07718277
Na       13.84539032     20.47422791     22.82010078
Na       13.86055183     20.82424355     27.32473373
Na       11.43322372     22.90321732     31.89793587
Na       13.68376541     25.26200485      4.60910082
Na       13.83412647     25.07349968      9.00210667
Na       13.76619911     25.25905609     13.65474224
Na       13.78437901     23.45276260     16.28110504
Na       13.68568039     25.14630890     22.81046486
Na       13.68510914     25.29871750     27.57271385
Na       13.59620762     25.16986656     31.99461365
Na       13.83204746     29.76094437      4.58061981
Na       13.37066746     29.55976486      9.01778507
Na       13.80340576     29.89720154     13.83598328
Na       13.60428429     30.18537712     17.81078911
Na       13.63961506     29.34918976     22.55257225
Na       13.78337860     29.58093071     27.42293167
Na       13.62847996     29.68867302     32.00122070
Na       18.48347473      2.48044086      4.74231291
Na       18.21915245      2.42664194      9.26399708
Na       18.39409256      2.21324468     14.01932144
Na       18.48664474      2.16920757     18.55869675
Na       20.56106949      0.03840258     23.13928223
Na       18.03201866      2.29383230     27.50969887
Na       18.20467377      4.37856340     29.75716591
Na       18.19817162      6.70178461      4.53656340
Na       18.11456108      7.01012897      9.48954391
Na       16.09663391      4.56282091     13.66243458
Na       18.03878403      9.30172062     16.00359344
Na       18.03426361      6.67490911     23.12858200
Na       18.24004936      6.69429398     27.34356308
Na       18.76848030      6.76118088     31.90861893
Na       18.11230087     11.17257977      4.36839390
Na       18.17094612     11.59319401      9.21593952
Na       18.46960640     11.38094234     13.71728897
Na       18.46879578     11.63977432     18.36537933
Na       18.35370255     11.33899975     22.86958694
Na       18.20462418     11.59077358     27.18806648
Na       18.05834770     15.86668205     27.56940079
Na       18.09125900     16.12061882      4.30085802
Na       18.49302101     16.15362358      9.25436115
Na       18.36004829     15.94180107     13.31715679
Na       18.65812302     16.20760155     18.37174797
Na       18.39305115     16.08353996     22.95750618
Na       18.13793373     13.80753136     29.62808800
Na       18.50407600     11.62219334     32.16434479
Na       18.34509468     20.44350243      4.64445257
Na       20.36749268     18.40803146      9.04256058
Na       17.99412346     20.34070015     13.64170265
Na       15.80948830     22.78595352     18.40304947
Na       18.21013451     20.47762489     22.78673744
Na       18.56732559     20.24642754     27.47715569
Na       18.37586021     20.70649719     31.81052017
Na       18.25294685     24.87913322      4.59756947
Na       18.60742378     22.70502663     11.42485809
Na       18.19198608     25.02862740     13.70896053
Na       18.23848724     25.11857796     22.74838829
Na       18.35956001     25.36461639     27.41621208
Na       18.41325760     25.09514809     32.21954727
Na       18.29020309     29.83506584      4.61573076
Na       18.49466705     29.73670387     13.69783878
Na       18.12240410     29.89068222     18.29470825
Na       17.77603912     29.78537369     22.73747063
Na       18.59214783     29.81213379     27.43981743
Na       18.48806953     29.73533821     32.01333237
Na       22.89626503      4.41622591      6.87366009
Na       23.04936409      2.30305743      9.13286686
Na       25.36716652      4.46279716     13.70068836
Na       22.65900040      2.16645646     18.31423569
Na       20.61828613     -0.03629193     27.65485954
Na       23.12001991      2.45672989     32.11220169
Na       23.15650368      6.80466700      4.67384386
Na       23.28414726      9.34607029     11.45319366
Na       23.01826668      4.73646164     16.16327667
Na       22.94234848      6.83390236     18.42121506
Na       22.73525047      6.90197611     22.94880867
Na       23.13846970      6.66914415     27.43095398
Na       22.88363838      6.93971539     31.90003777
Na       23.04627991     11.36628819      4.46040392
Na       25.14550018      9.18152905      9.16562748
Na       25.32485199      9.10948849     13.80257034
Na       20.27092934      8.89148712     18.32981300
Na       22.72129440     11.44212246     22.64809036
Na       22.62180710     11.23205185     27.19046211
Na       22.60257721     11.52965069     31.98869896
Na       23.32573318     16.10712433      4.40617990
Na       22.78359795     15.90338993      9.03737068
Na       22.98467827     15.95392990     13.71304798
Na       22.49655342     16.07234383     18.06781197
Na       22.39854813     15.73420525     23.04187202
Na       22.80029678     15.84274101     27.35395050
Na       22.94511604     15.99531841     32.42733383
Na       22.76258087     20.59931755      5.04647446
Na       22.53616142     22.90329361      6.86890507
Na       22.73787308     20.52043343     14.07510281
Na       22.89254189     20.39698029     18.19757843
Na       22.78804207     20.52720261     23.01299858
Na       22.98830986     20.54252243     27.00966644
Na       22.78140450     20.34718132     31.78318977
Na       22.83456039     25.18294525      4.36724091
Na       20.48169327     27.43393898      9.34347057
Na       22.86427689     25.16641235     13.72471142
Na       22.83606529     25.31315804     18.26345444
Na       23.19203949     25.43494034     22.93153381
Na       22.42544365     24.97510529     27.52514267
Na       22.67191696     25.13736534     31.79479980
Na       22.88839340     29.85756493      4.43764353
Na       23.01618767     29.57221603      9.34107971
Na       22.67399597     29.67818260     13.71702099
Na       22.52397156     29.76806831     18.51605415
Na       22.60021019     29.81077194     22.93101883
Na       23.07473183     31.91234970     29.73484421
Na       22.84582901     29.78420258     31.77946663
Na       25.22698021     -0.09738774      4.42600584
Na       25.15738297      4.51722050      9.37761688
Na       27.40113258      2.21684575     13.77650452
Na       27.43080330      2.32661939     18.14407730
Na       27.31654167      2.25736547     22.73157310
Na       25.23565483      0.02541526     27.27583313
Na       27.26214790      2.15186429     32.11614227
Na       27.33585167      6.97481585      4.64464092
Na       27.13723564      6.83785629      8.76022339
Na       27.73880005      6.96270418     13.68102169
Na       27.15855980      6.91782808     18.10717583
Na       27.15032005      7.01633739     22.71143532
Na       27.59418106      6.87355232     27.97864914
Na       27.22323990      6.78697681     32.01606750
Na       27.63730621     11.32796097      4.33314276
Na       27.30266762     11.35355282      9.26567078
Na       27.60569572     11.35381603     13.90668774
Na       27.48521423     11.45303059     18.30070877
Na       27.36406136     11.22350788     22.66525459
Na       27.27700233     11.57668781     27.00464058
Na       27.16616058     11.57522297     31.91798782
Na       27.61879158     16.02422714      4.91630554
Na       27.66149902     15.71748924      8.97592354
Na       27.53166389     15.90085506     13.92407227
Na       27.36833382     16.11229324     18.61359215
Na       27.45701981     16.07252693     22.65195084
Na       27.31501389     15.80727482     27.80446815
Na       27.09523964     20.52244568      4.73481798
Na       27.13974571     20.68233299      9.28780174
Na       27.53146362     20.41293716     13.66100121
Na       27.73436928     20.49276924     18.41036987
Na       27.42156792     20.44050026     23.22684288
Na       27.31088638     20.68165779     27.61042213
Na       29.70409966     18.30951309     32.07839584
Na       27.59583092     25.13392448      4.48275185
Na       29.65190125     27.62125969      9.17317295
Na       27.39842224     25.22845078     13.64456463
Na       27.31826401     25.30184174     18.15690804
Na       27.38281631     25.08820724     23.42460060
Na       27.40973282     25.25418663     27.59403610
Na       25.11475754     22.66997910     31.69706726
Na       27.14655304     29.69494057      4.50197887
Na       27.62610817     27.23634529      6.85725689
Na       27.03893852     29.67239761     13.45298386
Na       27.60490608     29.88077164     18.29612541
Na       27.45616722     29.58754539     22.78626633
Na       27.47707558     29.80504036     27.21367264
Na       27.51244736     29.73985481     31.97517776
Na       -0.17215057     -0.02376735      2.42027211
Na        0.13739219      0.18063389      6.89648247
Na       -0.22038260      0.00748017     11.44978523
Na       -0.17028117     -0.49038279     16.02617836
Na       -2.12269688     -0.18367921     22.67460632
Na        2.37000799      0.22029063     22.84073448
Na        0.16157645      0.19101313     29.81037712
Na       -0.37476507      4.47009659      2.30223560
Na       -0.28516787      4.86345100      6.93403530
Na       -0.31088835      4.38864756     11.47845554
Na       -0.00016616      4.76727629     15.93517685
Na       -0.27135795      4.34112263     20.40249062
Na       -0.03202177      4.62035656     25.29211426
Na       -0.23061083      4.60789347     29.70642090
Na        0.35834473      9.21078682      2.53098202
Na        0.00740487      9.04493523      6.99317503
Na       -0.02153181      9.14301395     11.51788330
Na        0.17692903      9.02687645     15.82559776
Na       -0.01918806      8.82318497     20.58650208
Na       -0.32674778      9.04638386     25.07105064
Na       -0.02389415      8.99116611     29.86211395
Na       -0.19893570     15.64812279      4.88524246
Na        0.37529004     11.57723808      5.16407204
Na        0.00924490     13.88852882     11.74593639
Na        0.31829649     15.92373180     18.09761620
Na        0.16278034     16.01134872     22.46190453
Na        0.02812918     13.41634274     25.02278900
Na        0.20359822     13.54382515     29.61712265
Na       -0.07197455     17.97868729      2.15251851
Na       -0.01234036     18.04936600      6.79913425
Na        0.03616980     17.80216408     11.54934597
Na        0.37447402     18.46289444     15.93657017
Na       -0.10772732     18.27106667     20.51036835
Na       -0.00055860     17.99214554     25.01261330
Na       -0.11966711     18.20929527     29.70577240
Na       -0.05982611     22.74605560      2.46086383
Na       -0.03419891     22.54153252      6.58133125
Na        0.08424979     22.85481644     11.54688835
Na        0.12366460     23.04723740     16.10203743
Na        2.20270205     22.76820755     22.97232056
Na       -0.08976967     23.18104553     25.06702995
Na       -0.04999210     23.14567947     29.89661407
Na        0.27759713     27.52659988      2.07243085
Na       -0.04066977     25.00277710      9.44642258
Na        0.19054811     27.61848068     11.62939072
Na       -2.29822540     27.69348717     13.90896416
Na       -0.49199545     27.32855034     20.32906723
Na        0.04462654     29.39153862     22.55979919
Na        0.03639732     27.58115768     29.62501335
Na        4.45263958      0.20337646      2.33650637
Na        4.59991407     -0.26814392      6.67684078
Na        4.85925531      0.21107779     11.65362930
Na        4.52740669      0.14619115     16.18658447
Na        4.29951668     -2.37651825     18.26041794
Na        4.30512333      0.15402938     25.35674095
Na        4.56919527      0.17812830     29.89377403
Na        4.64396000      4.71508598      2.09068465
Na        2.26718187      4.40376425      4.68298531
Na        4.48744583      5.03612995     11.47043896
Na        4.36033964      4.29383993     15.92656517
Na        2.43433523      4.29412508     22.84547997
Na        4.27557373      4.67456102     25.03730011
Na        4.35001993      4.86267900     29.64882469
Na        4.60933971      9.40241146      2.18003798
Na        4.64076376      9.05006313      6.64257622
Na        4.34881687      9.24395657     11.62671852
Na        4.62291384      9.04967785     16.05559921
Na        4.64367247      8.91677570     20.54194450
Na        4.23083735      9.09870911     25.25358772
Na        4.44507790      9.48219395     29.89534760
Na        4.81268692     13.63639164      2.37623096
Na        4.30095911     13.87809467      6.90566683
Na        4.45760012     13.67296219     11.25891781
Na        4.87942600     13.71423912     15.93187523
Na        4.49144983     15.97382450     18.40875816
Na        2.41685915     13.84797382     22.74925613
Na        4.62623262     13.57860184     29.61262321
Na        4.56393957     18.45445824      2.28282881
Na        4.51967669     18.32486343      6.61059952
Na        4.75146532     18.34898376     11.27438641
Na        4.58981609     18.32996941     16.13063431
Na        4.75809526     17.94647026     20.66622162
Na        4.57437611     16.03885841     22.95540810
Na        4.82186317     17.95036697     29.81952477
Na        4.59568214     22.99505424      2.45936108
Na        4.38126755     22.62004089      6.84753132
Na        4.59542084     22.91404533     11.25725365
Na        4.39229679     22.86262894     16.15825272
Na        4.53760529     22.71102905     20.59631157
Na        4.96359062     22.97198486     25.23647881
Na        4.59315920     22.63981056     30.10915756
Na        4.68175793     27.28553963      2.33673048
Na        6.85476971     27.41290665      9.05099297
Na        4.33834314     27.26771736     11.54388618
Na        4.56754208     27.54979897     16.13744926
Na        2.35974717     27.35039902     22.61968613
Na        6.94080257     27.76569176     27.17865944
Na        4.68578434     27.48558426     29.54837036
Na        9.25863457      2.20354247      0.14361075
Na        9.35739326     -0.03208712      7.06732416
Na        9.16714764      0.03982920     11.63405800
Na        9.23808384     -0.04190742     15.87882233
Na        9.16624737     -0.27541688     20.58958817
Na        9.19105244     -0.18621582     25.27734947
Na        6.72630596      0.08122730     27.54107857
Na       11.45352364      4.52021217      4.54824924
Na        7.15045977      5.06756830      4.74722004
Na        9.04316521      4.24044561     11.38096809
Na        9.30644321      4.98056841     15.94962311
Na        7.03506994      4.50196171     18.32758713
Na        9.03573895      4.55911541     25.28147888
Na        8.99883270      2.49292803     27.35505295
Na        9.18619251      6.94695044      4.07627153
Na        9.02703476      8.90643787      6.91802359
Na        9.38657665      9.04294205     11.58393955
Na        9.32707787      9.54232597     16.17294312
Na        8.96313000      8.91585445     20.41767693
Na        9.45865726     11.22204018     27.18290710
Na        6.70104647      9.32576370     27.27793884
Na        9.04351330     13.22826099      2.29245663
Na        9.33811283     13.75093842      6.76677370
Na        9.21180439     13.39416409     11.26508904
Na        9.12283897     13.85885429     15.86075020
Na        9.30508423     13.58998108     20.74757004
Na        9.44567204     13.68295097     25.03216934
Na        9.16769409     13.39303112     29.62191582
Na        9.22333717     18.11028099      2.37844086
Na        9.03213024     18.24454498      6.78701258
Na        9.06961536     18.67362404     11.29990101
Na        9.21730518     18.49374008     15.96163082
Na        9.25494385     18.25139999     20.54110336
Na        8.86443996     18.29835510     24.96466827
Na        9.12614346     18.14500999     29.80525970
Na        8.87353706     22.92305183      2.38272524
Na        9.06629944     23.11033440      6.84599638
Na        9.43874264     22.73757744     11.48357296
Na       11.46204376     23.19166756     18.24710464
Na        9.11128521     22.75457191     20.38115883
Na        9.18820095     23.04916000     25.12412262
Na        9.13619900     22.92842102     29.67919540
Na        9.23825455     25.13311005      4.48749208
Na        4.37812185     27.54064560      6.73830748
Na        9.20601654     27.05692291     11.64395428
Na        9.23856831     27.22970772     15.73125839
Na        7.02091122     27.59589767     23.04612160
Na        9.10707474     27.53311920     25.33028412
Na       13.79248714      0.01926279      2.40307164
Na       13.45704937     -0.01386514      6.78183222
Na       14.00324440     -0.02128499     11.43984127
Na       13.67645073      0.39321566     16.00579262
Na       13.21044064      0.03745289     20.76114464
Na       11.70332909      0.35330233     22.97380257
Na       13.32822895     -0.16697189     29.72616196
Na       13.80239677      4.63511896      2.12882352
Na       13.64004326      4.46401310      6.75912094
Na       13.81904411      4.17828321     11.37256908
Na       16.12508202      4.56549835     18.47612953
Na       13.83319187      4.89829445     20.85504913
Na       14.05174255      4.64884520     25.11951637
Na       13.63701916      4.10607910     29.59326553
Na       14.05003738      9.11239243      2.28943491
Na       13.07640934      9.30965233      6.65065765
Na       13.78290939      9.21815491     11.35302353
Na       13.63876152      9.19195175     16.04214668
Na       13.60853958      9.16245842     20.36582375
Na       11.70750713      8.80960083     27.32910919
Na       14.09694576      8.93994236     29.87722397
Na       13.97334099     15.82692528      0.22226182
Na       13.55589390     13.84266090      6.69463158
Na       13.70422745     13.41947079     11.46185493
Na       13.70971012     13.76265430     16.18553734
Na       13.69572258     13.93463326     20.51076317
Na       13.74526978     16.06976318     23.09540939
Na       15.90527725     13.61558819     31.96090889
Na       13.52515316     18.31242943      2.37364912
Na       13.76037502     18.36746788      6.80395222
Na       13.84040356     18.18809128     11.41229153
Na       16.01374435     18.10017204     18.13007545
Na       13.44260788     18.10619354     20.52402306
Na       15.78735542     18.19170952     27.22887993
Na       13.61237907     17.86700249     29.85860062
Na       14.02470303     22.95356369      2.22701001
Na       13.53481293     22.88040924      6.83606958
Na       11.74891472     22.81157112     13.82296181
Na       15.85458660     22.90015984     13.47415924
Na       13.56011963     22.98142624     20.46738815
Na       13.67899609     22.64660072     25.12524414
Na       13.73255253     22.91471481     29.66201210
Na       13.39631748     27.40310478      2.31210613
Na       13.61768436     27.37494087      6.80314398
Na       13.55972767     27.38273621     11.43615532
Na       13.73962593     27.32408524     16.14500999
Na       13.61697769     27.01021385     20.37077713
Na       13.62006378     27.31303406     24.90254784
Na       13.58216000     27.61614990     29.51469994
Na       18.20595741      0.08116864      2.18365979
Na       18.17087555      0.05289735      7.04961824
Na       18.25638008      0.06403545     11.36034775
Na       17.98373222      0.21550377     16.18462753
Na       18.35946846     -0.05397528     20.61353302
Na       18.33749771     -0.03567884     25.30739403
Na       18.38017464     -0.07471745     29.57090950
Na       18.43233681      4.48496628      2.39159346
Na       18.02546883      4.63514185      6.74359131
Na       18.37406540      4.48491049     11.57438564
Na       18.19899940      4.50730610     15.95523834
Na       18.49514198      4.33887672     20.48754120
Na       18.10184669      2.02996182     22.82784653
Na       20.73036194      4.01099586     27.24254608
Na       18.12423706      8.92981911      2.35287666
Na       18.05754852      9.09814358      6.94242859
Na       18.52877808      9.43808651     11.42985630
Na       18.47931290      7.03705645     13.83041382
Na       18.13696480      9.12192345     20.66989899
Na       18.06665230      9.46579647     24.87453270
Na       18.35487747      9.63679409     29.79126549
Na       18.10530281     13.68675327      2.31110811
Na       17.85007858     13.87910938      6.73001623
Na       18.29669762     13.64621162     11.28967953
Na       18.51983643     13.64020252     15.89681053
Na       18.44500542     13.59271336     20.70897675
Na       18.15628624     13.76314068     25.33604240
Na       18.34782410     15.85246086     31.93811798
Na       18.37388992     18.22758865      2.33201838
Na       17.99197578     18.25863838      6.89402676
Na       18.36731339     18.47704506     11.05000305
Na       18.40696335     17.93327141     15.70367050
Na       18.34455872     20.63479233     18.27383614
Na       17.95090103     18.21166229     25.25064659
Na       18.20817947     18.27261162     29.88278580
Na       18.56970787     22.92205429      2.30314445
Na       18.60987091     23.18863106      7.08248615
Na       20.59281349     22.57978439      9.07517147
Na       18.17245293     22.76880836     15.84278774
Na       18.25991631     22.93965340     20.61332512
Na       18.15954781     22.94822121     25.05923462
Na       18.18782806     23.09330559     29.65056229
Na       18.16658211     27.16613579      2.26795793
Na       18.64594650     27.16044235      6.78684378
Na       18.06209755     27.54207611     11.31768608
Na       18.08776665     27.31998444     15.92761707
Na       18.36506844     27.47148705     20.73161697
Na       18.37625122     27.26188850     25.20360947
Na       18.26328468     27.22037506     29.79434204
Na       22.70056915      2.37414980      4.65818167
Na       22.89133835     -0.37181124      6.71746922
Na       22.97493935     -0.07011184     11.35160542
Na       22.61697960     -0.16734166     16.14836121
Na       22.80613518      2.17224503     22.81801414
Na       23.01113892      0.21999592     24.94783592
Na       20.71254158     -0.03482040     32.07218170
Na       22.57007790      4.68873549      2.28331542
Na       22.95539474      6.90179110      8.94445801
Na       22.44208717      4.83067179     11.33585358
Na       22.82885361      2.05899239     13.91702271
Na       22.56475830      4.66173172     20.57323837
Na       22.63067055      4.56672812     25.09925461
Na       22.89383125      4.69956541     29.62913704
Na       22.86455727      9.45260525      2.50948453
Na       23.04459572      9.22504044      6.73076916
Na       22.97245598     11.45563793     13.56783867
Na       22.78569984      9.21907711     15.96499252
Na       22.71547127      8.79114246     20.64311981
Na       22.97146225      9.22821331     25.06516457
Na       22.54684639      9.06466579     29.57821274
Na       23.18216515     13.46744537      2.24643326
Na       22.51547241     13.74845505      6.72581387
Na       22.52538681     13.66857338     11.23851204
Na       22.57172966     11.37050533     18.18007851
Na       22.98286057     13.60567951     20.49544334
Na       22.75865555     13.60149670     24.89244270
Na       23.05996513     13.89489269     29.77655029
Na       23.04451561     18.54748154      2.47341347
Na       22.81457329     18.29297829      6.87545443
Na       22.59327698     17.99816132     11.51649857
Na       23.17631721     18.24085999     15.88744068
Na       22.88026047     18.22152901     20.45715714
Na       23.09811211     18.12711906     25.10235596
Na       23.08885384     18.07924843     29.57707787
Na       22.98883820     22.66026115      2.28546691
Na       24.99414825     23.05035782      9.21801758
Na       22.89411354     22.94003487     11.35033607
Na       22.80476570     22.85737038     16.12598419
Na       22.88212776     22.70551872     20.79606247
Na       22.87256813     22.90771484     25.15950203
Na       22.76045036     22.67043114     29.63416672
Na       22.95749664     27.24298477      2.18399572
Na       22.86525154     27.33180428      6.72365332
Na       22.61252022     27.36055756     11.24171543
Na       22.94888687     27.32343292     15.94184017
Na       22.68599129     27.62547493     20.73508644
Na       22.64840889     27.24989319     25.03859329
Na       22.89585114     27.38649368     29.33491516
Na       27.55203629     -0.20149785      2.57456565
Na       27.33378029      0.27630132      6.81839132
Na       27.09213257      0.18433420     11.57065296
Na       27.56139755     -0.32770956     16.03019905
Na       27.04625511     -0.02426294     20.58537865
Na       27.43153381     -0.21165809     25.05603790
Na       27.20741463      0.07921353     29.94043732
Na       27.17440224      4.24076509      2.43614697
Na       25.16070557      4.68048048      4.67178774
Na       27.59679985      1.98874521      9.05295467
Na       27.50637054      4.67311144     16.12738228
Na       27.30779266      4.58113432     20.68894768
Na       27.44229126      4.80203772     25.18261337
Na       27.39093399      4.38254023     29.84922028
Na       27.48139381      8.91970730      2.15050435
Na       27.47651291      9.38030243      6.83929873
Na       27.62156868      9.05160522     11.45996857
Na       27.15913963      9.37721157     16.16960335
Na       27.33607292      9.19344139     20.67096710
Na       27.25466347      8.94295311     25.06897736
Na       27.41901588      9.21293259     29.64436531
Na       27.47856903     13.75389671      2.33267593
Na       27.69142151     13.52598000      6.81060839
Na       27.17171288     14.12689877     11.43154526
Na       27.17705727     13.78122330     16.09521675
Na       27.26602745     13.85515118     20.58291817
Na       27.16319847     13.56888199     24.99724197
Na       27.90300369     13.55916882     29.71631813
Na       27.61579323     17.92261314      2.46033001
Na       27.40993690     18.18312073      7.04510498
Na       27.34757996     18.28735733     11.63264275
Na       27.81189728     18.03061676     16.10392570
Na       27.23287010     18.64709663     20.46884155
Na       26.97813797     18.30912971     24.89499283
Na       27.51094055     18.25577736     29.72241592
Na       27.16650009     23.04592323      2.32261181
Na       27.42748833     22.86820793      7.15012074
Na       27.45212173     22.87295532     11.47815800
Na       27.52310562     22.68046951     15.89683533
Na       27.39793968     22.82005501     20.45769691
Na       29.79647255     23.26386261     27.36203957
Na       27.18816376     25.25497437     31.77528000
Na       26.84557533     27.39429474      2.59345436
Na       29.82325363     27.76331520      4.48230648
Na       27.63025665     25.16431999      9.17009163
Na       27.34665108     27.54621696     15.94793129
Na       27.67004013     27.20136833     20.66544914
Na       27.30676270     27.40140343     25.21972275
Na       27.26867104     27.68446922     29.78084373
O        -0.17219925     -0.03297462      4.72770166
O         0.00586961      0.02538329      9.26913452
O        -0.18831423     -0.04893992     13.77783680
O         0.06954885     -0.13899310     18.35135651
O        -0.02549645     -0.29352170     22.73638344
O        -0.06651858      0.10288214     27.42633247
O        -0.08871841      0.12688647     32.25610352
O        -0.14775653      4.56775284      4.70145559
O         0.04680581      4.62166023      9.15649033
O        -0.00677064      4.59805489     13.76833439
O         0.06906191      4.33099079     18.13682556
O         0.19041266      4.48232365     22.72738266
O        -0.10746572      4.60620546     27.26053619
O         0.03849680      4.56312275     32.00089264
O         0.08260132      9.04018497      4.74092865
O        -0.13401751      9.28699303      9.19329166
O        -0.08342391      9.11110115     13.67063999
O        -0.03575544      9.18783760     18.01567650
O        -0.15033762      9.22006226     22.96856117
O         0.05823240      9.12729931     27.54126740
O         0.05207506      9.24967575     32.08947372
O         0.26018563     13.69541168      4.56181765
O         0.12271459     13.81218338      9.57072830
O         0.16153358     13.79705524     13.97845840
O        -0.00121733     13.71775341     18.33320045
O         0.14611824     13.70155907     22.69374084
O         0.03323395     13.70894432     27.38273811
O        -0.16022463     13.77325249     31.86316872
O        -0.03325397     17.98141479      4.54938126
O         0.14357518     18.24619675      9.33867645
O        -0.19344760     18.10519028     13.68698120
O         0.10179418     18.20588112     18.13945580
O         0.23754445     18.16591835     22.85792351
O        -0.08017356     18.34333611     27.32421684
O        -0.05158122     17.98051262     31.96082306
O        -0.13793580     22.79585457      4.50007725
O        -0.06554160     22.59083176      9.14560223
O        -0.07301237     22.68544197     13.59621620
O         0.11118764     22.75388908     18.40793991
O        -0.11450792     22.64667130     22.77976799
O         0.05427421     22.91261864     27.58983803
O        -0.08391604     22.82475090     32.13759232
O        -0.12181641     27.43606186      4.52290344
O         0.00530274     27.18564796      9.21169090
O        -0.15792108     27.38743210     13.62816334
O         0.14151841     27.27741432     18.29679489
O        -0.00425835     27.33604240     22.89338875
O        -0.07545599     27.52953720     27.56139374
O        -0.32470521     27.40505981     31.78327560
O         4.59664488     -0.02893979      4.52577162
O         4.49149895      0.08153590      9.00230885
O         4.35990620      0.09933189     13.87750912
O         4.79451036     -0.09289483     18.31894875
O         4.59961843      0.21279196     22.90589523
O         4.47638416     -0.03363610     27.61278534
O         4.60680389      0.04433791     31.93889046
O         4.65169287      4.69747639      4.50488520
O         4.72872686      4.57549906      9.27096844
O         4.43539143      4.55481100     13.89255333
O         4.61407042      4.52306938     18.29382706
O         4.66050196      4.67315435     22.75638008
O         4.60407877      4.75462294     27.42762375
O         4.40905809      4.41796923     31.90392685
O         4.44095850      9.04828167      4.20867109
O         4.64121151      9.36938763      9.09907818
O         4.68239403      9.28007984     13.78956413
O         4.54337692      9.09099770     18.35535240
O         4.65388584      9.20495892     22.99761963
O         4.36869717      9.20942020     27.61349106
O         4.45161772      9.34354591     32.17090988
O         4.55298996     13.64315319      4.52108669
O         4.66272163     13.72635269      9.15037346
O         4.69623470     13.79666328     13.59906864
O         4.57354450     13.73657513     17.90736771
O         4.52673769     13.98400116     23.21561432
O         4.57377863     13.55640984     27.38149452
O         4.50452423     13.71470737     32.08543396
O         4.39637470     18.34976006      4.52061510
O         4.47894621     18.37463570      8.95033169
O         4.52422953     18.21113396     13.67270470
O         4.47091389     18.31228447     18.48236275
O         4.51075220     18.24490929     22.79229355
O         4.57311869     18.16069031     27.43873024
O         4.46401596     18.24424744     32.10173416
O         4.41069841     22.82161522      4.60502386
O         4.48706150     22.90911484      9.09759998
O         4.64978170     22.86777306     13.78403854
O         4.84676552     22.79581261     18.28707314
O         4.40505409     22.65573120     22.85542679
O         4.69358253     22.76423836     27.52676582
O         4.63269949     22.71173286     32.22262573
O         4.46885157     27.46539497      4.61268711
O         4.50380468     27.43893814      9.06308079
O         4.44714642     27.42463875     13.65978146
O         4.77490234     27.43813133     18.33552551
O         4.72917986     27.23725128     22.95503807
O         4.46328926     27.49545860     27.47699165
O         4.48810816     27.41962051     31.92083168
O         9.09287453     -0.04787985      4.88303471
O         9.25973511      0.11832874      9.49164009
O         9.02263355     -0.17040758     13.79749393
O         8.97803974      0.17810237     18.33116531
O         9.08280277      0.01555186     23.02257919
O         9.14185333      0.18458448     27.42755508
O         9.06277752     -0.16935629     31.70324135
O         9.29716969      4.61472416      4.52670145
O         8.98544693      4.28937435      9.08718872
O         9.15198612      4.85044575     13.63212109
O         9.31313705      4.64045382     18.26139450
O         9.37581253      4.57776737     22.98907471
O         9.08862686      4.75366592     27.53103065
O         9.00125504      4.67580891     32.20109558
O         9.16674328      9.40556812      4.41223860
O         9.21693325      8.97574806      9.18391228
O         8.94776058      9.09890652     13.59455013
O         9.21183014      9.01541424     18.31517982
O         9.10747433      9.18559361     22.79984856
O         9.12298203      9.00637722     27.33153152
O         9.13458347      9.15637493     32.03552246
O         9.00678062     13.84552383      4.42020035
O         9.03652191     13.57592773      8.94011307
O         9.21331692     13.76652431     13.63279629
O         9.15427017     13.53974247     18.33340073
O         9.19357109     13.72573662     22.92028618
O         9.06849098     13.58303070     27.17812538
O         9.11169338     13.44570541     32.18495560
O         9.29529381     18.29784393      4.75014877
O         9.08448219     18.40086937      9.11620045
O         9.08024979     18.16420937     13.48925591
O         9.13229752     18.28692055     18.25061798
O         9.11752987     18.16629791     22.74700546
O         9.11772633     18.12795830     27.26270866
O         9.24000931     17.97108078     32.01968765
O         8.90627384     22.80243683      4.51240969
O         9.17240906     22.62452316      9.22058678
O         8.93740654     22.80573082     13.57673931
O         8.97633171     23.03822327     18.32538033
O         9.03625202     22.70569229     22.97511292
O         9.06210518     22.87669182     27.39148140
O         9.13206863     22.71736526     31.93687248
O         9.07072639     27.42765045      4.53284454
O         9.05202007     27.44998360      9.20267200
O         9.16487980     27.11893272     13.75299644
O         9.31253529     27.39651108     17.97963524
O         9.23787975     27.45337486     23.19864845
O         9.04822731     27.45498276     27.56010818
O         9.12174225     27.36804008     31.99854660
O        13.64687920      0.05688577      4.64873505
O        13.55267525     -0.21705891      9.13865757
O        13.78397942      0.10788311     13.59967995
O        13.51154995      0.31164181     18.15632057
O        13.71519756     -0.09093420     22.87368202
O        13.60557842      0.01640507     27.55488014
O        13.65607834     -0.15434600     32.19626617
O        13.56998253      4.55047417      4.54528284
O        13.69179344      4.48745441      9.04980564
O        13.72612953      4.70352507     13.61260796
O        13.88879967      4.62200308     18.62669945
O        13.70094395      4.74914789     23.08091736
O        13.73477840      4.43786383     27.40544319
O        13.62901402      4.27952814     32.04253769
O        13.53047562      9.03120995      4.46241283
O        13.75343704      9.08360100      8.90534878
O        13.79012489      9.16125298     13.76846790
O        13.71272278      9.16908741     18.19541931
O        13.77174282      9.20531273     22.60373306
O        13.79243660      9.06845474     27.74875641
O        13.88629055      9.05737782     32.08085632
O        13.45173359     13.76634598      4.70305967
O        13.63766766     13.65694523      9.13290215
O        13.66507149     13.56617260     13.71701336
O        13.69743156     13.92873478     18.27715874
O        13.88463879     13.92143917     22.74744034
O        13.53544331     13.75608444     27.46817207
O        13.61046219     13.61222839     31.93484497
O        13.69537067     18.39978981      4.53410244
O        13.59666443     18.42131996      9.20605659
O        13.85905170     18.22811127     13.67039680
O        13.69423008     18.31478310     18.14056396
O        13.60167027     18.33802605     22.97274208
O        13.65772152     18.20814896     27.49618721
O        13.58822918     18.07164192     32.21816635
O        13.85868835     22.78571892      4.82960606
O        13.62841225     22.94026756      9.13868713
O        13.78089523     22.90673065     13.73994446
O        13.59535027     22.89226341     18.25684929
O        13.69447327     23.09723854     22.77331924
O        13.80781937     22.97217751     27.48142624
O        13.57539177     22.95378113     31.89513779
O        13.59221554     27.67871475      4.55179644
O        13.60975933     27.41743469      9.22244835
O        13.83407021     27.57495117     13.81720352
O        13.75153923     27.69479179     18.30680656
O        13.68921947     27.36360168     22.53859138
O        13.68537712     27.48279381     27.35421371
O        13.79886818     27.44574547     32.20097351
O        18.31777382     -0.05108875      4.63213634
O        18.32936668      0.11536869      9.31669617
O        18.43123245     -0.01047662     13.84918213
O        18.21598625     -0.00268510     18.52098274
O        18.36375046      0.04130041     22.88757706
O        18.18145943      0.07711679     27.43539238
O        18.22595215     -0.05571050     31.88313675
O        18.29721069      4.67076588      4.69046497
O        18.43595886      4.77606010      9.28573322
O        18.37672234      4.75439596     13.87029266
O        18.30432701      4.44772863     18.24076080
O        18.28744507      4.40326405     22.76542282
O        18.40210342      4.33943272     27.34329033
O        18.38441086      4.45382833     32.00996399
O        18.28268242      8.95830917      4.56149197
O        18.09832001      9.29021358      9.38218403
O        18.41338348      9.29549217     13.98395729
O        18.11089706      9.17465878     18.38394737
O        18.26005745      9.04020786     22.80993080
O        18.20772552      9.33167076     27.49539185
O        18.25805664      9.18926525     32.18735886
O        18.30794716     13.45915127      4.53724432
O        18.15406990     13.88836575      9.17957306
O        18.26229477     13.61073589     13.65577793
O        18.46339035     13.84337616     18.02107048
O        18.31192589     13.78726768     22.88197327
O        18.59812164     13.81439877     27.53010178
O        18.24505234     13.74612141     31.90393257
O        18.30884933     18.22250748      4.65754700
O        18.11367035     18.37125397      9.01084614
O        18.28891754     18.12574768     13.29813957
O        18.25805664     18.32624817     18.12034035
O        18.29032516     18.35889244     22.80527878
O        18.19700623     18.19330978     27.42252922
O        18.42557144     18.20811653     32.00256729
O        18.25076675     22.77027321      4.48136950
O        18.48402977     22.66697693      9.21042061
O        18.26173401     22.64697647     13.69636822
O        18.23235130     22.96356392     18.21496773
O        18.24867821     22.87541580     22.90368652
O        18.32761192     22.77019691     27.31378365
O        18.25228500     22.97580719     32.05226135
O        18.38250542     27.26695251      4.43538475
O        18.41085052     27.69631577      9.02112007
O        18.34312439     27.36876869     13.56244469
O        18.51563644     27.51431465     18.24342728
O        18.21014214     27.39577293     22.90948486
O        18.24021912     27.57527542     27.49048042
O        18.37122536     27.31330299     32.00198364
O        22.70751762     -0.04839547      4.39494944
O        23.08452797     -0.04394192      8.94379616
O        22.91903687     -0.06489007     13.78787804
O        22.88349915      0.14937826     18.43433762
O        22.93273544     -0.05828556     22.81877518
O        22.86812019     -0.03984392     27.58681107
O        22.92537498     -0.03915703     31.94073105
O        22.84147835      4.58414030      4.49043798
O        22.83499718      4.57721663      9.16033840
O        22.75815582      4.33157682     13.68056488
O        22.87420082      4.35105562     18.40535736
O        22.76459122      4.60332680     22.64307404
O        22.98038292      4.44329977     27.48137093
O        22.74728394      4.61797953     31.73879242
O        23.00043106      9.17665100      4.64993525
O        22.88203239      9.09964561      9.02795124
O        22.68114853      9.21245098     13.76255322
O        22.62411690      8.95513248     18.35674477
O        22.66437340      9.02210712     22.89113617
O        23.05629921      8.94050980     27.33234024
O        22.75885582      9.17736244     31.85721397
O        22.85285950     13.71012974      4.63434982
O        22.87684822     13.79260826      9.09552002
O        22.96325684     13.62607670     13.40294075
O        22.74784279     13.68333530     18.20438766
O        22.66129112     13.59792900     22.69219017
O        23.03413391     13.56935406     27.46513557
O        23.11137581     13.88099384     32.04614639
O        22.92198563     18.34408760      4.68411732
O        22.70502853     18.23981667      9.06075764
O        22.75965309     18.27726364     13.57446575
O        22.81804466     18.17679214     18.17251778
O        23.00862503     18.06384468     22.71299934
O        22.74009705     18.30834389     27.27214622
O        22.94527054     18.23557663     32.15207291
O        22.83580780     22.95915985      4.68023634
O        22.80446815     22.82733917      9.12231636
O        23.00535965     22.92795944     13.64116383
O        23.07848167     22.84914780     18.34873581
O        22.75271225     22.84451866     22.97589302
O        22.59875298     22.88051605     27.30380821
O        22.81067085     22.75834274     31.93609428
O        22.84562683     27.37947845      4.45816755
O        22.87165260     27.44370079      9.01830292
O        22.78369904     27.58106613     13.73671913
O        22.90947723     27.59932899     18.47123337
O        22.46472931     27.33838844     23.00217819
O        22.69482231     27.28455162     27.32064819
O        22.85440445     27.39970589     31.72881699
O        27.24690247     -0.02753005      4.75476122
O        27.41575241      0.00418488      9.02605534
O        27.21846771     -0.07218375     13.85976601
O        27.27515984      0.10200699     18.47132111
O        27.59736252     -0.07268531     22.77150345
O        27.54214668      0.03017694     27.31411171
O        27.09932518     -0.07715162     32.08652496
O        27.45668793      4.85003614      4.74568224
O        27.45452881      4.48207378      9.10358238
O        27.55035210      4.61440468     13.65415001
O        27.53494453      4.69671297     18.13581276
O        27.16930199      4.55934954     22.86696243
O        27.39081192      4.61683989     27.43520737
O        27.34309196      4.42856741     32.10281372
O        27.49288368      9.22387218      4.52464199
O        27.51576042      9.13519955      9.20900249
O        27.43909454      9.07680893     13.77097130
O        27.18632126      9.18268013     18.21105957
O        27.34419060      9.18430328     22.77957535
O        27.34369469      9.32050323     27.38720322
O        27.55549240      9.03501225     32.13441849
O        27.32896233     13.76799870      4.58479071
O        27.60509491     13.43145180      9.11148930
O        27.34639549     13.65169621     13.70134258
O        27.43574142     13.70436954     18.38483429
O        27.28724480     13.50373554     22.87360191
O        27.43918610     13.64300537     27.30725861
O        27.46793365     13.77756405     31.83623695
O        27.30010796     18.07440567      4.63631630
O        27.19778442     18.13290977      9.17758465
O        27.57977295     18.30794525     13.87404633
O        27.47589493     18.23822975     18.36571884
O        27.64463425     18.18277740     22.70835304
O        27.43955803     18.24328041     27.37774277
O        27.64866066     18.31857872     31.90127563
O        27.48037338     22.77761269      4.73201180
O        27.50759506     22.83847618      9.29631138
O        27.48536110     23.05780220     13.66954231
O        27.60483170     22.85472107     18.12533951
O        27.39381409     22.69393921     22.83812141
O        27.65300369     23.08178520     27.43166351
O        27.32871819     22.79409027     31.87571526
O        27.43267441     27.34200668      4.57834005
O        27.43934059     27.47785568      9.00775528
O        27.50060463     27.48143005     13.74387264
O        27.46201897     27.59164810     18.28661346
O        27.35079384     27.34627533     22.88496971
O        27.07455444     27.30994606     27.30390930
O        27.27157974     27.50614548     31.93625641
H         1.68621504      1.54898345      1.55366898
H         1.59433103      3.10754633      2.94880843
B         2.28541160      2.27739906      2.30618978
H         2.92734337      1.48688436      2.91902328
H         2.92769265      3.07811046      1.49122107
H         1.65725422      1.58178103      6.06843805
H         1.58587480      3.00585294      7.51985455
B         2.26451659      2.28536081      6.88735485
H         3.04216504      1.57956088      7.45069504
H         3.07440686      2.96893597      6.03397608
H         2.94505000      3.04352140     10.73290539
H         1.45763910      1.62336004     10.81303883
H         1.52249992      2.89852715     12.11729813
B         2.32091045      2.27716398     11.41473198
H         2.82963991      1.65863705     12.14688206
H         2.96090913      3.07524610     15.16663837
H         1.58853924      1.60604560     15.24405766
H         1.53028214      3.05608368     16.61829758
B         2.29325128      2.27426481     16.02322006
H         2.97176695      1.51776814     16.64831924
H         2.93669462      2.88665819     19.75782967
H         1.54456210      1.65688550     19.64245033
H         1.51215219      3.03444433     21.30263901
B         2.29097104      2.27899575     20.58890152
H         3.08254552      1.62641096     21.30070496
H         3.06587744      3.12532306     24.61498070
H         1.55472243      1.49008405     24.46992302
H         1.78667462      3.03842998     25.84854698
B         2.25702190      2.26802731     25.10741806
H         3.03281260      1.66820836     25.90237617
H         2.98916578      3.04809999     29.09215736
H         1.53182960      1.64705276     28.97003746
H         1.61397505      3.08807540     30.31912041
B         2.27427721      2.25875211     29.70767212
H         3.12003756      1.63830221     30.41001701
H         2.89905643      7.68330336      1.54629397
H         1.62721217      6.22445822      1.65087187
H         1.61089396      7.59504318      3.00845790
B         2.29809713      6.83268118      2.27328587
H         2.86235762      6.15657902      3.06001878
H         2.94697332      7.47307825      6.06573439
H         1.61306918      6.10811424      6.12365103
H         1.57852757      7.44970369      7.65221596
B         2.30100608      6.87566805      6.85686731
H         2.82975149      6.16741896      7.55836916
H         2.97148991      7.54711866     10.70339203
H         1.57604015      6.31522846     10.65802956
H         1.52537966      7.64314175     12.09259605
B         2.28133821      6.82598543     11.43567753
H         3.10636473      6.22571611     12.13144779
H         2.96186352      7.58480310     15.24126339
H         1.63178778      6.26752186     15.26502323
H         1.60399175      7.58884001     16.59820938
B         2.27741313      6.83606768     16.01546097
H         3.02373147      6.18189526     16.65604019
H         3.03418088      6.17408800     21.35222054
H         2.87831187      7.66375208     19.93508911
H         1.58466196      6.20172834     19.80685997
H         1.67136300      7.70527983     21.23787880
B         2.28234100      6.82471323     20.55828094
H         3.05382848      6.20764971     25.89629555
H         3.05527329      7.60384226     24.47117424
H         1.43828595      6.16328192     24.42824936
H         1.56385541      7.52119589     25.81509590
B         2.28768086      6.84791708     25.12839699
H         3.04264235      6.24820566     30.38498497
H         3.00307560      7.61360836     28.99630737
H         1.50750351      6.33856249     29.04709625
H         1.47441101      7.59591103     30.32772255
B         2.29547620      6.81991720     29.71095467
H         2.96655893     10.72589493      3.19155192
H         2.96311498     12.16262627      1.56893957
H         1.44769096     10.76429558      1.60389626
H         1.58413613     11.99122429      3.01670623
B         2.30164194     11.43021679      2.26252198
H         2.93113804     10.61957645      7.43947411
H         2.95079899     12.07918072      6.07169628
H         1.73243380     10.61348438      6.08526564
H         1.62402427     12.17402077      7.55397558
B         2.27582622     11.44492722      6.88013411
B         2.27984309     11.43749905     11.42080784
H         2.96302080     10.72416115     12.16035366
H         2.99385738     12.06626034     10.68874454
H         1.62718439     10.66135502     10.65677547
H         1.61124980     12.11416340     12.23909378
B         2.28418064     11.42531681     16.00618362
H         2.89734817     10.64737988     16.69390488
H         2.95070505     12.21848011     15.20031738
H         1.65948367     10.67813683     15.28443146
H         1.64125204     12.15259743     16.68137741
B         2.28779554     11.44958305     20.54276466
H         2.86669445     10.61187077     21.34456444
H         2.94834876     12.18565369     19.90238953
H         1.60894644     10.56812572     19.94029808
H         1.68602610     12.07066441     21.31122971
B         2.26431727     11.43017292     25.07891464
H         2.95762920     10.78436661     26.03161621
H         3.02664900     12.13824463     24.57049561
H         1.62293613     10.66283417     24.51798439
H         1.75462365     12.05906963     26.02145958
H         1.66075587     12.08672905     30.54470634
B         2.25121450     11.45214272     29.67618942
H         2.98276472     10.68961143     30.36512947
H         3.15999103     12.08437920     29.09170341
H         1.69886529     10.54814529     29.12746239
H         1.48801327     16.67905235      2.93065572
B         2.30519795     15.99001026      2.27456355
H         2.94713426     15.27892303      2.96290183
H         3.01178670     16.77594948      1.63653696
H         1.47642314     15.29958057      1.72184539
H         1.59007108     16.67830086      7.58659220
B         2.30743217     15.98355198      6.83928442
H         2.87479281     15.32105255      7.65379477
H         2.96554208     16.83625221      6.15565205
H         1.46898925     15.26717281      6.19252205
H         1.56851804     16.60749817     12.10210896
B         2.28795981     15.98454762     11.41647720
H         3.05789208     15.31371593     12.29922676
H         2.99895239     16.74567604     10.66875935
H         1.48289084     15.42520618     10.72130966
H         1.65805233     16.64323235     16.74941635
B         2.28134179     15.97916317     15.97932434
H         2.96664500     15.42426586     16.79192162
H         2.98089528     16.69998932     15.31721592
H         1.57364380     15.38236332     15.28956413
H         1.55396533     15.31521797     19.78023720
H         1.59465158     16.72554588     21.27577019
B         2.29643393     15.99166775     20.56507492
H         2.98761249     15.24961662     21.38205719
H         2.88112998     16.72534943     19.82111931
H         1.52925599     15.40256023     24.48649979
H         1.52910650     16.57500648     25.86982155
B         2.29589915     15.99250507     25.12374115
H         2.95648408     15.38922787     25.88300514
H         3.00824952     16.63995552     24.42140198
H         1.59354937     15.14138031     29.05409050
H         1.66940594     16.82847786     30.36663055
B         2.27584386     15.99197865     29.69563103
H         2.98921180     15.19210529     30.39176178
H         2.98604107     16.85043907     29.10798645
H         1.61002326     19.86087227      1.61183989
H         1.48215294     21.24018478      3.00556922
B         2.29730368     20.57707787      2.29332137
H         2.92982697     19.79223442      2.94633698
H         2.98602867     21.23715401      1.48700035
H         1.52756166     19.83780861      6.25075340
H         1.48872554     21.11502647      7.57396221
B         2.31679511     20.59311676      6.84576893
H         2.84554672     19.71254921      7.66038465
H         2.93713617     21.29303932      6.03390551
H         1.72328222     19.95678329     10.67947960
H         1.61144555     21.31814384     12.09401321
B         2.25707841     20.54901505     11.44907856
H         3.05566549     19.90122223     12.03773880
H         3.04908800     21.25529099     10.63049412
H         1.57392418     19.95285225     15.17588139
H         1.58206022     21.34589767     16.62302971
B         2.30389667     20.55047226     16.01217270
H         2.98558259     19.83909035     16.74492836
H         2.79574800     21.27796173     15.25195312
H         1.68702030     19.72588348     19.90885735
H         1.61980772     21.27310181     21.32405090
B         2.24459815     20.58492661     20.56284523
H         3.07551193     19.90084457     21.08187675
H         3.19100451     21.14641953     19.96832657
H         1.64648473     19.81969070     24.47472382
H         1.55336595     21.03655815     26.02699280
B         2.25075459     20.61090660     25.11429214
H         3.07961416     19.87115288     25.88241196
H         3.22784519     21.04020691     24.37795258
H         3.00122476     21.24258232     28.94018745
H         1.58897948     19.94110489     29.02777672
H         1.51963115     21.22434235     30.26309395
B         2.28345132     20.56910133     29.72943115
H         3.04677582     19.80796432     30.32688522
H         2.97417831     25.89101410      1.68905497
H         1.46599221     24.42255211      1.59264708
H         1.56006539     25.89334869      2.86778688
B         2.28805757     25.13004875      2.28427935
H         3.10696626     24.38617134      2.99824023
H         2.74475408     25.95114708      6.09923935
H         1.66114283     24.42843246      6.17393255
H         1.59476292     25.94283295      7.54062843
B         2.31709361     25.12700081      6.85564327
H         2.79510832     24.30338478      7.59929562
H         3.14671254     25.60848999     10.68328190
H         1.60305679     24.36010742     10.66862011
H         1.46774650     25.75846481     12.19308186
B         2.26920605     25.17073822     11.44054508
H         3.09188843     24.42959213     11.98828506
H         3.08326554     25.93769646     15.30104160
H         1.51875186     24.50558662     15.25693512
H         1.65238106     25.84817314     16.69263077
B         2.25983357     25.11365891     15.98334312
H         3.15553164     24.47742844     16.85441971
H         2.98181009     25.86475754     19.90392876
H         1.63138449     24.40718269     19.87017822
H         1.54235148     25.98754311     21.24709511
B         2.27751446     25.12777328     20.56793976
H         3.06474113     24.35800552     21.20724106
H         2.96233034     25.93127060     24.32979202
H         1.65438461     24.44719505     24.41108513
H         1.53807890     25.96628380     25.73391151
B         2.28478813     25.12143326     25.16680527
H         2.98747730     24.34075546     25.72404671
H         2.95397139     25.87068176     28.91074181
H         1.54759848     24.47353172     28.98633575
H         1.57595444     25.76673317     30.44796944
B         2.29756498     25.13545036     29.70027161
H         2.92770362     24.42420769     30.52565193
H         3.01716757     30.50200653      1.61497426
H         1.59640336     29.01164055      1.55375540
H         1.63363016     30.52599907      2.86027217
B         2.26705837     29.68407440      2.30426645
H         3.08523583     29.00479126      2.90434837
H         3.05747890     29.16249084      7.59383583
H         2.98796582     30.35551071      6.06019211
H         1.56676280     29.21857071      6.04675961
H         1.49833369     30.43737411      7.60618448
B         2.28774643     29.67199898      6.86553764
H         3.06916499     29.09443092     12.05696487
H         3.08503890     30.51543427     10.82466412
H         1.52044582     29.00639915     10.75250626
H         1.60390842     30.50413132     12.06153488
B         2.27208185     29.67699242     11.42540264
H         2.96001601     29.06937027     16.69528961
H         2.98144007     30.38438225     15.31123161
H         1.60890639     29.04780197     15.31108665
H         1.63805592     30.35537910     16.68770981
B         2.28048563     29.70155525     15.99263859
H         3.06483674     29.16721916     21.24855995
H         3.18788266     30.28872681     19.84303665
H         1.58403969     29.01078796     19.80965233
H         1.54870927     30.35744095     21.44032288
B         2.26211429     29.70460892     20.55739403
H         2.96592474     28.97687912     25.94792747
H         2.97406268     30.32502937     24.45112991
H         1.61345017     29.06982803     24.55221558
H         1.59957814     30.23781586     25.86885071
B         2.28378654     29.72461891     25.10888290
B         2.29908657     29.71542931     29.69114113
H         2.92039084     29.04999542     30.45113754
H         3.03042746     30.40097618     29.02005577
H         1.47715259     28.97444534     29.05454445
H         1.56093800     30.28270340     30.44290161
B         6.83817148      2.26708078      2.31452537
H         7.64085484      1.65493655      2.85649109
H         7.58979082      2.95454073      1.54960871
H         6.21601439      1.67219269      1.51580083
H         6.15383530      3.05052710      2.90141392
B         6.84278154      2.28583741      6.84709930
H         7.56182384      1.66730332      7.60020971
H         7.63522959      2.96217251      6.14272022
H         6.14973307      1.58616233      6.13498402
H         6.20426226      2.91537952      7.62682247
B         6.86853123      2.28355074     11.42247295
H         7.48363352      1.61169529     12.17753601
H         7.58727407      3.02358222     10.63988113
H         6.09629107      1.60688663     10.73871326
H         6.10766220      2.91337943     12.17097378
H         6.14351797      3.02489233     16.83471489
B         6.85813618      2.28923392     15.96733570
H         7.59164524      1.66802025     16.73108101
H         7.56935978      2.89897251     15.44926071
H         6.08183193      1.50270033     15.26165390
H         6.10807371      3.12413406     21.22545433
B         6.88003778      2.26347780     20.53952789
H         7.54229450      1.59563267     21.26575470
H         7.49473047      3.11687064     20.07549667
H         6.00634480      1.53420460     19.96650505
H         6.21139431      2.94367743     25.92113876
B         6.85583401      2.28530455     25.11279869
H         7.55905199      1.61738300     25.99336624
H         7.54009628      2.99694896     24.46061325
H         6.10050917      1.57872474     24.40299797
H         6.17923212      3.05789232     30.41921997
B         6.87774706      2.25850868     29.70038605
H         7.47785521      1.64270759     30.49977112
H         7.43005610      3.09064436     29.00404930
H         6.08886909      1.63289535     28.94643593
H         6.28913546      7.52800703      3.06399107
B         6.85158348      6.83798313      2.27012014
H         7.49392843      6.29726219      3.09472299
H         7.52425385      7.58906412      1.60981965
H         6.14932394      6.18818235      1.53106499
H         6.20611763      6.24264908      6.17742777
H         6.16923046      7.60899687      7.51554966
B         6.87098503      6.84019470      6.85344505
H         7.48040152      6.12163639      7.59967566
H         7.39279366      7.60551500      6.14402246
H         6.10684299      6.18725348     10.71282387
H         6.08258200      7.57660294     12.11134243
B         6.85618448      6.85074186     11.42855644
H         7.62782717      6.17342854     12.10090637
H         7.59004307      7.52838230     10.73678303
H         6.13384390      6.10432386     15.36005211
H         6.21905661      7.61535358     16.69925308
B         6.84549093      6.84978342     15.96959877
H         7.60885191      6.18061924     16.70817184
H         7.56023741      7.57565641     15.48496151
H         6.14469814      6.18328524     19.79411316
H         6.22710276      7.52546644     21.35589218
B         6.87120914      6.84457254     20.55656242
H         7.42120314      6.23343086     21.38815117
H         7.45313549      7.58965778     19.81232643
H         6.19532156      6.14367342     24.42152023
H         6.17153263      7.67132378     25.80317116
B         6.85844278      6.83566236     25.14764214
H         7.49750471      6.12909985     25.79395676
H         7.51871252      7.68331575     24.38573647
H         6.10844374      6.17535067     28.98869324
H         6.32410192      7.61352825     30.36991501
B         6.85496712      6.83026505     29.68439484
H         7.54795694      6.21049118     30.55043221
H         7.43984413      7.68593311     29.13194656
H         6.16501570     10.64149094      1.65239477
H         6.07452011     12.04297543      3.02343869
B         6.84814548     11.45576477      2.28224111
H         7.58120060     10.57223034      3.00220466
H         7.67278099     12.11332130      1.49155295
H         6.12457800     10.79479218      6.08974123
H         6.11949158     12.13630295      7.70480490
B         6.86893129     11.40834618      6.84171486
H         7.50249386     10.85956573      7.63494444
H         7.52400780     12.08795738      6.13299990
H         6.12332153     10.90857410     10.67806339
H         6.02149630     12.13774586     12.06828880
B         6.87017441     11.41071033     11.44099617
H         7.62498283     10.75567627     12.11936188
H         7.48743582     12.05127144     10.66271210
H         7.63390493     12.12487221     15.38731003
H         6.15268660     10.68844223     15.30196190
H         6.20315838     12.15974903     16.55428505
B         6.83466959     11.42197418     16.01389122
H         7.64831018     10.75938416     16.53381538
H         7.46221447     12.16656685     19.82706070
H         6.21906042     10.69080925     19.85733414
H         6.18391180     12.17144203     21.29007530
B         6.86351919     11.42610645     20.56491661
H         7.46343565     10.65931416     21.28642273
H         7.50346375     12.13307095     24.37447929
H         6.06797838     10.90103149     24.49895096
H         5.97899723     12.09758186     25.69080544
B         6.88174248     11.41297436     25.15086937
H         7.58272076     10.69730282     25.80555153
H         7.55326557     12.09376812     28.91835976
H         6.10564995     10.69096565     29.00266457
H         6.19363499     11.92147732     30.55990219
B         6.87534189     11.44207287     29.68736839
H         7.34925985     10.81066513     30.52818680
H         7.53103113     16.64420700      1.56163645
H         6.26456404     15.19445038      1.58356893
H         6.28196859     16.60487175      3.15916944
B         6.84569740     16.02065086      2.25944877
H         7.44220781     15.26134109      3.10968280
H         7.57640982     16.68503380      6.23226595
H         6.20094347     15.17236519      6.13085365
H         6.26931429     16.71807671      7.60486841
B         6.83714151     16.00611496      6.84490395
H         7.56487942     15.28530598      7.56029701
H         7.52478456     16.65139389     10.65884209
H         6.11254692     15.36758137     10.66972733
H         6.12550831     16.62754822     12.15547657
B         6.86597109     15.99420452     11.42704487
H         7.53948069     15.34200191     12.19401741
H         7.61172104     16.64649582     15.27267551
H         6.34454870     15.18013573     15.29625320
H         6.27700043     16.69046593     16.80195236
B         6.82005787     16.01887894     15.98580170
H         7.56150770     15.20677090     16.70776939
H         7.62373924     16.65430450     19.92083740
H         6.21349335     15.23876858     19.95233727
H         6.18656015     16.64973640     21.37206650
B         6.83529854     16.01492310     20.53277206
H         7.60752058     15.22348595     21.36041641
H         7.64225245     15.46099567     25.83980560
H         7.50805283     16.70616722     24.58658028
H         6.10204554     15.36711025     24.35849571
H         6.27509451     16.76120377     25.76064301
B         6.84498215     15.96558666     25.13448334
H         7.44988585     15.31235218     30.49265480
H         7.50791407     16.69369698     28.97171974
H         6.13023138     15.24262428     28.96002007
H         6.19136953     16.64426041     30.50124550
B         6.86810780     16.00311661     29.69515038
H         7.71863222     19.86273575      2.87927198
H         7.59073830     21.20558929      1.60155499
H         6.22515202     19.90198326      1.51290548
H         6.19683933     21.32255173      2.86833978
B         6.82597065     20.56193352      2.31091189
H         7.68493509     19.93582916      7.52520227
H         7.49863005     21.19690323      6.02862215
H         6.14705229     20.08837700      5.99486494
H         5.99412060     21.38359261      7.52558613
B         6.86388159     20.53286171      6.88723278
H         7.40985441     19.80327988     12.14759636
H         7.45614290     21.25337601     10.68329620
H         6.19608545     19.73517227     10.66147804
H         6.20871830     21.26256180     12.20307064
B         6.86890984     20.58416748     11.42542458
B         6.86119366     20.56696510     15.98578930
H         7.57224846     19.94157219     16.73534584
H         7.60946465     21.23645401     15.32539463
H         6.04596472     19.81232643     15.23336411
H         6.12588453     21.24856377     16.78467369
B         6.85569572     20.58136749     20.58321571
H         7.65551424     19.74638557     21.16668129
H         7.55709076     21.18760681     19.85583496
H         6.15897036     19.90579796     19.91682243
H         6.04095984     21.24462891     21.12528038
B         6.85523844     20.55937004     25.14592361
H         7.50960732     19.82650566     25.84440994
H         7.53134680     21.33622742     24.34781456
H         6.19655704     19.85738945     24.40043831
H         6.17992401     21.30023766     25.83016014
B         6.86836338     20.57718658     29.69200325
H         7.49320889     19.83908844     30.51381874
H         7.51001072     21.22749901     28.95102692
H         6.14316797     19.92058372     29.04932594
H         6.13027763     21.14209175     30.44521141
H         6.09299803     25.84885406      2.91613841
B         6.86889410     25.14034271      2.29798365
H         7.55339336     24.38618469      2.93334150
H         7.54014063     25.85280418      1.57793581
H         6.08443689     24.39482689      1.57332456
H         6.15410519     25.82262039      7.57281971
B         6.84590626     25.13466454      6.87018585
H         7.55229902     24.45843124      7.51119328
H         7.55035973     25.75905418      6.06500387
H         6.26076698     24.50346756      6.10809994
H         6.12371445     25.94630623     12.05004120
B         6.85006332     25.12602234     11.44815063
H         7.64669323     24.37779427     12.07801151
H         7.53351068     25.86109543     10.68176365
H         6.16902971     24.45107841     10.64186764
H         6.23312140     25.88023758     16.75371170
B         6.85595560     25.13109016     15.97205544
H         7.52672863     24.43053246     16.78888321
H         7.54484367     25.93352318     15.37913799
H         6.10505342     24.33763695     15.30435753
H         6.10812569     25.67344093     21.18882751
B         6.87265348     25.14822388     20.56115341
H         7.52765274     24.39748573     21.33742905
H         7.57886696     25.87325668     19.83365440
H         6.01600266     24.45396423     19.94134521
H         6.22633886     24.37558937     24.41799545
H         6.17625570     25.88362312     25.85906410
B         6.86702633     25.14146805     25.13856316
H         7.44306898     24.38066292     25.80390549
H         7.44533873     25.83073616     24.42080116
H         6.03671932     24.39857674     29.03306770
H         6.04695129     25.83124924     30.35440063
B         6.87239599     25.14245415     29.70732880
H         7.57979536     24.34009361     30.42311478
H         7.56994247     25.89010811     28.98443794
H         6.06780386     28.97355080      1.68195057
H         6.17662716     30.30751991      3.00188613
B         6.86494017     29.71103287      2.26148725
H         7.49232054     29.05175972      3.03250074
H         7.57662487     30.42243767      1.67585528
H         6.04435730     28.99626732      6.27614307
H         6.10284662     30.33703423      7.46422768
B         6.88443804     29.71029663      6.84743547
H         7.45947552     28.93063354      7.58835220
H         7.49757338     30.49925804      6.17241049
H         6.16697454     28.93767738     10.71414948
H         6.16669846     30.39125252     12.11983967
B         6.86389780     29.71602249     11.43212891
H         7.47335577     28.96397209     12.09326935
H         7.51753187     30.40885544     10.69626808
H         6.30015945     28.99888802     15.20540428
H         6.23923206     30.51739120     16.63146019
B         6.84250736     29.70598602     16.01411057
H         7.58840656     28.89538765     16.67403412
H         7.42619324     30.39775085     15.26411533
H         6.21039677     29.06743622     19.93280792
H         6.16887236     30.44211197     21.27431488
B         6.85640144     29.68936920     20.55542755
H         7.50781107     29.03634453     21.26388168
H         7.51788807     30.44175720     19.89163971
H         6.10971308     29.14651108     24.38754654
H         6.24577951     30.40998459     25.85180283
B         6.86235380     29.67200470     25.12102127
H         7.53039455     29.13217926     26.00220299
H         7.45523357     30.48522186     24.44837379
H         6.20760393     29.03760338     28.83504486
H         6.17843151     30.50195503     30.39307785
B         6.84044790     29.69443893     29.73075294
H         7.65336323     29.03282166     30.36868668
H         7.53668022     30.36088181     28.94694710
H        12.17460251      3.08688426      1.66078889
H        10.65421486      1.59331024      1.65319812
H        10.71940231      3.02928782      2.94680858
B        11.42031574      2.27166986      2.27077174
H        12.20201206      1.57349193      3.03181362
H        12.17269516      2.87891507      6.14851761
H        10.76320171      1.57538199      6.05706596
H        10.70262432      3.03094411      7.53002930
B        11.40677547      2.29172921      6.87570953
H        12.25694752      1.58258128      7.46225214
H        12.07038784      3.04311776     10.74780655
H        10.76253033      1.59250927     10.68606949
H        10.85276222      3.01462293     12.08718395
B        11.41256237      2.27687335     11.42368793
H        12.14771938      1.57691395     12.19301033
H        12.14684868      3.01828337     15.28723621
H        10.71613312      1.46076727     15.40162182
H        10.61769104      3.00233936     16.72128487
B        11.44371986      2.30214620     15.99135780
H        12.01853085      1.47469938     16.60890961
H        12.14982605      2.90907526     19.92236710
H        10.67214108      1.56594956     19.92693329
H        10.69102097      2.88562989     21.35316849
B        11.43641281      2.29737496     20.54319572
H        12.06459618      1.64661229     21.29138565
H        12.23894215      3.01909757     24.46029282
H        10.70423698      1.57904494     24.49055099
H        10.67421722      3.01885629     25.76938820
B        11.40965748      2.28336287     25.13890648
H        12.24716568      1.54056108     25.77785110
H        12.13919067      2.94756484     29.01477814
H        10.73167324      1.60503852     29.06028938
H        10.64457130      2.98915601     30.37795067
B        11.43010616      2.28773212     29.70873260
H        12.12978363      1.56893516     30.32695198
H        12.02403736      7.56742954      1.58950186
H        10.72200680      6.11249065      1.41033804
H        10.83140659      7.63719368      3.02373672
B        11.41893291      6.85265064      2.28489494
H        12.18761349      6.12807941      3.11754823
H        12.00228977      7.56180859      6.16642857
H        10.76442242      6.11755896      6.08431578
H        10.76837826      7.63996553      7.56171894
B        11.43139267      6.85453749      6.85778952
H        12.09633923      6.10562325      7.57761097
H        12.11850739      5.92642403     12.05770779
H        12.07056046      7.59649515     10.65522766
H        10.62341022      6.05265522     10.73351097
H        10.53626537      7.60535717     12.01862240
B        11.45774746      6.87728882     11.44690228
H        11.99903011      6.15093946     16.72575569
H        12.04356003      7.53460789     15.21390533
H        10.63722610      6.18484831     15.29234505
H        10.60875225      7.48464108     16.72032166
B        11.46335888      6.86105633     15.99757957
H        12.16618824      6.20744896     21.17628098
H        12.15486336      7.57827473     19.94255829
H        10.59435749      6.14533281     19.86911774
H        10.70696926      7.53910494     21.12578583
B        11.43223572      6.85032320     20.57863426
H        12.08604145      6.04643488     25.88216972
H        12.11708450      7.58648920     24.45415306
H        10.67693043      6.12288570     24.56164742
H        10.67298508      7.48294067     25.80966377
B        11.43870068      6.87189817     25.11936951
H        12.12265682      6.17354393     30.36576462
H        12.17741108      7.59983730     29.11361122
H        10.57314968      6.16482353     29.15964508
H        10.64864731      7.47830677     30.29898643
B        11.44160748      6.85532475     29.69399834
B        11.37412739     11.42840672      2.27553487
H        12.15475559     10.83046913      2.97100163
H        12.19098091     12.07409859      1.68637240
H        10.89522743     10.58172417      1.47385323
H        11.00468063     12.17716503      3.11029363
B        11.41358757     11.42045498      6.85343838
H        12.15582561     10.76975536      7.57241821
H        12.15054607     12.14761639      6.19423389
H        10.71237469     10.64483833      6.06403685
H        10.80365753     12.18653107      7.60605288
B        11.42190933     11.44141388     11.44042110
H        12.08381367     10.65826130     12.09938622
H        12.09985256     12.10330963     10.65147018
H        10.78316212     10.66266060     10.67190838
H        10.76631832     12.09971333     12.11182880
B        11.40750408     11.43740559     16.00661087
H        12.05626678     10.69280243     16.64560699
H        12.16900349     12.14020348     15.21892071
H        10.83801365     10.61404896     15.25290489
H        10.82435989     12.11987400     16.73801613
H        10.85365295     12.08384418     21.37453270
B        11.40111351     11.41253567     20.53975296
H        12.10947514     10.82049942     21.37206078
H        12.26696110     12.23885822     19.87835312
H        10.72610855     10.69048309     19.90582275
H        10.63435841     12.12540150     25.77852821
B        11.42160034     11.40968323     25.14481354
H        12.25908852     10.76628685     25.84419441
H        12.14369202     12.07567215     24.39838791
H        10.69931507     10.89691067     24.41361618
H        10.87340927     12.15150166     30.49348068
B        11.39991474     11.42917347     29.69478416
H        12.11691570     10.73495674     30.44043159
H        12.17655087     12.15808868     29.03013611
H        10.80217743     10.61067772     28.96549225
H        10.87629795     16.69809151      2.93747187
B        11.41327381     15.96667099      2.28951621
H        12.17739964     15.46282387      3.05929255
H        12.12825108     16.77076340      1.62730002
H        10.64382076     15.35216808      1.46749461
H        10.61967087     16.51821518      7.56751442
B        11.42980385     16.02295494      6.85244989
H        12.11280918     15.29464340      7.50297117
H        12.20165253     16.54251671      6.12894440
H        10.71434307     15.32477188      6.24791622
H        10.69844723     15.23822498     10.69357300
H        10.74636650     16.61094284     12.04993343
B        11.41804409     16.01853561     11.43864632
H        12.17424774     15.21757698     12.11850071
H        12.15554714     16.66081047     10.69162560
H        10.74307537     15.31355000     15.30941200
H        10.67809105     16.74156761     16.60159683
B        11.45191765     16.00029564     16.00440598
H        12.05608559     15.16709805     16.68306541
H        11.93402100     16.70097160     15.28502369
H        10.73163414     15.31172371     19.85671806
H        10.71838093     16.67141914     21.22363853
B        11.43345356     15.99883747     20.57416725
H        12.08675957     15.27653027     21.24557686
H        12.07255554     16.67915344     19.83573151
H        10.71886635     15.28585911     24.31149292
H        10.75308704     16.80246353     25.79251099
B        11.41445732     15.97916985     25.15706635
H        12.20110035     15.36128712     25.75130463
H        12.14001465     16.70017052     24.44800758
H        10.74262142     15.28436279     28.91124916
H        10.75601292     16.67679024     30.39964294
B        11.42401409     16.00437164     29.71698761
H        12.13407898     15.29972458     30.39767265
H        12.07785225     16.61859322     28.98283768
H        10.65191460     19.87194633      1.64712572
H        10.63490105     21.15919876      2.94064307
B        11.43664455     20.58405113      2.28423953
H        12.13895130     19.74297142      3.05260444
H        12.14932251     21.28153038      1.50778091
H        10.66483974     19.91226006      6.14890766
H        10.72102356     21.31716537      7.49232435
B        11.41956902     20.53993225      6.86387205
H        12.17928696     19.93132973      7.52943802
H        12.19309998     21.36809349      6.15416527
H        10.72229385     19.95041466     10.62389660
H        10.75483799     21.28654671     12.17577267
B        11.41204262     20.55105209     11.42231750
H        12.22936630     19.96072006     12.19801140
H        12.13248062     21.21190071     10.73108768
H        10.64734459     19.86646271     15.19781017
H        10.70485401     21.36022949     16.63896561
B        11.42629910     20.55203819     16.00777626
H        12.22287560     19.89857101     16.66436768
H        12.11098862     21.27374268     15.34180641
H        12.09154892     21.33932686     19.95104790
H        10.54707050     19.84078026     19.87162209
H        10.69081974     21.27500534     21.24361801
B        11.44003487     20.56522560     20.54337120
H        12.20929241     19.80246162     21.42568398
H        12.10822582     21.30781555     24.48101997
H        10.74591160     19.81514168     24.44762230
H        10.76165199     21.32546997     25.76182556
B        11.41896534     20.56534576     25.14102745
H        12.14892673     19.80783844     25.78487015
H        12.22012329     21.27976608     29.05616188
H        10.77696323     19.82411003     29.01065254
H        10.80446815     21.29776955     30.38411903
B        11.39225388     20.56670189     29.70251846
H        12.24966908     19.84007263     30.39566231
H        12.09815216     25.83763695      1.58757329
H        10.80057335     24.41630173      1.47951496
H        10.84439468     25.90187454      2.97548604
B        11.39895916     25.13479805      2.28948855
H        12.23618507     24.38632774      3.04928136
H        12.12952995     25.74283791      6.16783857
H        10.70960236     24.52914047      6.08593941
H        10.69923401     25.83510590      7.54602194
B        11.41830635     25.12807846      6.86083126
H        12.23342419     24.50714493      7.55764866
H        12.04190731     25.66364670     10.59520721
H        10.79884624     24.50177193     10.56778908
H        10.73571873     25.75419235     12.27576733
B        11.42812157     25.14798737     11.42759895
H        12.09003258     24.48106384     12.23334694
H        11.98699760     25.98147964     15.15936852
H        10.67745209     24.53902245     15.28853130
H        10.71920204     25.81056786     16.74299622
B        11.46198750     25.10998344     15.98964500
H        11.91961861     24.47723961     16.84652710
H        12.16515636     25.79013443     19.83927345
H        10.66180325     24.47862244     19.72231674
H        10.76392651     25.80496788     21.23301315
B        11.41699123     25.12572670     20.58526421
H        12.19500923     24.56572342     21.24803352
H        12.25705910     25.82457542     24.41464424
H        10.74816799     24.38644981     24.49647331
H        10.68116379     25.80975342     25.84951591
B        11.41175270     25.14555550     25.13652611
H        12.15569496     24.40598679     25.76297379
H        12.10363579     24.47252655     30.55392075
H        12.01077843     25.88517570     28.97146034
H        10.76502514     24.49821091     28.90428352
H        10.78873920     25.92863846     30.50452614
B        11.42796612     25.11219978     29.69435310
H        12.12000942     28.98810196      3.01759338
H        12.14927483     30.47644997      1.70139217
H        10.62542057     28.97986984      1.72242606
H        10.72070312     30.36013603      2.93054199
B        11.43288612     29.70643806      2.26337433
H        12.10352421     29.03830528      7.64766836
H        12.12127399     30.41372299      6.10369110
H        10.62785721     29.00737381      6.09051085
H        10.66269016     30.39207077      7.64376640
B        11.44221497     29.70206451      6.84888029
H        12.19663239     28.92347717     12.05238056
H        12.02512932     30.33355331     10.70312023
H        10.83266830     29.10793495     10.71607399
H        10.64482975     30.50843811     12.05576324
B        11.42506886     29.70001984     11.44109726
H        12.13257980     28.92157936     16.70729637
H        12.03255367     30.50007248     15.25916958
H        10.68852043     29.00336075     15.24092484
H        10.68967152     30.51716995     16.62436485
B        11.43960667     29.69360733     16.00881958
B        11.41170311     29.70096779     20.55251694
H        12.14584064     28.98022270     21.27876282
H        12.09974003     30.42208290     19.93495560
H        10.80478191     28.94088745     19.84951782
H        10.79225254     30.52004814     21.33062935
B        11.43406010     29.70650291     25.12672615
H        12.27979565     29.00098038     25.95650864
H        12.18887997     30.30404663     24.35186958
H        10.61852074     29.14534378     24.40531540
H        10.51562500     30.35349464     25.91504097
B        11.46092606     29.69765663     29.69375801
H        11.97904110     28.95722580     30.51341057
H        11.98011112     30.51044846     28.97410774
H        10.65997791     29.07630348     29.09425354
H        10.69552326     30.35475922     30.35879135
B        15.98420906      2.27704740      2.26126504
H        16.69050026      1.59030533      3.10917568
H        16.73042488      3.10109282      1.62693846
H        15.27861977      1.48095977      1.55751705
H        15.39619541      3.05293822      3.10094595
H        15.35314560      3.01209259      7.63032007
B        15.98660469      2.31876802      6.86107445
H        16.63798332      1.51713467      7.44610786
H        16.71966362      2.90955973      6.18742371
H        15.35924244      1.33901954      6.09098816
H        15.23674965      2.88921690     12.19778919
B        15.99703598      2.30052185     11.43537140
H        16.73821068      1.62533057     12.16588211
H        16.78503227      2.90413189     10.62437820
H        15.19816113      1.55483592     10.60070515
H        15.25888729      3.00730133     16.77619362
B        15.99781132      2.29628968     16.00345421
H        16.65723991      1.52697754     16.69257927
H        16.62660408      2.89305234     15.19328785
H        15.40710163      1.59157634     15.22725391
H        15.18141937      2.93440652     21.34912300
B        16.00354004      2.31545210     20.56931496
H        16.62956047      1.45971513     21.22846794
H        16.71394157      2.89813113     19.74516487
H        15.36348152      1.52112269     19.89094925
H        15.33018970      2.89639521     25.90736389
B        15.97491646      2.30317760     25.12161446
H        16.68412399      1.61659706     25.78349876
H        16.89401627      2.98242307     24.47489166
H        15.28707314      1.44961417     24.51780128
H        15.23243809      1.52440131     29.04483414
H        15.20194721      3.01055813     30.44387436
B        16.00867271      2.29325390     29.69428825
H        16.69346237      1.52967036     30.40811348
H        16.70550346      2.98684001     29.03806114
H        15.23752689      6.18494415      1.54551065
H        15.18461800      7.53940821      2.99816847
B        16.01018715      6.85795307      2.29414368
H        16.70121002      6.12970066      3.00050378
H        16.69373703      7.53426933      1.49774182
H        15.33652878      6.24571705      6.08182526
H        15.24004078      7.56456137      7.49065065
B        15.97727871      6.85113668      6.88379955
H        16.82806587      6.19562387      7.44425631
H        16.76543045      7.45553303      6.09436607
H        15.17394352      6.26566839     10.69093990
H        15.19327354      7.53862810     12.09753513
B        16.01115608      6.84259367     11.42769051
H        16.75716972      6.17638016     12.20615196
H        16.68231201      7.57238722     10.67650986
H        15.30526924      6.23104668     15.13934708
H        15.29884434      7.64695263     16.82986069
B        15.97694778      6.82858753     15.99516010
H        16.80789185      6.34743547     16.70704651
H        16.76161194      7.47785807     15.30201626
H        15.23354530      6.29886055     19.72252083
H        15.35748577      7.49603319     21.17933464
B        15.98462200      6.83562994     20.58796883
H        16.79312515      6.30469465     21.29744148
H        16.70715523      7.52816868     19.81432533
H        15.30543232      6.13340425     24.34858322
H        15.34746933      7.61324549     25.82382584
B        15.99558258      6.85360336     25.13991928
H        16.71059799      6.07935572     25.91991234
H        16.61023521      7.60896873     24.39489746
H        15.20897579      6.21483088     28.96084595
H        15.29484940      7.56663752     30.30006027
B        16.01464653      6.84198236     29.71647644
H        16.67731476      6.14710712     30.45365906
H        16.58812904      7.63104820     28.98230743
H        15.28881073     10.72547531      1.63906610
H        15.25343323     12.09021759      3.03978467
B        16.01148796     11.43503666      2.26765990
H        16.63228226     10.67388153      3.05599999
H        16.62862206     12.10277081      1.59113383
H        16.66305923     12.22912312      6.24798727
H        15.17377472     10.72560787      6.16071320
H        15.37294865     12.11722374      7.51422358
B        15.99092293     11.42183399      6.82890129
H        16.81394005     10.66200066      7.77700329
H        16.86761475     12.06934547     10.87246037
H        15.22577763     10.74519253     10.96521282
H        15.34523582     11.85713291     12.17348957
B        15.97865772     11.44596958     11.37410355
H        16.71664810     10.80340576     12.23473454
H        16.63536263     12.12258148     15.15791225
H        15.31992435     10.79696083     15.17672729
H        15.35208988     12.07160091     16.69374084
B        15.99696827     11.42004395     16.01278305
H        16.65150261     10.76200581     16.76086044
H        16.78031540     12.10370064     19.86981964
H        15.20968246     10.72826481     19.83924484
H        15.24635887     12.09759712     21.19272804
B        15.98628521     11.43137646     20.57456398
H        16.83711052     10.70204258     21.25562668
H        16.74894714     12.00321770     24.37077904
H        15.38114166     10.60947895     24.48287964
H        15.25585938     12.01640129     25.92517090
B        15.99376297     11.46526527     25.13414192
H        16.60731125     10.63901424     25.77035141
H        16.70250130     12.05081177     28.99798012
H        15.32111645     10.74160576     29.02249146
H        15.19829559     12.14912224     30.29321098
B        15.98677921     11.44225788     29.72063255
H        16.84624863     10.57334995     30.33864975
H        16.82843208     16.68552208      1.64034677
H        15.22965240     15.32196903      1.67873597
H        15.22409153     16.65269279      2.99602127
B        15.98764324     15.99355602      2.27080584
H        16.77672005     15.33528996      2.97714019
H        16.74452209     16.68716621      6.16496944
H        15.23748970     15.35945415      6.06504297
H        15.35663605     16.66794777      7.53945494
B        15.97878456     15.98351192      6.85696793
H        16.81526756     15.38863754      7.62941790
H        16.74867630     16.69730949     10.74540424
H        15.29907608     15.28969765     10.72140694
H        15.24894333     16.77144051     12.11245441
B        15.98906898     15.98624325     11.43284702
H        16.74691391     15.31545734     12.03656292
H        16.66766548     15.17844200     16.66701126
H        16.60562897     16.74788094     15.22968006
H        15.34221363     15.29102039     15.28022003
H        15.31861401     16.72093964     16.57803154
B        15.99927711     15.99888802     16.01598167
H        16.76569557     15.36826897     21.22524452
H        16.72368813     16.58867836     19.81859207
H        15.44108582     15.23423481     19.64254951
H        15.45858479     16.74722290     21.34178162
B        15.95686245     15.99887753     20.58661270
H        16.66540337     15.27940369     25.77145195
H        16.71176338     16.65161133     24.46367264
H        15.27291012     15.22801590     24.45864487
H        15.27778435     16.65176582     25.81796837
B        15.99986076     16.01077461     25.13763237
H        16.60013580     15.30942631     30.37718201
H        16.61545372     16.72955704     28.87656021
H        15.30142975     15.28083324     28.86328506
H        15.37819195     16.66607094     30.32901192
B        16.00290489     15.99445057     29.73986244
H        16.66287422     19.89096260      2.97494149
H        16.58480835     21.38424301      1.66890800
H        15.30326366     19.88614655      1.58602715
H        15.36548805     21.40489960      2.91753149
B        16.00092697     20.53644562      2.28430915
B        15.97928047     20.58045387      6.85759497
H        16.62604713     19.77947235      7.52451372
H        16.71350670     21.28803062      6.10449219
H        15.42786980     19.72781944      6.14029741
H        15.38117599     21.29891968      7.62285995
B        16.01217270     20.56612015     11.42840481
H        16.71459389     19.80159950     12.19342041
H        16.58016968     21.25325012     10.70361042
H        15.25243664     19.98854637     10.75613308
H        15.24859715     21.20456696     12.01031399
B        15.97698307     20.55570984     15.98418522
H        16.78148270     19.85519409     16.65511513
H        16.76000404     21.34645653     15.43619061
H        15.28330421     19.84072495     15.40024090
H        15.34845257     21.31725693     16.60443687
B        16.00190735     20.57075882     20.53591728
H        16.56706047     19.88357544     21.25314140
H        16.66672134     21.25257111     19.97019386
H        15.34885120     19.79768372     19.98396111
H        15.32326317     21.26439095     21.36462021
H        15.36830235     21.42845917     25.82993889
B        15.96861076     20.55118179     25.13937187
H        16.76566696     19.92342949     25.68460464
H        16.74001122     21.25746727     24.56439400
H        15.38905621     19.79884529     24.41415596
H        15.38876057     21.20836639     30.41409302
B        15.97695255     20.57219315     29.68947983
H        16.68796158     19.79568100     30.49140739
H        16.69464302     21.29236031     28.99176407
H        15.40219498     19.88642693     29.08919334
H        15.28107738     25.70461082      3.06808615
B        15.99727917     25.14786720      2.29006124
H        16.63935471     24.50008583      3.00704169
H        16.73822212     25.74243355      1.47847593
H        15.29688740     24.45485115      1.53210878
H        15.28642082     25.86771774      7.66179085
B        15.97239590     25.14944267      6.85454273
H        16.76232147     24.35488319      7.56925154
H        16.78060150     25.79345703      6.08072186
H        15.39309502     24.36901665      6.11313915
H        15.24330521     25.89087486     12.09307957
B        15.99596119     25.13956070     11.42477322
H        16.71227646     24.36100769     12.05748081
H        16.75803757     25.90103722     10.76447582
H        15.25605679     24.33815956     10.78738880
H        15.41738987     24.37917328     15.24949360
H        15.40506077     25.85974884     16.80897141
B        15.97365665     25.13690948     15.98841476
H        16.66624451     24.48793602     16.68787766
H        16.72022438     25.79263687     15.30427742
H        15.29437828     24.57837105     19.82899857
H        15.32663822     25.86330605     21.27597427
B        15.98393726     25.10382843     20.56280899
H        16.75945473     24.56032562     21.32627869
H        16.71817589     25.87233162     19.85223389
H        15.23934937     24.45195961     24.44185448
H        15.27905178     25.76949883     25.92625427
B        16.00077057     25.12870598     25.12464714
H        16.63741112     24.52321434     25.89470291
H        16.76228905     25.86282158     24.38823128
H        15.36612701     24.42233467     28.87182617
H        15.41879082     25.88145638     30.43031502
B        15.97773361     25.13275337     29.71123505
H        16.73821640     24.41601753     30.48929787
H        16.64204597     25.84426880     28.96167755
H        15.10138607     29.02125931      1.64981008
H        15.26201057     30.40094948      2.81197238
B        16.02254677     29.68771172      2.29023933
H        16.66037941     28.96634102      3.02751565
H        16.66076469     30.61687851      1.59450614
H        15.30039978     29.05477333      6.18892956
H        15.35160732     30.46183395      7.55227995
B        15.96621990     29.68439865      6.84035301
H        16.84007835     29.02466202      7.63359976
H        16.79660416     30.49967957      6.20229006
H        15.19789410     29.13311577     10.80864620
H        15.29719257     30.34631538     12.12770271
B        16.00173187     29.68076515     11.40166950
H        16.69546700     29.05973625     12.30038071
H        16.71723175     30.54075813     10.71349907
H        15.25529861     29.00348091     15.45589161
H        15.22747517     30.35535622     16.59008408
B        16.01419640     29.71740150     15.98688602
H        16.64710426     28.87673950     16.68900490
H        16.64422417     30.45139503     15.33202934
H        15.32665348     28.93752861     19.91249657
H        15.35459900     30.47110558     21.27524757
B        15.97585392     29.69245529     20.56181908
H        16.69738770     29.04340744     21.19731522
H        16.80671501     30.50249863     19.90904808
H        16.78882217     30.36571121     24.52522278
H        15.28194332     29.03777122     24.37414169
H        15.34125328     30.45747948     25.83750534
B        15.97206497     29.68591690     25.13800430
H        16.81397438     29.16369820     25.77088928
H        16.81518364     30.29485703     29.04438210
H        15.27019882     28.96034241     29.02252388
H        15.27995586     30.30695724     30.43076897
B        15.98096752     29.72603416     29.70067978
H        16.76516342     29.03222084     30.36864853
H        21.33965302      3.04121757      1.65588689
H        19.76932335      1.45691514      1.63018036
H        19.86924171      2.96700358      2.99122858
B        20.57247925      2.29004622      2.27897501
H        21.20153809      1.62073803      2.92732573
H        21.31742477      3.10028791      6.06272268
H        19.77993011      1.53261995      6.06108665
H        19.90032387      2.98153114      7.57813883
B        20.56921959      2.27482986      6.86633110
H        21.21704102      1.63464105      7.59651089
H        21.39446068      2.94231009     10.67606163
H        19.89118767      1.48077595     10.78709984
H        19.85145187      2.87100792     12.32079029
B        20.56279564      2.30627799     11.40373230
H        21.14651680      1.61768067     12.14414978
H        21.39080811      2.98096752     15.23482895
H        19.79038429      1.51699066     15.35582352
H        19.79086494      2.85949135     16.73064232
B        20.56839371      2.30805278     15.98995304
H        21.25151825      1.53528702     16.71282768
H        21.26769829      2.93621564     19.90116882
H        19.89942551      1.48280406     19.88618279
H        19.84824562      3.00238252     21.22813225
B        20.56207275      2.30636120     20.57192039
H        21.27601242      1.48947847     21.17027473
H        21.25028992      3.05076361     24.39796638
H        19.86026764      1.65632713     24.46038055
H        19.75080109      3.09781528     25.81227493
B        20.57322121      2.26647878     25.13909912
H        21.31045341      1.53374791     25.82538795
H        21.17292595      3.06517529     29.01360512
H        19.88577080      1.60348582     28.82921028
H        20.00165558      3.13368487     30.39845276
B        20.56010056      2.25041246     29.72080612
H        21.25217438      1.70863128     30.40919113
H        21.22735023      6.23087788      3.12470126
H        21.31469345      7.64592552      1.67391515
H        19.92011261      6.01912308      1.54950309
H        20.15634727      7.53410101      3.10021973
B        20.53157425      6.85406494      2.25625253
H        21.25948906      6.04347134      7.63365507
H        21.14912796      7.64167166      6.14463854
H        19.89946747      6.20338774      6.19419193
H        19.83280754      7.65877819      7.54039907
B        20.57610321      6.84313011      6.84633970
H        21.25172806      6.14999962     12.15970039
H        21.34543419      7.51360655     10.69695950
H        19.89809227      6.09640932     10.73707485
H        19.94154739      7.43003750     12.16983700
B        20.54851532      6.87643862     11.41907215
H        21.10344887      6.06804371     16.73748398
H        21.22788239      7.54878616     15.29755688
H        19.89029694      6.01747274     15.37141991
H        19.90514183      7.46007586     16.77320671
B        20.57741928      6.88535833     15.97638321
H        21.20701981      6.14967108     21.21880722
H        21.26488495      7.49521732     19.74962044
H        19.88798714      6.13699102     19.79480934
H        19.82202911      7.51599264     21.29744720
B        20.57227707      6.86638594     20.58358002
B        20.56861877      6.85247183     25.16374016
H        21.27580833      6.04472780     25.79860878
H        21.24665451      7.63375473     24.30133629
H        19.87985039      6.15505505     24.38250923
H        19.81885910      7.61357117     25.74927139
B        20.54922104      6.88221931     29.66588020
H        21.12965012      6.10493422     30.41108894
H        21.35547638      7.58089828     29.10468292
H        19.96315765      5.93146515     29.15703964
H        19.98095131      7.51074839     30.56676483
B        20.56102562     11.41643047      2.29688144
H        21.23351097     10.75993824      2.99613190
H        21.25242805     12.13297558      1.48818994
H        19.92083359     10.73220539      1.47937334
H        19.89583206     12.16679382      3.04886651
B        20.55596542     11.40269947      6.85327625
H        21.27514839     10.68872452      7.54615021
H        21.23489571     12.23849297      6.17096281
H        19.94567490     10.73768330      6.17967033
H        19.90116692     12.27429390      7.54169941
H        19.93489647     12.19978905     12.15426445
B        20.57103920     11.42275333     11.42498589
H        21.20284843     10.69117451     12.16548347
H        21.14317513     12.15133381     10.72472191
H        19.91430092     10.68179703     10.65567112
H        19.88211250     12.19640732     16.70741844
B        20.56981087     11.41596031     15.99287987
H        21.18167114     10.66800213     16.70108223
H        21.27434731     12.28274822     15.25987816
H        19.87024117     10.64979362     15.33434677
H        19.87043953     12.16945267     21.17022133
B        20.55916405     11.41525936     20.56944847
H        21.30867958     10.68619823     21.23464012
H        21.26874542     12.19393635     19.88933563
H        19.87470627     10.75488472     19.91808701
H        19.92619705     12.04064369     25.99168015
B        20.56767082     11.44921303     25.11321068
H        21.10428619     10.72141647     25.86458397
H        21.31712914     12.12639141     24.43708229
H        19.88371468     10.55183792     24.48034668
H        19.69824409     12.19427681     30.19790268
B        20.56211090     11.40769863     29.73858261
H        21.48014832     10.71824360     30.26107025
H        21.26585770     12.04315567     29.00172043
H        19.84672737     10.92989349     28.99908066
H        19.88527870     15.38447380      1.60767043
H        19.81996155     16.79130554      2.90021491
B        20.58553505     15.97251606      2.29660273
H        21.19979095     15.22454262      2.99482965
H        21.13469696     16.82082558      1.51283455
H        19.89983749     15.18248081      6.04557085
H        19.93274689     16.84079170      7.70304918
B        20.53482056     15.98351669      6.84694099
H        21.36370468     15.40214634      7.51629305
H        21.38741493     16.67774773      6.24152565
H        19.82456589     15.28171444     10.79308987
H        19.84765816     16.69735909     12.00932503
B        20.59792137     16.00136375     11.42523861
H        21.15208244     15.19671726     12.11741734
H        21.08256721     16.73593903     10.77760696
H        19.91350937     15.35078144     15.23664474
H        19.87823868     16.75303078     16.57709503
B        20.55737877     15.98431492     16.02390480
H        21.31387329     15.32211971     16.57048607
H        21.23611450     16.66866493     15.28574085
H        19.88523674     15.23654747     19.77880669
H        19.94506645     16.82728958     21.22295570
B        20.55440712     15.98411560     20.57486916
H        21.31704330     15.24520493     21.27412987
H        21.22626877     16.78768921     19.87823677
H        19.79674149     15.26012802     24.57476616
H        19.86198425     16.65260506     25.83061409
B        20.57408905     15.99289894     25.11409760
H        21.19597816     15.30279827     25.85318947
H        21.30779266     16.78699112     24.50562096
H        19.90654945     15.21923256     28.97840691
H        19.80221748     16.69349861     30.50165558
B        20.53614044     16.01200867     29.70878792
H        21.39216995     15.29008865     30.32646942
H        21.46859932     16.59473991     28.97282982
H        19.84235382     19.95633698      1.50122213
H        19.84193420     21.37028694      2.85412693
B        20.55806923     20.55051613      2.30292106
H        21.44377136     19.80991554      3.00013089
H        21.20627022     21.27878761      1.59230208
H        19.92951775     19.77502060      6.07814550
H        19.95897102     21.38156509      7.55316830
B        20.54504776     20.56243324      6.86178827
H        21.32030106     19.82008171      7.53755903
H        21.26519585     21.31085205      6.17831326
H        21.26775742     21.32835197     10.87386417
H        19.74445915     19.80897903     10.76074600
H        19.89418030     21.29174995     12.08219051
B        20.57284927     20.55665016     11.41220474
H        21.26939201     19.92046165     12.12042809
H        21.27775955     21.30422974     15.28316784
H        19.91048431     19.84808922     15.24255848
H        19.90396690     21.35135651     16.64358139
B        20.55261040     20.55479431     16.01283646
H        21.30067635     19.86577988     16.61937332
H        21.29625130     21.18378639     19.81864357
H        19.91289711     19.81957626     19.66399193
H        19.94797707     21.30335426     21.37687302
B        20.54178429     20.56822968     20.57316399
H        21.35185623     19.91862106     21.31291008
H        21.23508835     21.39392281     24.43202209
H        19.90151596     19.80712318     24.54509544
H        19.91038132     21.27198601     25.84803963
B        20.57161140     20.56499100     25.11988258
H        21.14208221     19.78705597     25.87697220
H        21.32997704     21.23100090     29.04408073
H        19.92686653     19.71138191     29.05154800
H        19.80342674     21.34697342     30.36388397
B        20.55782700     20.58489418     29.72046661
H        21.27665138     19.75724030     30.19458580
H        21.48054123     25.73435402      1.66366482
H        19.95593452     24.36405563      1.62806129
H        19.91818619     25.80770493      3.09679604
B        20.52076340     25.14744377      2.26903653
H        21.37979507     24.50040436      2.92269778
H        21.20972633     25.94499588      6.03622961
H        19.85086632     24.39673615      6.17500591
H        19.82888603     25.82819939      7.58042097
B        20.58929634     25.13614464      6.85788488
H        21.10990143     24.35778427      7.59739399
H        21.35236168     25.80261803     10.77786636
H        19.83896065     24.50121307     10.70162296
H        19.91708183     25.80073929     12.12436676
B        20.54294777     25.12508965     11.41885948
H        21.38811493     24.54170036     12.16199875
H        21.38074684     25.90676689     15.33037281
H        19.81066704     24.35473442     15.40739441
H        19.81744957     25.82296181     16.61302567
B        20.55740547     25.14708710     15.99318409
H        21.33259392     24.32586479     16.64867783
H        21.22523689     24.45453072     21.22602463
H        21.30009079     25.89358330     20.00604630
H        19.93380356     24.29185104     19.91822243
H        19.98742104     25.92778969     21.33508301
B        20.54760551     25.13241005     20.54398727
H        21.30301666     24.52905083     25.74940109
H        21.37756348     25.68859100     24.42272758
H        19.80921745     24.43441963     24.40264130
H        19.78074646     25.73714828     25.87250328
B        20.56401634     25.14905739     25.14364433
H        21.21845245     24.41991043     30.44778252
H        21.28849983     25.85641289     28.99529839
H        19.95565224     24.35509109     29.00052452
H        19.97722244     25.82962036     30.49103355
B        20.54823303     25.14236069     29.69431114
H        21.25176048     28.99017334      2.90715933
H        21.24747086     30.35439491      1.59924281
H        19.90225601     29.01577377      1.62055242
H        19.84383011     30.39151192      2.93998647
B        20.56636810     29.71135139      2.29181123
H        21.17467690     28.97625351      7.58307409
H        21.18386269     30.32938957      5.95570612
H        19.83411980     29.08553886      6.07417440
H        19.79043579     30.25460434      7.51747465
B        20.59081459     29.72124100      6.88199711
B        20.54961586     29.71601677     11.40050507
H        21.24406815     28.93632889     12.15357590
H        21.29299164     30.44504547     10.80933380
H        19.93796158     28.93911743     10.86104298
H        19.94997406     30.38132286     12.13877296
B        20.53529167     29.69189072     15.99793816
H        21.46020889     29.04920387     16.73628616
H        21.37891197     30.42027092     15.30842304
H        19.83993340     29.08565331     15.26357460
H        19.89957619     30.40547752     16.64019394
B        20.57734680     29.72411537     20.55409813
H        21.16366386     28.96731567     21.42607117
H        21.19591141     30.41483307     19.80481529
H        19.82543945     28.90773582     19.77748108
H        19.94254684     30.32505989     21.36854553
B        20.54881859     29.70493317     25.13659668
H        21.33247757     28.98648643     25.80700111
H        21.26183510     30.35036659     24.45157623
H        19.95779419     29.03291512     24.42736244
H        19.88143921     30.45093536     25.83692741
H        19.75589561     30.32204247     30.40916634
B        20.58110237     29.71236038     29.71188354
H        21.23249817     28.96846962     30.43391991
H        21.26604652     30.38034439     28.88390732
H        19.83284950     29.07018089     29.01916504
H        24.39280128      3.00904751      2.86608243
B        25.13559151      2.25603557      2.29979610
H        25.88831139      1.64247823      2.95418429
H        25.85266876      3.06150770      1.55075896
H        24.39985657      1.73763418      1.61027265
H        24.42919731      3.02745795      7.55816078
B        25.11905861      2.27798390      6.87787390
H        25.92781448      1.65249956      7.48735762
H        25.87148094      2.90032101      6.10149860
H        24.48247528      1.63497353      6.02763891
H        24.42483330      3.11138892     12.14339733
B        25.14140701      2.27481508     11.43190289
H        25.80693436      1.64021873     12.01254940
H        25.80869865      2.98230720     10.79656792
H        24.43078995      1.51532757     10.67344284
H        24.44855118      3.03173351     16.63379860
B        25.13167572      2.27565312     16.00237274
H        25.92354774      1.63641918     16.67005157
H        25.81415558      2.95859313     15.36468124
H        24.38938713      1.61350811     15.23237610
H        24.35929489      1.77998054     19.81072998
H        24.27709961      2.87236452     21.23355103
B        25.13844299      2.28808784     20.57786560
H        25.99113655      1.60726714     21.32407188
H        25.87551689      2.84726548     19.75363350
H        24.41632080      1.58916509     24.35369492
H        24.38754463      2.96416783     25.91416359
B        25.14683342      2.29532385     25.13354683
H        25.82890701      1.52921200     25.94534111
H        25.78028488      2.94672275     24.34236526
H        24.52315331      1.56007361     29.05830193
H        24.46545029      2.85341859     30.54565048
B        25.11856079      2.30628347     29.68749428
H        25.79263496      1.68151903     30.36650085
H        25.93506813      2.81670475     29.03731346
H        24.36185837      6.20267391      1.65549433
H        24.33828926      7.56225824      3.00162077
B        25.14229584      6.85012960      2.26777816
H        25.89782524      6.07672930      3.10399532
H        25.86377144      7.63057804      1.56360459
H        24.49475288      6.02593946      6.30481100
H        24.42884827      7.49499750      7.65459061
B        25.13347816      6.88262463      6.82841206
H        25.74249077      6.11771154      7.49691486
H        25.89021873      7.48505020      6.24885511
H        24.51130676      6.14201736     10.74308777
H        24.42301178      7.49814320     12.21551418
B        25.14525223      6.86589241     11.42334270
H        25.69227791      6.08926964     12.17996693
H        25.80341721      7.57373428     10.57920170
H        24.45733261      6.10758829     15.21936798
H        24.40584183      7.56152010     16.77920914
B        25.14035225      6.86609268     15.99953270
H        25.80256844      6.16640091     16.66890717
H        25.81685448      7.46550417     15.26389217
H        24.36216736      6.15049267     19.87169456
H        24.32928467      7.56617737     21.33411598
B        25.14763260      6.85539865     20.55535126
H        25.84889030      6.20266581     21.24905968
H        25.86415482      7.49638367     19.90860367
H        24.40216827      6.19032717     24.47657585
H        24.44107628      7.48861599     25.89275932
B        25.14739609      6.85548925     25.11452293
H        25.77290726      6.17360687     25.94838905
H        25.79085922      7.56219721     24.44190407
H        25.78576088      7.60597515     28.95631218
H        24.48998833      6.05679655     29.00985336
H        24.43086052      7.61156225     30.35596848
B        25.13683510      6.87088060     29.71614647
H        25.81368828      5.97532749     30.37830734
H        25.86406136     12.09677982      1.45236135
H        24.46201134     10.73416233      1.49312317
H        24.44105530     12.07697392      2.99846697
B        25.13432121     11.42637444      2.30939937
H        25.78013229     10.77733040      2.93434334
H        25.84931946     12.15000916      6.07346630
H        24.33737373     10.66332531      6.09380960
H        24.34050941     12.12652969      7.65204048
B        25.15307236     11.43308926      6.85085583
H        25.81893349     10.67336845      7.64513159
H        25.59440804     12.23785114     10.61919594
H        24.47871208     10.81194973     10.61413002
H        24.44150543     12.28012276     11.96233559
B        25.15631104     11.40219879     11.46060562
H        25.79678726     10.61463737     12.12244225
H        25.86982727     11.98824596     15.32289410
H        24.50113678     10.62324715     15.19421005
H        24.50140953     12.11665726     16.84903526
B        25.11665535     11.44499493     15.98555279
H        25.86437798     10.75737858     16.71517563
H        25.84683037     12.24662304     19.93077660
H        24.36264229     10.76325130     19.89769936
H        24.43605804     12.20628548     21.22229576
B        25.13793945     11.39736652     20.55851936
H        25.86293221     10.78022766     21.27873421
H        25.81624222     12.16135788     24.42359543
H        24.47185135     10.61790276     24.38098717
H        24.38973999     12.28607655     25.86648750
B        25.13504219     11.42682648     25.14261627
H        25.86168671     10.61506557     25.78721428
H        25.84931564     11.98716831     28.95243263
H        24.51589203     10.81136894     28.84613419
H        24.44698524     12.16237164     30.51798058
B        25.11845016     11.41356945     29.71475983
H        25.90530014     10.86168098     30.39876175
H        25.85139465     16.68283844      1.58946931
H        24.41342163     15.29383278      1.66673052
H        24.30647469     16.71252251      3.01353216
B        25.15112495     15.99673176      2.27959967
H        25.79573822     15.27222824      2.92819047
H        25.89646339     15.19491482      7.44123554
H        25.79674530     16.70354652      6.17197514
H        24.50531769     15.23208904      6.10943127
H        24.42500877     16.84640121      7.48437166
B        25.12721062     15.99528313      6.87485695
H        25.73939323     15.12765408     12.05111885
H        25.81088829     16.68859100     10.61795902
H        24.51111412     15.19931316     10.76111317
H        24.38863945     16.66791153     12.10193443
B        25.14338493     16.02264595     11.44065094
H        25.93199348     15.42276573     16.68538094
H        25.90953827     16.62680817     15.39769173
H        24.44077301     15.38354111     15.33600998
H        24.41650963     16.71275330     16.74887085
B        25.12019157     15.97953415     15.97747517
H        25.85333824     15.22234058     21.29776955
H        25.87615585     16.68156433     19.79419708
H        24.33979034     15.30375385     19.89842415
H        24.33743095     16.57969475     21.21871376
B        25.14742470     16.01296043     20.56974411
H        25.88386536     15.29026413     25.73809433
H        25.70278549     16.68277168     24.49507523
H        24.40774155     15.34457016     24.36829948
H        24.36356544     16.85372162     25.72796631
B        25.15196991     15.97716141     25.15462875
B        25.13781738     15.97281456     29.69252396
H        25.86726761     15.35112095     30.48478127
H        25.83352661     16.75649834     29.02450371
H        24.38896179     15.31969643     28.95933723
H        24.41999626     16.79063225     30.48517227
B        25.15279198     20.62362671      2.29327989
H        25.84894943     19.76692200      2.87125444
H        25.95095634     20.99040794      1.49407363
H        24.38388062     19.80328178      1.63243937
H        24.16534996     21.07057190      3.05342412
B        25.13943481     20.54675865      6.86251974
H        25.91475487     19.78805351      7.46456909
H        25.75969315     21.34694481      6.26733112
H        24.42428398     19.84056664      6.16478586
H        24.39368820     21.48008728      7.44264984
B        25.13580704     20.58652496     11.42001534
H        25.81871796     19.84943390     12.08342743
H        25.93186569     21.20990944     10.72494698
H        24.40215302     19.75666428     10.74532700
H        24.37858582     21.21309853     12.19976425
H        24.38407898     21.30545807     16.70851135
B        25.13793755     20.55682755     15.99366951
H        25.90613556     19.88557816     16.72726822
H        25.84725952     21.26533890     15.30583382
H        24.37101555     19.89127159     15.25265217
H        24.38054657     21.25009155     21.20479774
B        25.13266754     20.57328987     20.57836914
H        25.89437485     19.89132309     21.14134789
H        25.92674637     21.21901321     19.90938187
H        24.36333275     19.81065559     19.86108589
H        24.44005203     21.25951385     25.86546707
B        25.11466408     20.56114769     25.14855385
H        25.92985535     19.91154289     25.83592606
H        25.91412163     21.21423912     24.35224152
H        24.47406960     19.91602325     24.34098625
H        24.49163818     21.28147125     30.41925049
B        25.14010048     20.53125381     29.69412804
H        25.85611916     20.00693321     30.54693413
H        25.81114388     21.36417961     29.02648163
H        24.32637978     19.96936226     28.94393349
H        24.44577980     25.73497963      3.05037475
B        25.13034058     25.15731430      2.29105401
H        25.80023575     24.44990349      2.96684623
H        25.91029549     25.76151085      1.52172291
H        24.43364525     24.35424232      1.53611970
H        24.42865944     24.41697121      6.16566515
H        24.46966553     25.73534393      7.64993620
B        25.10692215     25.14449120      6.84011316
H        25.92514038     24.48541260      7.62249994
H        26.01767921     25.80044746      6.14156532
H        24.56287384     24.40445137     10.74887848
H        24.46462440     25.84831429     12.15608120
B        25.10557747     25.13987350     11.43141174
H        25.87380409     24.46254349     11.99974155
H        25.95424652     25.77241516     10.72652626
H        24.43406105     24.34145546     15.28425312
H        24.31516075     25.89538193     16.75385284
B        25.12948418     25.15135765     15.99802399
H        25.92007828     24.33738518     16.63902664
H        25.92983818     25.79031181     15.27042103
H        24.53414536     24.33873940     19.77949333
H        24.49312210     25.88168907     21.36656380
B        25.11404419     25.14791107     20.56598663
H        25.86791039     24.47744179     21.18683815
H        25.86958313     25.70363617     19.91652298
H        24.41289902     24.33701134     24.36269760
H        24.46108818     25.92977715     25.75022697
B        25.13412476     25.14338303     25.14751625
H        25.90354347     24.27075958     25.86466789
H        25.77184677     25.91251945     24.42814255
H        24.43821716     24.46265221     29.03620338
H        24.40146637     25.78916359     30.43510437
B        25.12192345     25.13524055     29.70356750
H        25.88501740     24.41867447     30.44233131
H        25.95554161     25.86691666     28.92170143
H        24.48747063     29.05664253      1.45135450
H        24.44875717     30.45604324      2.99370909
B        25.13294792     29.69329453      2.30807137
H        25.83345032     29.02301598      2.98862290
H        25.79232597     30.40983200      1.45885432
H        24.47677422     28.94503021      6.21415329
H        24.33367920     30.36581993      7.60947609
B        25.16545677     29.73337173      6.85061026
H        25.68288612     28.80480766      7.60660219
H        25.71997261     30.40003014      6.03684616
H        24.30153656     29.03382492     10.82651234
H        24.36296654     30.59523392     11.99163532
B        25.14505196     29.66405869     11.41957664
H        25.91404152     28.97951126     12.10737896
H        25.85360718     30.65054321     10.83263397
H        25.79843521     30.35027122     15.29213142
H        24.31620026     28.99792862     15.39857006
H        24.27455902     30.28547668     16.68776894
B        25.17174530     29.72859383     15.98481274
H        25.75666618     28.93325615     16.71079636
H        25.89674759     30.35814857     19.86796951
H        24.39166451     28.93874931     19.94524956
H        24.38965797     30.28287315     21.28162956
B        25.14236259     29.72970390     20.55772972
H        25.78295517     28.97526169     21.24311256
H        26.02161980     30.32093811     24.43010139
H        24.50949097     28.93390274     24.44480133
H        24.44070435     30.37502289     25.86464310
B        25.09616852     29.72681236     25.13750267
H        25.98466301     28.95616341     25.77359772
H        25.84565926     30.42918205     29.06241226
H        24.31318855     29.06682587     28.88171959
H        24.54501152     30.37805367     30.40873718
B        25.13092804     29.68006516     29.70249367
H        25.87979317     29.21338463     30.49399948
H        30.31952095      3.10695648      1.46630692
H        28.99508667      1.62285507      1.56372786
H        28.94098854      3.06363463      2.95542288
B        29.72843361      2.26771760      2.30013013
H        30.31303596      1.53192055      2.99225783
H        30.36359215      3.14342904      6.31142378
H        28.85378838      1.60036683      6.20726967
H        29.09208488      3.00928783      7.64008045
B        29.72267914      2.25140834      6.81115198
H        30.32089806      1.74721444      7.73152781
H        30.33017349      3.09426618     10.85915089
H        28.94029427      1.58359396     10.85303783
H        29.02522659      3.01544619     12.10397339
B        29.71856880      2.27619648     11.39259720
H        30.37876320      1.54111767     12.23138237
H        30.42127991      2.99135160     15.26797390
H        29.12152290      1.50468671     15.18086433
H        29.07592392      3.12406063     16.68199158
B        29.68159103      2.28119349     16.02006149
H        30.45234680      1.56072819     16.58035088
H        30.37714958      2.99616027     19.76758385
H        29.08900070      1.64998138     19.83532715
H        28.96894073      3.04847455     21.22267723
B        29.69983292      2.27812886     20.58372688
H        30.44030571      1.51908112     21.23351669
H        30.47937584      1.64563560     25.78532600
H        30.43810081      2.79688859     24.38130188
H        29.06184959      1.61128044     24.30567169
H        28.97826767      2.95610166     25.90326500
B        29.69217110      2.29712892     25.15032959
H        30.54171753      1.64396751     30.42002106
H        30.39148140      2.92285180     29.04574585
H        28.97961617      1.64988542     28.90142822
H        28.98762703      3.05915880     30.40609360
B        29.69750023      2.27233291     29.70935440
H        30.49635315      6.04203415      2.92990685
H        30.52117157      7.45831585      1.59216690
H        29.04485512      6.05427265      1.62922645
H        28.96588326      7.50022984      2.99664092
B        29.68558121      6.88904333      2.28425956
H        30.52679062      6.21261072      7.49846554
H        30.47611427      7.62984037      6.30069542
H        28.99815178      6.18446970      6.22187853
H        28.98848343      7.71832705      7.53627586
B        29.68919182      6.82467556      6.84219742
H        30.44308662      6.08577824     12.06091881
H        30.35970306      7.48960686     10.69143963
H        29.09574890      6.18026638     10.70254326
H        29.04390526      7.53034544     12.01827335
B        29.69358444      6.86749315     11.44614697
B        29.69758606      6.86670351     15.97573948
H        30.41371346      6.07900620     16.62940598
H        30.50007629      7.58298302     15.39227676
H        29.02128029      6.06067324     15.46030712
H        28.96442986      7.57180357     16.70458984
B        29.69411469      6.85484457     20.56778908
H        30.48710823      6.28057909     21.20489502
H        30.44215393      7.43503714     19.95987511
H        28.97648239      6.08604050     19.72038269
H        29.03100204      7.62000847     21.34491158
B        29.70314026      6.83337736     25.13491631
H        30.44596672      6.19252396     25.91612053
H        30.38960838      7.60101986     24.37825203
H        29.00641441      6.28042316     24.40979385
H        28.99794197      7.57795191     25.83669472
B        29.70612907      6.84745598     29.68007851
H        30.47189522      6.07259607     30.60144997
H        30.39575577      7.66913843     29.00961113
H        28.94075584      6.20757246     29.06845093
H        28.99945641      7.55159998     30.40777397
H        29.00173950     12.11436367      3.08674836
B        29.71885681     11.39006329      2.26484251
H        30.44321632     10.95231628      3.16671085
H        30.41144753     12.16255760      1.62067342
H        28.81494331     10.84548378      1.48207331
H        28.94849968     12.11515903      7.56512260
B        29.68907547     11.44663525      6.86544132
H        30.47595406     10.65373516      7.45926476
H        30.46374512     11.99709415      6.12380171
H        29.10257721     10.70195484      6.15981340
H        29.12101364     12.12664700     12.15780640
B        29.71525192     11.42436218     11.40851688
H        30.25010681     10.65835857     12.24232388
H        30.27716827     12.23822308     10.71217632
H        29.06174660     10.68360806     10.76448441
H        28.97390366     12.08047390     16.77028465
B        29.68271446     11.44716740     15.99360085
H        30.49639893     10.72195625     16.63976669
H        30.48208427     11.93564224     15.29853153
H        29.10662651     10.72416115     15.28642178
H        29.06781387     11.96998215     21.41325188
B        29.69743538     11.42277336     20.55501175
H        30.36521530     10.91346359     21.37420464
H        30.47339630     12.03911591     19.79181480
H        28.99470520     10.80130672     19.78783989
H        29.15130615     10.79249859     24.30175209
H        29.00804138     12.13378620     25.83052063
B        29.68914223     11.43440628     25.16376305
H        30.47045517     10.62976551     25.84999084
H        30.36026001     12.04306126     24.24921417
H        29.06533813     10.72519493     28.91540718
H        29.04864883     12.21998024     30.44692612
B        29.68844795     11.41551876     29.70873451
H        30.47774887     10.73264217     30.42279243
H        30.40578270     12.12387848     28.99482346
H        29.04540634     15.27631855      1.50751734
H        29.06195641     16.74021149      2.99227858
B        29.70152283     15.99134827      2.29370856
H        30.39019012     15.25014687      3.03499889
H        30.35973740     16.75247765      1.51179814
H        28.85485649     15.22527599      6.11038685
H        28.90131569     16.78712082      7.40175486
B        29.72269630     15.99451160      6.87954092
H        30.48001671     15.22226810      7.45122242
H        30.39398766     16.75055885      6.19340897
H        29.03124428     15.24145126     10.78511429
H        29.10172081     16.66190910     12.21723366
B        29.70305824     15.99526882     11.39933491
H        30.30397606     15.23680687     12.29235458
H        30.40387917     16.83693504     10.68056583
H        29.07331848     15.22444153     15.34293270
H        28.92761803     16.58378983     16.89922905
B        29.69572449     16.03265190     15.97138786
H        30.40658951     15.27975273     16.69821739
H        30.51196671     16.48815727     15.29286671
H        29.13643837     15.17900753     19.85666466
H        29.01138687     16.75653648     21.38960266
B        29.68823242     16.01231575     20.55947304
H        30.40190125     15.19397831     21.24958229
H        30.45011711     16.66473007     19.82342148
H        28.97272491     15.26705170     24.43240738
H        29.10609436     16.69116592     25.79004860
B        29.66781807     15.99133301     25.12858963
H        30.58522797     15.37876320     25.81170654
H        30.55475044     16.68234444     24.57459641
H        29.05113983     15.25901222     29.04179573
H        29.00335693     16.70168686     30.48090553
B        29.70669746     16.00639534     29.68696022
H        30.38157082     15.17997551     30.51216125
H        30.36571693     16.71708870     28.97861290
H        30.45743942     21.21475601      1.56937325
H        29.08205605     19.98872375      1.61977673
H        29.02686119     21.21954918      3.10166860
B        29.68868065     20.55286789      2.26458812
H        30.42868233     19.96708107      3.06811714
H        30.38601303     21.07852364      6.12685394
H        29.06853104     19.82198143      6.05693340
H        28.93740082     21.27957344      7.65056419
B        29.70981979     20.58162689      6.86859417
H        30.37633514     19.90157890      7.43983793
H        30.45125771     21.21416092     10.78418541
H        29.08094406     19.78560638     10.76139164
H        29.01195717     21.30594063     12.10862255
B        29.69058037     20.57666397     11.42963600
H        30.43048668     19.82917213     11.99606895
H        30.31528091     21.31763649     15.23482513
H        29.01085663     19.85938835     15.21647072
H        28.90348053     21.44336891     16.64029884
B        29.71753311     20.55591011     16.01673889
H        30.45593643     19.73708534     16.65522385
H        30.33112144     21.20148087     19.76012421
H        29.20064545     19.80426788     19.86446762
H        29.04836655     21.24941635     21.42406464
B        29.70300674     20.58690834     20.55615234
H        30.26122284     19.76982307     21.30622864
H        30.41240501     21.35627747     24.48799896
H        28.98622322     19.76900482     24.39232826
H        29.09601021     21.34216118     25.90372276
B        29.69760513     20.55755424     25.12062645
H        30.40465927     19.87241936     25.91009331
H        30.38135910     21.32495117     29.09547997
H        28.87954330     19.74631882     29.02779770
H        29.01910591     21.25306702     30.53675652
B        29.72924614     20.56688690     29.67262459
H        30.27993202     19.91542435     30.50721359
H        30.45731735     25.94845963      1.70936131
H        28.88313866     24.29871559      1.68695307
H        28.98471451     25.86928940      2.88481236
B        29.71012878     25.14291573      2.27683187
H        30.43981934     24.33862495      2.94648051
H        30.38741112     25.89359474      6.21144009
H        28.92670441     24.34551811      6.24341869
H        29.05596924     25.73235321      7.61978626
B        29.72189522     25.14770317      6.82544899
H        30.26869202     24.43225670      7.66231108
H        30.44708824     24.27039528     12.01194859
H        30.48204231     25.86578178     10.75315952
H        29.08558655     24.24884415     10.76656437
H        29.03469658     25.90327072     12.08438969
B        29.68360901     25.15846634     11.43282509
H        30.44477272     24.45427704     16.65349960
H        30.51643562     25.94496727     15.28004456
H        28.93284225     24.44486046     15.34229088
H        28.91696739     25.89859962     16.67879295
B        29.70583725     25.11610031     15.99736404
H        30.56070518     24.44526100     21.22922897
H        30.49160004     25.75706863     19.95551109
H        28.90400696     24.38614845     19.82729530
H        28.96446037     25.82483101     21.22789001
B        29.69560432     25.14680862     20.56686974
H        30.40479851     24.38163376     25.82118416
H        30.49906731     25.85028648     24.60478401
H        29.13222122     24.25579643     24.57321548
H        29.10151672     25.91255760     25.97772598
B        29.67538834     25.14802551     25.09426308
H        30.46838379     24.38877678     30.45844078
H        30.42294693     25.88969994     28.95658493
H        29.01313591     24.41952515     28.94189453
H        29.07897568     25.83855247     30.36185265
B        29.68976021     25.13531876     29.71443558
B        29.71981239     29.69755936      2.28056455
H        30.33299637     29.00053787      2.98264408
H        30.33835030     30.45779610      1.61421716
H        28.98912811     28.92884445      1.54787958
H        29.00063324     30.51262665      3.04282999
B        29.69591522     29.70211220      6.86658525
H        30.49910545     28.98447418      7.46789503
H        30.41794968     30.36296463      6.18308353
H        29.03764725     29.02571869      6.14317274
H        28.96271896     30.47780609      7.50157928
B        29.70395470     29.68365860     11.43146610
H        30.42197800     29.10798073     12.21014309
H        30.40733910     30.48069954     10.68405342
H        28.92937469     29.01954269     10.58097363
H        29.07248878     30.44066620     12.15546989
B        29.66712761     29.67545509     15.98780727
H        30.60563278     29.15989685     16.69527245
H        30.49972534     30.42111015     15.45176697
H        28.99491119     29.04449463     15.23046112
H        29.12594414     30.51138306     16.67963982
H        29.13660240     30.34969521     21.41223526
B        29.67118835     29.71791649     20.57831955
H        30.38251495     29.01835632     21.31269646
H        30.48645210     30.35409355     19.67365456
H        29.17707443     28.95928955     19.71852303
H        28.98760986     30.39956856     25.92230225
B        29.72064781     29.70723534     25.12237549
H        30.30872726     28.98162842     25.90937042
H        30.33316612     30.41107750     24.39858246
H        29.02264595     29.00373459     24.44512939
H        28.82594490     30.46487617     30.32478523
B        29.71059608     29.70526314     29.73248100
H        30.49684715     28.88020897     30.33109856
H        30.41773033     30.39207268     28.87433624
H        29.01942253     29.07999992     28.99501228
