3075

Na        4.43001127     -2.70604873      4.38527679
Na        4.81853914      0.16776325     11.41362667
Na       -0.28096765      0.22148012     16.16808891
Na        0.08444886     -2.24997020     18.26283264
Na       -0.09493569      2.19194651     18.47761154
Na        4.53501081     -2.27638292     27.94050598
Na       -0.42249906      0.02138421     34.42205429
Na        2.03969550      5.12043619      8.94840622
Na       -0.08210966      4.53241587     11.39746571
Na        4.57946444      7.08186531     18.33285713
Na        0.23315114      2.11115575     22.81635666
Na       -2.17068815      4.79424334     27.62947845
Na        2.46839738      4.79447937     32.01647949
Na        6.90260649      4.95651150      4.72489643
Na       -0.21456365      7.06866503      8.92005253
Na        2.16835618      9.58839226     13.49360085
Na        6.98270750      9.50502110     18.65322685
Na       -0.10842791      9.09625340     25.14211655
Na        2.31429672      9.18243217     27.15218163
Na        2.32102728      8.81025314     31.96331406
Na        4.82392550     13.74081326      6.72704840
Na       -0.04479824     11.43999100      9.36279964
Na        2.15479326     13.40934086     13.92155743
Na        4.53764248     13.51851177     16.03537941
Na        0.22521213     13.76365376     20.58700943
Na       -0.00050325     16.13186455     32.18807220
Na        4.53007174     16.15965843     32.16274643
Na        2.13350892     18.46253777      5.07994556
Na        2.39564157     18.04602051      9.32916260
Na        4.32088614     18.40445137     16.50462532
Na        4.45956230     18.13891983     20.57676125
Na        4.44327211     18.66745377     24.81948280
Na        2.26569462     18.27207565     27.52427673
Na        0.17546982     18.60622025     29.85388756
Na        6.68593168     27.17397308      4.74835873
Na       -0.08985532     25.16848373      9.24586296
Na        2.33830428     23.28510094     13.69457722
Na        2.27395177     22.71057701     18.49706650
Na       -0.27308154     20.33095932     22.93227577
Na        2.29261827     22.89893913     27.61963654
Na        2.40819240     22.98961830     31.98597336
Na        2.22418761     27.58511925      4.22003508
Na        0.06138446     27.36619949      6.93967295
Na        2.50051761     27.42220879     13.94686890
Na        2.20780659     27.17495155     18.33228493
Na        2.03707552     27.25659370     22.76845360
Na        0.14313065     27.40687180     29.82864380
Na        2.32557678     27.27518082     32.14887619
Na        9.04146099      4.62423611      2.38649440
Na        6.62227678      0.00056195      8.99979591
Na        6.72664499     -0.13496824     14.12688828
Na        6.94578648      0.27476954     18.55430222
Na        6.72789526      0.16296172     22.82726288
Na        8.98396015      0.07739305     25.09719658
Na        4.30326271      2.40526652     31.91119957
Na        9.33807755      2.25364542      4.61542702
Na        4.60124445      4.63086987      6.69702625
Na        7.00411510      4.21198750     13.57363319
Na        9.29981422      4.23296499     20.44965744
Na        6.66903305      4.51393843     22.72993660
Na        4.70644760      6.75225353     27.11715508
Na        6.90770769      4.57545376     32.06819916
Na        4.76533604      9.48062229      2.15558600
Na        6.55306244      9.26154613      9.51101589
Na        9.17242146     11.42305565     13.63714886
Na        6.80451441     13.68543816     18.52448654
Na        4.55282259      9.20743275     20.62676048
Na        6.99746180      9.34903526     27.23218346
Na        6.93562984      9.18516254     31.67905045
Na        7.08558989     13.77967834      4.32512712
Na        4.84840727     15.88841343      9.00237179
Na        6.77927494     13.63516426     13.53880405
Na        9.30952072     13.45886898     20.53102112
Na        9.31555176     15.95166302     22.77400398
Na        7.14683008     13.25077629     27.29626083
Na        6.78172684     13.65466595     31.61101532
Na        9.17519951     18.04442024      2.27039337
Na        9.05362892     18.19128227      6.70489693
Na        6.77109337     18.30249977     13.63611698
Na        6.86605167     18.65460968     18.33720207
Na        9.00764179     18.17657471     20.52104378
Na        6.95473623     18.33251190     27.29537773
Na        6.99448299     18.33270836     32.29503632
Na        4.85725260     20.50875473      4.32540083
Na        6.59814692     23.23775673      9.13992500
Na        7.01607132     22.83144569     13.79688454
Na        6.77755356     22.54572487     18.26123428
Na        6.77077866     22.83712387     22.77289581
Na        6.91428471     22.93319702     27.56767845
Na        6.83797359     22.79330063     31.82225037
Na        4.35660219     25.21330261      4.26716232
Na        6.84089899     27.47156715     13.96372032
Na        6.73887110     27.18011856     18.42273712
Na        6.58779383     27.32461166     22.96761513
Na        9.14338207     27.53963280     29.74217224
Na        6.93198013     27.19196129     32.24010468
Na        9.17685413     -0.17648359      2.26130366
Na       11.23823929      0.19720104      9.25955486
Na       11.16737270     -0.26380521     13.87408829
Na        9.38532352     -2.36798000     17.84068489
Na       11.42685890      0.12452684     27.42581940
Na       11.59606838     -0.02308094     32.18734360
Na       11.47673130      4.22646236      4.39140749
Na       11.50689983      4.40961218      9.38136959
Na       11.49530697      4.73472548     13.89818192
Na       11.53087234      4.63100481     18.01857758
Na       13.82877254      2.33917427     22.89683533
Na       13.38329983      4.51253748     29.83998489
Na        9.27921486      4.31876135     29.74772072
Na       11.51805115      9.20994663      4.21473074
Na       13.52396488      9.15718555     11.59609985
Na       11.22248363      9.43264771     14.10798073
Na       13.78393841      8.85170269     16.13861275
Na       11.43915176      8.89616489     22.59607697
Na        9.10836506      6.65322351     27.61734581
Na        8.96867466      9.14936161     29.68062210
Na       11.22844315     13.60538006      4.60535479
Na        6.92547989     13.56817913      8.99770832
Na       11.37347889     13.58307648     13.50833130
Na       11.31782055     13.87932396     18.31662750
Na        9.10511971     18.31815910     25.00927925
Na       13.87514019     13.51270199     29.67077827
Na       11.58160686     13.52911186     31.84802437
Na       13.58842278     18.26391220      6.81313848
Na        9.24461746     18.58662033     11.42594147
Na       11.67112541     18.24976730     13.71794605
Na       13.95124435     20.48830795     18.21368980
Na        2.20021319     22.66420746     22.76397514
Na       13.70313168     15.73422909     27.65660095
Na       11.60076523     17.98368073     32.24793243
Na        9.05508041     25.26334763      4.24354553
Na       11.20632362     22.78180885      9.10056782
Na       11.38331890     22.57407761     13.91341686
Na       11.45675659     22.85456085     18.36311531
Na       11.18588161     23.11959457     22.88570023
Na       11.51921654     22.65674210     27.37310600
Na       13.64421558     22.84208298     29.80337906
Na       11.36991024     27.21391296      4.76782608
Na       11.30079079     27.60400009      8.92991161
Na        9.51616478     27.27219582     11.16696548
Na       11.64728260     27.50339699     18.88084221
Na       11.21388912     27.05050468     22.89885902
Na        9.19602966     25.15019798     27.73453140
Na       11.64545536     27.48206329     31.98158073
Na       16.12917328     -0.25684783      4.47363186
Na       16.08331108      0.11077158      9.64316177
Na       13.61931515      0.34593427     11.46679211
Na       15.92936802      0.01200274     18.44417763
Na       15.74657440      0.02799411     22.83982277
Na       15.98983765     -0.08936323     27.36050224
Na       16.09084511     -0.41987193     31.87648010
Na       13.57062912      4.35605240      2.12144470
Na       16.03637123      4.92631102      8.98590755
Na       18.62664032      4.50011730     15.98345661
Na       20.61057472      9.26472855     13.38308048
Na       15.89485931      4.93359423     22.93729210
Na       16.06612587      4.38245153     27.18225288
Na       20.50385284      4.61155653     32.11840057
Na       15.85542297      9.36568165      4.72797251
Na       18.26081848      6.76218557      9.22827721
Na       13.94901276     11.43858433      9.27237225
Na       15.93320465      9.39553738     18.21094322
Na       13.56168461      9.46061897     20.40954208
Na       15.76823902      8.99837494     27.77211380
Na       15.95273209      9.48806095     31.87220383
Na       15.86425591     13.74025345      4.42644835
Na       16.09114265     13.49405766      9.09077454
Na       15.85108852     13.56807423     13.92829704
Na       13.59875679     11.57762432     18.06252098
Na       18.01308632     13.56800556     25.02888298
Na       13.45662880     13.46877193     25.17727089
Na       15.97783661     13.69032955     32.10947037
Na       13.94706345     20.52361679      4.44631529
Na       18.05689621     18.15171242     11.39157200
Na       16.16778755     18.32581711     13.88083744
Na       15.86116028     18.43378448     18.50193214
Na       15.65471077     18.20091057     22.54928589
Na       16.17294121     18.11929703     27.41954613
Na       16.10144615     18.39475060     31.71228027
Na       16.00994492     22.80875969      4.73963404
Na       13.76398182     20.57966805      9.20763969
Na       15.97988605     22.88086128     13.35848427
Na       18.31703377     20.56747818     18.30789375
Na       15.89045334     22.51238441     22.89914703
Na       15.84405708     22.86685944     26.78454399
Na       15.83097076     23.11453629     32.00493622
Na       18.25734329     29.79883385      4.52702713
Na       18.35572624     27.73965073      6.96189499
Na       15.75297642     27.70516968     14.07134533
Na       16.01326180     27.33776474     18.05160141
Na       15.84325409     27.27561188     23.19706917
Na       13.79081821     29.85152054     27.69799042
Na       15.99415874     27.52270889     32.04102707
Na       18.13006592      2.13029718      4.30320549
Na       20.67816353     -0.24280153      9.07187557
Na       20.44939995      0.23038273     13.71734810
Na       20.37632561      0.18853790     18.13736153
Na       18.69248772      2.07623100     22.69491005
Na       20.64363480     -0.19711562     27.38775635
Na       18.34789467     -2.43651533     31.65027809
Na       18.18312836      4.29451084      6.88978195
Na       22.98514938      4.81810760     11.22335911
Na       20.62437248      4.47494650     13.70821857
Na       20.79362297      4.85420704     18.62959480
Na       18.08082771      4.55809069     25.04666328
Na       22.63672256      6.89054489     27.50624084
Na       22.82230377      6.99362755     31.82800484
Na       22.64877892     11.31878948      4.52830839
Na       20.66483879      9.04262352      9.25679493
Na       22.57447433     11.13943768     13.66086388
Na       20.59045219      9.17586803     18.20451164
Na       20.74357796      8.96754837     22.77067184
Na       18.09700012      8.96918392     29.56983757
Na       20.48186111      9.28777218     31.87690544
Na       20.62532997     14.01754570      4.52589846
Na       20.57166862     13.63656902      9.24543285
Na       20.42534447     13.63643646     13.49142456
Na       20.68741608     13.95367146     18.60900688
Na       20.52145386     13.63411045     22.54871559
Na       20.41877556     13.56012821     27.45468521
Na       20.42040825     13.46670437     31.93837929
Na       20.51713562     18.24420166      4.29173613
Na       20.64468384     18.34327698      9.24526691
Na       20.71245384     18.41749382     13.37112427
Na       20.53195190     18.46859169     17.92005348
Na       22.40326500     15.98194122     22.47196960
Na       20.83527946     18.26791763     26.82085991
Na       23.03626823     18.26597786     34.10909271
Na       18.33134460     24.97692108      4.96521711
Na       20.60282898     23.14778137      9.31805420
Na       20.75661469     22.91272926     14.08777237
Na       18.51767159     25.19310188     18.55930710
Na       22.78074074     20.30379295     22.81522369
Na       20.35042953     22.75483513     27.12413406
Na       20.67137527     22.95967102     32.46355438
Na       20.54203224     27.43231583      4.69820452
Na       18.14068413     27.99657059     11.20137024
Na       22.83937645     29.71373940     13.48613167
Na       20.73183823     27.36894035     18.25289345
Na       20.54184532     27.46370697     22.95425415
Na       20.46626472     27.50859070     27.45252419
Na       23.11790276     25.08085442     32.07094574
Na       22.72257233      2.17144084      4.72499800
Na       25.27934837     -0.14835061      9.35351372
Na       25.45206261     -0.14872417     13.29694462
Na       25.17568779      0.12458953     18.22678947
Na       22.67041969     -0.27134016     20.34508705
Na       29.74904633     -4.73286057     27.01107788
Na       25.18329048     -0.17958756     31.99604225
Na       24.88691139      4.98267174      9.13612461
Na       25.03335953      4.52063227     13.42896748
Na       27.72861099      2.31544352     18.22080994
Na       22.95897675     -0.03578783     24.89331627
Na       27.36598206      9.27001476     25.19375038
Na       22.99079514      4.37675571     29.87073898
Na       25.02136040      9.12358379      4.56204939
Na       25.18271065      8.94854641      9.40183163
Na       27.88387680     11.48713112     13.64898396
Na       27.45234489      6.81206989     18.16253662
Na       25.21968651      9.35278320     22.80901527
Na       22.72614288     11.36352062     27.52337074
Na       24.99797249      9.47152805     32.11975098
Na       25.17733574     13.16108704      4.74010229
Na       25.11464119     13.70430088      9.16798496
Na       27.35877419     13.66452599     11.17469120
Na       24.99167252     13.78720188     17.93774986
Na       24.96585846     13.51608181     23.37501144
Na       25.00645065     13.76758957     27.12859917
Na       24.88802910     14.09098053     31.93205070
Na       27.64975166     20.45924950      4.49062252
Na       25.09423256     18.30212021      8.96903801
Na       22.89484215     18.32208252     16.31868362
Na       27.52304459     20.53597832     18.16310120
Na       25.23639679     17.92749405     22.82032204
Na       22.73384285     18.34357071     29.71105385
Na       25.37413597     17.97530746     31.97101784
Na       25.09519577     22.87870598      4.49987888
Na       27.11452293     23.15968513     11.50733280
Na       23.13811684     24.94714165     13.74368763
Na       25.27113533     23.14179039     18.68058205
Na       23.11873055     23.08703423     20.72691154
Na       22.86342621     25.31777382     27.65055084
Na       25.33759117     22.81536484     31.83267403
Na       24.99335480     27.52357483      4.77009153
Na       22.93216324     27.20014000      6.78706121
Na       22.68638039     27.56505013     11.43984413
Na       29.74950981     27.46286964     18.17454338
Na       24.78991890     27.52849770     22.68021774
Na       25.20480537     27.32643318     27.38502121
Na       25.14478493     27.79394341     32.05959320
Na       32.40119553      2.36799979      4.88966274
Na       29.68216705      0.08902498      9.20628166
Na       29.73327827     -0.26181057     13.93694782
Na       26.93704224     -0.03636307     20.39935493
Na       31.99600983     -2.43252921     23.10430908
Na       31.94260597     -2.18681145     27.32180023
Na       31.85146141     -2.24014640     31.90748215
Na       29.59405899      4.51664066      4.52951670
Na       29.63209343      4.31566525      9.31070137
Na       32.17107773      4.65155411     15.99197769
Na       27.22458076      4.54823303     20.63467407
Na       29.93634605      4.61372852     22.69352150
Na       31.90626335      6.56329203     27.51467896
Na       31.71386909      6.87665176     31.84554100
Na       27.32628059      8.85593700      6.75172949
Na       31.74833870     11.38321781     13.85571861
Na       31.78020859      6.93736792     13.49510193
Na       27.67577744      9.21910667     15.98424435
Na       32.04668045     11.62238503     23.19728279
Na       27.46440125      6.84789085     31.95130539
Na       27.78368759     11.42953491     27.49343681
Na       32.11042786     16.01813316      4.85411501
Na       27.30594444     13.92608929      6.72768497
Na       32.24932861     16.11899567     13.96177578
Na       29.74769974     14.01462555     18.00989723
Na       27.53893471     11.50082970     22.57448769
Na       27.54528236     13.75912189     29.74591064
Na       27.27612305     13.84355164     34.16118622
Na       29.75227356     18.25191879      4.30080462
Na       29.58035851     18.43670082      9.11944580
Na       29.58547211     18.50218773     13.82768917
Na       29.94037437     18.30549812     18.66482735
Na       32.25856018     18.31369400     20.59411240
Na       29.83269310     18.58414841     27.08225441
Na       29.58428955     18.02556610     32.02832794
Na       31.70422173     22.96468735      6.52330732
Na       29.46080971     23.00882721      9.11585522
Na       27.33062744     20.66748238     13.62660217
Na       27.61063766     22.57192612     20.61196136
Na       27.38542366     20.47106361     27.79490662
Na       29.50205231     22.64667130     27.11332130
Na       29.84901619     22.97349358     32.37187195
Na       27.46091843     27.14404106      6.74617147
Na       29.82554245     27.25832558     13.57450676
Na       31.96963120     27.53042793     15.95312119
Na       29.70923424     27.57872963     22.65664673
Na       31.85043907     24.84903526     26.89521027
Na       27.17470169     27.39812088     34.58045197
Na        2.27955556     -0.28337023      4.61918402
Na        0.16776042      2.38754845      9.37753868
Na       -0.24902369      2.28003263     13.85223579
Na        0.05619710      0.04754015     20.76525116
Na       -4.61453390      2.31576037     22.50756073
Na        2.26797199     -4.52312374     27.49914742
Na        0.06899231      2.16237950     32.14991379
Na        2.23208404      9.43211269      4.25308418
Na        2.07189512      9.31625557      9.22084999
Na       -2.19470978      4.39701748     13.59869289
Na       -0.17957120      8.78633595     16.25355148
Na       -0.04583323      9.30353260     20.50794983
Na       -2.25388575      9.11978436     27.37712097
Na        0.28789291      4.47566843     29.61992073
Na       -0.12265481     11.61176300      4.07756472
Na       -0.42919618      9.17489338     11.28375149
Na        0.24168439     13.83211327     11.22792339
Na       -0.05688008     11.40294456     18.24531937
Na        2.17012882      9.22928524     23.02858162
Na        0.26500440     11.47569180     27.36291695
Na       -2.43350387     13.52738094     32.34360123
Na        0.11604269     13.63453293      2.41209316
Na        0.00820641     15.91615200      9.51914883
Na        2.24451494     18.27417374     13.66556168
Na        0.30545032     15.98289299     18.36253738
Na       -2.07858253     13.97745323     27.84598541
Na       -0.14145060      9.31077003     29.49817276
Na        2.45870161     13.91220760     32.20060730
Na        0.05822331     20.66368294      4.60717010
Na        0.11029408     20.42618942      9.06376362
Na        0.36885992     20.64998245     13.72489166
Na       -0.05637179     20.53486252     17.76299858
Na        2.35717130     18.32460403     22.80606079
Na       -0.05086613     20.58548927     27.35347939
Na       -0.22778691     20.51439095     31.96938896
Na        0.07956342     25.01738739      4.37744522
Na        2.26323771     27.34447289      9.53108501
Na        0.03773164     27.55915260     11.12120056
Na       -2.15268183     22.48122597     18.10481644
Na       -4.08532190     25.18459892     22.70486450
Na       -2.21273136     22.67230797     23.13382912
Na       -0.03032495     24.97119331     31.81423569
Na       -0.02628631     29.77849579      4.73205948
Na        0.32744220     29.83810616      8.92761040
Na        0.45018378     29.98266220     14.02155304
Na        0.24294028     36.66773224     20.43572426
Na        2.19124269     31.80392075     23.16905212
Na        0.24277051     32.27852631     25.09379005
Na       -2.18345714     32.13529968     31.72896004
Na        4.88375330      2.32880116      4.73018980
Na        4.25195789      2.64509773      9.16485977
Na        4.21273470      2.41500640     13.52539253
Na        4.48956776      2.43359947     18.20401955
Na        4.53690434      2.21776319     22.81810379
Na        4.58383512      2.35767078     27.68904686
Na        6.56165361     -0.03380598     32.10154724
Na        2.40251064      4.48955631      4.74219036
Na        4.58891010      6.95477772      9.34202480
Na        4.20677376      7.08906651     13.79999733
Na        6.94324255      4.58378458     18.18583298
Na        4.61475325      6.98546028     23.01421165
Na        4.62050962      9.30557632     25.33181381
Na        4.80999279      6.82105637     31.96434021
Na        4.88376284     11.48203087      4.52753925
Na        4.27499914      8.84156227     11.44127369
Na        4.52641726     11.45774460     13.85079288
Na       -0.16545349      6.88753653     22.66690445
Na        4.55135775     11.50191307     22.94152641
Na        2.34288764     13.88339138     27.06890869
Na        4.35457754     11.40628433     31.84092331
Na        4.69093323     16.10048676      4.55279493
Na        2.26514649     13.88476086      9.04797268
Na        4.57172108     16.09168053     13.79540634
Na        2.52383256     13.95840073     18.53895569
Na        4.61280584     20.46418953     22.38265991
Na        4.88106680     13.76595116     25.15138245
Na        4.65665102     14.04038239     29.43707275
Na        2.33623385     22.77598381      8.70167065
Na        4.69482470     20.52700043      8.81909084
Na        4.72293615     20.52691650     13.69558525
Na        4.68227673     22.62079620     20.63982773
Na        5.09096575     15.78087902     23.06766891
Na        4.74563217     20.35345268     27.39457703
Na        4.78929806     20.34505463     31.89257622
Na        9.23028564     29.73547935      9.09881020
Na        4.88392305     22.78862572      6.63157415
Na        4.64209270     22.85021591     15.87098980
Na        4.43143463     25.16042900     18.15514374
Na        4.00372124     25.20301819     22.78496933
Na        4.56347179     25.14131165     27.42830658
Na        4.73846626     24.90152550     32.11988068
Na        4.30136776     32.13499832      6.88276577
Na        4.55229616     29.91481018      9.38401127
Na        2.32860422     32.03637314     13.66215134
Na        4.37816000     29.65744591     18.36034584
Na        4.48325539     29.69339752     22.46223259
Na        4.56066418     27.69334793     25.56648064
Na        4.40729618     31.76513481     29.82885170
Na       11.44308281     -0.18895228      4.12011433
Na        9.03740120      2.39158702      9.36968803
Na        8.99270725      2.29997158     14.01440048
Na        9.21070957      2.43341565     18.25710869
Na        9.05226231      2.56495810     22.81923485
Na        8.99717808      2.24034238     27.64119720
Na        8.93577385      2.24832201     31.86207771
Na        9.36768532      6.81001139      4.93748808
Na        9.08181763      6.56854343      9.18922329
Na        9.11163044      8.84422684     16.03746605
Na        8.94895363      6.67428780     18.62726784
Na        9.21765137      6.87457085     22.67745781
Na        7.02525091      4.53654909     27.10713959
Na       11.32881165      9.10465908     31.87928963
Na        9.24716759     11.34250927      4.85700274
Na        9.03077316     13.81758213      6.88323927
Na        8.98519325      9.22074032     11.49903297
Na        9.27759457     11.52182007     18.06929779
Na        9.50354862     11.33597279     23.07293701
Na        9.30039120     11.13941383     27.41143799
Na        7.07691765      9.40585041     36.49721527
Na       11.39885330     18.30874443      4.60508156
Na       11.47656631     18.00735283      9.01213551
Na        8.99069023     16.05584908     13.50887489
Na        8.66076851     15.99902058     18.23803711
Na       11.68366623     18.49934196     27.26354599
Na        9.59351635     13.52403259     29.46738243
Na        8.97100449     16.04993629     31.84465027
Na        9.30140591     20.55891609      4.54821205
Na        9.20219898     20.44675064      9.35894489
Na        9.00604820     20.67441368     13.80390453
Na        9.11133289     20.65203667     18.28962517
Na       11.20167542     18.04037476     23.30646515
Na        9.38547993     20.49323845     27.80487061
Na        9.17775345     20.48176956     32.40327835
Na        6.95390081     22.83224869      4.24147940
Na        9.37217999     24.97946167      8.94733715
Na        9.07396984     25.09215355     13.55118465
Na        9.27849770     25.16360664     18.34646988
Na        8.59515381     25.15166473     22.89070511
Na        6.73934364     27.20261765     27.57432175
Na       11.44350815     22.88883400     31.97654343
Na        9.15905094     27.12500191      6.72243261
Na        6.84730673     27.16184998      9.17480183
Na        9.10972691     32.03925705     16.17575455
Na        8.87046719     29.65430260     23.00730896
Na        8.98657322     27.42759514     25.14409065
Na        8.74508953     29.78480339     31.74214554
Na       13.98198700      2.10448289      4.51891279
Na       13.78485107      2.30673695      8.59178829
Na       13.73989391      2.46975684     13.73194027
Na       13.63333321      2.44830203     18.02979469
Na       11.36809254     -0.01873375     23.00951576
Na       13.81272411      0.32498288     29.72467422
Na       15.64684105      4.59351015     32.14646912
Na       13.61074734      7.03732729      4.17982531
Na       13.63784218      6.66084337      9.28546810
Na       13.77244759      6.73973703     13.38235092
Na       16.07743454      4.86159134     18.24486732
Na       14.01956844      4.53124428     25.34252739
Na       13.41117191      6.68324804     27.71480942
Na       11.46562481      4.32208109     32.18649292
Na       13.57756710     11.32450390      4.77987576
Na        9.00469875     11.53264427      9.64286041
Na       15.96959114      9.18137074     13.63958168
Na       11.32902813      9.06358433     18.37824631
Na       18.19578743     13.78869724     20.80164146
Na       16.15489388     13.69104004     27.32880592
Na       13.69620037     11.20065117     31.66648865
Na       13.56565666     15.96259499      4.80802679
Na       13.86010838     16.07900620      9.30558395
Na       13.61462021     15.84096909     13.77087212
Na       13.84029007     16.19816971     18.24712563
Na       15.80440235     14.22064209     23.05985641
Na       13.77201557     15.71968174     32.17847824
Na       11.34599495     22.90762901      4.91397715
Na       13.69572163     18.44529152     11.27708054
Na       13.85900497     18.20569801     16.06462288
Na       16.09465218     22.92490959     18.26532555
Na       13.21543407     20.41688919     22.80157280
Na       14.07537746     20.66161728     27.36012840
Na       13.98364639     20.31170464     32.15245819
Na       13.66389847     25.03569221      4.60225821
Na       15.94941998     22.91838837      9.10724831
Na       13.50890350     25.37196350     13.56309891
Na       13.92717457     25.14734840     18.55984116
Na       13.54852486     25.03042984     23.03333664
Na       15.76304245     27.40992737     27.50451660
Na       13.26199055     25.13503265     31.92255974
Na       13.98722267     29.66910934      4.86662245
Na       13.74981403     29.49574280      8.94595337
Na       11.29138184     27.45549583     14.09387398
Na       13.71145821     29.58337593     18.53273964
Na       13.56319809     29.71156883     22.62991142
Na       13.33076763     27.65745735     25.16464233
Na       13.60605812     29.81283760     31.85213661
Na       18.22764587      4.27086163      2.27453923
Na       18.39533806      2.35221744      9.36203289
Na       15.84673214     -0.13618207     13.17032814
Na       17.89894295      2.18659234     18.12826729
Na       20.75017738      4.43923521     22.72144508
Na       18.37607002     -0.23893207     29.68475914
Na       18.45625114      4.26874876     29.44681549
Na       18.30020714      9.51155949      6.65973806
Na       16.17945099      4.57405901     13.47670555
Na       22.85495949      6.80079651     13.55145836
Na       17.99037361      7.13592911     17.93148804
Na       18.37704277      8.56100750     20.55846405
Na       18.40300941      6.52906942     27.40803337
Na       20.44672203      4.24405432     36.64815140
Na       18.27470589     11.50795555      4.69388294
Na       18.34700966     13.84115314     11.43919659
Na       18.36751175     11.62312698     13.68215370
Na       18.27069473     11.70415592     18.56774330
Na       13.47131729      7.05686855     22.52453041
Na       18.09279060     11.14333439     27.59184456
Na       18.07768631     11.43015480     32.03261185
Na       18.18804741     16.23184967      4.27455425
Na       18.14111328     15.93387032      8.91940212
Na       18.40466118     16.00438881     13.83358192
Na       18.08292961     16.19114494     18.20270538
Na       18.54055405     15.98898411     22.87935638
Na       18.27286911     15.99896908     27.34319878
Na       18.38502312     15.79902172     31.87260437
Na       16.02905655     18.36278534      4.54894972
Na       18.49535370     18.17322922      7.00119543
Na       18.43885422     20.73490143     13.36476803
Na       18.01182938     22.65949821     20.71283531
Na       18.28413200     20.40886879     22.71497917
Na       18.06429100     20.39881134     27.37212944
Na       18.51540565     20.39737892     31.45669937
Na       18.00529480     22.82202721      7.12591648
Na       13.98804760     25.38321495      9.15011406
Na       18.19844818     25.30959511     13.58210659
Na       20.67157173     22.68729973     22.82786179
Na       18.24126434     25.04753113     27.60995674
Na       18.58381462     25.22183228     32.15544510
Na       20.36871910     31.71769524      4.80315828
Na       18.03448677     29.67569923     13.84186935
Na       18.31946754     29.37136078     18.60110664
Na       18.57579994     29.60150909     23.22156143
Na       18.27474594     29.45898056     27.26669502
Na       18.25918961     27.34767342     34.47944260
Na       22.70976639      2.48910069      9.37204552
Na       20.33067703      4.83100319      9.03337193
Na       22.95579720      0.25772142     15.81343365
Na       22.63809204      2.20245719     18.34544945
Na       23.05698967      2.21769094     27.38824081
Na       22.94519043      2.18912745     32.08272171
Na       26.98011017      4.56037474      2.32117343
Na       22.43028450      4.51774979      6.91596079
Na       25.48793602      9.43223667     13.82379818
Na       22.79442406      6.82051420     18.30376625
Na       22.75941658      6.98119593     22.86940193
Na       27.34326744      6.88348436     27.50667572
Na       25.16661072      5.03386164     32.12981796
Na       22.88371277      9.17089081      7.01877737
Na       23.09732056     11.40342903      9.34767056
Na       22.64230347     13.62154388     15.71053791
Na       22.82336617     11.46580124     18.13003349
Na       22.77465248     11.34526253     22.94381905
Na       20.56839180      8.92436695     27.46068573
Na       23.04958725     11.60841656     32.41280365
Na       23.05845451     15.83711529      4.41518593
Na       22.96888161     15.70079613      8.94189548
Na       22.78774834     15.91462898     13.91406918
Na       22.74496651     15.91791916     18.38964844
Na       22.99876595     18.25145340     25.06319618
Na       22.87123299     15.80964661     27.16441345
Na       22.84988594     16.08273315     32.08854675
Na       22.93238068     20.03205109      4.41906452
Na       22.82917213     20.53975487      8.78868866
Na       22.87771606     20.69461823     14.01459980
Na       25.05054283     18.43405151     18.49983597
Na       23.00065231     22.93742180     25.06974602
Na       22.99543571     20.51040268     27.27031136
Na       23.14478111     22.45714188     34.39674759
Na       22.95335579     25.14636230      4.26426411
Na       22.66762352     25.16093826      8.83170605
Na       22.66492081     29.73127556      8.88661098
Na       22.90084076     25.09227371     18.41456032
Na       23.00927734     25.07489395     22.79859734
Na       22.65332413     22.82332802     29.75264359
Na       22.93946075     27.56152153     34.35227966
Na       22.88146973     29.55855370      4.49484444
Na       22.86977959     32.24438858      6.91490698
Na       20.39327812     27.50077438     13.27246571
Na       22.38430595     29.98006630     18.29429054
Na       22.68700409     29.74684525     23.03119469
Na       22.89738083     29.78143311     27.46512032
Na       20.55019379     31.92727280     31.95416832
Na       27.37384987      2.26681018      4.71951914
Na       27.25810242      2.38360548      8.68144989
Na       27.37017059      2.21058154     13.73514366
Na       29.99161339      4.91597605     18.36703300
Na       29.84784508      0.21407034     27.41342545
Na       25.27021217      4.43240356     22.76685333
Na       27.28599358      2.00672650     31.91060066
Na       29.46164131      8.97047615      4.59268236
Na       31.78045273      9.68697739      7.00593233
Na       27.43436432      6.78028393     13.47197247
Na       25.47549438      4.38693619     18.32042503
Na       27.82890320      7.03446865     22.89175606
Na       27.32714081      4.57544470     25.10293579
Na       27.47935677      4.57433176     29.63222504
Na       27.49787903     11.55977821      4.55137253
Na       27.47097778     11.49579144      9.04600239
Na       29.81016159     13.75017357     13.33876610
Na       27.37787437     11.47635937     18.40201759
Na       27.75369644      8.87340927     20.58619499
Na       25.33180046      9.04757023     27.53747368
Na       32.17097855     13.91531277     29.99046326
Na       27.26910782     15.98485184      4.54440260
Na       27.19121933     16.10965919      9.04960251
Na       27.48844337     18.39469910     11.43020821
Na       27.48558617     15.74272823     18.43692589
Na       27.26415253     15.85714436     22.74724007
Na       27.49662590     15.96231747     27.17504501
Na       27.72693825     22.91669464      6.79328012
Na       27.85745811     20.68371773      9.17105103
Na       29.75050545     22.94806290     13.67524719
Na       27.48284149     18.04039192     20.60537529
Na       29.75923920     18.11065865     22.83361435
Na       27.49837685     25.10366058     27.36562920
Na       27.37529373     20.41025162     31.79360390
Na       27.39865112     24.95725060      4.45473528
Na       27.57691574     27.42900658     11.41849136
Na       25.33135414     22.93848991     13.89848518
Na       25.16302109     27.45747757     17.95529938
Na       27.40921593     27.34027863     20.68264389
Na       27.23925209     27.59712029     29.68190575
Na       27.54561234     25.22242737     32.27552032
Na       31.85990334     31.97232437      6.98618412
Na       27.38311577     29.85113144      9.14158535
Na       27.19166946     29.50907135     13.55409718
Na       31.80900192     24.85363007     18.55837631
Na       27.20104218     32.40850067     25.04233360
Na       27.51079559     31.94177055     29.67431450
Na       27.71789360     29.91805077     32.12887955
Na       -2.40220308      0.17567529      4.51544333
Na        2.26048398     -0.04989059      9.48411369
Na       -0.38947609     -0.12936218     11.43337059
Na        2.12324762      0.08824401     18.26460648
Na       -2.30609727      0.09915117     18.30002213
Na       -0.08206395     -4.52068758     20.58162308
Na        0.09859466     -0.11834464     29.71268654
Na        0.30196670      4.45305586      2.44914126
Na       -0.05752720      4.78924608      6.86565304
Na        2.17779636      4.66991663     13.58828640
Na        2.31588173      4.57509756     18.20759773
Na        2.48895121      4.52317715     22.72625542
Na       -0.16126189      2.26132107     27.11124420
Na        2.36740303      4.21499729     27.61066818
Na       -0.35443565      9.36811256      2.31599474
Na        0.05940343      7.05462217      4.84635401
Na       -2.42668271      8.97415257      8.92140007
Na        2.47518110      8.66629124     18.13603973
Na       -2.28843093      9.34787083     18.27840233
Na        0.05846966      4.82257271     24.98262024
Na        0.42825338     11.61886597     31.92000771
Na        2.25046587     14.17732430      4.44666243
Na        0.13061833     13.34570122      6.70741892
Na       -2.27874231     13.81905174      8.92132473
Na        0.02351279     13.56734180     15.86221695
Na       -2.19028735     13.73294544     23.02353287
Na        0.17502068     13.89863205     24.99844933
Na       -2.51403618      9.38785458     32.10007477
Na        0.18482400     18.63197327      2.28574347
Na       -0.18900889     18.12732506      6.88518190
Na        0.14114271     18.36017990     11.41585064
Na        0.00885816     18.17122459     15.83277607
Na       -0.06305885     15.92441940     22.65063095
Na        0.09967737     18.29609871     25.21292305
Na       -0.04009649     16.04671097     27.58735466
Na        0.26064590     22.87034416      2.23359346
Na        2.33889222     22.57654190      4.38283205
Na       -0.13231398     22.56147385     11.37227535
Na       -0.04407212     22.78744507     15.83558369
Na       -0.07812017     22.80706215     20.57889938
Na       -0.10927926     24.95262527     22.90215302
Na       -0.15177697     22.90718651     29.63661575
Na        0.15166879     27.21047401      2.26381183
Na       -2.30945563     27.34267616      4.70186377
Na       -2.26907849     27.05040550      9.05128860
Na        0.25452670     25.25979233     13.74948692
Na       -4.31847239     25.17300797     18.01193810
Na        0.08177935     27.51204872     25.03491402
Na       -2.47129464     27.54602432     31.95557594
Na        4.21115494     -0.09682729      2.36417413
Na        6.68076754      0.08370510      4.52412224
Na        4.38826942     -2.16449213     13.66086388
Na        4.56824112      0.14559266     16.04091454
Na        4.55004501     -0.02591704     20.49261665
Na        4.26741505     -0.32159659     25.19471359
Na        2.43925738      0.11959523     27.95094490
Na        4.58862782      4.47280979      2.24236250
Na        6.66382456      4.72093582      9.11243820
Na        4.80182648      4.85756636     11.40957451
Na        4.60212946      4.64274979     15.87650585
Na        4.54213858      4.62269115     20.39663315
Na        4.90691471      4.33619642     25.05811119
Na        4.83849955      5.05141401     29.59206963
Na        4.47719431      6.91684055      4.35908175
Na        4.51206589      9.37284756      6.45207167
Na        6.84295702      8.97968102     13.94944286
Na        4.42834044      9.17414951     16.02806664
Na        4.42025566     11.45884609     18.60966301
Na        6.78207731      9.29605675     22.80949783
Na        4.35454130      8.94822598     29.79840088
Na        4.67103386     13.66392422      2.00812626
Na        4.29890871     11.48584366      9.17989731
Na        4.63999462     13.90226841     11.40456009
Na        4.78685045     13.72948647     20.74245071
Na        6.97563076     13.48621464     23.03203964
Na        4.45499897     11.38822079     27.27392769
Na        4.59815025     15.90240097     27.19615746
Na        4.23736858     18.17107010      2.03474808
Na        4.83142138     18.02146912      6.81638098
Na        4.64795351     18.48099709     11.59974289
Na        2.53339648     18.55520058     18.27602386
Na        4.54848719     15.88353348     18.52236366
Na        2.48290634     14.04097939     23.02138138
Na        4.67301369     18.07135391     29.80331802
Na        4.30280828     22.62295723      2.24446630
Na        9.50316525     23.00789070      2.26939845
Na        4.30079746     22.53379822     11.39644718
Na        4.35693455     25.28142357     13.58408260
Na        7.04666805     18.26880074     22.58632851
Na        4.19152355     22.85599327     25.22866249
Na        4.42338371     22.53171539     29.87849426
Na        4.72690296     27.48838806      2.33721614
Na        4.47411394     25.23847389      9.06538010
Na        4.59090042     27.41523361     11.53104496
Na        4.75247908     27.64226341     15.93669128
Na        4.75712538     27.25403786     20.40168953
Na        4.74208260     27.20777702     29.87572670
Na        2.44513369     31.77670288     32.24445724
Na        9.23449516     -2.27873898      4.70443201
Na        9.32929516      0.11199541      6.90093946
Na        9.08793545     -0.13281074     11.56717110
Na       11.45076275      0.13112332     18.73373413
Na        9.44150639      0.27493417     20.70725822
Na        6.68982029     -0.28502911     27.51440620
Na        8.89509678     -0.00405774     29.70573425
Na        8.97217083      9.09592056      2.22968864
Na        9.22387695      4.71373463      7.08431053
Na        9.04918766      4.63366604     11.41365719
Na        9.16581059      4.68655920     16.12853050
Na       11.24911690      4.40469503     22.80148697
Na        9.18929386      4.74504375     25.09284592
Na        8.89262295      6.72465944     31.92982674
Na        9.06144333     11.65955257      0.10566182
Na        8.85393524      9.60577297      6.93193388
Na       11.19163513      8.91875076      9.13134766
Na        9.02368450      6.81702185     13.72787762
Na        9.16713810      9.27614784     20.55632401
Na        9.48624516      8.94589710     25.19201660
Na       11.33428288      8.98213673     27.26825523
Na        9.01373959     13.93020439      2.29942989
Na       11.39803314     13.65495491      9.02246475
Na        9.12766075     13.84906006     11.26931858
Na        9.24369717     13.85917568     15.70601082
Na       11.39144230     13.64315128     22.74935722
Na        9.68585110     13.66196537     25.39106941
Na        9.19386959     16.25343132     27.21959496
Na        9.56287384     15.77230835      4.64672899
Na        6.93402052     18.32605934      4.52683258
Na        7.01490021     18.23260498      8.98045826
Na        9.16621780     18.12583160     15.77694416
Na        8.75338268     20.78180504     22.69513512
Na       13.93339348     18.37582016     25.31494331
Na        9.52269745     17.99255943     29.77580070
Na        8.93658257     25.09271622      0.33657965
Na        9.07003975     22.66636848      6.84501076
Na        9.16355705     22.79348946     11.29212856
Na        9.34219646     22.76268005     16.12556648
Na        9.15091038     23.10053253     20.52700233
Na        8.99715900     23.02886200     25.25607681
Na        9.15240955     22.87869644     29.92184448
Na        9.18064594     27.82335472      2.17452621
Na        3.89936233     27.37749672      7.04566336
Na        8.90693474     29.57635117     13.63529873
Na        9.41819572     27.28769112     16.10772324
Na        8.87721825     27.51862907     20.62774277
Na        9.09019947     29.88278770     27.18020821
Na       13.86521435     -0.42963549      2.42725253
Na       13.89953709     -0.06881132      7.04789925
Na       13.63865948     -2.19854879     13.59329987
Na       13.56914425      0.00467353     15.99627209
Na       13.99925804      0.00252146     20.48404503
Na       13.66958427     -0.04352579     25.24977493
Na       13.84465694      2.27378583     32.25587082
Na       13.66341972      6.98147535      0.33434644
Na       13.50838852      5.21624660      6.79401970
Na       13.41101551      4.51519823     11.54515553
Na       13.76944637      4.90918732     15.83564091
Na       13.84879398      4.55649185     20.42159843
Na       11.61169338      4.20317125     27.08045197
Na       14.06897640      2.29589748     27.67007828
Na       13.85004044      9.67030144      2.17857313
Na       13.61191273      9.15189552      6.76400042
Na       15.86978626      9.08829594      9.01583576
Na       13.91255760      6.93355703     18.41676903
Na       13.59423065     13.42915344     16.05870438
Na       13.72556782      8.98082352     25.12954712
Na       13.76663876      9.11913109     29.85929108
Na       13.44331455     13.16207886      2.43053865
Na       13.53073502     13.93747139     11.50539780
Na       13.71287346     13.71991920      6.93128538
Na       13.86451244     11.13158989     13.54570961
Na       14.05692291     13.71587181     20.65964127
Na       13.92143822     11.64054966     23.07021713
Na       13.88696194     11.23309517     27.45669937
Na       14.04987526     18.15540123      2.35932660
Na       16.23559380     18.31507111      9.11619568
Na       13.78406334     20.75535202     13.55506897
Na       11.16487598     18.25453758     18.45323753
Na       13.30691338     18.27538300     20.95941734
Na       13.55868340     15.94549370     23.05063629
Na       13.29784298     18.31592751     29.79289818
Na       13.64109898     22.79882622      2.27764392
Na       13.58714867     22.84058380      7.02690077
Na       13.58045578     22.80072403     11.38159084
Na       13.85728168     22.89724922     16.04787827
Na       13.78170967     22.56394958     20.49867439
Na       13.66149807     22.72443771     24.92870522
Na       13.78996849     24.96264648     27.42453003
Na       13.54179478     27.14618301      2.54238296
Na       13.62587357     27.34842682      6.90951109
Na       13.71419525     27.50787926     11.38355637
Na       13.39032650     27.87483978     16.04840279
Na       14.00339317     27.63663101     20.89890671
Na       11.13729000     27.88609314     27.44185448
Na       13.27343082     27.23312378     29.56128693
Na       18.31019020     -0.15349510      2.25278425
Na       18.12517548      0.09417928      6.99416924
Na       18.44676399     -0.08625696     11.41326046
Na       18.14594269     -0.50603110     16.06417465
Na       18.44003105     -0.07386702     20.83003998
Na       18.11465263     -0.11065406     25.02514839
Na       17.88946724      2.24041343     31.78439713
Na       16.06511688      4.81496382      4.25503063
Na       18.40377426      7.01563549      4.48518372
Na       18.10017395      4.32513237     11.35603714
Na       18.17832756      6.94722700     14.21459770
Na       18.57745552      4.44737816     20.43291855
Na       18.35222626      6.74195910     22.79451370
Na       18.61484528      2.13765383     27.36940384
Na       18.34253311      9.34631443      2.31859875
Na       20.56802940      9.22684193      4.97092390
Na       17.90889549      9.29439640     11.53282261
Na       18.29945755      9.46787834     15.88350773
Na       15.81380463      9.29398060     22.75109100
Na       18.08846664      9.20683002     25.13521004
Na       18.10111046      7.03432035     31.80208206
Na       18.23392487     13.83559704      2.42182589
Na       18.49072075     13.93583107      6.92780066
Na       18.25671768     11.39916325      8.78272057
Na       18.33668137     14.42524910     16.09134674
Na       15.97570610     13.57173347     18.23359299
Na       18.22931862     11.49083138     22.83961296
Na       18.26748276     13.79083443     29.88706207
Na       18.03030205     18.68071747      2.04957199
Na       18.28489876     20.70122910      4.61576605
Na       18.40871429     22.82796478     11.36981297
Na       18.07119751     18.43499184     16.00541878
Na       18.40806198     18.13968849     20.45486069
Na       18.51958656     18.06604195     24.95045853
Na       18.45702171     17.85256195     29.58803177
Na       18.55558777     22.65417862      2.25400901
Na       17.82389832     25.50866890      8.93531799
Na       18.40808487     20.75369263      9.23661232
Na       17.77134514     22.91713905     16.16454506
Na       18.48173141     25.05915070     22.89416313
Na       18.50327873     22.35319519     24.82410622
Na       18.15995979     22.49454880     29.58348083
Na       20.74809265     27.39147377      0.01227953
Na       15.96364784     27.16290665      4.92143440
Na       17.51420403     29.88509750      9.14869690
Na       18.09739876     27.19192886     16.08575821
Na       18.13260651     27.22853470     20.68311310
Na       18.48368263     26.97908020     24.96569633
Na       18.59321213     27.21320152     29.88851166
Na       22.62005997     -0.04914243      2.22664952
Na       24.93508339      0.02995552      4.40331984
Na       23.45136452      2.01598835     13.42162514
Na       22.95731163      0.27889013     11.24587631
Na       22.77258301      2.38586783     22.65571976
Na       25.29026413      0.06358598     22.81458664
Na       22.61038971      0.32627195     29.84899330
Na       22.94746208      4.71370840      2.30063796
Na       24.97624397      4.54384136      4.69361305
Na       18.04790115      2.19441056     14.12043095
Na       23.01061058      4.36990595     15.66000652
Na       23.43225861      4.42200756     20.52593422
Na       20.46567917      4.75551462     27.44303322
Na       25.20530128      4.52514791     27.40353966
Na       22.72311020      9.11416245      2.18848348
Na       22.35961151      7.09760904      4.40166283
Na       22.92454720      9.14085388     11.13508797
Na       22.92304611      9.27000046     15.90476990
Na       22.71872139      9.07588577     20.57386589
Na       22.91450119      9.17909145     25.32069778
Na       22.91018486      9.46277237     29.67640114
Na       22.54569817     13.82556820      2.30146003
Na       22.59512520     13.70766258      6.92459726
Na       22.73107719     13.97523975     11.34226990
Na       25.22513008     13.84847832     13.79314995
Na       23.46880531     13.69928169     20.61601448
Na       22.73529243     13.49413776     25.22234535
Na       22.85640335     13.34036350     29.74942970
Na       25.13993645     18.07579422      5.01221561
Na       22.85873413     18.07052422      6.63958788
Na       22.64599609     18.45210075     11.60462666
Na       23.00284767     21.04223251     18.48625565
Na       22.43138885     18.38126183     20.48676682
Na       25.03961945     18.10182953     27.50808525
Na       20.71520996     18.22476387     31.93115044
Na       20.57879257     22.66431046      4.70109320
Na       22.91943932     22.87291527      6.70349121
Na       22.77813721     22.69832611     11.43924904
Na       23.21994019     22.66632271     15.89483643
Na       20.74934959     22.82290077     18.02334595
Na       27.37677765     20.57287979     22.54931259
Na       23.29663086     20.74366188     31.80250931
Na       22.90789795     29.65260315      0.15413104
Na       20.54634476     27.57290268      9.07720852
Na       25.24335098     27.75153160      8.69911194
Na       22.80791473     27.67532730     15.84590912
Na       22.69018745     27.60669708     20.32904434
Na       22.68112183     27.17511177     25.14748001
Na       22.88781166     27.87697411     29.53931236
Na       27.53770256      0.41672960      2.19115567
Na       27.50784683      0.08068746      6.91717577
Na       27.36689758     -0.07721987     11.47309780
Na       27.40113068     -0.00320474     15.91231537
Na       27.43903542     -2.25407982     18.17198181
Na       25.28960800     -0.07666337     27.56346512
Na       27.59080696      2.11156607     27.28088951
Na       27.29934502      6.78546381      4.49625540
Na       27.44086838      4.83242655      6.73009920
Na       27.25289536      4.31381893     11.26496696
Na       27.36128235      4.54938030     16.03337479
Na       29.77736092      0.23472776     22.82670593
Na       23.10938835      4.82651901     25.06007767
Na       29.76338959      4.23859072     32.29242325
Na       27.30421638      9.06246662      2.45995378
Na       27.04737854      6.66556883      9.01084805
Na       27.46309662      9.15585327     11.28009319
Na       29.72072792      9.06475830     13.72654343
Na       25.27049065      9.48639297     18.52231789
Na       29.67335510      9.33093929     23.07271767
Na       27.27548599      8.90272713     29.78689575
Na       26.98039818     11.41719532     -0.11624514
Na       29.46212959     13.62814617      4.71458244
Na       27.50124550     16.37585258     13.67071247
Na       27.59159470     13.52690315     16.13374519
Na       27.22802925     13.52813339     20.51372910
Na       27.41698647     13.27220154     24.93838501
Na       27.65329170     15.85827160     32.00144958
Na       27.28107834     18.14884567      2.14519644
Na       27.56241417     18.43189049      6.88104296
Na       24.94415283     18.50205421     13.58886433
Na       27.36573601     18.19348526     16.00891113
Na       27.59182358     18.55998611     24.91893005
Na       27.48339272     22.54888344     25.09409332
Na       27.39457321     18.35401726     29.47013092
Na       27.64863586     22.94987679      2.31141067
Na       24.98097610     22.51005363      9.20846653
Na       27.71818924     25.17883492     13.99254131
Na       27.10446358     22.69089699     15.90926838
Na       25.17665100     22.91959190     22.88978004
Na       25.15620995     23.12996292     27.29112434
Na       27.93510818     22.94131851     29.69658661
Na       27.63076019     29.80198288      4.72195721
Na       27.20809174     25.13981438      9.17833614
Na       25.35677147     26.92505074     13.64518166
Na       27.22580719     27.25171852     16.24152946
Na       27.23464584     29.82198524     23.22663498
Na       27.26076508     27.42370033     25.10557365
Na       27.44796371     29.74796104     27.24656296
O        -0.26496133     -0.09647739      4.55996895
O        -0.05361664      0.05773062      9.06624889
O        -0.19710459      0.10636599     13.91036701
O        -0.04631492     -0.15037675     18.42974281
O         0.02571082     -0.14022624     22.94597435
O         0.09255146      0.05655833     27.38544655
O        -0.04402806     -0.00715268     32.17241287
O        -0.05437093      4.63115120      4.87983990
O        -0.22831406      4.64833879      9.16883659
O         0.10799906      4.63574505     13.68179512
O         0.15738581      4.44692373     18.15177727
O         0.21569803      4.28970528     22.69352722
O         0.02189220      4.47120142     27.46216583
O         0.16382974      4.34812021     31.93058395
O        -0.09568649      9.46257401      4.45918989
O        -0.18082772      9.23257256      9.05669117
O         0.04264891      9.31940365     13.47218132
O        -0.09081285      9.14035702     18.29455376
O         0.09547278      9.32579136     22.76210594
O        -0.03660716      9.11417103     27.35806465
O        -0.09949157      9.13612270     31.90489769
O        -0.02356368     13.66409588      4.51026011
O         0.34070686     13.57408714      9.23823643
O         0.03379153     13.61897087     13.68350124
O         0.15037775     13.58646870     18.35651207
O         0.14907470     13.88557720     22.81973267
O         0.14165004     13.73228836     27.45353889
O         0.00432387     13.90976810     32.28944397
O        -0.02986622     18.38423157      4.76661587
O        -0.26477006     18.21113968      9.26103687
O         0.03525209     18.43565941     13.72958946
O         0.14548668     18.25011253     18.13297462
O        -0.00090636     17.94193077     22.68028069
O         0.02403503     18.28214455     27.44547653
O         0.06903674     18.30282402     32.04540634
O         0.24133976     22.94489861      4.56114769
O        -0.15059064     22.92752838      9.00894451
O        -0.07946012     22.85437202     13.62722874
O         0.04522353     22.59782982     18.22887039
O        -0.14267926     22.61414909     22.62379265
O        -0.25724837     22.61467552     27.49794579
O        -0.01198959     22.66670036     31.97819328
O        -0.04306257     27.48973465      4.62451982
O         0.19404499     27.39558220      9.22979259
O        -0.03757991     27.47560310     13.52240562
O        -0.06936622     27.07117653     18.23457527
O        -0.25642395     27.44141006     22.75934410
O        -0.07591573     27.42062378     27.30122375
O         0.09802776     27.44312477     32.13254547
O         4.56090546      0.19052152      4.65182304
O         4.41179085      0.32552809      9.09162903
O         4.52495289     -0.00714242     13.81651592
O         4.62148857      0.02980727     18.29539490
O         4.37974167      0.06720869     22.98913956
O         4.61547709     -0.14597180     27.63779831
O         4.38510561      0.23978083     31.99739456
O         4.39520311      4.51170301      4.56608677
O         4.41599655      4.76649714      9.28702927
O         4.51840973      4.65160322     13.71183681
O         4.59385204      4.74889231     18.27601051
O         4.65291691      4.39249325     22.76854134
O         4.62982082      4.73827124     27.39103127
O         4.81606388      4.56159830     31.81235504
O         4.58433342      9.28838921      4.35241079
O         4.38055897      9.09798050      9.32950878
O         4.48611879      9.34065247     13.86709023
O         4.55311871      9.17225552     18.42193031
O         4.49735594      9.23244572     23.14810371
O         4.56525373      9.14196110     27.33425713
O         4.59213066      9.08939075     31.94112206
O         4.77337980     13.66921139      4.48971558
O         4.63053608     13.52378559      9.00924110
O         4.39585114     13.74312973     13.55025387
O         4.68003082     13.67433262     18.56250000
O         4.47608137     13.67344379     23.15736771
O         4.73476315     13.60504436     27.07178307
O         4.51952267     13.85072613     31.90099335
O         4.75280237     18.10464096      4.38996887
O         4.57245207     18.14176559      9.12024498
O         4.55103111     18.33396149     13.87996292
O         4.63363314     18.06712151     18.53784943
O         4.55804062     18.06373215     22.60417747
O         4.68345165     18.21417046     27.01522255
O         4.97776413     18.25009918     32.08825684
O         4.76360750     23.01412582      4.26291037
O         4.47459507     22.75868797      8.89564610
O         4.70402336     22.95833397     13.68438911
O         4.49628925     22.77927780     18.29505157
O         4.39157867     22.82833481     22.88945198
O         4.63424158     22.91908073     27.45768929
O         4.69114876     22.56422806     31.97952843
O         4.50561142     27.27107048      4.52610397
O         4.51547861     27.72782516      9.26829720
O         4.51071167     27.62953186     13.76416397
O         4.29818916     27.42259979     18.06053925
O         4.41485882     27.51180840     22.71250153
O         4.46299982     27.35081482     27.76105309
O         4.77186012     27.21834183     32.16283035
O         9.27860260      0.03220474      4.57739830
O         9.14398861      0.01304791      9.19481182
O         9.09071636     -0.11273197     13.77148056
O         9.27740097      0.04437063     18.33250427
O         8.88291454     -0.12137595     22.83739853
O         9.10264397      0.04109842     27.32805443
O         9.33959866     -0.29251957     32.11257935
O         9.28738022      4.82913494      4.75103951
O         9.16472435      4.51467848      9.24860477
O         9.10519314      4.62701273     13.61483192
O         9.27499008      4.51366615     18.33657837
O         8.98441887      4.80971956     22.93211365
O         9.15613461      4.55326366     27.42971802
O         9.21773529      4.45644331     32.15340805
O         9.32897377      9.09344101      4.68171406
O         8.87878418      9.37682438      9.33934784
O         9.05595779      9.01358891     13.77651215
O         9.14615154      8.94731712     18.39570999
O         9.30435562      9.24868679     22.79485130
O         9.21640491      8.97713470     27.30793571
O         9.13561344      8.91350365     31.95636940
O         9.20287609     13.67412663      4.56074190
O         8.94825459     13.66748142      9.20153904
O         9.05863285     13.65907288     13.70580387
O         9.08636093     13.65501499     18.07743073
O         9.09511852     13.76480675     22.86309052
O         9.45415783     13.29533863     27.41291618
O         9.21558857     13.84137058     31.97187614
O         9.27943134     18.26235962      4.55442858
O         9.31549072     18.18878174      9.03576374
O         8.98612022     18.51149559     13.52899551
O         8.99551868     18.53411293     18.09088898
O         9.22522736     18.37088013     22.89717674
O         9.14667034     18.50166130     27.44000816
O         9.19454861     18.32285309     31.97296906
O         9.23573589     22.92040634      4.44404364
O         9.11033154     22.85636139      9.14451122
O         9.03856659     22.77900696     13.85736275
O         9.22751999     22.76551628     18.38468742
O         8.89106083     23.00878716     22.67891884
O         9.11051655     22.87495232     27.72461700
O         9.03844929     22.86330032     32.26272964
O         9.19871521     27.46739197      4.56916952
O         9.22660160     27.36423111      8.97597218
O         9.20769310     27.48310280     13.63112640
O         9.14215755     27.31080055     18.55731201
O         9.00459003     27.28075790     23.01399612
O         8.98719025     27.65217018     27.42436218
O         9.14825249     27.56724358     32.00891495
O        14.00383282     -0.21908180      4.50232697
O        13.73257828      0.21714261      9.20680237
O        13.61181927      0.00250355     13.78947067
O        13.74513054     -0.04005177     18.13065529
O        13.74628735      0.18434566     22.70602417
O        13.81234932      0.21650445     27.68935585
O        13.66528320      0.16827388     32.09548569
O        13.73266029      4.80726624      4.57373381
O        13.69380379      4.66482925      9.12683296
O        13.70734406      4.63877964     13.60531998
O        13.85349655      4.62529135     18.15364647
O        13.64783955      4.54995108     23.02236748
O        13.98633385      4.42206049     27.42798424
O        13.46626854      4.27470922     31.83979225
O        13.80043125      9.20723248      4.29754543
O        13.54689693      9.07654190      9.19154739
O        13.75378799      9.09308147     13.87316513
O        13.45766926      9.30841637     18.19308281
O        13.64154816      9.36211491     22.80916977
O        13.71494865      9.15188217     27.61186028
O        13.78521442      9.02244663     31.95907402
O        13.51232243     13.76040936      4.48290777
O        13.60822964     13.70451832      9.13218498
O        13.61777687     13.68060780     13.55893135
O        13.82848263     13.76271248     18.11334801
O        13.69086170     13.76690674     22.90384674
O        13.75768280     13.51568317     27.46609497
O        13.90850353     13.69804096     31.99161911
O        13.63636017     18.18694115      4.51222086
O        13.77827263     18.16211700      9.01024055
O        13.85103703     18.12594414     13.54510689
O        13.56359386     18.33356857     18.29812431
O        13.48943996     18.34477615     23.07663918
O        13.92809200     18.42397118     27.36597633
O        13.81603909     18.25961304     31.90052795
O        13.78450775     22.83380318      4.77176046
O        13.48975086     22.74718094      9.32874680
O        13.50905323     22.94057083     13.88261127
O        13.80523396     22.73226547     18.25651360
O        13.59721756     22.85141373     22.66982841
O        13.64866447     22.83046722     27.12210655
O        13.69034100     23.01375771     31.93608093
O        13.83664989     27.39823532      4.63680840
O        13.49067974     27.38540268      8.94994640
O        13.62069607     27.67659378     13.84272385
O        13.62811279     27.35760307     18.19187164
O        13.58365345     27.41186905     22.86672783
O        13.42714405     27.67945290     27.43521309
O        13.74533749     27.43117142     32.05208588
O        18.26459312     -0.03232555      4.68341732
O        18.09726143      0.15677965      9.04852200
O        18.13210869     -0.03478729     13.77577114
O        18.22720146     -0.26374906     18.39429474
O        18.08344650     -0.12348595     22.87218666
O        18.43709564     -0.14568724     27.54574013
O        18.34789848      0.05209477     31.85245323
O        18.07929039      4.40900135      4.53613520
O        18.12078857      4.64759731      9.25185776
O        18.20148087      4.50271511     13.87204266
O        18.44362831      4.81423283     18.15100479
O        18.25624847      4.50555515     22.84757996
O        18.44195747      4.38752699     27.42195320
O        18.02812958      4.65771055     31.91615677
O        18.24138451      9.42332649      4.44076490
O        18.09335518      8.92410851      9.18512630
O        18.32128906      9.22164345     13.70855522
O        18.23057556      9.13598251     18.45095062
O        18.25972557      9.07255173     22.78610611
O        18.01932907      8.82802486     27.56825256
O        18.23521423      9.09456253     31.94912720
O        18.10451889     13.94926167      4.62438917
O        18.31340408     13.73619461      9.17702961
O        18.33825493     13.84326839     13.68143272
O        18.19220734     13.91512871     18.38950539
O        18.11643791     13.63387585     22.92324257
O        18.27594948     13.48281574     27.42686272
O        18.22415733     13.76650810     32.09190369
O        18.32011032     18.45997620      4.50826406
O        18.37190437     18.49180412      9.17875481
O        18.42124557     18.31284523     13.64789677
O        18.11989212     18.41093445     18.17471886
O        18.14954376     18.24853706     22.62341118
O        18.45394325     17.99035072     27.28214264
O        18.39842033     18.20573235     31.86830521
O        18.25017166     22.82394981      4.72368479
O        18.03441429     22.90591240      9.31603432
O        18.45409393     22.71372986     14.00960159
O        18.40150833     22.69222069     18.55224419
O        18.56723404     22.84355164     22.80532837
O        17.96346855     22.57518959     27.28270149
O        18.21812248     22.68796349     31.95129395
O        18.39713287     27.29872894      4.65155363
O        18.37636375     27.69043350      9.14659405
O        18.11422348     27.56980133     13.60402966
O        18.23010635     27.27630234     18.11833763
O        18.22060394     27.25069809     22.90487099
O        18.13282013     27.24406815     27.57687759
O        18.38681030     27.38883209     32.14762878
O        22.61750984     -0.06612577      4.51413202
O        23.01319122      0.13299653      9.17413425
O        22.83481598     -0.08691799     13.65068054
O        22.71778488     -0.02965308     18.08407021
O        22.98881340      0.00997854     22.71194267
O        22.95206833     -0.10028294     27.45949936
O        23.05805016      0.08724593     32.18743896
O        22.85085106      4.45938444      4.72003031
O        22.76541328      4.54266882      9.07838631
O        22.83942795      4.23426247     13.52279472
O        23.24241829      4.56876373     18.20960617
O        22.96347809      4.70983315     22.90751648
O        22.73627853      4.69869661     27.60249519
O        22.97173691      4.82543278     32.18445587
O        22.80109596      9.19746876      4.44363308
O        22.78031731      9.27097321      9.08816910
O        22.95021820      9.08723736     13.55800533
O        22.69560242      9.30405617     18.37199211
O        22.97431183      9.18409061     22.95671844
O        22.96894264      9.17039108     27.48933983
O        22.77186394      9.31596375     31.83082962
O        22.73454857     13.59126854      4.52702475
O        22.85999107     13.62902451      9.10729313
O        22.86351013     13.49730682     13.56445503
O        22.87625122     13.71227169     17.93611336
O        22.80019379     13.54792213     22.88268661
O        22.75758362     13.62419796     27.45989609
O        22.50525093     13.59081268     31.94281578
O        22.83084106     17.94559860      4.33126211
O        22.81711006     18.16060448      9.13544273
O        22.87362289     18.64110565     13.96969032
O        22.85826111     18.38543892     18.35078239
O        23.02885246     17.97954178     22.54402161
O        22.73841476     18.25484085     27.42555046
O        22.84004593     18.49353600     31.86517525
O        22.95496368     22.31866455      4.63087893
O        22.78689003     22.91164017      8.93932533
O        22.99911880     22.65287781     13.70669460
O        23.14649391     23.03258896     18.35445976
O        22.96961594     22.62591171     22.81271744
O        22.93560600     22.96114159     27.40669441
O        23.01417160     22.99259949     32.14415359
O        22.78194618     27.32945061      4.52109957
O        22.75108719     27.24680519      9.06564999
O        22.96082306     27.13984680     13.51906395
O        22.83197021     27.38869476     18.05539131
O        22.71013260     27.24675560     22.75684929
O        22.85948563     27.50754166     27.45796394
O        22.90527153     27.39559174     32.20389938
O        27.24766350      0.02005259      4.66805172
O        27.41894531      0.06181479      9.16142750
O        27.51057625     -0.25304279     13.73681164
O        27.46458817      0.12025996     18.24987221
O        27.47017670     -0.00289261     22.85970688
O        27.38021469      0.03411633     27.36040306
O        27.64365005     -0.08649861     31.87664795
O        27.21532440      4.63073540      4.64885235
O        27.21164894      4.53290844      9.09464359
O        27.36829376      4.47325945     13.66906643
O        27.57410431      4.50728655     18.33292580
O        27.64762115      4.50474834     22.73341179
O        27.60594749      4.59428120     27.56410027
O        27.33667946      4.65959072     32.08969498
O        27.18738174      9.12306118      4.51280880
O        27.44609642      8.93852997      9.12632084
O        27.56775284      8.96097660     13.62070274
O        27.48917961      9.22346973     18.43683815
O        27.58331871      9.27644348     22.87294006
O        27.65298462      9.22468662     27.23590088
O        27.34097481      9.03552723     31.99603462
O        27.24285889     13.78327084      4.52758884
O        27.54061127     13.76826191      9.10038280
O        27.45378876     13.54855061     13.58809662
O        27.35892677     13.61175060     18.18033791
O        27.17043495     13.67048836     22.88421631
O        27.56385231     13.60188675     27.26322937
O        27.42158318     13.75253105     31.98431778
O        27.31885529     18.27178383      4.39811993
O        27.38570023     18.28130722      9.02991390
O        27.49537086     18.53622055     13.82073021
O        27.41764832     18.21315193     18.27533913
O        27.52197838     18.11478043     22.80689240
O        27.26248550     18.44666290     27.23691940
O        27.36165428     18.26485062     31.92666817
O        27.14353180     22.92604065      4.54361534
O        27.23584557     22.96329117      9.00015926
O        27.35485649     22.92748260     13.79722786
O        27.57286644     22.77406693     18.29615593
O        27.60068893     22.77448463     22.90010452
O        27.35777855     22.72009468     27.53144455
O        27.60402107     22.91372108     32.03625107
O        27.23791885     27.30912209      4.63122845
O        27.24681473     27.35641670      8.93171597
O        27.43682289     27.48864365     13.90316772
O        27.55738640     27.29207230     18.40516090
O        27.32152367     27.44090462     23.01315308
O        27.55012131     27.42310143     27.40279198
O        27.32093048     27.65387154     31.82005692
H         1.69531703      1.64948380      1.43303907
H         1.73382795      2.88418293      3.08417034
B         2.27317786      2.27748561      2.30195141
H         2.86145258      1.66285539      3.10930967
H         2.97620392      3.02407336      1.33165967
H         1.69235075      1.36591017      6.22260332
H         1.59341574      3.06751370      7.76318645
B         2.26015520      2.31206393      6.82042503
H         3.01945639      1.44183886      7.58832264
H         3.10125899      2.97445321      6.21672964
H         3.12459159      3.08910990     10.76374149
H         1.42681050      1.70850158     10.76450253
H         1.42327631      3.09188318     12.01622868
B         2.28439951      2.24676824     11.43384838
H         3.17176104      1.66057122     12.06062508
H         2.96530485      3.03081584     15.31368828
H         1.57691944      1.56664014     15.33020592
H         1.60916364      2.98205400     16.76114464
B         2.29320335      2.27993608     15.97912502
H         2.90062332      1.61480427     16.74522591
H         3.02531958      3.08218002     19.85051918
H         1.56049204      1.62194026     19.77505875
H         1.59084499      3.12728763     21.20038795
B         2.27196622      2.25600576     20.58373260
H         3.10314155      1.61957908     21.23310089
H         2.83530021      2.99413681     24.49133873
H         1.59528232      1.58753788     24.46746445
H         1.62459195      2.98870063     25.78077698
B         2.29964471      2.28972292     25.12770462
H         2.92774749      1.51896417     25.87866020
H         3.04260397      3.08105254     29.09701729
H         1.46543288      1.67057037     29.12043762
H         1.56378949      2.95927548     30.33376122
B         2.28416419      2.26789021     29.68436623
H         3.07713723      1.61261725     30.49007034
H         3.03735685      7.65868807      1.73035574
H         1.46257722      6.08346462      1.77670801
H         1.48263764      7.59227467      3.00872469
B         2.30355120      6.85216045      2.25031567
H         2.95844817      6.11602068      2.99622893
H         2.96908545      7.63550234      6.10030270
H         1.57846379      6.00911856      6.14304018
H         1.55498040      7.61624813      7.42792797
B         2.29512525      6.86922073      6.88686323
H         2.92886877      6.00659800      7.40696526
H         2.92738104      7.52715111     10.77998638
H         1.67140782      6.05212879     10.75570488
H         1.69355929      7.52928114     12.23288250
B         2.28398919      6.87048912     11.40351486
H         2.85849237      6.14529991     12.16186428
H         2.97009492      7.59567118     15.46113014
H         1.50366688      6.17124510     15.29439831
H         1.71640050      7.54966831     16.66633415
B         2.27959871      6.83664322     15.97710991
H         3.00777006      6.30030060     16.75001144
H         3.07973671      6.27861214     21.32780457
H         2.93597245      7.57339478     19.88388062
H         1.48845148      6.20763111     19.66913414
H         1.68287647      7.59371519     21.20435905
B         2.28061461      6.83324337     20.58129692
H         3.04787421      6.18929482     26.06768990
H         2.89327812      7.62349844     24.40076447
H         1.41107869      6.35238552     24.40925789
H         1.55662000      7.46946192     25.75905800
B         2.30655050      6.83498812     25.12597656
H         2.91798496      6.01975965     30.29734039
H         3.10280323      7.65032768     28.94580269
H         1.75791967      6.04660273     29.15746689
H         1.61602664      7.58055830     30.41239166
B         2.26125026      6.86644411     29.70565224
H         2.99936223     10.71985435      2.89744043
H         3.08853936     12.21380329      1.70713329
H         1.58231509     10.61854839      1.69500411
H         1.58279371     12.22545338      2.99826765
B         2.27446365     11.41775894      2.27028346
H         2.98688436     10.56737614      7.51407576
H         3.01926231     12.14735603      6.15828896
H         1.64541698     10.66680241      6.29009295
H         1.51871657     12.14225197      7.54135036
B         2.28217673     11.44142818      6.84718609
B         2.25893331     11.43815613     11.44275570
H         3.15515733     10.66508961     11.93501186
H         3.13847804     12.08387089     10.80596161
H         1.58511841     10.62223816     10.74643040
H         1.54083335     12.18768597     12.02214909
B         2.30812526     11.42467308     15.98682022
H         2.93649459     10.67496681     16.77964401
H         2.89792347     12.20869350     15.32470131
H         1.47757590     10.71582699     15.32699013
H         1.57996786     12.10401249     16.63639259
B         2.27779245     11.40314293     20.55791092
H         2.96580839     10.80718803     21.34799385
H         2.94788265     12.19869614     19.87661743
H         1.60417449     10.70697308     19.75847435
H         1.69944000     12.22157192     21.35294342
B         2.30370951     11.38214874     25.11845398
H         2.97993684     10.89373970     25.92431259
H         2.93165135     12.21443272     24.51106453
H         1.46135974     10.86648083     24.43552017
H         1.56637597     12.18496132     25.84655571
H         1.50102949     12.10713959     30.35685730
B         2.28434777     11.43130779     29.72112465
H         3.04631138     10.67917633     30.36055756
H         3.00660110     12.07112789     28.93681145
H         1.59305143     10.77489662     28.99282074
H         1.66821265     16.72163010      2.91506219
B         2.27022696     15.99802780      2.31174636
H         3.11673594     15.26700878      3.03590608
H         2.88851810     16.61425591      1.52637744
H         1.62498629     15.34462547      1.37577713
H         1.56263185     16.63195229      7.61407328
B         2.27375603     16.01827049      6.84333754
H         2.99897027     15.23922253      7.53940010
H         3.06005740     16.61836624      6.16444540
H         1.63894033     15.24085903      6.22716761
H         1.43182492     16.64715958     12.10328388
B         2.31257319     16.01635742     11.44786263
H         2.90801096     15.20777988     12.04150677
H         2.89991593     16.57728767     10.60359192
H         1.60450208     15.31868076     10.70639801
H         1.48869848     16.57234573     16.61136436
B         2.29569030     16.00187111     16.00208664
H         3.00398517     15.27689743     16.69528389
H         3.01804471     16.67032433     15.23672867
H         1.51460612     15.38672447     15.36061382
H         1.56281698     15.47105026     19.82858276
H         1.57438850     16.67695045     21.22925377
B         2.29068208     15.97277451     20.56905937
H         3.01551676     15.32995129     21.38192368
H         2.92633152     16.74043655     19.77666855
H         1.54622674     15.23496723     24.25210381
H         1.72324276     16.59572601     25.95385361
B         2.27770519     16.00121117     25.13742638
H         2.93690252     15.44866848     25.91716576
H         3.01186848     16.63400650     24.39084053
H         1.71297634     15.22967911     28.88795853
H         1.63631725     16.73821259     30.51210594
B         2.25234008     16.00672340     29.71354485
H         3.07294083     15.32542419     30.33970261
H         3.06806850     16.56093597     28.98857498
H         1.69511557     19.83711433      1.44087982
H         1.68146718     21.42729187      2.97932577
B         2.26576686     20.55925751      2.29615593
H         3.08164334     19.78172493      3.02106571
H         2.88806438     21.27545357      1.57906997
H         1.67827892     19.97016525      6.05143261
H         1.61626542     21.27486038      7.56089640
B         2.26146984     20.55681419      6.87151098
H         3.08904934     19.91364670      7.55539942
H         3.00878835     21.18910408      6.07517624
H         1.71002054     19.74688339     10.59457588
H         1.70255184     21.29423523     12.15567589
B         2.27706504     20.57776642     11.44879723
H         2.88212848     19.78025055     12.11484051
H         2.93040776     21.30167961     10.57966423
H         1.60969961     19.90009689     15.21479797
H         1.45132172     21.20457077     16.67205811
B         2.28367114     20.58519363     16.02829361
H         3.05039549     19.84594917     16.56782913
H         3.04283524     21.09277916     15.16821098
H         1.50444448     19.82345390     19.88302994
H         1.54922545     21.25271797     21.31745529
B         2.27692485     20.57243347     20.54610825
H         3.09490776     19.85818672     21.32750130
H         3.07803416     21.24589157     19.93463707
H         1.54806411     19.88817596     24.32800674
H         1.55817521     21.24094391     25.81917191
B         2.30012131     20.57303810     25.14813995
H         2.98307753     19.78480148     25.93265343
H         2.88849330     21.25984192     24.31921959
H         3.06249189     21.15868378     28.91881752
H         1.63607001     19.88122749     28.83040237
H         1.61847210     21.26469612     30.42230988
B         2.25748920     20.56884956     29.73078918
H         3.11804032     19.91409302     30.37184906
H         3.01327729     25.74860382      1.61642480
H         1.62626219     24.36637115      1.57157111
H         1.58257616     25.83714294      2.94113278
B         2.26904917     25.15852547      2.29269958
H         3.08896971     24.33553123      2.92828536
H         2.94195890     25.80597878      6.00256491
H         1.59657335     24.41637421      6.08339167
H         1.53294325     25.78878212      7.57541990
B         2.30273199     25.14708900      6.87640858
H         2.87833381     24.39917374      7.52899122
H         3.02213907     25.80302429     10.62037373
H         1.64513803     24.42128181     10.65514565
H         1.59238565     25.82100487     12.30265713
B         2.27697492     25.13988876     11.41501236
H         2.96641088     24.44223785     12.22894859
H         3.00858927     25.88103485     15.30577564
H         1.42378664     24.49174690     15.33523369
H         1.47946310     25.79590034     16.64787483
B         2.30283499     25.12915421     15.98845673
H         3.03686500     24.43401337     16.76128578
H         3.06231642     25.77505875     19.86918449
H         1.47970700     24.36808586     20.01831245
H         1.38685822     25.71878052     21.32933044
B         2.31871033     25.15796661     20.55290985
H         2.84954667     24.43172836     21.17284012
H         3.02954221     25.86689186     24.42771339
H         1.64377797     24.29590607     24.35670280
H         1.65689528     25.92478371     25.95265198
B         2.26844978     25.13903046     25.13037491
H         2.98730040     24.40915489     25.85251999
H         3.10244107     25.72992516     28.88969994
H         1.61951113     24.50638580     28.94432640
H         1.39900851     25.89580154     30.33159256
B         2.27501011     25.13312340     29.74834442
H         3.12618709     24.42801476     30.18946075
H         3.01046491     30.39146805      1.51311040
H         1.48340082     29.04757309      1.69902396
H         1.38786435     30.30109024      3.06550121
B         2.32301617     29.71043205      2.27254748
H         2.85051370     29.02160835      2.99592733
H         3.02741456     29.01081085      7.60357475
H         3.10065246     30.44422722      6.21503401
H         1.48962462     28.94736671      6.22482872
H         1.57322764     30.35082817      7.58341551
B         2.28025246     29.71122360      6.83571434
H         2.92446446     28.98818970     12.00384235
H         3.05559397     30.36293221     10.67230797
H         1.56860995     29.01297760     10.82822514
H         1.46339858     30.31222534     12.08426666
B         2.29692745     29.71839333     11.43538189
H         3.01146746     28.93138313     16.57368660
H         3.03559685     30.39744568     15.26982689
H         1.57675195     29.02929306     15.39186478
H         1.41802204     30.43413734     16.63450623
B         2.29415178     29.70758438     16.00526619
H         2.92058182     28.94634438     21.22093773
H         2.88532948     30.39236259     19.74331284
H         1.63675106     28.99510956     19.75682640
H         1.53373945     30.48186111     21.27518463
B         2.30025268     29.70540047     20.58958817
H         2.91440535     29.00413132     25.79336739
H         2.86143994     30.37202835     24.46767998
H         1.60950208     28.97800255     24.38858795
H         1.62545192     30.43517113     25.80354500
B         2.29704571     29.70785713     25.14309311
B         2.30146670     29.72057343     29.68647766
H         2.94917512     28.94894218     30.40864372
H         2.93177462     30.30532646     29.04587173
H         1.60472417     28.96138573     29.04091454
H         1.47770584     30.43730164     30.52321815
B         6.82840776      2.25610542      2.30762362
H         7.72475243      1.61153913      2.93275785
H         7.56431246      3.02261734      1.58555079
H         6.21865892      1.68142629      1.49499774
H         6.19749451      3.13433433      2.88403511
B         6.83973312      2.28201985      6.88011503
H         7.62888002      1.54781640      7.34788513
H         7.66447639      3.01871037      6.17237186
H         6.18244839      1.58988094      6.25003242
H         6.10794067      3.01555729      7.38032866
B         6.84929514      2.26131368     11.44375229
H         7.62698984      1.67266691     12.08132267
H         7.62975597      3.03885102     10.67983437
H         6.09911013      1.65973127     10.66966438
H         6.12532711      3.02280307     12.06804180
H         6.07630110      2.96584916     16.65222740
B         6.86145306      2.27770424     15.99516106
H         7.63111877      1.63545167     16.69207954
H         7.56048775      2.93507123     15.32907867
H         6.08287621      1.68187940     15.30487633
H         6.16121578      3.02422094     21.30139160
B         6.86116886      2.27191472     20.56620216
H         7.50968599      1.61819041     21.29314232
H         7.47536087      2.98164606     19.82439804
H         6.20756674      1.65629148     19.82817268
H         6.23982477      3.07471848     25.84124756
B         6.85025692      2.25636458     25.11784744
H         7.57976007      1.72699010     25.84725761
H         7.55105877      3.05202651     24.59887314
H         6.10022688      1.59340191     24.43658257
H         6.09161139      2.89000726     30.41353798
B         6.87016249      2.29375434     29.69795227
H         7.54508972      1.57178175     30.48281860
H         7.57228136      2.98647881     28.97299194
H         6.04838514      1.59783471     29.02623749
H         6.10797310      7.50202465      2.93020105
B         6.87338161      6.87409830      2.29460216
H         7.50335312      6.10199404      2.93366504
H         7.53251839      7.53465271      1.58474684
H         6.07899237      6.07647800      1.58839500
H         6.17231560      6.08598185      6.08372784
H         6.22700691      7.41872311      7.66432858
B         6.83806610      6.87460804      6.85637712
H         7.52836323      6.25621557      7.54878616
H         7.67394495      7.44876242      6.10838032
H         6.19751120      6.09842920     10.76702213
H         6.15866804      7.50965023     12.26243114
B         6.85228539      6.87164497     11.40113926
H         7.51439571      6.13979912     12.18221855
H         7.57854033      7.49358177     10.74424648
H         6.15902233      6.30673456     15.35869122
H         6.13015461      7.31872845     16.75957870
B         6.85603905      6.86873722     15.97848988
H         7.53454113      6.19524574     16.84220123
H         7.58513641      7.45194483     15.19660759
H         6.35829639      6.00431299     19.90834427
H         6.26609945      7.55000687     21.44441986
B         6.83927202      6.87706614     20.54761696
H         7.39871073      6.05483580     21.30169868
H         7.56558657      7.57416248     19.79199028
H         6.02204943      6.03970098     24.40372086
H         6.24847317      7.48220921     25.89841080
B         6.85294056      6.86160898     25.11524963
H         7.54634905      6.32718563     25.83735085
H         7.62521553      7.50001526     24.61233902
H         6.33692503      6.01026869     28.78522682
H         6.23554707      7.72444677     30.49049187
B         6.81279135      6.86853456     29.73079681
H         7.69673586      6.10241222     30.29697227
H         7.60350847      7.43769932     28.97059822
H         6.16282749     10.75603390      1.50631738
H         6.04977798     12.18293381      2.90478683
B         6.84892082     11.43350792      2.31061029
H         7.71437263     10.62418365      2.92358756
H         7.55822420     12.04558563      1.53061604
H         6.11212158     10.62726212      6.10734177
H         6.19772196     11.97315884      7.57500267
B         6.86640692     11.45397758      6.86175489
H         7.44252968     10.69507599      7.59278917
H         7.54527283     12.09368706      6.07241249
H         6.12563562     10.65024567     10.77196217
H         6.06904459     12.18488407     11.98524857
B         6.87878513     11.43492985     11.44569683
H         7.49518967     10.59088421     11.98801994
H         7.47501230     12.16747856     10.73277760
H         7.55892324     12.16051197     15.36014080
H         6.13726711     10.66130638     15.35216427
H         6.21370363     12.09205151     16.77922440
B         6.86049032     11.42585182     15.97154999
H         7.45121861     10.77698708     16.73998070
H         7.52284956     12.18879700     19.80861855
H         6.05817747     10.88239193     19.88542366
H         6.11633301     12.05383587     21.32498550
B         6.87676430     11.40036011     20.54772186
H         7.48919106     10.83924389     21.42629051
H         7.59591055     12.14441109     24.70535660
H         5.99280739     10.76177788     24.51128006
H         6.15861988     12.17267513     25.73988914
B         6.85196638     11.40398216     25.11286163
H         7.70519829     10.84656715     25.82091141
H         7.59373569     11.93681335     29.05884171
H         6.03619909     10.84189510     29.09344864
H         5.98604679     11.95235825     30.39697647
B         6.87391615     11.44075871     29.69398880
H         7.60112286     10.79990101     30.38881683
H         7.57080555     16.69126511      1.64690447
H         5.94582319     15.25046539      1.56959045
H         6.08423424     16.63016891      3.00087094
B         6.87639141     16.00424957      2.27024865
H         7.58969212     15.30889225      3.08085418
H         7.60390997     16.82789421      6.22206688
H         6.09375763     15.38224316      6.16241598
H         6.16860771     16.81269455      7.54199553
B         6.85029840     15.94982910      6.84904099
H         7.60414886     15.44165611      7.55743408
H         7.54147100     16.73956108     10.68297672
H         6.16306305     15.24564266     10.82951927
H         6.11927557     16.63680649     12.05563259
B         6.86667538     16.01256180     11.42910099
H         7.47095728     15.16961288     12.08787441
H         7.57850981     16.77099800     15.40186501
H         6.05099249     15.43709278     15.33681297
H         6.19676638     16.69027519     16.62979507
B         6.85288000     15.95933247     15.98223114
H         7.61646700     15.46418762     16.74847412
H         7.69006205     16.67895126     19.85360527
H         6.27471066     15.12897587     19.90658569
H         6.14703846     16.75364304     21.25172424
B         6.82521963     16.02110100     20.57744598
H         7.62760210     15.13845444     21.11457253
H         7.58276606     15.13398933     25.63149834
H         7.58742428     16.55630493     24.39119530
H         6.25716829     15.20677948     24.46864319
H         6.05568266     16.68034172     25.76019478
B         6.84912205     16.03253365     25.16189194
H         7.59255457     15.14412594     30.43128967
H         7.56849384     16.72482872     28.99161339
H         6.18928576     15.22752762     29.05095673
H         6.15215015     16.70262527     30.38502121
B         6.84730959     16.01186371     29.70137405
H         7.59859991     19.92554474      2.98004699
H         7.42703104     21.43017197      1.74560869
H         5.95821619     19.95584106      1.60433674
H         6.18231964     21.34734154      2.72564697
B         6.87866497     20.52780914      2.29286504
H         7.50350571     19.91263199      7.57944441
H         7.62730646     21.23598480      6.18413925
H         6.13910151     19.80113602      6.19644356
H         6.19253635     21.17024422      7.63750553
B         6.85104179     20.57805061      6.83844805
H         7.59644651     19.79044724     12.22496605
H         7.44986057     21.37564659     10.73375607
H         6.00229025     19.91884232     10.71556568
H         6.10256100     21.29356384     11.99629974
B         6.88006449     20.55395126     11.42774105
B         6.84128904     20.57342148     16.02156830
H         7.56264067     19.78902245     16.58101654
H         7.57521534     21.30726051     15.26537895
H         6.20943403     19.76070023     15.24962997
H         6.21976614     21.31267738     16.59900665
B         6.85756063     20.56156540     20.56193733
H         7.49677372     19.90113258     21.19540787
H         7.49768877     21.28293419     19.98576164
H         6.16383362     19.84236526     19.92790794
H         6.23423290     21.27038765     21.18377495
B         6.84299326     20.55071449     25.14657021
H         7.57522011     19.80856705     25.79564857
H         7.49642801     21.35062981     24.44368362
H         6.24657154     19.86394691     24.42027092
H         6.23055649     21.39005852     25.75628471
B         6.87283611     20.56862068     29.71055412
H         7.46875095     19.81501198     30.44789886
H         7.52596617     21.31434250     28.89386749
H         6.12681961     19.82888985     28.96496201
H         6.10715294     21.26291466     30.45368576
H         6.13731670     25.73925781      3.08069634
B         6.83772135     25.17166710      2.25656652
H         7.51042223     24.36257553      2.89729452
H         7.77983141     25.82526588      1.67026925
H         6.17775297     24.21961021      1.79671299
H         6.06471109     26.03173447      7.38595772
B         6.85514307     25.09314346      6.86184311
H         7.70247984     24.42240524      7.48424673
H         7.58342600     26.01097107      6.24701452
H         6.06784248     24.52382660      6.22938108
H         6.13681746     25.92463684     12.08207607
B         6.84883451     25.14778900     11.41973209
H         7.51171589     24.29918480     11.96513748
H         7.59456491     25.89054871     10.81857967
H         6.24302673     24.28845596     10.89069843
H         6.14476013     25.92708397     16.53847885
B         6.85148287     25.10901833     16.03102493
H         7.62075138     24.41204453     16.64533615
H         7.51418734     25.92737579     15.18811321
H         6.17801857     24.55215836     15.22166538
H         6.16200256     25.84749031     21.31468582
B         6.83205843     25.13718987     20.57380295
H         7.63861275     24.43811607     21.25490570
H         7.58436108     25.73345947     19.79546547
H         6.28108883     24.49742126     19.80051994
H         6.20794392     24.54455566     24.28696251
H         6.23081493     25.85512352     25.83158875
B         6.84991693     25.12462616     25.14516640
H         7.60336685     24.47483826     25.92417336
H         7.43239117     25.77673340     24.38822365
H         6.14809084     24.42754364     29.11024666
H         6.15797901     25.75100136     30.37043190
B         6.85361528     25.14941597     29.69261360
H         7.55519533     24.41265488     30.39521027
H         7.57358599     25.79417038     29.07696533
H         6.22015429     29.08637619      1.53599381
H         6.16800356     30.41217041      2.96008897
B         6.84644842     29.70156097      2.29543376
H         7.60581827     28.95694733      3.03736544
H         7.51774359     30.40137291      1.49464095
H         6.06761980     29.06304550      6.17944002
H         6.14489079     30.47510529      7.73805857
B         6.88877487     29.66660881      6.81639385
H         7.38351488     29.13455391      7.74382162
H         7.46170378     30.55905533      6.17275953
H         6.16597843     28.93476105     10.62593555
H         6.32943821     30.30833244     12.22662258
B         6.83495712     29.72449112     11.40567398
H         7.58913279     28.99073982     12.33410358
H         7.55042028     30.37710190     10.72062588
H         6.28775692     29.01999474     15.21953106
H         6.39066839     30.59420204     16.79459190
B         6.81705999     29.67110825     15.96712685
H         7.64815474     29.09149361     16.82600594
H         7.50035715     30.47781944     15.43882561
H         6.14217758     28.99251175     19.69967461
H         6.24588776     30.56581306     21.29759598
B         6.83292627     29.68131447     20.56643867
H         7.70750189     29.08096695     21.31285095
H         7.56118488     30.43474960     19.93444443
H         6.07378769     28.88407326     24.47013664
H         6.10736370     30.41362000     26.00883675
B         6.85658503     29.71759796     25.09811401
H         7.58296871     29.01625633     25.91023064
H         7.63887739     30.37092209     24.54641151
H         6.24552393     28.95141411     28.95935822
H         6.14053059     30.47300339     30.46159744
B         6.86744404     29.71599007     29.70885468
H         7.47110176     28.83812332     30.46989632
H         7.42936897     30.43956757     28.88779831
H        12.07480621      3.05185246      1.78638899
H        10.60187817      1.68917513      1.61788487
H        10.72799110      3.09424400      2.95903158
B        11.42810822      2.25089765      2.25450158
H        12.26198006      1.67050409      3.10381484
H        12.10617638      3.04769254      6.21736574
H        10.60071468      1.68710506      6.31276608
H        10.61420250      2.93880510      7.53676653
B        11.45301056      2.27073264      6.83030891
H        12.07845688      1.61942554      7.61793327
H        12.04849339      2.97753978     10.71727657
H        10.61280632      1.62967682     10.77428150
H        10.53303719      3.00030446     12.16431332
B        11.46343517      2.28543997     11.41172981
H        12.09340572      1.52775991     12.18646049
H        12.17578125      2.91423726     15.25033665
H        10.71743965      1.52706897     15.22701263
H        10.67284393      2.98215699     16.89166832
B        11.42964172      2.29194617     15.98370647
H        12.08413887      1.64203405     16.73210716
H        12.04150105      3.03193140     19.81908226
H        10.69537926      1.64020789     19.80049515
H        10.73988438      3.00601411     21.20329857
B        11.43247032      2.27611113     20.57491112
H        12.14310932      1.55718732     21.33082199
H        12.03547287      3.06194615     24.41088295
H        10.68697929      1.66459215     24.32502174
H        10.73195457      3.10283232     25.81796265
B        11.43302250      2.25556135     25.14292145
H        12.15954304      1.62638295     25.90114594
H        12.10679150      2.92426181     28.85828590
H        10.72445202      1.73786080     29.01325417
H        10.57004833      2.92369819     30.41086960
B        11.44229507      2.28292060     29.71616173
H        12.11320496      1.57648122     30.41784477
H        12.03722763      7.57348394      1.69600248
H        10.71812248      6.27024078      1.65494049
H        10.69879627      7.63387060      2.97304034
B        11.42857742      6.83647919      2.26011729
H        12.20747757      6.14105225      3.08290362
H        11.97179508      7.71957636      6.16252041
H        10.78631687      6.22928572      6.26129341
H        10.76952362      7.63759661      7.64345026
B        11.44857883      6.82243252      6.82513189
H        11.91945648      6.18285084      7.67309189
H        12.11365223      6.22028112     12.24170017
H        12.23776436      7.55391502     10.74058437
H        10.69474792      6.12370825     10.76812553
H        10.82657433      7.39454794     12.20644569
B        11.40889454      6.86689138     11.40105152
H        12.08337402      6.13593388     16.55056000
H        12.34471416      7.45266819     15.34641743
H        10.71151543      6.02820301     15.50002670
H        10.62342358      7.38715076     16.74638367
B        11.41912270      6.89378881     15.97976589
H        12.13439274      6.15695667     21.19098091
H        12.17800236      7.55624914     19.89479828
H        10.66077900      6.15327406     19.93472481
H        10.66702271      7.51007843     21.18841934
B        11.43057442      6.85904980     20.56976128
H        11.96102524      6.05905581     25.94803429
H        12.15208054      7.58836174     24.35047722
H        10.67797470      6.09628439     24.57876205
H        10.61098766      7.42706442     25.97779274
B        11.45277691      6.87823677     25.10562515
H        12.09082890      6.08056831     30.45289612
H        12.25571346      7.53851509     28.97749710
H        10.74218941      6.07795048     29.13976288
H        10.75106716      7.36737013     30.44663620
B        11.41196537      6.88815260     29.68665123
B        11.43004322     11.42070484      2.30929375
H        12.12706852     10.69554234      3.00866914
H        12.08362579     12.16729450      1.46429229
H        10.70607948     10.78423405      1.50954080
H        10.72913265     12.09899330      2.89692402
B        11.42210960     11.44589901      6.85690403
H        12.00908852     10.66595554      7.56930542
H        12.17824364     12.12456799      6.01393414
H        10.80380440     10.65692616      6.17405987
H        10.73986340     12.02838421      7.64227676
B        11.43085098     11.43031788     11.41114044
H        12.14563084     10.64718819     12.24251366
H        12.07090759     12.20808315     10.79033089
H        10.63918781     10.63316536     10.70158672
H        10.78150558     12.15451145     12.11421776
B        11.45648766     11.42486572     15.98064327
H        12.00164795     10.69101048     16.76479149
H        12.04367161     12.18678474     15.28725910
H        10.65240002     10.71534824     15.35362053
H        10.66453934     12.10828400     16.72831535
H        10.64779663     12.15155506     21.17250252
B        11.42450237     11.42914009     20.57763672
H        12.23256683     10.69186687     21.18457603
H        12.15767384     12.08873367     19.90534973
H        10.66728783     10.72342968     19.86202049
H        10.74455166     12.16830254     25.86040306
B        11.43471622     11.43423462     25.13376236
H        12.03903961     10.61096859     25.86730194
H        12.04594612     12.18210888     24.39502907
H        10.76624775     10.63956451     24.43053055
H        10.74739456     12.07827473     30.38047409
B        11.43308067     11.43678665     29.72882080
H        11.96932411     10.59231186     30.40673065
H        12.03828716     12.17349434     28.78556633
H        10.85831261     10.72948647     28.99170494
H        10.63932228     16.69920921      2.90601563
B        11.44729424     16.00512123      2.30427289
H        12.10038662     15.16601562      2.98577595
H        11.94886017     16.62744331      1.49013805
H        10.77230072     15.37875462      1.55135190
H        10.65194607     16.71698380      7.56139183
B        11.44301701     15.98835945      6.84327173
H        12.11678886     15.27650738      7.60886955
H        12.14717674     16.79484940      6.17938328
H        10.59084415     15.26288223      6.19614649
H        10.63306713     15.25711536     10.78904152
H        10.69911098     16.75463867     12.04874802
B        11.43125248     15.98459721     11.42130661
H        12.14936924     15.31017113     12.06173420
H        12.15138340     16.76963997     10.84008217
H        10.61573219     15.25786400     15.22689152
H        10.81336880     16.74336815     16.66586494
B        11.44008064     15.97284508     15.99633980
H        12.04580688     15.36487293     16.75649261
H        12.06333447     16.85152245     15.31637383
H        10.73923969     15.17394924     19.88864326
H        10.85226154     16.70899773     21.31101418
B        11.42997169     15.99478626     20.55110931
H        11.97590351     15.28973866     21.30824661
H        12.07926083     16.80958939     19.90107536
H        10.69200706     15.29078579     24.49638176
H        10.77575302     16.44966125     25.89141846
B        11.43596745     16.02095795     25.11799049
H        11.98883629     15.30496407     25.96098518
H        12.12576103     16.65615273     24.37363625
H        10.81128120     15.36480427     28.99015617
H        10.79039001     16.65188980     30.47839355
B        11.40206814     15.99592876     29.69207001
H        12.19338131     15.35961628     30.46269035
H        12.15090466     16.59371185     29.02744484
H        10.59136772     20.01842690      1.57763219
H        10.58270645     21.22337914      2.92943811
B        11.45580864     20.55325699      2.28924298
H        12.14223862     19.90262032      3.03658056
H        12.05322838     21.24151039      1.55083787
H        10.67343330     19.76634598      6.29710293
H        10.73734379     21.20680809      7.58547258
B        11.42326355     20.57256317      6.83258677
H        12.06959152     19.83383560      7.58189344
H        12.23825550     21.37189102      6.19592905
H        10.87540340     19.90963745     10.69458294
H        10.74140072     21.30881119     12.08798504
B        11.40148640     20.56223488     11.44883156
H        12.17432499     19.86339569     12.00022221
H        12.16107559     21.20779800     10.66159153
H        10.69833755     19.74791718     15.28973675
H        10.72810841     21.29191780     16.69781113
B        11.44233418     20.57129097     16.00042725
H        12.00227642     19.85804367     16.61745834
H        12.08534908     21.29463577     15.31678772
H        12.16593552     21.14804649     19.91103935
H        10.79624081     19.88603783     19.76002312
H        10.85169888     21.24360275     21.38511658
B        11.39912701     20.55967903     20.55722046
H        12.16362381     20.03936768     21.28724480
H        12.09585857     21.20011139     24.38448524
H        10.69880676     19.99338531     24.31942558
H        10.70233631     21.26164246     25.75050735
B        11.41898346     20.55735970     25.15597153
H        12.26752281     19.88678169     25.86063766
H        12.28380680     21.22941017     29.03021812
H        10.78935242     19.76713753     29.16229057
H        10.67349339     21.21319580     30.52151108
B        11.41220093     20.58569527     29.68275833
H        12.09061813     19.82825470     30.34453392
H        12.19284439     25.87544250      1.62725019
H        10.65480614     24.53475952      1.64964402
H        10.69880962     25.80904579      3.13954997
B        11.42825890     25.11020851      2.24694967
H        12.11857414     24.58663750      3.13167644
H        12.14625549     25.84014130      6.08166599
H        10.71092224     24.44718552      6.19091606
H        10.68571758     25.75609589      7.60879803
B        11.43284225     25.14295769      6.84745264
H        12.07297802     24.41121101      7.61956644
H        12.12431049     25.91158867     10.72070503
H        10.66816044     24.42664909     10.84785271
H        10.70719433     25.74540710     12.25859833
B        11.44693756     25.13477135     11.38839054
H        11.96503258     24.45877838     12.26550198
H        12.15626431     25.92909813     15.29317474
H        10.70645809     24.43602753     15.28502464
H        10.80759716     25.83611107     16.83988953
B        11.42082500     25.11754227     15.96804047
H        12.07445621     24.52598763     16.85106850
H        12.21299267     25.67090416     19.81443024
H        10.70713997     24.38298225     19.79420853
H        10.65193939     25.74632263     21.19072342
B        11.41770840     25.16574097     20.59783554
H        12.20612526     24.41007042     21.10843658
H        12.22305202     25.81389427     24.48148346
H        10.72866631     24.34514427     24.51354027
H        10.72615623     25.78434944     25.88892937
B        11.41448116     25.15321922     25.11874580
H        12.13494110     24.40119553     25.83036613
H        12.10931873     24.34193993     30.30329323
H        12.13561058     25.71627045     29.03819084
H        10.78104687     24.35737038     29.07991409
H        10.63929844     25.81629372     30.42960930
B        11.42823696     25.16372490     29.70210838
H        12.12879086     29.06276512      3.04097223
H        12.11374283     30.38738632      1.55729246
H        10.69550705     29.05891228      1.53839064
H        10.68487835     30.41691589      3.05545521
B        11.43218517     29.69511795      2.28014159
H        12.08343124     28.83798790      7.52809238
H        12.07729053     30.55064583      6.25871897
H        10.60410404     28.89662743      6.31121683
H        10.70015049     30.40210152      7.37340832
B        11.44691181     29.71736526      6.85020399
H        12.14803696     28.86026382     12.12808037
H        12.11102295     30.53909111     10.65018845
H        10.61443996     28.99396133     10.74687099
H        10.68943024     30.36741829     11.91939354
B        11.43777943     29.71052361     11.44881725
H        12.05255604     29.13277435     16.73174667
H        12.10385418     30.51436806     15.32399750
H        10.66851711     29.08009148     15.32261086
H        10.76991177     30.41436005     16.68303680
B        11.43480396     29.67501640     15.98741055
B        11.45319653     29.68421936     20.58391190
H        12.17704010     28.97736931     21.21529770
H        12.06630230     30.52804375     19.90797806
H        10.53777313     28.99790192     19.81777382
H        10.61644554     30.53957558     21.11609077
B        11.41715431     29.70996857     25.16700363
H        12.13171482     28.90404510     25.81979370
H        12.04322243     30.39366341     24.28141975
H        10.84599781     29.02373505     24.31261826
H        10.76321030     30.44525528     25.78289032
B        11.43975449     29.70957947     29.71908951
H        12.05692673     28.96953392     30.37889290
H        12.01230717     30.39646721     28.98072624
H        10.73337841     29.00017929     28.96675110
H        10.73913097     30.40468979     30.34249496
B        16.01758194      2.30820942      2.29397726
H        16.61922264      1.46855307      2.82492948
H        16.72889900      2.97725582      1.58752966
H        15.24938679      1.43591082      1.66456234
H        15.14027119      3.00933838      2.96668720
H        15.16858006      2.97763681      7.58774614
B        15.99485683      2.27818537      6.87644768
H        16.83117676      1.58163190      7.64401579
H        16.68412971      2.88685942      5.95995378
H        15.29764175      1.76696312      5.99823761
H        15.22143459      2.90952158     12.03302765
B        16.01738739      2.27981973     11.45607185
H        16.66662216      1.63153839     12.10787582
H        16.63673973      2.95448685     10.59361267
H        15.21506214      1.70001352     10.63220596
H        15.15788269      3.08793831     16.70646667
B        15.99791622      2.28320622     15.98285389
H        16.75557709      1.47686875     16.66038132
H        16.76203918      3.04831553     15.33385372
H        15.27321434      1.54611552     15.40956211
H        15.31382179      2.97839069     21.23468781
B        15.99195671      2.28817701     20.57554054
H        16.76240349      1.60894024     21.27022362
H        16.64544487      2.89696932     19.87314987
H        15.29096794      1.62162304     19.76887512
H        15.13314438      2.84227538     25.78558350
B        16.01015282      2.31076908     25.14887238
H        16.71784210      1.54854143     25.76882744
H        16.74142456      2.84910250     24.36902618
H        15.22504139      1.62368476     24.46774864
H        15.14121151      1.66204524     29.17828560
H        15.17216015      2.80609441     30.31350899
B        16.02934837      2.28647852     29.70149040
H        16.57064438      1.56235313     30.44415092
H        16.72755623      3.09364629     28.92168236
H        15.35535431      6.18285990      1.62433136
H        15.28921032      7.64628887      2.83335257
B        15.99860382      6.85179853      2.29926085
H        16.71729660      6.06064987      2.88941836
H        16.57948112      7.56453991      1.63993597
H        15.31399632      6.09611750      6.02729511
H        15.28967476      7.64695597      7.52338123
B        15.97736549      6.85189342      6.88618231
H        16.78698158      6.18329000      7.41188669
H        16.77847672      7.52695608      6.12297201
H        15.31426811      6.09679556     10.81461143
H        15.22971725      7.60157776     12.01464272
B        16.00319481      6.86498451     11.43681622
H        16.67370605      6.00190353     12.02498341
H        16.67440987      7.61262321     10.71901512
H        15.20299721      6.13537979     15.19722366
H        15.35796261      7.68959665     16.55009270
B        15.98926830      6.83135080     16.01356506
H        16.80588913      6.24540567     16.59503174
H        16.67461967      7.60326862     15.43851662
H        15.25369358      6.23111105     19.78520775
H        15.16969872      7.65702629     21.21708870
B        16.02374268      6.84251118     20.58374405
H        16.69331551      6.08378315     21.28042221
H        16.55498505      7.58202887     19.77621078
H        15.36548615      6.17441940     24.36820412
H        15.20998383      7.50343323     25.95879555
B        15.97539425      6.87121439     25.14314461
H        16.78446579      6.23823786     25.73947334
H        16.83034706      7.32999229     24.38614082
H        15.32238102      6.20895863     28.97952652
H        15.30422974      7.68728495     30.40603447
B        15.97443771      6.83653069     29.69668198
H        16.86508560      6.13841724     30.45842361
H        16.70884514      7.58343458     29.06522369
H        15.24178314     10.74619865      1.65063345
H        15.31416607     12.21659851      2.97798777
B        16.01684380     11.40568352      2.25885510
H        16.64027977     10.71691036      3.07965875
H        16.54947853     12.22746944      1.71214557
H        16.75909042     12.02012825      6.15501499
H        15.36478806     10.60842228      6.16005182
H        15.24710178     12.13277817      7.67482758
B        15.98781300     11.44945431      6.84949112
H        16.68610001     10.67637444      7.48918867
H        16.75750160     12.18295956     10.79211807
H        15.34433460     10.74791050     10.80404091
H        15.33804035     12.17733002     12.11461258
B        15.97950840     11.40678024     11.41756153
H        16.70627022     10.78721905     12.06901073
H        16.57482910     12.16542816     15.33847332
H        15.23684883     10.81806183     15.25218964
H        15.23594952     12.25261021     16.54944801
B        16.01217270     11.40009689     16.01404381
H        16.74817848     10.73099518     16.63561630
H        16.67961311     12.16847992     19.80766869
H        15.14365578     10.69919300     19.80332565
H        15.24721241     12.06926727     21.22161293
B        16.01239204     11.43459034     20.57089233
H        16.72296143     10.66018867     21.36417198
H        16.60781097     12.22379971     24.39169502
H        15.26887417     10.73509121     24.46337700
H        15.30694008     12.11405182     25.78094482
B        16.01096344     11.42322540     25.13462257
H        16.62513733     10.64608288     25.90801811
H        16.65396309     12.23345661     29.05431557
H        15.34771824     10.83802032     29.03275108
H        15.34294033     12.25979900     30.45183563
B        15.98656559     11.38593674     29.68483543
H        16.72583580     10.78771114     30.49736786
H        16.67030907     16.65717506      1.49068677
H        15.20553970     15.39267826      1.66459572
H        15.22498703     16.46381760      3.06828642
B        16.02869987     16.00385094      2.26704311
H        16.51769829     15.37138176      3.10903144
H        16.76951408     16.52469635      6.19368505
H        15.31218624     15.16020775      6.16474295
H        15.17884827     16.68697548      7.59131527
B        15.99638939     16.02800369      6.86490011
H        16.70454788     15.25411701      7.36406898
H        16.67208862     16.64480591     10.67062092
H        15.26573563     15.27815914     10.70202923
H        15.27593803     16.60319519     12.13030529
B        16.00056076     16.01752281     11.42412567
H        16.70658302     15.21225834     12.20640945
H        16.68660927     15.22595978     16.73158455
H        16.64058304     16.69984055     15.17399406
H        15.15759468     15.46880817     15.37081432
H        15.11681366     16.54380035     16.52951813
B        16.03027916     15.99887753     16.01123047
H        16.73461914     15.36285496     21.27238464
H        16.88528824     16.76048279     19.99893379
H        15.19740391     15.16014576     19.94689560
H        15.39589691     16.61402702     21.27660179
B        15.97325611     16.00268936     20.54310608
H        16.62466431     15.28657055     25.90604782
H        16.69423866     16.61053085     24.40195465
H        15.26146889     15.28766060     24.47261810
H        15.17480278     16.62653351     25.99162483
B        16.01596069     16.01072693     25.11334610
H        16.77162552     15.41969967     30.37186050
H        16.82512665     16.62584114     28.91203880
H        15.27390194     15.31831741     28.86415482
H        15.26751041     16.68011475     30.47963715
B        15.98025322     15.98903465     29.72292900
H        16.75933456     19.87638855      2.83708811
H        16.78839302     21.23326111      1.61404645
H        15.21039963     19.84517479      1.61188924
H        15.19364452     21.25217247      2.88505745
B        15.99763107     20.56994057      2.30289292
B        15.99891567     20.56166649      6.80602503
H        16.61233521     19.92124367      7.71391106
H        16.69446564     21.38885117      6.33881998
H        15.19444656     19.75743484      6.25714159
H        15.43674564     21.22822952      7.63542080
B        15.97194481     20.58306694     11.41849422
H        16.72480011     19.89644432     12.12791634
H        16.82660103     21.17067337     10.68918991
H        15.35481739     19.78599548     10.68054295
H        15.32105923     21.21307755     12.27212429
B        15.99297428     20.53434563     16.03065872
H        16.78592682     19.95435333     16.55837631
H        16.63884544     21.23655128     15.28397655
H        15.31841660     19.97646141     15.15900326
H        15.25852108     21.42141914     16.59616280
B        15.99023914     20.55189133     20.58498573
H        16.68621635     19.81533623     21.25777054
H        16.59757233     21.35146523     19.82019806
H        15.36279392     19.87922096     19.79543686
H        15.38446617     21.35455322     21.17221451
H        15.17789078     21.26694298     25.84224129
B        16.01359367     20.54351044     25.13898849
H        16.68162346     19.95801735     25.83176041
H        16.76213837     21.33697510     24.38607216
H        15.15890598     19.92855072     24.43712044
H        15.27771759     21.30826950     30.33618164
B        15.99602127     20.56916237     29.70238495
H        16.69647217     19.79137421     30.33386421
H        16.65326309     21.26274490     29.07981682
H        15.34159660     19.85293961     29.09817123
H        15.45685959     25.83951569      3.05550623
B        16.00144577     25.10774612      2.28646755
H        16.59275627     24.65090942      3.07541513
H        16.63183594     25.89850426      1.58090007
H        15.22941017     24.44337082      1.41243887
H        15.24687195     25.88915253      7.47770166
B        15.99302483     25.13461494      6.84418201
H        16.80012512     24.38264084      7.52437115
H        16.74030876     25.87600708      6.29005194
H        15.21387100     24.39630890      6.24390507
H        15.18800831     25.97742271     12.08762836
B        15.99802208     25.12558937     11.43584919
H        16.73972702     24.38810539     11.99650574
H        16.73386383     25.88043976     10.74925327
H        15.28597641     24.39494896     10.75023460
H        15.39718246     24.53179169     15.18917370
H        15.25477982     25.83741379     16.77433586
B        15.99429703     25.13098335     16.01200867
H        16.67426109     24.38759041     16.77613449
H        16.66131401     25.82626724     15.05791855
H        15.42822361     24.35578537     19.87026215
H        15.38481426     25.85460854     21.25575066
B        15.96877003     25.15026665     20.56968307
H        16.72471428     24.36664581     21.20148087
H        16.72358131     25.79920769     19.88225555
H        15.13908577     24.42781448     24.46010208
H        15.25054455     25.92456436     25.74878883
B        15.99133873     25.11823463     25.12701225
H        16.86302567     24.47340012     25.81466293
H        16.76661110     25.89402199     24.60210228
H        15.37402153     24.48418808     28.98447609
H        15.30100441     25.93889999     30.28256226
B        15.96869278     25.11892509     29.73279762
H        16.82395363     24.41883659     30.27489853
H        16.76318550     25.87046623     28.97989273
H        15.27571297     28.99095535      1.61488426
H        15.20653725     30.36965561      3.03400803
B        16.00602150     29.71552658      2.28186989
H        16.66224670     28.94688606      3.00890207
H        16.71728516     30.39958954      1.51577675
H        15.27500534     28.98332024      6.10343361
H        15.30607224     30.47930336      7.54091454
B        15.98160172     29.69149590      6.86513805
H        16.76705742     29.09204674      7.46325541
H        16.77556610     30.41015053      6.20365286
H        15.27018356     28.98009682     10.81575298
H        15.20691586     30.39128113     12.26995564
B        16.00619125     29.70922279     11.39582253
H        16.64382744     28.99083710     12.19595146
H        16.73903656     30.41248512     10.73128319
H        15.32266903     29.04975700     15.27934551
H        15.25918198     30.53767586     16.51411247
B        15.99545574     29.68919945     16.02619934
H        16.75758934     28.89304924     16.60733414
H        16.63566208     30.50897217     15.24456501
H        15.15164661     28.97606659     19.80774689
H        15.23539352     30.40891647     21.30134010
B        16.01538086     29.69791603     20.56503105
H        16.66603661     29.02943420     21.33172035
H        16.70829964     30.48155975     19.81885147
H        16.71540260     30.32594490     24.36674881
H        15.39794254     28.94790840     24.37417412
H        15.22887230     30.48758507     25.81386375
B        15.98509693     29.71867371     25.16337776
H        16.74399567     28.91188812     25.68081284
H        16.73854256     30.35702133     28.98248863
H        15.27312660     28.98028374     29.10627174
H        15.13704014     30.36932373     30.36698341
B        16.00957108     29.72302437     29.71181679
H        16.67499733     28.92004395     30.29113388
H        21.33313751      2.85468984      1.43399954
H        19.85705757      1.57371914      1.54851317
H        19.73796272      2.85926938      3.05081081
B        20.57227707      2.31425023      2.29803634
H        21.25375557      1.53858781      2.96684861
H        21.31921768      3.02580214      6.31672764
H        19.82940292      1.50448394      6.29965782
H        19.91421127      2.95806265      7.63207865
B        20.56219673      2.28855109      6.81432438
H        21.22721100      1.61356068      7.60781097
H        21.25680161      2.95936632     10.59426403
H        19.89681816      1.66339386     10.76342583
H        19.80615425      2.88086820     12.12786770
B        20.57564545      2.29165483     11.43234921
H        21.18604279      1.56499207     12.13560677
H        21.25488281      2.95832992     15.11757278
H        19.83570290      1.60883844     15.24206066
H        19.73020744      2.93933725     16.76328278
B        20.58762550      2.29346275     16.00741577
H        21.19651222      1.54272163     16.72390366
H        21.24458313      3.04124808     19.84483337
H        19.79849815      1.63454032     19.84837532
H        19.82620811      3.00999379     21.22551155
B        20.57731247      2.26982737     20.57156944
H        21.25862503      1.61695564     21.27080727
H        21.35550690      3.09384608     24.36466789
H        19.82489014      1.51401091     24.49980164
H        19.81966591      2.96393871     25.82320976
B        20.56999207      2.28874588     25.13950539
H        21.20635986      1.52802479     25.80397034
H        21.37219238      2.80245543     29.04427338
H        19.82925797      1.57509315     29.04018974
H        19.78475952      2.85103774     30.43315125
B        20.55818558      2.31361294     29.69969749
H        21.34685707      1.60451281     30.35923386
H        21.24566841      6.14443445      3.04998636
H        21.14337921      7.77008343      1.51472259
H        19.78504372      6.25101471      1.51901460
H        19.93527794      7.61555767      2.79317284
B        20.57904243      6.82133436      2.30952978
H        21.22828102      5.97719431      7.40718508
H        21.22562218      7.45607424      6.05285025
H        20.01375008      6.08686543      6.15986156
H        19.75923157      7.60358143      7.55203247
B        20.56808472      6.88262320      6.87812805
H        21.18639374      5.98151112     12.17748642
H        21.31595993      7.49926710     10.56434250
H        19.96646309      6.08150005     10.79389381
H        19.75831223      7.47786474     12.28564644
B        20.56806374      6.89041471     11.41368389
H        21.24393845      6.09480953     16.69068336
H        21.31050682      7.63141251     15.26892757
H        19.81688690      6.15343046     15.39411736
H        19.83276176      7.49034739     16.61618805
B        20.57021141      6.85966158     15.99593925
H        21.26948929      6.13846302     21.22735596
H        21.21397591      7.54970980     19.91095543
H        19.94813538      6.04820919     19.76518822
H        19.96920967      7.67440033     21.29653549
B        20.55187035      6.85585880     20.57059097
B        20.56455612      6.85114193     25.12820053
H        21.30489540      6.17725182     25.95339203
H        21.24554825      7.55490112     24.41387749
H        19.82601357      6.17339993     24.35067749
H        19.88829041      7.55582380     25.89496613
B        20.55237198      6.89974022     29.67449760
H        21.27973747      6.12713957     30.40790939
H        21.41252518      7.37591410     29.06587601
H        19.88498116      6.05148458     29.12300682
H        19.81818390      7.38558054     30.55036163
B        20.57892418     11.44624138      2.30769610
H        21.24538612     10.59219360      2.84986019
H        21.28796768     12.09994888      1.51190424
H        19.85387039     10.60849762      1.57078838
H        19.72341537     12.17152119      2.96401286
B        20.59626389     11.38741112      6.85235310
H        21.25939751     10.77527332      7.61935472
H        21.08160591     12.21200180      6.21832323
H        19.76723862     10.89903259      6.16428804
H        19.81641006     12.21686459      7.44642353
H        19.91779137     12.18807697     12.08777428
B        20.55368423     11.39929295     11.42145252
H        21.32879639     10.82950115     12.11397266
H        21.30757332     12.19305325     10.81096363
H        19.82718849     10.76509762     10.72533798
H        19.84776497     12.03080177     16.84609604
B        20.56140518     11.44559860     15.98851967
H        21.23772812     10.76095390     16.73009300
H        21.33807945     12.01515102     15.23088264
H        19.87496185     10.67214966     15.24242973
H        19.80615807     12.17155743     21.23589516
B        20.56782913     11.42835236     20.56374550
H        21.34638405     10.66198444     21.27209663
H        21.19765282     12.05902481     19.90235519
H        19.87944412     10.77147102     19.86310768
H        20.05950356     12.07657909     25.88416481
B        20.51317215     11.43123341     25.13051987
H        21.43339348     10.82367611     25.88542938
H        21.40683937     12.05128860     24.49353981
H        19.91614914     10.68158627     24.32489395
H        19.67663002     12.10230064     30.53753471
B        20.59788132     11.43840885     29.68816185
H        21.15543365     10.73722267     30.35449600
H        21.31286430     12.07669258     29.02420616
H        19.76239777     10.63994980     29.08436394
H        19.89496422     15.15013885      1.64505005
H        20.04070473     16.66463280      3.09761763
B        20.52867889     16.00505829      2.24824405
H        21.30852318     15.33785152      3.05564451
H        21.40536118     16.71949768      1.73592579
H        19.88224411     15.30831242      6.09073639
H        19.95498085     16.71619415      7.66528749
B        20.56566048     15.98213863      6.83928156
H        21.20974159     15.33731651      7.70901728
H        21.20593452     16.75611687      6.12354898
H        19.81331825     15.38888359     10.60974884
H        19.77537918     16.67126656     12.06522942
B        20.57670403     15.99416924     11.45245934
H        21.31959724     15.31250477     12.10366917
H        21.22614479     16.61625290     10.62682247
H        19.89589119     15.28067589     15.17814064
H        19.87120056     16.81186676     16.48268509
B        20.56771469     15.99265766     16.04420471
H        21.30953979     15.18483639     16.55383301
H        21.15425682     16.72773361     15.23758316
H        19.95278931     15.20557690     19.81674576
H        19.97279549     16.63078690     21.41330910
B        20.55183029     16.01218033     20.55407715
H        21.18634224     15.35691261     21.28198051
H        21.28931618     16.60243416     19.86510658
H        19.91857147     15.30662060     24.43933868
H        19.95809174     16.63774109     25.85381889
B        20.56275749     16.00328827     25.12353134
H        21.22225952     15.20387363     25.99608421
H        21.18511772     16.74286270     24.37373543
H        19.87006760     15.33598709     29.01932526
H        19.78645515     16.68858337     30.38356781
B        20.55592918     15.99888420     29.71158218
H        21.36398697     15.26810169     30.36784363
H        21.33678436     16.64565468     28.97864342
H        19.77679634     19.74258995      1.60678208
H        19.87540817     21.17672729      3.07755256
B        20.56367493     20.58555603      2.26401949
H        21.25988007     19.96053314      2.95821810
H        21.36212921     21.15963936      1.72247946
H        19.79091263     19.78936005      6.14624310
H        19.80887985     21.23792839      7.64666414
B        20.56304550     20.57521057      6.84513044
H        21.30162430     19.83879280      7.61520195
H        21.37955093     21.28439140      6.11774826
H        21.30189896     21.36326218     10.96262074
H        19.75594902     19.74843788     10.87304497
H        19.80966949     21.39911652     12.02365398
B        20.57430458     20.55585670     11.41214466
H        21.29266167     19.84725189     11.97856331
H        21.30017471     21.27500725     15.35281563
H        19.88372803     19.70455742     15.17320347
H        19.92506027     21.41328430     16.76621819
B        20.54664040     20.56786537     15.99612427
H        21.34793472     19.83640862     16.67570114
H        21.17918205     21.27195930     19.92802811
H        19.88965988     19.73223495     19.88487244
H        19.94493675     21.25983620     21.36338806
B        20.57752609     20.57928658     20.54407120
H        21.11184883     19.84272194     21.30817604
H        21.32779312     21.14418793     24.37145424
H        19.97120285     19.82743835     24.27961540
H        20.01121902     21.19600868     25.94788361
B        20.52505302     20.58583832     25.13448906
H        21.37823296     19.86883736     25.94650459
H        21.31886101     21.14494133     28.98151779
H        19.84233093     19.90467834     28.99279976
H        19.73215294     21.24383926     30.40642166
B        20.56271935     20.57855225     29.71054649
H        21.39109039     19.82116699     30.37975311
H        21.15158272     25.79144859      1.52997971
H        19.85028076     24.40488625      1.49298477
H        19.84434128     25.83438492      2.93598199
B        20.58292389     25.14780235      2.30533123
H        21.22152138     24.37194252      2.96298409
H        21.26032448     25.82446861      6.11385727
H        19.83159447     24.33532906      6.10185003
H        19.87010002     25.79797173      7.64896584
B        20.57268906     25.15271759      6.84797955
H        21.21548462     24.39217758      7.63062286
H        21.23397636     25.91767502     10.78442669
H        19.76757240     24.58384132     10.68063164
H        19.92086220     25.86817932     12.04597569
B        20.56653214     25.09489059     11.42559147
H        21.32112503     24.60048676     12.18261909
H        21.29074860     25.91982460     15.36377525
H        19.75257301     24.36367416     15.30062294
H        19.86725998     25.86829185     16.55984879
B        20.56922340     25.13264465     16.00721359
H        21.30410576     24.41346741     16.62474060
H        21.37665367     24.50211143     21.18650436
H        21.31642914     25.78612137     20.06239891
H        19.85531044     24.39997673     19.90004158
H        19.88174057     25.92204857     21.26220894
B        20.54913521     25.12844658     20.55090714
H        21.18856430     24.31093216     25.71225357
H        21.19602013     25.83782387     24.43652534
H        19.79174423     24.40854073     24.54158974
H        19.72862434     25.79587746     25.67776299
B        20.59810066     25.15241623     25.15102196
H        21.24791718     24.50401688     30.46272850
H        21.36591721     25.90565109     29.08502960
H        19.83644485     24.37747383     29.07648277
H        19.89360619     25.85703659     30.53211594
B        20.55717850     25.12528610     29.67363930
H        21.18485451     29.06508255      2.99888730
H        21.24686050     30.41693115      1.60319996
H        19.82133293     29.07370567      1.67382979
H        19.82785225     30.33978271      2.98374414
B        20.58169746     29.69795990      2.27384353
H        21.29641724     29.03154945      7.38349009
H        21.36154747     30.38326645      6.13359976
H        19.90641403     28.96688843      6.13406992
H        19.85772133     30.43148613      7.49684334
B        20.54988480     29.70563316      6.88035870
B        20.51695251     29.70439148     11.38925838
H        21.21313477     29.17751694     12.15367413
H        21.39263916     30.37408447     10.84684372
H        20.03618240     28.80502510     10.65385532
H        20.13336754     30.46989059     12.42898369
B        20.57444763     29.70798683     16.00530815
H        21.18527031     28.90002441     16.72807693
H        21.17000961     30.45108032     15.17901611
H        19.93693542     29.02947998     15.29321575
H        19.86644173     30.40737534     16.66911316
B        20.56851578     29.71455956     20.57505798
H        21.20322418     28.92659187     21.31729126
H        21.21417618     30.43419647     19.74987602
H        19.90585899     28.92124367     19.75548172
H        19.89902496     30.43541908     21.32946968
B        20.57811546     29.72420883     25.12870216
H        21.21162415     28.96802902     25.87920189
H        21.29965210     30.43588448     24.43346786
H        19.75110054     28.95125961     24.50472641
H        19.85692787     30.25879669     25.79014015
H        19.95298767     30.36929893     30.50135612
B        20.55291748     29.71301842     29.69337273
H        21.29616737     29.04723167     30.50617790
H        21.25088501     30.32883835     29.02054596
H        19.88953972     28.98860168     28.91663551
H        24.43150902      2.94239950      2.99766970
B        25.12898445      2.30648565      2.30306149
H        25.81170464      1.55342042      2.89758396
H        25.83790779      2.86851859      1.51651371
H        24.52338028      1.54520857      1.53450644
H        24.28283119      3.11729741      7.43089437
B        25.15619850      2.26266813      6.88765240
H        25.87073517      1.54932296      7.45129633
H        25.74512291      3.01208639      6.08084679
H        24.41392708      1.70082128      6.10673141
H        24.44761467      3.07815719     12.28871536
B        25.16205215      2.25259519     11.40272903
H        25.71148109      1.70125389     12.28726673
H        25.67670441      3.04193377     10.71634388
H        24.41403198      1.66622210     10.64653683
H        24.46866417      2.95047355     16.67130470
B        25.13936234      2.28708720     15.98299885
H        25.77480698      1.51787603     16.75863647
H        25.81581306      3.07881188     15.29259682
H        24.43390465      1.57044947     15.38617516
H        24.29274368      1.64988458     19.80878448
H        24.44510651      2.99071836     21.27028275
B        25.12256432      2.25776768     20.56015205
H        25.96849251      1.77211380     21.30041504
H        25.96701050      3.01936936     19.93249702
H        24.39709282      1.67389810     24.53342247
H        24.46264267      2.80263925     25.82170296
B        25.16343498      2.28492880     25.12440300
H        25.62655640      1.60346818     25.95768166
H        25.74869537      3.06075883     24.34085083
H        24.38248444      1.58903515     28.97791290
H        24.44972229      2.96034646     30.46493721
B        25.14071655      2.28648639     29.68869400
H        25.84420013      1.60646248     30.51474380
H        25.80225563      2.96821094     29.03728676
H        24.36024475      6.21859360      1.51165402
H        24.42481422      7.57640171      2.90088439
B        25.13280869      6.84694576      2.29452538
H        25.96330833      6.13994932      3.04410028
H        25.81512833      7.57143641      1.58119142
H        24.39183998      6.29417133      6.14646626
H        24.34749031      7.50892735      7.52219820
B        25.13144875      6.83939409      6.86922264
H        25.90660095      6.23899364      7.53302717
H        25.93213463      7.54528856      6.06575537
H        24.39811516      6.19242907     10.80149364
H        24.41125298      7.46036911     12.11918640
B        25.15831184      6.86047554     11.41456032
H        25.71902847      6.13785362     12.18689919
H        25.76156044      7.57061577     10.70438385
H        24.44029808      6.27485561     15.28774166
H        24.36257172      7.56901884     16.59302521
B        25.16617966      6.84763527     16.01226234
H        25.75686073      6.08545780     16.70469666
H        25.64582825      7.56965637     15.20937920
H        24.46108246      6.13225794     19.88964653
H        24.45581245      7.50473547     21.28515053
B        25.11889839      6.85790730     20.56833267
H        25.83785057      6.19519663     21.21694183
H        25.95794106      7.55661964     19.83249474
H        24.30907249      6.27615547     24.31999016
H        24.37131882      7.46551943     25.81414032
B        25.15863800      6.85342932     25.14439011
H        25.85740089      6.20392370     25.94861794
H        25.74864960      7.49124527     24.35651016
H        25.89403725      7.44405460     28.97846222
H        24.47621536      6.20827055     28.96755981
H        24.40094566      7.53022718     30.38752556
B        25.11876869      6.86125708     29.71770287
H        25.94288063      6.17033195     30.35019684
H        25.82112694     12.26237679      1.45031738
H        24.52543068     10.72945595      1.56718612
H        24.44411469     12.22682381      2.95864725
B        25.13116837     11.40990067      2.30367970
H        25.79041862     10.64329624      2.96349216
H        25.93076134     12.12122440      6.27849054
H        24.42537880     10.62720585      6.19389915
H        24.48073578     12.15046024      7.69657564
B        25.12753677     11.41956520      6.82994747
H        25.78316307     10.85939789      7.51974010
H        25.80256462     12.04789448     10.60459137
H        24.44563103     10.77725792     10.80529690
H        24.33600998     11.95681000     12.12447166
B        25.15688133     11.44923973     11.42794228
H        25.72108269     10.65803432     12.13407421
H        25.77009773     12.12848949     15.23620319
H        24.42453575     10.97246647     15.15978432
H        24.45128250     12.17816067     16.53286934
B        25.12215996     11.39084721     16.02355194
H        26.03178787     10.78719521     16.74488640
H        25.77522469     12.02848148     19.77601433
H        24.42345810     10.67343521     19.77224922
H        24.40080452     12.05490017     21.38479424
B        25.15464592     11.44556236     20.56630516
H        25.72978973     10.72263718     21.31294060
H        25.86342812     12.12018013     24.43446159
H        24.47235298     10.77488232     24.41457939
H        24.45987892     12.15253735     25.91856194
B        25.12249184     11.41312885     25.12298584
H        25.87847137     10.77972221     25.90124702
H        25.76719284     12.14276314     28.99910545
H        24.50311279     10.69801617     28.91604424
H        24.42735672     12.30158043     30.43428993
B        25.12883568     11.41733837     29.71001816
H        25.90845680     10.63981438     30.41673660
H        25.90186691     16.55374336      1.49193275
H        24.47359657     15.22048759      1.51538277
H        24.37301254     16.63088036      3.06857371
B        25.12728691     16.02765274      2.29435110
H        25.87424088     15.22466278      2.96381164
H        26.02747536     15.30572701      7.50107670
H        25.80639076     16.61073494      6.16116142
H        24.43341255     15.37673378      6.01108408
H        24.45721245     16.73701286      7.40626955
B        25.11779976     15.99031830      6.88673687
H        25.81208801     15.36229801     12.23923111
H        25.86717033     16.67718506     10.65125465
H        24.37110138     15.34401703     10.68805504
H        24.39524460     16.61624146     12.23336983
B        25.14379883     15.99315834     11.41456604
H        25.86557198     15.25599766     16.59572601
H        25.90414810     16.63706207     15.15191936
H        24.43685722     15.32178307     15.25628376
H        24.30913734     16.66042137     16.65766144
B        25.13726234     16.00476456     16.02468491
H        25.82259560     15.33445454     21.24964714
H        25.86867142     16.58881569     19.83088112
H        24.53774261     15.24570560     19.78820801
H        24.52712631     16.64210510     21.34901237
B        25.11484718     16.01074791     20.56893730
H        25.97538376     15.19163227     25.68135452
H        25.86346245     16.63091660     24.42160416
H        24.45403481     15.31904793     24.43709946
H        24.31232071     16.75713539     25.69565201
B        25.12891960     16.00257683     25.16336823
B        25.13330078     16.00897789     29.72001266
H        25.92921829     15.29680634     30.30195808
H        25.93537331     16.60706902     29.01021576
H        24.36105347     15.27068806     28.99025345
H        24.33257675     16.65550995     30.35655403
B        25.10580254     20.53955078      2.29891253
H        25.84456635     19.92009544      2.96073341
H        25.85902786     21.38724518      1.56106603
H        24.54113960     19.88041115      1.53584337
H        24.60842323     21.34518242      2.93313384
B        25.13419724     20.56859398      6.82983780
H        25.77289772     19.90667152      7.64796305
H        25.87989044     21.27546310      6.16139841
H        24.42998695     19.89118004      6.25289631
H        24.46581841     21.14813042      7.62762213
B        25.13596153     20.54966927     11.44505215
H        25.93617439     19.96132469     12.02073669
H        25.88339424     21.27173424     10.79534340
H        24.30781746     19.88066483     10.66190147
H        24.40228653     21.31070900     12.00692940
H        24.42581367     21.26541519     16.73666763
B        25.11919022     20.57815552     15.99434280
H        25.87573051     19.80896187     16.66848373
H        25.94690895     21.26841164     15.27180099
H        24.46111488     19.77607918     15.31009769
H        24.58049965     21.33133507     21.29182053
B        25.11964226     20.54476738     20.56989861
H        25.84943962     19.98625183     21.29030991
H        25.78362846     21.26401520     19.89099312
H        24.49114799     19.89538956     19.73432350
H        24.29884720     21.16782761     25.84463501
B        25.15586090     20.56809998     25.14945602
H        25.85202789     19.92813492     25.85478973
H        25.84451866     21.17047501     24.33043480
H        24.32085228     19.96029663     24.35508537
H        24.36098862     21.34502411     30.36149406
B        25.16411018     20.55956650     29.69729614
H        25.82134438     19.73556709     30.50849533
H        25.67627907     21.34695816     29.01126862
H        24.36914062     19.89071846     29.02135277
H        24.43358803     25.86173630      3.06804919
B        25.11065674     25.14036942      2.27599359
H        25.91896248     24.38611984      3.01340461
H        25.95589638     25.84402466      1.55690598
H        24.49263191     24.39052010      1.59823930
H        24.47406960     24.35950089      6.14450502
H        24.44748497     25.91849327      7.59076977
B        25.12856483     25.13590431      6.85284853
H        25.84327507     24.47659302      7.44709444
H        25.84416771     25.77570724      6.26070499
H        24.27768898     24.45438385     10.79410839
H        24.42852402     25.85020447     12.08329868
B        25.14455223     25.10909843     11.41121292
H        25.83677292     24.48383904     12.20467854
H        25.89454842     26.02935791     10.76579094
H        24.48567963     24.37815475     15.24571609
H        24.46165657     25.91089058     16.69752693
B        25.12162971     25.13484383     16.00479889
H        25.87423706     24.44145775     16.61020279
H        25.86181259     25.81114388     15.32144070
H        24.50572777     24.42583656     19.93995094
H        24.24025345     25.84585190     21.06113625
B        25.14618492     25.16603279     20.60718918
H        25.87240791     24.23939514     20.98209953
H        25.80163383     25.69604301     19.82428551
H        24.49773216     24.40841866     24.44224167
H        24.37539673     25.74464417     25.88630486
B        25.12299538     25.16469765     25.13899612
H        25.87899208     24.36518288     25.80720520
H        25.91663742     25.70318794     24.36136246
H        24.61235428     24.42896271     28.88144875
H        24.44286346     26.02330589     30.28532410
B        25.11991882     25.12967110     29.75329781
H        25.89220810     24.32556343     30.21923447
H        25.75431061     25.81931496     28.91594696
H        24.27860832     29.06108284      1.72737730
H        24.50802803     30.37898827      2.94156599
B        25.13593292     29.67399216      2.24917030
H        25.85017204     29.11900520      3.11306381
H        25.89317513     30.59349060      1.74229598
H        24.32467270     29.20641327      5.98485041
H        24.35027122     30.52849388      7.58473825
B        25.14238167     29.65890312      6.86191940
H        25.98343277     29.19927406      7.61747408
H        25.80242538     30.38022232      6.15872002
H        24.51880074     29.01072693     10.61034393
H        24.45131683     30.53581810     11.97986603
B        25.11799049     29.69790649     11.46765709
H        25.94090843     28.97109985     11.95200825
H        25.81138611     30.37843704     10.70024109
H        25.81404877     30.42678833     15.24679852
H        24.54423141     29.02557564     15.14069748
H        24.55652618     30.52059746     16.67652702
B        25.10920715     29.68664360     16.01788712
H        25.90181923     29.04390717     16.67049217
H        26.03509903     30.35805511     19.83312225
H        24.59165192     28.87878036     19.94624138
H        24.55761909     30.27896690     21.42430878
B        25.08913994     29.73771667     20.54080772
H        25.84749603     28.95326042     21.31579781
H        25.87641144     30.41619873     24.47670746
H        24.32097816     29.07828522     24.45358276
H        24.40263748     30.35766792     25.76593208
B        25.13589859     29.69757271     25.13177490
H        25.93031502     29.04750824     25.87836647
H        25.79337311     30.47995567     29.11283302
H        24.44196892     28.84466171     28.89692307
H        24.52658844     30.61124611     30.44326591
B        25.12821007     29.69391060     29.70476532
H        25.85088158     29.00306129     30.36948586
H        30.44872856      2.96577287      1.58778739
H        28.96161270      1.69790268      1.65682280
H        28.89846039      2.95988941      2.82917714
B        29.70628738      2.27905321      2.30201507
H        30.49737740      1.58021712      2.88371062
H        30.50954819      2.97708678      6.14920950
H        28.99628448      1.68109095      6.19960642
H        28.91466331      3.00831223      7.59159374
B        29.69766808      2.26741600      6.85039806
H        30.47812843      1.66211259      7.52894974
H        30.46442032      2.98383236     10.71065044
H        29.11452484      1.51181877     10.74974251
H        29.03915977      3.02010703     12.22401142
B        29.69094658      2.28870177     11.41937447
H        30.35261345      1.58453500     12.07592869
H        30.38946724      2.92760777     15.29437542
H        28.95343971      1.46199715     15.19782352
H        28.92731094      3.05028963     16.65807915
B        29.71594048      2.30220199     16.01843452
H        30.43242073      1.51559711     16.57835007
H        30.37607384      3.02443695     19.77278709
H        29.02274704      1.59202313     19.87335396
H        28.94170952      3.00490952     21.22651672
B        29.71650505      2.28566599     20.58003998
H        30.35604668      1.51148427     21.22601509
H        30.43533516      1.52066970     25.68580627
H        30.46216965      3.07677126     24.35043716
H        29.07235909      1.53339696     24.38999939
H        29.01741982      3.09214711     25.72801781
B        29.68940353      2.27726293     25.17096138
H        30.35912704      1.61621296     30.50553513
H        30.48160172      2.93746495     28.99024963
H        28.98880959      1.57730567     29.07381821
H        29.00387001      2.83883667     30.52938271
B        29.70374680      2.30086613     29.67898941
H        30.36997795      6.14449501      3.08461452
H        30.21804619      7.48484421      1.46728325
H        29.08849144      6.25021791      1.42107427
H        29.05553436      7.56401014      3.01184893
B        29.71319962      6.85280275      2.29946780
H        30.40160370      6.06289291      7.53667021
H        30.21363068      7.53907490      5.90006924
H        29.06921387      6.27242517      5.92162800
H        28.97493172      7.61179829      7.42141914
B        29.71997452      6.84882832      6.91468859
H        30.32536697      6.06992054     12.05522442
H        30.31990242      7.56562090     10.74590588
H        29.01789284      6.17360735     10.84412766
H        28.92703629      7.55825806     12.04239464
B        29.72642326      6.85990334     11.42615128
B        29.69863129      6.87032795     16.00295448
H        30.44858170      6.11656189     16.65197945
H        30.53939247      7.52166939     15.21498203
H        28.98513603      6.14331293     15.33254528
H        28.91519356      7.47404766     16.69516754
B        29.70593262      6.85881758     20.59704971
H        30.46953964      6.06195974     21.23894691
H        30.45661545      7.55352020     19.65805054
H        29.00950432      6.22980690     19.81297493
H        28.87433624      7.53376150     21.20626640
B        29.69929695      6.85013390     25.14941597
H        30.42936516      6.17422295     25.72618675
H        30.51767921      7.54083872     24.35715485
H        29.03225136      6.07908964     24.35033607
H        28.90187073      7.67803812     25.95170212
B        29.69255638      6.86607170     29.71820641
H        30.47223854      6.25945234     30.27230072
H        30.50066185      7.35064983     28.99792099
H        29.04500961      6.16868258     28.93557358
H        28.93554878      7.52245617     30.47253036
H        29.02350807     11.97468567      3.12089396
B        29.70936775     11.44331264      2.27084088
H        30.33223915     10.77878189      3.08838892
H        30.43316460     12.04310703      1.52671885
H        28.98423386     10.70700359      1.55586624
H        28.97248077     12.06027222      7.49267817
B        29.72059250     11.43330860      6.82208633
H        30.36629295     10.72181034      7.52844000
H        30.45182419     12.18156433      6.37047815
H        28.86213875     10.64723015      6.38142776
H        28.97566223     12.06426620     12.19825935
B        29.73902702     11.41703320     11.40260506
H        30.22581100     10.71130085     12.28938580
H        30.30487442     12.23445415     10.65468407
H        28.94865608     10.77541828     10.79786396
H        29.08015442     12.10906887     16.82692719
B        29.69575500     11.43702507     15.97100067
H        30.33678627     10.74314022     16.71759415
H        30.45686340     12.11981297     15.35847569
H        29.04533958     10.59899235     15.33440590
H        29.16543007     12.33615398     21.16182709
B        29.69723511     11.40781403     20.58392525
H        30.38986969     10.62139606     21.25010681
H        30.24994469     12.28450871     19.88205910
H        29.09802437     10.64227104     19.76300812
H        28.98615837     10.73279762     24.55626678
H        29.00142479     12.13787937     25.78438950
B        29.70875740     11.41081333     25.12930679
H        30.34827805     10.76286411     25.76958847
H        30.44382095     12.21862125     24.49078941
H        29.09116173     10.59064960     29.04556084
H        29.05208778     12.04676342     30.47915649
B        29.66669464     11.45230579     29.70322800
H        30.45811081     10.71071720     30.32001495
H        30.62948227     12.05899239     28.99425888
H        28.91283226     15.25858879      1.60672045
H        29.02784729     16.77006721      2.87309289
B        29.70993233     15.98132133      2.28684044
H        30.43601418     15.28286457      2.96383214
H        30.39039612     16.81518745      1.67661500
H        28.90639877     15.27045536      6.15812826
H        28.90504456     16.64483833      7.51171303
B        29.71801949     16.00416565      6.86750460
H        30.40821838     15.30523968      7.47557497
H        30.46067238     16.66115570      6.14045763
H        28.94931221     15.27701092     10.79958344
H        29.06748772     16.87902069     12.02456665
B        29.70888901     15.95681190     11.41501236
H        30.40106392     15.35122108     12.06853008
H        30.36042023     16.88233757     10.91444016
H        28.96649933     15.30081463     15.36813354
H        28.87955093     16.73070526     16.65410995
B        29.72210693     15.99491501     15.99754238
H        30.39281464     15.23441601     16.63356018
H        30.39763069     16.71497154     15.29691792
H        29.02526283     15.26887321     19.84556961
H        28.94878006     16.58929253     21.28960228
B        29.71427155     16.02290154     20.57497406
H        30.35282326     15.23623943     21.24575233
H        30.39368820     16.58631134     19.77206802
H        28.82974434     15.41137505     24.56584930
H        28.98760986     16.66901779     25.79856873
B        29.71871185     15.96324444     25.10285759
H        30.42680740     15.38303089     25.98477745
H        30.42876053     16.85717773     24.53555298
H        28.96187782     15.29049683     29.12650108
H        28.87096786     16.60259247     30.37558937
B        29.72016716     16.02211952     29.69573021
H        30.41530418     15.16331196     30.41186142
H        30.40915108     16.63271332     29.00546837
H        30.46792603     21.29775810      1.64070678
H        28.94513512     19.92272568      1.60719776
H        29.04602051     21.23038483      3.02879167
B        29.69248390     20.55382347      2.26075029
H        30.49515724     19.92900085      3.12340093
H        30.42337990     21.28535271      6.14057875
H        28.86674500     19.84136009      6.16497898
H        28.94577789     21.18191719      7.70228672
B        29.73036957     20.56714249      6.82869387
H        30.31196594     19.92837524      7.69430637
H        30.18541145     21.34604454     10.62154198
H        29.16212273     19.98794556     10.55301094
H        29.04531860     21.53138351     11.99984550
B        29.70234680     20.52848053     11.46610737
H        30.45558929     19.78629875     12.08468819
H        30.50032234     21.24832344     15.23078918
H        28.97089005     19.87348175     15.32987022
H        28.93127823     21.18885231     16.64087296
B        29.70175171     20.57683372     16.00675774
H        30.45233345     19.82238770     16.65235710
H        30.49157333     21.19864273     19.85261726
H        29.08163643     19.80797386     19.82479858
H        29.03722000     21.27087593     21.32051468
B        29.68111992     20.57626534     20.56869698
H        30.46569443     19.86167526     21.22240067
H        30.47411537     21.16781044     24.49573135
H        28.93209648     19.95654869     24.42290115
H        29.00418282     21.16855431     25.83119392
B        29.69645119     20.56172371     25.12870979
H        30.50129700     20.00219727     25.85763168
H        30.35823631     21.17248917     28.89411926
H        29.07837296     19.78585625     28.91304016
H        28.94939995     21.28254318     30.55559731
B        29.72001457     20.58055687     29.71404266
H        30.27293587     19.85223389     30.36024666
H        30.31043243     25.83899307      1.56366062
H        28.95560265     24.63932610      1.44573319
H        28.99611092     25.91641235      2.86377072
B        29.70859337     25.09741592      2.31032205
H        30.51931572     24.54837227      2.99523354
H        30.31971931     25.83729744      6.08398771
H        28.94621468     24.50938416      6.19768667
H        28.94618225     25.72362900      7.49798918
B        29.73512840     25.13863564      6.86093664
H        30.28471947     24.43068504      7.57665682
H        30.56719398     24.45607567     11.93575001
H        30.44898605     25.65942574     10.68535614
H        29.11876297     24.50805283     10.61912632
H        28.91060829     25.93380928     12.09192371
B        29.68397141     25.13337898     11.45929432
H        30.37250137     24.28792953     16.64995384
H        30.42782784     25.80118370     15.31654072
H        29.10412598     24.28249359     15.36643314
H        29.02968025     25.82573700     16.72983742
B        29.69435692     25.16694450     15.98728275
H        30.38883591     24.44589806     21.26127052
H        30.38079071     25.85570145     19.69724464
H        29.11202240     24.50174141     19.74504471
H        29.02390289     25.89602089     21.29354668
B        29.69702148     25.12014008     20.58950996
H        30.45657921     24.34148026     25.65856743
H        30.60767937     25.73600769     24.47527885
H        29.02630997     24.23806381     24.52296257
H        28.91524506     25.79938698     25.87304878
B        29.68767548     25.17462730     25.13594437
H        30.35390091     24.47558975     30.57205391
H        30.46501350     26.08520889     29.01613235
H        28.81557655     24.42832947     29.07998466
H        29.02245140     25.81448174     30.41243935
B        29.72020149     25.11042023     29.68070030
B        29.72831154     29.72047234      2.28379798
H        30.39286804     28.87305832      3.03364730
H        30.37649727     30.41975594      1.52496850
H        28.92631340     29.06191444      1.69745302
H        28.87428284     30.29929924      2.89682174
B        29.70218086     29.73328972      6.85784340
H        30.32432175     28.85885239      7.56053400
H        30.42786407     30.43375015      6.06499767
H        29.06646347     28.87072372      6.18041277
H        29.03156662     30.35322952      7.58355808
B        29.73690605     29.67545891     11.42123413
H        30.18922997     29.01828003     12.21941185
H        30.25662422     30.64180374     10.67504501
H        28.95800018     29.02786064     10.75201702
H        29.07392120     30.44890976     12.09391022
B        29.70363045     29.69710159     15.97238159
H        30.42532730     29.05076027     16.72643089
H        30.44182587     30.48072815     15.44751072
H        28.91287231     28.98672867     15.39997864
H        29.05465889     30.38647270     16.64867401
H        29.00194550     30.42951202     21.19046402
B        29.69453621     29.68526077     20.57790184
H        30.49195480     29.10667801     21.19791985
H        30.51380920     30.45882416     19.89067841
H        28.92450142     29.03668785     19.84254837
H        29.09375000     30.46581650     25.75612640
B        29.67764091     29.69519424     25.15566444
H        30.51482773     29.01488304     25.78985977
H        30.44990921     30.43463326     24.42116547
H        29.05496025     29.00982666     24.35119057
H        29.04988670     30.46526909     30.48893166
B        29.69622231     29.70377159     29.71032715
H        30.42032051     29.02140808     30.43198013
H        30.41197586     30.39996910     28.96259308
H        29.03194427     28.94651222     28.87935066
