Na81 B27 H108 O27                       
   1.00000000000000     
    13.7100000000000009    0.0000000000000000    0.0000000000000000
     0.0000000000000000   13.7100000000000009    0.0000000000000000
     0.0000000000000000    0.0000000000000000   13.7100000000000009
   Na   O    B    H 
    80    27    27   108
Direct
  0.1666674229997152  0.0000016580690453  0.6719067148447255
  0.1666665931482263  0.9999975897188506  0.9947618412435802
  0.1666674477932242  0.3385734658615965  0.3333307643043177
  0.1674409718487250  0.3292657072375830  0.6626000889811606
  0.1658915456439995  0.3292680686277867  0.0040669329723863
  0.1666680268417962  0.6614289381042641  0.3333365942526397
  0.1658929860552711  0.6707324814905302  0.6626001843439101
  0.1674400954458087  0.6707329174467779  0.0040652247009337
  0.5017333349225277  0.0000006790418203  0.3333333247129767
  0.4990183581992126  0.0004215575300602  0.6609009318669657
  0.4990175089105798  0.9995784461299942  0.0057670599944148
  0.4990183498966735  0.3275690802675981  0.3337564995708433
  0.5004354443277899  0.3354496367098068  0.6687801107163508
  0.4985173722952411  0.3332854540027641  0.0000447771039084
  0.4990188852807303  0.6724321797096695  0.3329101452941649
  0.4985186069159500  0.6667148677746364  0.6666213524068179
  0.5004353939172973  0.6645502954707262  0.9978867927861685
  0.8316007805699718  0.0000011110152869  0.3333349094778784
  0.8343157811834624  0.9995769500383360  0.6609008118912763
  0.8343146273446198  0.0004232173631088  0.0057645799896390
  0.8343162544917890  0.3275668567447894  0.3329106109615915
  0.8348156846472681  0.3332890400614408  0.6666189351689067
  0.8328965507251482  0.3354462503071557  0.9978834117024665
  0.8343165528088490  0.6724336062189709  0.3337548982635257
  0.8328977380136184  0.6645522852925555  0.6687837743511591
  0.8348147549923848  0.6667128991956256  0.0000487993586918
  0.0134678953158662  0.1612692276374815  0.3335038476116588
  0.0017894333051670  0.1645967893158543  0.6622050845088924
  0.9984831821964458  0.1674483023520274  0.0011809603459358
  0.9952737283620066  0.4999998786518828  0.3333330330623557
  0.0030298458957354  0.4990300394563489  0.6654530455263677
  0.0030269521819098  0.5009698457645024  0.0012141913004200
  0.0134666061367802  0.8387313646616444  0.3331631438702016
  0.9984830154298525  0.8325503088401122  0.6654848557767197
  0.0017892259336332  0.8354021216292317  0.0044615224507544
  0.3198692589369203  0.1612698554353034  0.3331623388631928
  0.3348547310779176  0.1674493306840378  0.6654830159454094
  0.3315400525612194  0.1645963223520931  0.0044595362446501
  0.3380612448060653  0.5000002344173270  0.3333318526554208
  0.3303047472169540  0.5009694420328332  0.6654531513133027
  0.3303044383764580  0.4990288837126869  0.0012139451274114
  0.3198697744448977  0.8387305971702935  0.3335050985308089
  0.3315413457989494  0.8354033502646098  0.6622063063979821
  0.3348529770797643  0.8325496517759308  0.0011829325122600
  0.6666665687147072  0.1664699838179810  0.3333290539559927
  0.6665768376506044  0.1668890888036071  0.6667140375732392
  0.6667563197180241  0.1668877455265624  0.9999563999055351
  0.6666683782727495  0.5000006383476766  0.3333349076994525
  0.6666665593712248  0.5000001058094188  0.6673326699705374
  0.6666658055735472  0.4999996726943424  0.9993327598681542
  0.6666673802832349  0.8335310884939742  0.3333361999860563
  0.6667582018671021  0.8331120468437294  0.6667125491746277
  0.6665752303520648  0.8331119104381296  0.9999523136253574
  0.0134623873276208  0.9998285856923430  0.1720633158941232
  0.0134663478576994  0.0001715322209345  0.4946032604880276
  0.9952722355097207  0.9999992853828663  0.8333330064276501
  0.9984790822002597  0.3321491643184241  0.1658819617332707
  0.0017927288975487  0.3288728237461047  0.4979289790922808
  0.0030281891464084  0.3321200170390766  0.8323627700391887
  0.0017928218586967  0.6711271941130972  0.1687375872475508
  0.9984799577242787  0.6678498573228782  0.5007838421490514
  0.0030273687606363  0.6678803647923560  0.8343039897160867
  0.3198665024113126  0.0001713923519667  0.1720644962218214
  0.3198678032112727  0.9998289538375966  0.4946031311756522
  0.3380606884651416  0.9999994701041964  0.8333339398135331
  0.3315439689198080  0.3288711200997290  0.1687357947154957
  0.3348505479993089  0.3321526877799226  0.5007818214072126
  0.3303039655739942  0.3321190950246397  0.8343022069661864
  0.3348497183903342  0.6678489134603536  0.1658842628565296
  0.3315444803321473  0.6711277079399338  0.4979310333067569
  0.3303042136367058  0.6678803231667070  0.8323640034739554
  0.6666671622206267  0.9999967767272077  0.1668642557850423
  0.6666659976909852  0.0000033164349492  0.4998027911105257
  0.6666662166311421  0.0000012341712608  0.8333334991449390
  0.6667565194591764  0.3333830270970376  0.1664449215271172
  0.6665766333723407  0.3333775018626075  0.5002207490441718
  0.6666665401392784  0.3339999590548738  0.8333330445952222
  0.6665752652559920  0.6666213264070608  0.1664460421172246
  0.6667573330651713  0.6666211973508807  0.5002220300010924
  0.6666659615316753  0.6660000332439484  0.8333338939989563
  0.9907633406744976  0.0000004469412662  0.3333335508588582
  0.0013210590032272  0.9974975995212274  0.6645091941701714
  0.0013199570217466  0.0025013376496017  0.0021572354229363
  0.0013212438679503  0.3311765069112164  0.3308299419457375
  0.0015043129609721  0.3317163020226692  0.6650494713457056
  0.9991678562317096  0.3344098946096434  0.9989213119033385
  0.0013214694026376  0.6688243258641702  0.3358365822703754
  0.9991691610740187  0.6655895122415592  0.6677449122225640
  0.0015029331368095  0.6682827621595970  0.0016171962881598
  0.3425707150381858  0.0000002550976285  0.3333338090668519
  0.3320135363732584  0.0025020680445029  0.6645098685889334
  0.3320126826406498  0.9974969324185478  0.0021577024452259
  0.3320134797891169  0.3311765361320981  0.3358343977373954
  0.3341644448874188  0.3344104639663636  0.6677430537235240
  0.3318288321804679  0.3317161353860586  0.0016160300830052
  0.3320144810455256  0.6688243229915886  0.3308317054279666
  0.3318299128655889  0.6682829518848711  0.6650505083554034
  0.3341638803456268  0.6655884387190855  0.9989235307045526
  0.6666670342855936  0.0000006022083575  0.3333332757740818
  0.6666667970690275  0.0000006051698078  0.6666356667835860
  0.6666659873748543  0.9999998554082622  0.0000314740934292
  0.6666671353303044  0.3333023820403271  0.3333327354566567
  0.6672152267357655  0.3340398665871772  0.6673723105405366
  0.6661171289651427  0.3340391650412027  0.9992936842885977
  0.6666675375534626  0.6666986524955946  0.3333343454351406
  0.6661183009680268  0.6659603982980818  0.6673733221724013
  0.6672166286284703  0.6659602261061731  0.9992943348988709
  0.1790342021484257  0.1763961107670910  0.1569332009260004
  0.1542990991482647  0.1763983053605234  0.5097296457210110
  0.1666657843178802  0.1662159741088403  0.8333322266751638
  0.1666666066060535  0.4999999502382579  0.1671162239282814
  0.1666675015153778  0.5000001954890345  0.4995498917329855
  0.1666661932949459  0.4999994655280026  0.8333331694807199
  0.1542984179256341  0.8236008813456308  0.1569365918821587
  0.1790362158654698  0.8236023822388733  0.5097328557857291
  0.1666667507395322  0.8337825399492295  0.8333341088771502
  0.5028441936407358  0.1677973780626680  0.1655362821383068
  0.5007941532500960  0.1688650977490476  0.5021972430590539
  0.4993866244731952  0.1660841066247115  0.8341529258940662
  0.4993879178369680  0.4991809318653350  0.1672494603120054
  0.4993884934815790  0.5008200911838767  0.4994177370647472
  0.4983419049779946  0.4999994214605328  0.8333336563820952
  0.5007947519043504  0.8311357364738410  0.1644699629926095
  0.5028456836414997  0.8322035317679098  0.5011313335257538
  0.4993873817288719  0.8339153480059581  0.8325147131094602
  0.8325381417829830  0.1688637984659383  0.1644674058945672
  0.8304883982981135  0.1677976992736883  0.5011295927456604
  0.8339443266895776  0.1660840265442253  0.8325125932955014
  0.8339462116965989  0.5008198774516678  0.1672493394251546
  0.8339470156527230  0.4991805674402245  0.4994167945527637
  0.8349898746261353  0.5000000413033658  0.8333336822182835
  0.8304880050630726  0.8322027934363814  0.1655366860207514
  0.8325391413095261  0.8311367409634499  0.5021988509473716
  0.8339450949195573  0.8339162072839115  0.8341530828671626
  0.1579751398374840  0.1585311595568636  0.0720104625061627
  0.1962622192164487  0.1208717568791787  0.4542015639922105
  0.1118480650435771  0.1149630776083858  0.7854630312487946
  0.1185108540421643  0.4454872056343593  0.1159209402950520
  0.1118537228887505  0.4521302991236187  0.4482934406121772
  0.1156942067780386  0.4483707749427578  0.7817043625368414
  0.0662054000683643  0.8339081077167806  0.1672415045137857
  0.1579738691496143  0.7386807055734469  0.4918667424403484
  0.1185149936116776  0.7825839429998277  0.7788210396718037
  0.4510822061019424  0.1140667141559403  0.1170264414396798
  0.4457033071332221  0.1194382479237811  0.4527738847672974
  0.4511866339285279  0.1150089123960500  0.7794293405423953
  0.4450224885581545  0.4491434137780709  0.1175046688957302
  0.4511855024842269  0.4460970917170483  0.4483446821893695
  0.4467456861675386  0.4487358263841851  0.7820706449667125
  0.4537341163409464  0.7777002168151570  0.1110387857162734
  0.4510862775914284  0.7836949630962550  0.4473970488018961
  0.4450191490828875  0.7841725606878051  0.7824782794795875
  0.7807138113914258  0.1161285044701126  0.1148390066411206
  0.7751937071438478  0.1185252603034994  0.4518534656786457
  0.7842466571740310  0.1142716078365179  0.7798625146576819
  0.7811479287357281  0.4522928253583104  0.1144235283662505
  0.7842469625267333  0.4465295203684275  0.4476075164078255
  0.7834589620402531  0.4486376415833362  0.7819702178570809
  0.7831357244404618  0.7788969473370622  0.1122296219747234
  0.7807169205157924  0.7815038520612797  0.4494656321884963
  0.7811439282950773  0.7810932752890821  0.7856261726614971
  0.2671272033036613  0.1660917744579578  0.1672409022830208
  0.1753592435497608  0.2613205114759564  0.4918633772617181
  0.2148209397518396  0.2174109099272427  0.7788186781310944
  0.2148178119563105  0.5545126405619955  0.1159167438876777
  0.2214845157999327  0.5478690520317258  0.4482959065763297
  0.2176390778588989  0.5516284930836313  0.7817055303928723
  0.1753611712865294  0.8414677296621210  0.0720151914783672
  0.1370729708855792  0.8791300975418713  0.4542060515699006
  0.2214812470502756  0.8850386852415066  0.7854646664527829
  0.5501947672160304  0.2211065575254489  0.1122310156104667
  0.5526189343776374  0.2184932571394870  0.4494620632626832
  0.5521853319189837  0.2189086929942775  0.7856250197551509
  0.5521895293745263  0.5477074302499885  0.1144265609444542
  0.5490870822138352  0.5534705517564358  0.4476065385930463
  0.5498716324975640  0.5513627471780508  0.7819699247976283
  0.5526176034968409  0.8838675649795847  0.1148362872036414
  0.5581388208328749  0.8814799102192841  0.4518574326961538
  0.5490882090261378  0.8857254137402711  0.7798651646440744
  0.8795988914792862  0.2222938368937875  0.1110309225657958
  0.8822501296737979  0.2163062910809122  0.4473975589466633
  0.8883094757153883  0.2158306671693473  0.7824766337802256
  0.8883140387337048  0.5508574457591232  0.1175073204856979
  0.8821472109578733  0.5539043359809267  0.4483419764989429
  0.8865872263185661  0.5512621195176736  0.7820702549753198
  0.8822476577618490  0.8859369523516599  0.1170281946676801
  0.8876308685343798  0.8805610742744082  0.4527739138438819
  0.8821476089892171  0.8849879797269712  0.7794284788632043
  0.1370713032931169  0.1208664351445112  0.2124583169260710
  0.1753613788507953  0.1585315274261447  0.5946511912480379
  0.2214787602503375  0.1149584510447212  0.8812019708408340
  0.2214839206678907  0.4521298611433269  0.2183687286179313
  0.2148188824011863  0.4454874354820852  0.5507491459919799
  0.2176394777249303  0.4483715413193827  0.8849614778151262
  0.1753584512170202  0.7386786054345420  0.1748026455142956
  0.2671291655533896  0.8339077846971678  0.4994257161548489
  0.2148206309165212  0.7825862524787975  0.8878474575824945
  0.5581377315707620  0.1185197250317100  0.2148084936689917
  0.5526168827062244  0.1161336317106413  0.5518315228090336
  0.5490875403830199  0.1142751633663754  0.8868034638236564
  0.5490863273949724  0.4465325351375583  0.2190629297029430
  0.5521899684400923  0.4522915684664230  0.5522389190584263
  0.5498720417941289  0.4486362470067912  0.8846971272709477
  0.5526196133655085  0.7815066735104345  0.2172041993972848
  0.5501966191000617  0.7788965724166406  0.5544384857908151
  0.5521862535686249  0.7810903932775445  0.8810419957064126
  0.8876284678026775  0.1194407216615024  0.2138951910158229
  0.8822483601627856  0.1140620847473471  0.5496361496831714
  0.8821475940496383  0.1150122481141365  0.8872365589185122
  0.8821469604598764  0.4460955856756706  0.2183230880088591
  0.8883153512479112  0.4491452452856225  0.5491605943881173
  0.8865850384112895  0.4487358177827786  0.8845971434663169
  0.8822503391476982  0.7836934635985698  0.2192674657225995
  0.8795983318459096  0.7777047419221822  0.5556347920481011
  0.8883108769003666  0.7841712641562821  0.8841900181051130
  0.1579705641695258  0.2613170059555699  0.1748015070911395
  0.0662061029482200  0.1660913215561923  0.4994243147966463
  0.1185151699762420  0.2174158902092891  0.8878450653005528
  0.1118542626890076  0.5478699645413605  0.2183741263319740
  0.1185131938907645  0.5545139371154907  0.5507454311713258
  0.1156919366054960  0.5516267210786852  0.8849612307229876
  0.1962615237793563  0.8791273004910529  0.2124648146442956
  0.1579760686576010  0.8414690292979858  0.5946549523253427
  0.1118503600531617  0.8850367417791408  0.8812034558132655
  0.4510844349603542  0.2163036967736864  0.2192722584985832
  0.4537338785896329  0.2223015781235923  0.5556276910037071
  0.4450181320692438  0.2158272768181990  0.8841886474399246
  0.4511849963058234  0.5539060802921197  0.2183201805495272
  0.4450229632028100  0.5508557469308775  0.5491642470312530
  0.4467454615919930  0.5512627906577612  0.8845966803250106
  0.4457042969096030  0.8805622623098339  0.2138941080934149
  0.4510833410531273  0.8859353471530669  0.5496394790818703
  0.4511872016640888  0.8849894469049738  0.8872391359950924
  0.7807147953912397  0.2184985214251227  0.2171978210618074
  0.7831389650404937  0.2211042269590799  0.5544385099078881
  0.7811418542777561  0.2189050592941744  0.8810402014182401
  0.7842447753153403  0.5534686518114280  0.2190595903003459
  0.7811474108080920  0.5477083001112344  0.5522406594399113
  0.7834609459654238  0.5513646160903728  0.8846969014096572
  0.7751961562576547  0.8814767765768173  0.2148143989369744
  0.7807138884229053  0.8838709765952821  0.5518274811753576
  0.7842461444739420  0.8857283466227533  0.8868022734984601
 
  0.00000000E+00  0.00000000E+00  0.00000000E+00
  0.00000000E+00  0.00000000E+00  0.00000000E+00
  0.00000000E+00  0.00000000E+00  0.00000000E+00
  0.00000000E+00  0.00000000E+00  0.00000000E+00
  0.00000000E+00  0.00000000E+00  0.00000000E+00
  0.00000000E+00  0.00000000E+00  0.00000000E+00
  0.00000000E+00  0.00000000E+00  0.00000000E+00
  0.00000000E+00  0.00000000E+00  0.00000000E+00
  0.00000000E+00  0.00000000E+00  0.00000000E+00
  0.00000000E+00  0.00000000E+00  0.00000000E+00
  0.00000000E+00  0.00000000E+00  0.00000000E+00
  0.00000000E+00  0.00000000E+00  0.00000000E+00
  0.00000000E+00  0.00000000E+00  0.00000000E+00
  0.00000000E+00  0.00000000E+00  0.00000000E+00
  0.00000000E+00  0.00000000E+00  0.00000000E+00
  0.00000000E+00  0.00000000E+00  0.00000000E+00
  0.00000000E+00  0.00000000E+00  0.00000000E+00
  0.00000000E+00  0.00000000E+00  0.00000000E+00
  0.00000000E+00  0.00000000E+00  0.00000000E+00
  0.00000000E+00  0.00000000E+00  0.00000000E+00
  0.00000000E+00  0.00000000E+00  0.00000000E+00
  0.00000000E+00  0.00000000E+00  0.00000000E+00
  0.00000000E+00  0.00000000E+00  0.00000000E+00
  0.00000000E+00  0.00000000E+00  0.00000000E+00
  0.00000000E+00  0.00000000E+00  0.00000000E+00
  0.00000000E+00  0.00000000E+00  0.00000000E+00
  0.00000000E+00  0.00000000E+00  0.00000000E+00
  0.00000000E+00  0.00000000E+00  0.00000000E+00
  0.00000000E+00  0.00000000E+00  0.00000000E+00
  0.00000000E+00  0.00000000E+00  0.00000000E+00
  0.00000000E+00  0.00000000E+00  0.00000000E+00
  0.00000000E+00  0.00000000E+00  0.00000000E+00
  0.00000000E+00  0.00000000E+00  0.00000000E+00
  0.00000000E+00  0.00000000E+00  0.00000000E+00
  0.00000000E+00  0.00000000E+00  0.00000000E+00
  0.00000000E+00  0.00000000E+00  0.00000000E+00
  0.00000000E+00  0.00000000E+00  0.00000000E+00
  0.00000000E+00  0.00000000E+00  0.00000000E+00
  0.00000000E+00  0.00000000E+00  0.00000000E+00
  0.00000000E+00  0.00000000E+00  0.00000000E+00
  0.00000000E+00  0.00000000E+00  0.00000000E+00
  0.00000000E+00  0.00000000E+00  0.00000000E+00
  0.00000000E+00  0.00000000E+00  0.00000000E+00
  0.00000000E+00  0.00000000E+00  0.00000000E+00
  0.00000000E+00  0.00000000E+00  0.00000000E+00
  0.00000000E+00  0.00000000E+00  0.00000000E+00
  0.00000000E+00  0.00000000E+00  0.00000000E+00
  0.00000000E+00  0.00000000E+00  0.00000000E+00
  0.00000000E+00  0.00000000E+00  0.00000000E+00
  0.00000000E+00  0.00000000E+00  0.00000000E+00
  0.00000000E+00  0.00000000E+00  0.00000000E+00
  0.00000000E+00  0.00000000E+00  0.00000000E+00
  0.00000000E+00  0.00000000E+00  0.00000000E+00
  0.00000000E+00  0.00000000E+00  0.00000000E+00
  0.00000000E+00  0.00000000E+00  0.00000000E+00
  0.00000000E+00  0.00000000E+00  0.00000000E+00
  0.00000000E+00  0.00000000E+00  0.00000000E+00
  0.00000000E+00  0.00000000E+00  0.00000000E+00
  0.00000000E+00  0.00000000E+00  0.00000000E+00
  0.00000000E+00  0.00000000E+00  0.00000000E+00
  0.00000000E+00  0.00000000E+00  0.00000000E+00
  0.00000000E+00  0.00000000E+00  0.00000000E+00
  0.00000000E+00  0.00000000E+00  0.00000000E+00
  0.00000000E+00  0.00000000E+00  0.00000000E+00
  0.00000000E+00  0.00000000E+00  0.00000000E+00
  0.00000000E+00  0.00000000E+00  0.00000000E+00
  0.00000000E+00  0.00000000E+00  0.00000000E+00
  0.00000000E+00  0.00000000E+00  0.00000000E+00
  0.00000000E+00  0.00000000E+00  0.00000000E+00
  0.00000000E+00  0.00000000E+00  0.00000000E+00
  0.00000000E+00  0.00000000E+00  0.00000000E+00
  0.00000000E+00  0.00000000E+00  0.00000000E+00
  0.00000000E+00  0.00000000E+00  0.00000000E+00
  0.00000000E+00  0.00000000E+00  0.00000000E+00
  0.00000000E+00  0.00000000E+00  0.00000000E+00
  0.00000000E+00  0.00000000E+00  0.00000000E+00
  0.00000000E+00  0.00000000E+00  0.00000000E+00
  0.00000000E+00  0.00000000E+00  0.00000000E+00
  0.00000000E+00  0.00000000E+00  0.00000000E+00
  0.00000000E+00  0.00000000E+00  0.00000000E+00
  0.00000000E+00  0.00000000E+00  0.00000000E+00
  0.00000000E+00  0.00000000E+00  0.00000000E+00
  0.00000000E+00  0.00000000E+00  0.00000000E+00
  0.00000000E+00  0.00000000E+00  0.00000000E+00
  0.00000000E+00  0.00000000E+00  0.00000000E+00
  0.00000000E+00  0.00000000E+00  0.00000000E+00
  0.00000000E+00  0.00000000E+00  0.00000000E+00
  0.00000000E+00  0.00000000E+00  0.00000000E+00
  0.00000000E+00  0.00000000E+00  0.00000000E+00
  0.00000000E+00  0.00000000E+00  0.00000000E+00
  0.00000000E+00  0.00000000E+00  0.00000000E+00
  0.00000000E+00  0.00000000E+00  0.00000000E+00
  0.00000000E+00  0.00000000E+00  0.00000000E+00
  0.00000000E+00  0.00000000E+00  0.00000000E+00
  0.00000000E+00  0.00000000E+00  0.00000000E+00
  0.00000000E+00  0.00000000E+00  0.00000000E+00
  0.00000000E+00  0.00000000E+00  0.00000000E+00
  0.00000000E+00  0.00000000E+00  0.00000000E+00
  0.00000000E+00  0.00000000E+00  0.00000000E+00
  0.00000000E+00  0.00000000E+00  0.00000000E+00
  0.00000000E+00  0.00000000E+00  0.00000000E+00
  0.00000000E+00  0.00000000E+00  0.00000000E+00
  0.00000000E+00  0.00000000E+00  0.00000000E+00
  0.00000000E+00  0.00000000E+00  0.00000000E+00
  0.00000000E+00  0.00000000E+00  0.00000000E+00
  0.00000000E+00  0.00000000E+00  0.00000000E+00
  0.00000000E+00  0.00000000E+00  0.00000000E+00
  0.00000000E+00  0.00000000E+00  0.00000000E+00
  0.00000000E+00  0.00000000E+00  0.00000000E+00
  0.00000000E+00  0.00000000E+00  0.00000000E+00
  0.00000000E+00  0.00000000E+00  0.00000000E+00
  0.00000000E+00  0.00000000E+00  0.00000000E+00
  0.00000000E+00  0.00000000E+00  0.00000000E+00
  0.00000000E+00  0.00000000E+00  0.00000000E+00
  0.00000000E+00  0.00000000E+00  0.00000000E+00
  0.00000000E+00  0.00000000E+00  0.00000000E+00
  0.00000000E+00  0.00000000E+00  0.00000000E+00
  0.00000000E+00  0.00000000E+00  0.00000000E+00
  0.00000000E+00  0.00000000E+00  0.00000000E+00
  0.00000000E+00  0.00000000E+00  0.00000000E+00
  0.00000000E+00  0.00000000E+00  0.00000000E+00
  0.00000000E+00  0.00000000E+00  0.00000000E+00
  0.00000000E+00  0.00000000E+00  0.00000000E+00
  0.00000000E+00  0.00000000E+00  0.00000000E+00
  0.00000000E+00  0.00000000E+00  0.00000000E+00
  0.00000000E+00  0.00000000E+00  0.00000000E+00
  0.00000000E+00  0.00000000E+00  0.00000000E+00
  0.00000000E+00  0.00000000E+00  0.00000000E+00
  0.00000000E+00  0.00000000E+00  0.00000000E+00
  0.00000000E+00  0.00000000E+00  0.00000000E+00
  0.00000000E+00  0.00000000E+00  0.00000000E+00
  0.00000000E+00  0.00000000E+00  0.00000000E+00
  0.00000000E+00  0.00000000E+00  0.00000000E+00
  0.00000000E+00  0.00000000E+00  0.00000000E+00
  0.00000000E+00  0.00000000E+00  0.00000000E+00
  0.00000000E+00  0.00000000E+00  0.00000000E+00
  0.00000000E+00  0.00000000E+00  0.00000000E+00
  0.00000000E+00  0.00000000E+00  0.00000000E+00
  0.00000000E+00  0.00000000E+00  0.00000000E+00
  0.00000000E+00  0.00000000E+00  0.00000000E+00
  0.00000000E+00  0.00000000E+00  0.00000000E+00
  0.00000000E+00  0.00000000E+00  0.00000000E+00
  0.00000000E+00  0.00000000E+00  0.00000000E+00
  0.00000000E+00  0.00000000E+00  0.00000000E+00
  0.00000000E+00  0.00000000E+00  0.00000000E+00
  0.00000000E+00  0.00000000E+00  0.00000000E+00
  0.00000000E+00  0.00000000E+00  0.00000000E+00
  0.00000000E+00  0.00000000E+00  0.00000000E+00
  0.00000000E+00  0.00000000E+00  0.00000000E+00
  0.00000000E+00  0.00000000E+00  0.00000000E+00
  0.00000000E+00  0.00000000E+00  0.00000000E+00
  0.00000000E+00  0.00000000E+00  0.00000000E+00
  0.00000000E+00  0.00000000E+00  0.00000000E+00
  0.00000000E+00  0.00000000E+00  0.00000000E+00
  0.00000000E+00  0.00000000E+00  0.00000000E+00
  0.00000000E+00  0.00000000E+00  0.00000000E+00
  0.00000000E+00  0.00000000E+00  0.00000000E+00
  0.00000000E+00  0.00000000E+00  0.00000000E+00
  0.00000000E+00  0.00000000E+00  0.00000000E+00
  0.00000000E+00  0.00000000E+00  0.00000000E+00
  0.00000000E+00  0.00000000E+00  0.00000000E+00
  0.00000000E+00  0.00000000E+00  0.00000000E+00
  0.00000000E+00  0.00000000E+00  0.00000000E+00
  0.00000000E+00  0.00000000E+00  0.00000000E+00
  0.00000000E+00  0.00000000E+00  0.00000000E+00
  0.00000000E+00  0.00000000E+00  0.00000000E+00
  0.00000000E+00  0.00000000E+00  0.00000000E+00
  0.00000000E+00  0.00000000E+00  0.00000000E+00
  0.00000000E+00  0.00000000E+00  0.00000000E+00
  0.00000000E+00  0.00000000E+00  0.00000000E+00
  0.00000000E+00  0.00000000E+00  0.00000000E+00
  0.00000000E+00  0.00000000E+00  0.00000000E+00
  0.00000000E+00  0.00000000E+00  0.00000000E+00
  0.00000000E+00  0.00000000E+00  0.00000000E+00
  0.00000000E+00  0.00000000E+00  0.00000000E+00
  0.00000000E+00  0.00000000E+00  0.00000000E+00
  0.00000000E+00  0.00000000E+00  0.00000000E+00
  0.00000000E+00  0.00000000E+00  0.00000000E+00
  0.00000000E+00  0.00000000E+00  0.00000000E+00
  0.00000000E+00  0.00000000E+00  0.00000000E+00
  0.00000000E+00  0.00000000E+00  0.00000000E+00
  0.00000000E+00  0.00000000E+00  0.00000000E+00
  0.00000000E+00  0.00000000E+00  0.00000000E+00
  0.00000000E+00  0.00000000E+00  0.00000000E+00
  0.00000000E+00  0.00000000E+00  0.00000000E+00
  0.00000000E+00  0.00000000E+00  0.00000000E+00
  0.00000000E+00  0.00000000E+00  0.00000000E+00
  0.00000000E+00  0.00000000E+00  0.00000000E+00
  0.00000000E+00  0.00000000E+00  0.00000000E+00
  0.00000000E+00  0.00000000E+00  0.00000000E+00
  0.00000000E+00  0.00000000E+00  0.00000000E+00
  0.00000000E+00  0.00000000E+00  0.00000000E+00
  0.00000000E+00  0.00000000E+00  0.00000000E+00
  0.00000000E+00  0.00000000E+00  0.00000000E+00
  0.00000000E+00  0.00000000E+00  0.00000000E+00
  0.00000000E+00  0.00000000E+00  0.00000000E+00
  0.00000000E+00  0.00000000E+00  0.00000000E+00
  0.00000000E+00  0.00000000E+00  0.00000000E+00
  0.00000000E+00  0.00000000E+00  0.00000000E+00
  0.00000000E+00  0.00000000E+00  0.00000000E+00
  0.00000000E+00  0.00000000E+00  0.00000000E+00
  0.00000000E+00  0.00000000E+00  0.00000000E+00
  0.00000000E+00  0.00000000E+00  0.00000000E+00
  0.00000000E+00  0.00000000E+00  0.00000000E+00
  0.00000000E+00  0.00000000E+00  0.00000000E+00
  0.00000000E+00  0.00000000E+00  0.00000000E+00
  0.00000000E+00  0.00000000E+00  0.00000000E+00
  0.00000000E+00  0.00000000E+00  0.00000000E+00
  0.00000000E+00  0.00000000E+00  0.00000000E+00
  0.00000000E+00  0.00000000E+00  0.00000000E+00
  0.00000000E+00  0.00000000E+00  0.00000000E+00
  0.00000000E+00  0.00000000E+00  0.00000000E+00
  0.00000000E+00  0.00000000E+00  0.00000000E+00
  0.00000000E+00  0.00000000E+00  0.00000000E+00
  0.00000000E+00  0.00000000E+00  0.00000000E+00
  0.00000000E+00  0.00000000E+00  0.00000000E+00
  0.00000000E+00  0.00000000E+00  0.00000000E+00
  0.00000000E+00  0.00000000E+00  0.00000000E+00
  0.00000000E+00  0.00000000E+00  0.00000000E+00
  0.00000000E+00  0.00000000E+00  0.00000000E+00
  0.00000000E+00  0.00000000E+00  0.00000000E+00
  0.00000000E+00  0.00000000E+00  0.00000000E+00
  0.00000000E+00  0.00000000E+00  0.00000000E+00
  0.00000000E+00  0.00000000E+00  0.00000000E+00
  0.00000000E+00  0.00000000E+00  0.00000000E+00
  0.00000000E+00  0.00000000E+00  0.00000000E+00
  0.00000000E+00  0.00000000E+00  0.00000000E+00
  0.00000000E+00  0.00000000E+00  0.00000000E+00
  0.00000000E+00  0.00000000E+00  0.00000000E+00
  0.00000000E+00  0.00000000E+00  0.00000000E+00
  0.00000000E+00  0.00000000E+00  0.00000000E+00
  0.00000000E+00  0.00000000E+00  0.00000000E+00
  0.00000000E+00  0.00000000E+00  0.00000000E+00
  0.00000000E+00  0.00000000E+00  0.00000000E+00
  0.00000000E+00  0.00000000E+00  0.00000000E+00
  0.00000000E+00  0.00000000E+00  0.00000000E+00
  0.00000000E+00  0.00000000E+00  0.00000000E+00
  0.00000000E+00  0.00000000E+00  0.00000000E+00
  0.00000000E+00  0.00000000E+00  0.00000000E+00
  0.00000000E+00  0.00000000E+00  0.00000000E+00
  0.00000000E+00  0.00000000E+00  0.00000000E+00
  0.00000000E+00  0.00000000E+00  0.00000000E+00
