1056

Na        4.48123550      4.06727505     28.82308578
Na      106.86795807    -15.46532440    132.42384338
Na       67.72682190    -75.42155457      9.30717659
Na      -32.45410156    -60.74776459     15.09408569
Na      -36.44762039    -49.47061539     64.32985687
Na      174.14852905    -46.07152176     69.66611481
Na       87.37899780    -61.46921539   -127.84905243
Na      159.58055115    -81.47678375     30.84956741
Na       37.55530548    -50.71674347     24.40684509
Na      180.84579468   -154.42483521   -141.97532654
Na      -49.90377808   -145.83346558   -112.45254517
Na      -70.19731903   -110.00212860    -93.60935211
Na     -101.80890656    -19.79379082    -95.49692535
Na      -36.52644730    -11.49702740     99.35720825
Na       96.63268280    211.28340149     19.33670235
Na      -40.51769257     28.94013977     54.60705948
Na      -60.65646362     28.66384125     93.73798370
Na       -1.83121359   -134.31625366    -65.61790466
Na      -17.21730614     38.11481094    142.82215881
Na       27.67317963   -124.29627991    -13.61124802
Na       68.35498047     22.84130478     78.33583832
Na      157.24464417    -25.18117142    -84.39792633
Na      -13.83964157    195.04101562    -20.71817017
Na       50.85240936     94.06369781    109.77330780
Na     -154.04115295    -35.48968887   -103.14173126
Na      106.70232391     -5.43221188     73.86155701
Na       12.19105816     38.66767502     38.96741104
Na      -33.59227371    -91.59122467     77.63931274
Na      -35.62432861     67.96159363     -9.61835098
Na       67.46291351    -30.79825401     79.42798615
Na       36.97807312     42.05332947    113.30529785
Na      -12.64772987    106.73821259   -119.39402008
Na       71.06160736     80.83459473    127.32077026
Na     -119.52324677    -20.17130661    124.48073578
Na     -131.06828308    -56.00865173   -108.24472809
Na       61.79290009     69.53628540     15.26425552
Na      -40.85274506     32.87519836    -10.08555508
Na      -80.96652985     18.07124710    -43.36731720
Na       62.14689636     97.26859283    -98.31245422
Na      -36.55433273     53.96894073     44.67625046
Na      -10.60829067    -79.34077454    -13.40037918
Na      -26.12015533     97.67382050     11.28750515
Na     -220.07771301     58.97911835    109.05034637
Na      107.15464783    -50.20445251    -49.25840378
Na       53.29157257    -21.21703148    -73.48506165
Na      200.56988525     82.44532013     59.61643219
Na        6.65116501    106.76287842    -30.20059013
Na       53.10550308    -20.22037697   -127.76144409
Na     -140.33383179    -99.47695923     29.85276985
Na       26.70413971     34.03395844    -24.16727829
Na      -51.79561615     -1.23342264    -58.27083206
Na       36.73707199     22.52151489   -113.91369629
Na      -17.54090309    152.40031433    -18.77283478
Na       92.28210449   -100.22145081    -34.28090286
Na       52.25254059    -16.27042770     10.07258701
Na       13.52066231     92.70966339     68.77625275
Na       17.55815506    -65.58525848      0.40450680
Na     -100.44438171     93.03689575      5.08836985
Na      150.09666443    -15.65145302    -15.31331825
Na      -22.12918091     -2.78409863      5.04254866
Na     -100.94860077    142.63574219     44.70172119
Na       81.49025726     77.22346497     39.79479599
Na        2.59492779    107.49887085    -29.33689308
Na       -2.14181519    -70.19768524     44.43074417
Na       -1.11332929     81.79057312    -10.33770752
Na       -2.36292100    -80.13261414     59.46048355
Na       61.87784576     32.38101196    -92.84794617
Na     -115.25898743     33.20116806    129.24467468
Na      -25.70255089     31.88448334   -156.80822754
Na       13.51557732    -68.93096924    111.81846619
Na      -51.81763840     87.29695129    -44.58189392
Na       -1.78300989     67.20684052     28.73221779
Na     -110.75476074   -203.50086975     48.96796799
Na       -2.49167871   -135.60816956      4.01008797
Na      279.76165771      3.75410128    -60.04152298
Na       10.75670624    -13.37267303     11.84283733
Na       87.46003723      3.30231953     -0.66966677
Na      -16.68263054    -25.29539680     -5.69961357
Na      131.74143982    132.33280945     64.03938293
Na       32.16559982      7.97759008    -20.20207214
Na       34.59129333    -56.53410721     20.92771149
Na       -1.02520502    -27.19475937    -79.93997192
Na       -5.09850836     52.10043335    -57.86758041
Na      -26.87718964    -60.60815430     35.57811356
Na      -76.45853424    -16.50408554     74.14128113
Na      -46.62706375    -89.75660706     58.26622391
Na      106.73818970     62.92744064     58.76295090
Na       32.53010941    -10.87772465    -34.68787003
Na      -17.01268959     23.24540520      4.68264246
Na      -69.40550995    156.89065552    -63.27219009
Na       71.67566681    166.30517578    -93.49089050
Na      112.11023712     88.17912292    113.20146179
Na       -7.95492077      3.88032842    -14.76553535
Na      161.09013367    -70.53684235    -49.64397430
Na      170.36511230    132.19947815    192.99369812
Na      -55.74647141    132.23889160    -81.35039520
B         1.07764816     19.98184204      3.26328683
H        -1.58802640     19.81678772      3.66822600
B         0.28933367     21.53839302      3.67079329
H         1.81038630     23.42679405      2.06776786
B        -0.67988920     22.15078926      2.10791850
H         2.76339078     20.47560883      1.21239078
B        -0.64666909     20.31945038      2.89815712
H         0.32427293     18.60462761      1.15761375
B         1.19261217     22.43410301      2.29673195
H         0.74590647     21.72567940     -0.21560353
B         1.87811387     20.76396942      1.88217521
H         3.06452823     21.62349701      3.96356845
B         0.34120026     19.73563957      1.59187889
H        -1.98710263     20.60779381      0.47515148
B         0.54744470     21.50115967      0.89813066
B         2.06366873     21.33878517      3.46917939
H         1.46543932     18.97012901      3.85083079
H        -0.06263751     21.90687180      4.86461401
B        -1.03047037     20.75599289      1.23004627
H        -1.29765904     23.16797066      2.22625899
B        -0.60026944     19.96315765     12.31272125
H         1.10098541     18.39023399     11.21558762
B         0.15123141     20.80426788     10.90948486
H         0.49092966     23.43628693     11.72728634
B         1.94936430     21.01193047     11.53798866
H        -0.93338048     21.72712708     14.37369919
B         1.01791549     19.43733215     11.91727638
H         0.56687272     19.13388634     14.57980251
B         0.47603807     22.31616974     12.01203823
H         2.11648202     22.21255302     14.35755730
B        -0.20172508     21.43961525     13.43257904
H        -2.13505983     22.00033188     11.58990383
B         0.69563168     19.89076614     13.65171814
H         3.28244448     19.72252464     13.30325985
B         1.48926628     21.61827850     13.36563396
B        -1.10036135     21.44224358     11.90155315
H        -1.46870410     19.23518562     12.45450974
H         0.19283329     20.59029007      9.76023388
B         2.24903059     20.16824341     12.96436310
H         2.84405351     21.24400711     10.77307796
B         0.47206074     12.11236858      3.17720938
H         1.79517925     12.38150978      0.71906662
B         2.02902389     10.95917034      3.07928085
H         0.94474900      8.57753944      3.89855528
B         1.49270606      9.91859913      1.81381357
H        -1.62790704     10.67221546      3.92919135
B         1.34206092     11.58340836      1.48896503
H        -1.31396639     12.21063900      1.37293828
B         0.92373723      9.62272167      3.48830652
H        -0.99388772      8.68892574      1.89428616
B        -0.49775532     10.66055298      3.53523993
H         1.23107314     11.19087315      5.59006691
B        -0.60415840     11.36911583      1.81281614
H         0.29471955     10.46390629     -0.59681851
B        -0.27478760      9.64610577      2.02776337
B         0.85199267     11.04201698      4.42531919
H         0.27178037     13.27733994      3.41217279
H         3.20361328     11.07488346      3.45690894
B         0.25884083     10.53231812      0.64021641
H         2.25192142      8.94978523      1.62414467
B         1.53909051     11.76169777     13.09991550
H         0.34144649     10.11890507     14.75220490
B        -0.28610528     12.25907421     13.14900684
H        -0.90733188     12.27238750     10.23819733
B        -1.04566860     10.83268452     12.39197826
H         2.01065588     11.51743221     10.18589115
B         0.33638594     10.51572609     13.58646488
H         2.62674427      9.68096924     12.40605068
B        -0.20983540     12.03354073     11.16313076
H         0.16868694      9.92236710      9.80753613
B         1.42306828     11.54872227     11.27823162
H         1.11393619     14.16722584     11.63315582
B         1.48757994     10.18111324     12.36895084
H        -0.42130840      8.26047134     12.63595486
B         0.17083885     10.33724022     11.06860733
B         0.85355568     13.01232529     12.02352524
H         2.54683352     12.07687283     13.73108959
H        -0.82644814     12.88116455     14.01445103
B        -0.08306517      9.42697239     12.42046070
H        -2.23893166     10.99047661     12.56111050
B        10.62266445     21.10015678      0.84807229
H        12.45654106     19.42774963      1.93497801
B        11.17422867     21.57482147      2.56825900
H         9.02233505     22.67847443      3.73401499
B        10.41486931     20.32097244      3.66596174
H         7.78330755     21.42592430      1.03552043
B        11.33003902     19.92015457      2.07643843
H         9.54768562     18.88399696      0.14242551
B         9.40081692     21.73959160      3.09262300
H         7.71526623     19.90786552      3.05161071
B         8.98149586     21.16361618      1.38109684
H         9.99681950     23.67844772      1.36362958
B         9.79111481     19.65909767      1.12222433
H         9.84568405     17.73241043      2.89746046
B         8.83622456     20.15461159      2.82938528
B        10.09934521     22.57136345      1.69643259
H        11.07451630     20.82564545     -0.27669737
H        12.22985268     22.15056801      2.67912555
B        10.04559898     18.98344994      2.69283247
H        10.65778828     20.44275284      4.81327438
B        11.46067238     20.12995148     11.56930923
H        12.71347618     21.93261909     12.99437332
B        10.77696896     21.74839592     11.26083469
H         8.22424412     21.89217567     11.19116116
B         9.94106102     22.06784248     12.89432526
H         9.26277161     18.33119202     11.69775963
B        11.62304306     21.44008636     12.95186901
H        11.43854523     18.74675751     13.89331818
B         9.09472179     21.10630798     11.58627319
H         8.11986637     20.38341713     13.86499214
B         9.71913052     19.47963905     11.87552929
H        10.11918354     20.17558861      9.36697865
B        10.95451260     19.73719788     13.30025291
H        10.50821400     21.45586395     15.33489227
B         9.22872543     20.50589943     13.24266815
B        10.22801781     20.43740463     10.56026077
H        12.54446983     19.65330315     11.13846588
H        11.09145451     22.71820831     10.53266048
B        10.52995205     21.19546127     14.19807148
H         9.71679878     23.18115044     13.10174656
B        11.27463627     11.67872047      4.01985216
H        10.34680271     10.10176373      5.33256388
B         9.57013130     11.90478516      3.44321537
H         9.59152317     12.09546185      0.63898242
B         9.31791115     10.34161091      2.57662344
H        12.85276699     11.91995144      1.54231381
B        10.37200356     10.35327244      4.14383745
H        12.83179379      9.85356522      3.69057131
B        10.03815842     11.82215977      1.69047272
H        11.06409454      9.76622200      0.49012178
B        11.87540340     11.71614552      2.14899516
H        10.84595203     14.13321018      2.86427116
B        11.78757954     10.12755680      3.15685153
H        10.29206848      7.85879660      2.98393297
B        10.83153629     10.09751225      1.66761374
B        10.77065468     12.88683033      2.82917953
H        11.59493160     12.17457390      5.03259945
H         8.47713757     12.25562763      3.98609591
B        10.33146667      9.06312847      2.95563102
H         7.99860859     10.12336540      2.53417826
B         8.73658848     10.40189457     12.82256317
H         8.91802883     12.10151672     14.65410995
B        10.29310703     10.07324600     13.54172611
H        12.15022945      9.33888626     11.48991871
B        11.20386314     11.41989326     13.22369671
H         9.28671646     10.54185963      9.91523075
B         9.47292137     11.68996811     13.61942196
H         8.21984673     12.80214310     11.60546780
B        11.13993073     10.12007332     11.98120785
H        11.52487564     12.37006950     10.56423569
B         9.64156437     10.55346966     11.07602501
H         9.61638927      8.00416565     12.15771198
B         9.10112095     12.02401638     11.90019703
H        10.59466267     13.99532318     13.03575897
B        10.78493214     11.88984108     11.42383766
B         9.60255623      9.19936562     12.19137478
H         7.59378290     10.36656284     13.12065601
H        10.44150352      9.33153248     14.40008450
B        10.40651417     12.79879284     12.73824024
H        12.27903366     11.65114212     13.66748238
H        21.82532310     -0.19354689     24.03648186
B        20.15006065      2.29184699     21.31942368
H        22.02929115      0.73337168     20.39993095
B        21.45806122      1.90200114     22.74773407
H        20.07949257      1.52392900     25.05919838
B        21.18136978      0.12922604     23.09257126
H        17.76753616      2.04629946     22.99180412
B        21.26227760      0.73505950     21.34704781
H        18.65378952      0.67670500     20.18864822
B        20.10199547      1.37460136     23.88772202
H        18.58128929     -0.70796150     23.48606682
B        18.84793663      1.86171842     22.52318192
H        19.69326973      3.96663904     23.38329315
B        19.36272430      0.79144353     21.13707161
H        20.33189011     -1.72874963     21.24253082
B        19.27674866      0.07389529     22.93950844
B        20.08268738      2.83122444     22.84811783
H        19.97574806      3.18969750     20.41703606
H        22.56062889      2.39283919     22.93008232
B        20.31803513     -0.60381764     21.70718002
H        19.29737473      2.30192852     14.34314442
B        21.17987442     -0.39229438     12.14475918
H        19.22219658     -1.15001702     13.54814625
B        21.11547279      0.73812431     13.60534191
H        21.56006241      3.36411929     12.97203732
B        19.58995819      1.71690392     13.32955456
H        21.73722839      1.62719309      9.98560047
B        19.56941986     -0.07633677     13.04113197
H        19.44241714     -0.23376946     10.15988636
B        21.19376183      2.23232031     12.62239742
H        19.23910522      2.99752879     10.98429680
B        21.22108269      1.29746354     11.09718227
H        23.37835121      0.76986563     12.31191730
B        19.70261765      0.27275333     11.15333366
H        17.33484459      0.82049090     12.34560966
B        19.68542862      2.05740809     11.51426029
B        22.26597214      0.94022870     12.36158371
H        21.51522636     -1.52879000     11.89896965
H        21.32490540      0.77315056     14.90259838
B        18.47783089      1.11669421     12.19709969
H        20.87889671      8.81903267     23.70264435
B        19.82687569     12.42076492     22.71260452
H        21.85467148     11.92983532     24.48756981
B        19.31845856     11.00994396     23.76226234
H        18.72311020      8.80521774     22.29367447
B        20.71767616      9.92739868     23.16324425
H        19.21148682     11.63878250     20.13730431
B        21.09898949     11.53839874     23.59081841
H        21.94398499     12.78284740     21.43368721
B        19.16094780      9.89786720     22.28664589
H        20.85273170      9.46964931     20.53593636
B        19.52981758     11.49105740     21.22389221
H        17.25213623     11.72333336     22.50999832
B        21.28980446     11.90606880     21.79578590
H        23.20474815     10.42033482     22.59572029
B        20.79951096     10.26091194     21.40139961
B        18.43328094     11.46470261     22.38464546
H        19.51317596     13.52669525     22.78586769
H        18.82099342     10.85241795     24.82015228
B        22.11918259     10.60292816     22.42758179
H        22.28236389     12.88618565     10.66435814
B        19.57422447     11.30051231     13.43987179
H        19.07694244     13.09422398     11.92650604
B        21.20435905     12.30424881     13.01636410
H        23.37454224     10.58277988     12.82546139
B        21.44714737     12.01450825     11.26773739
H        20.51300430      8.76371670     13.48662186
B        19.76740265     12.22453117     11.93179798
H        18.52728653      9.68087959     11.64624214
B        22.17603302     10.84434700     12.70886707
H        21.62326241      9.32217026     10.57719898
B        20.68075943      9.89182377     13.12425137
H        21.48364830     10.95395184     15.34135723
B        19.47332764     10.43800545     11.89091492
B        20.17242813     11.23595142     10.56895828
H        19.62908554     11.07754612      9.50684357
B        21.26646233     10.13955402     11.42157173
B        21.15128517     11.05295086     14.19422913
H        18.65239334     11.57614994     14.04779339
H        21.61007118     13.49004173     13.33269978
B        11.55622482      5.55861092      8.71667957
H         9.07763195      5.56640005      9.65040970
B        10.50762844      4.40505314      7.74376392
H         9.17882252      8.10948277      7.75078297
B        11.91839790      5.27874804      6.81741428
H        10.93262100      6.92551804      5.02561665
B         9.78604412      5.72312546      8.71201611
H         8.18997097      5.45752907      6.83362389
B         9.85751247      7.18478012      7.58254147
H        10.71842098      7.96309900      9.67924595
B        10.60800743      6.37264442      6.06318378
H        10.07738304      4.15297031      5.04108238
B         9.32249355      5.68372536      6.97355843
H        12.42020798      7.80335665      7.42718935
B        10.84728050      6.99841642      8.97515583
H        12.18700886      4.99654150      9.59650612
B        10.45050621      4.77333260      6.02609110
H        10.40242481      3.27320671      8.04359818
B        11.68463039      6.95511770      7.49863768
H        12.94177914      4.84890175      6.63487244
B         9.16998768      6.40238094     16.25687408
H         9.56262398      3.83911467     15.38998222
B         8.97956657      5.14817333     17.49917984
H        12.66603374      4.99567270     16.06513977
B         9.62774467      6.79677391     17.90648270
H        12.33201408      6.46432400     18.65174103
B         9.86681271      4.75433731     16.08753204
H        11.37701702      3.53082061     17.85606384
B        11.56702423      5.62277937     16.28793144
H        10.81750870      6.50666475     14.11666489
B        11.31007004      6.24925566     17.90716934
H        10.06040955      5.36842442     19.99612045
B        10.79947662      4.62581110     17.59150887
B        10.42452621      6.12583923     15.21326542
H        11.18930817      8.38481998     16.34035492
H         8.02532101      6.86459208     15.97938442
B        10.14663887      5.50904274     18.87265968
H         7.90266752      4.86616135     17.81784630
B        10.73470879      7.24773026     16.49694061
H         8.94600487      7.87308121     18.27990341
B        10.02123165     16.87224388      8.67841816
H         9.87413406     14.10142231      9.71280289
B        11.57950020     15.74273777      8.61127281
H         8.64891815     14.14453888      6.61251211
B        11.23564529     17.02638054      7.33610439
H        10.47973156     15.68966007      4.97671032
B         9.91631317     14.98101139      8.89266777
H        11.40518665     13.16147804      7.53620434
B         9.39126015     14.92329407      7.01468897
H         7.61513758     16.04129028      8.59571266
B        10.64276791     15.73171425      6.13326216
H        13.12580967     15.29936695      6.56836176
B        10.97704124     14.41147900      7.50646305
B         8.72104454     15.98112774      8.14263821
H         8.93297195     17.63512421      6.28093386
H         9.82512379     17.88989639      9.39146519
B        12.14952183     15.68972015      7.08255148
H        12.40468025     15.87145996      9.52981091
B         9.43175507     16.65976715      6.81286049
H        11.53938770     18.23022652      7.06851482
B        10.63622189     16.84683800     18.62808800
H         8.03248692     16.54601479     17.64230728
B        10.11307430     15.23941040     18.72302055
H        10.03622437     16.40923119     14.90575504
B        11.89227676     15.54201984     18.23675728
H        11.95452976     15.15117741     15.50871944
B         9.23211479     16.40917397     17.71684074
H         9.17980576     13.91425705     16.47140121
B        10.24535942     16.49355888     16.23140144
H         9.98054123     18.97128868     17.14340019
B        11.50623703     15.10350990     16.60635376
H        11.07258606     12.99880981     18.12706184
B         9.71395016     14.86277390     17.08894730
B        10.24471855     17.79846573     17.30081367
H        12.79672909     17.39476395     16.91869164
H        10.64629841     17.16261292     19.72788239
B        10.96822548     14.06489086     17.85894775
H         9.51742172     15.06757355     19.77630043
B        11.71895218     16.91051483     17.11002350
H        12.91672230     15.28311825     18.87213707
H        19.65818977      4.95126534      5.27177000
B        20.89567947      6.98001480      6.58106852
H        22.01840019      7.81963015      8.88178062
B        21.78116989      5.44021845      7.30550051
H        18.75952911      7.00355577      9.77613449
B        20.08991051      5.27356863      6.35164213
H        18.18318176      4.45844936      8.18175983
B        21.33007622      6.99037218      8.25470161
H        21.07746506      5.05330467     10.06176853
B        19.51538467      6.72265482      8.82587433
H        19.42765617      9.00190353      7.57685423
B        19.19125557      5.02099562      7.92224169
H        21.19339180      3.01900125      7.63228512
B        20.74662590      5.41834593      8.92352486
B        19.92672729      7.91193867      7.72158098
H        17.98965454      6.88002777      6.48896217
H        21.40163612      7.51057100      5.53781414
B        20.66823769      4.24444151      7.65274525
H        22.91687775      5.16406107      6.91705275
B        19.09765434      6.51807117      7.02642536
H        22.97755814      5.69377470     17.03054619
B        20.73572922      7.06923580     16.00640106
H        18.51492882      8.44210911     16.97834969
B        20.85379410      7.60506248     17.83874893
H        17.84539795      5.11166859     17.38899040
B        21.75724220      6.08594370     17.28411865
H        20.39274406      3.86828470     18.49102592
B        19.19879150      7.43280649     17.06156158
H        18.76623535      6.75144291     19.51225853
B        18.91845703      5.67274523     17.21345139
H        18.68529320      6.05101824     14.71990967
B        20.35813522      5.10144424     18.11895752
H        21.71557808      6.08071423     19.94864845
B        19.46222687      6.55804586     18.57008743
H        20.74906540      4.23909903     15.78597164
B        19.28747749      6.44492579     15.72670650
H        21.47034264      7.44720125     15.15599155
B        21.16987801      6.31893826     18.90103531
H        21.39919853      8.58576393     18.44690323
B        20.37870026      5.32614803     16.25678825
H        18.28952599     16.49537277      5.52858353
B        19.00919151     17.13253403      8.05807018
H        21.21256828     17.76951599      9.45746899
B        20.44124222     17.50474930      7.10244894
H        21.13794136     14.10391521      8.87510777
B        19.11366463     16.38926125      6.42883635
H        20.26787376     13.99244308      6.13970661
B        20.64625359     16.98565102      8.76670170
H        22.83634758     15.97046947      7.41748142
B        20.54945564     15.02590847      8.40574646
H        19.17432594     16.04642677     10.52590275
B        20.23168755     14.99185658      6.68749428
H        20.98173904     16.51996994      4.61802006
B        21.64111137     16.08675766      7.36630106
H        17.89575577     14.57434273      7.59538698
B        19.49442673     15.97367287      9.35895157
H        18.00061035     17.68913651      8.28559494
B        20.80831528     16.37275314      5.83463097
H        20.69583321     18.62600136      6.72338104
B        18.82561874     15.35622501      7.75815773
H        17.77985573     15.93198967     16.60517502
B        19.49541664     15.87297058     18.81608200
H        22.35915565     16.06354141     19.05606651
B        20.32047462     16.83204651     17.45387268
H        21.89503288     13.06463337     17.67316246
B        18.83830261     15.62011051     17.06699944
H        19.86192131     13.57986546     15.39845371
B        21.35486412     15.63635826     18.56393433
H        22.60347557     15.60027504     16.46338463
B        21.14345551     14.02496147     17.60633278
H        20.48132706     14.03155994     20.39297295
B        19.98411560     14.40195942     16.35373497
H        20.10975266     16.44750595     14.82171822
B        21.42889404     15.48941326     16.78685760
B        20.47955894     14.45613194     19.27615929
H        18.53816986     13.21230984     17.96651268
H        18.76411819     16.24678993     19.74815941
B        20.07807541     16.07744026     15.99206924
H        20.47563171     18.01185036     17.69994354
B        19.27171326     14.22288609     18.03695107
B         1.20521271      7.69524288      8.15509033
H        -0.81819355      7.73912382      6.70450592
B         1.37235439      6.83221388      6.34274197
H         2.94661403      4.92373848      6.44499731
B         0.48145849      5.33526516      6.70546007
H         2.70896602      6.20648766      9.89335251
B        -0.16788378      6.94676542      7.26139498
H        -0.10122187      6.83433533     10.03784752
B         2.19254994      5.49507952      7.16749573
H         1.23619819      3.74418736      8.70141983
B         2.15737629      6.24058723      8.82388210
H         3.74706388      7.53663778      6.96965361
B         0.33190539      6.46444273      8.97377300
H        -1.67752111      4.84800005      8.28192234
B         1.00112605      4.86186075      8.37512970
B         2.69060922      7.19030905      7.41548109
H         1.00553226      8.89211559      8.35505486
H         1.27329755      7.29150534      5.26237535
B        -0.57375336      5.40766144      8.03523827
H         0.04410350      4.49718189      5.99067163
B        -0.58521742      5.43011236     16.09810638
H         0.41838858      3.21708846     17.09837341
B         1.26567554      5.65685129     15.88170910
H         1.55165768      8.24114418     16.62827492
B         1.62696362      5.77659035     17.67135811
H        -1.64285827      7.92374229     16.74264336
B         0.53753889      4.41123390     17.25019264
H        -1.96843410      5.29289484     18.22233582
B         1.00225294      7.22479820     16.66600990
H         0.30874318      7.75117302     18.84271240
B        -0.75829411      7.10756445     16.63745117
H        -0.09386866      7.17821932     14.10642338
B        -0.88042182      5.51235628     17.79345131
H         0.68927902      4.77784014     19.70735359
B         0.24712984      6.90918398     18.09589005
B         0.11460338      6.74956989     15.21993351
H        -1.36238813      4.80508232     15.39316654
H         2.14480925      5.15361643     15.19577789
B         0.59572750      5.30998278     18.74372292
H         2.87793446      5.78382492     17.95476532
B        -0.38211176     16.20873833      6.52643442
H         1.44674456     18.23450089      6.07487774
B        -0.08333550     17.18190575      8.01464176
H         0.16646440     15.28691387     10.18764973
B         1.72170234     16.65597534      8.67215443
H        -0.17379078     13.56791115      7.19290304
B         1.22048235     17.21725845      6.78012705
H         1.64723742     14.81552124      5.47926044
B         0.35464266     15.65319538      9.05369473
H         2.44030738     14.15644455      8.50512409
B        -0.01201841     14.77829552      7.44801712
H        -2.32975578     15.71803474      8.19191647
B         1.26716304     15.39067459      6.37575293
H         3.82026649     16.25110626      6.98464584
B         1.71668780     15.03216553      7.98574162
B        -1.08780110     15.84563446      8.01492786
H        -1.21248484     16.38473701      5.67289734
H        -0.60008878     18.34489250      8.13851166
B         2.53639674     16.35509491      7.17985678
H         1.88100481     17.28471756      9.74477100
B         0.88926470     15.20253849     16.38117981
H        -0.75034922     13.32389069     16.71655083
B         1.02820003     14.81532383     18.05690002
H         1.01484036     17.04802704     19.69239426
B        -0.55659688     15.17515087     18.84530640
H         0.66697407     18.27054787     16.73156738
B        -0.42641535     14.46771049     17.16786194
H        -1.28435421     16.32847404     15.43826485
B         0.96856976     16.41219330     18.65225220
H        -1.27061629     18.01957512     18.28323746
B         0.70875978     17.07339096     17.01722145
H         3.25949597     16.06216049     17.57600403
B        -0.65831178     16.10081482     16.42586708
H        -2.87165976     15.30641842     17.47784805
B        -0.72207308     16.91371155     18.03037071
B         2.05770898     16.14222145     17.44265747
H         1.44626391     14.68234921     15.40668583
H         1.52269340     13.90646172     18.72846222
B        -1.73448706     15.54345226     17.72382164
H        -0.62927479     14.56827736     19.90892982
H         8.12381935     10.15032482      8.38615036
B         6.13187313     11.50980663      9.11106396
H         6.87512541     10.58189678      5.20842123
B         4.52872515     11.71197987      8.22630596
H         4.93992329     12.86722946      5.72974348
B         7.04219580     10.38249874      7.93054247
H         8.04866314     12.50548363      7.48722219
B         6.34284973     10.74602509      6.33637428
H         5.89338970      8.39325523      6.81003952
B         5.38659859     12.18391323      6.68122816
H         5.33710480     13.98973751      8.39599895
B         6.98893833     12.09402561      7.61218405
B         5.93978691      9.37402821      7.26916552
H         3.67641425     10.18477058      6.12518454
H         4.63713312      9.47731781      9.41761017
B         5.71358633     12.93349171      8.17015266
H         6.54764605     11.78583527     10.16675472
B         4.69370747     10.54863930      6.84462881
H         3.55929685     12.01628208      8.72147274
B         5.17009163     10.13688183      8.58060360
H         7.14067316      8.46293449     18.17823982
B         4.85934591      9.85638428     17.16846085
H         7.36364317     11.29216099     19.71745872
B         4.78193331     11.53798866     16.75259972
H         4.79753733     12.88547802     19.18841934
B         6.67787790      9.56635189     17.84433937
H         5.05436563      9.68454933     19.89262390
B         6.68295336     11.19891834     18.76460075
H         8.81392956     10.67973328     17.17144775
B         5.08483076     11.92250538     18.45946503
H         2.63913608     11.08087730     18.33886528
B         5.19013214     10.19603062     18.77913857
B         7.58868074     10.84060001     17.35051346
H         6.71490526     13.34317303     16.77207756
H         6.55691433     10.40222359     15.21648598
B         3.76051855     10.99227047     18.04392815
H         4.43279600      8.85171223     16.51300049
B         6.44298649     12.17650700     17.24839211
H         4.46403074     12.06988716     15.76795387
B         6.25519705     10.56943226     16.32964134
H         6.57563162     -1.78411603      7.08550406
B         5.47640610      0.16050431      8.61712360
H         7.71550941      0.96371537      5.58084631
B         4.68649864      1.59886849      7.87828159
H         6.70001936      3.25250411      6.87776232
B         6.20305681     -0.73631078      7.00781584
H         8.24495316      0.78584558      8.22066116
B         6.82312107      0.83749413      6.26090717
H         5.30820465     -0.70885563      4.64804983
B         6.31506062      2.24891186      7.26466799
H         6.13884830      2.64393616      9.86867332
B         7.11945438      0.69566154      7.94736910
B         5.61229944     -0.07125009      5.65681791
H         4.28320885      2.17415905      5.67917490
B         6.00494099      1.86467791      8.88805771
H         3.46694875     -0.65285385      7.16191626
H         5.17488813     -0.62149316      9.51394367
B         5.05094481      1.42727494      6.22372913
H         3.60947323      2.17982960      8.01182365
B         4.50985861     -0.03884789      7.09624386
H         4.82109642      0.04856610     19.85886383
B         6.12683630      1.95259225     18.40533638
H         5.22995949     -1.54729521     16.89808083
B         5.57823324      2.36307287     16.74436951
H         6.45650911      0.40673393     14.93317223
B         5.08491993      0.53232276     18.74109077
H         7.31635904     -0.71874082     18.01431656
B         5.15722036     -0.34045961     17.26406479
H         2.62896419     -0.16952348     17.92176437
B         6.16463423      0.71044981     16.11836243
H         8.21996880      2.20207453     16.60383034
B         6.70349216      0.29442239     17.92563057
B         3.68379545      0.46194136     17.75681686
H         3.77377224      0.98011208     15.34080029
B         7.16455746      1.79954159     16.99040794
H         3.65079498      2.83697009     18.39135551
H         6.49638653      2.71575594     19.36714554
B         4.46652126      1.01353061     16.34221458
H         5.52321959      3.49841332     16.35317993
B         4.36833334      1.97516596     17.87727737
B        14.44524860     11.06398487      6.55212021
H        16.35139465     13.04181099      6.09700727
B        16.02614212     10.33798599      6.42665958
H        16.26004410     12.95863247      9.39483833
B        14.81972504      9.57692528      7.77519035
H        16.12263107     10.42643642     10.23801708
B        15.92529774     12.09065723      6.66464901
H        18.02751350     11.47789383      8.10562325
B        15.75262928     12.19044399      8.61585808
H        13.68927956     13.30907536      7.06481886
B        15.88183308     10.42532063      9.04536343
H        17.14667320      8.24388695      7.86826086
B        16.92849159     11.09800243      7.81234884
B        14.33863258     12.43142414      7.45935440
H        13.29242039     10.87364197      9.16809750
H        13.51386356     10.66192055      5.82539797
B        16.49418068      9.32429504      7.75852203
H        16.40013313      9.89452267      5.33125877
B        14.24474144     11.10876274      8.46712208
H        14.24046803      8.53005886      7.73076391
B        16.02830887      9.64546680     16.23523140
H        17.30117607     12.02691936     15.83429813
B        16.67941284     10.51383781     17.74319077
H        14.24601841     13.09195042     16.32754517
B        15.11730003      9.32609558     17.64722824
H        13.11911583     11.00179005     18.30395889
B        16.42238045     11.31710529     16.33917427
H        16.15473366     12.82168770     18.40301514
B        14.64120197     11.93996239     16.37883568
H        15.50977325     10.91670990     13.99083900
B        14.19319344     10.97890949     17.89173126
H        15.57978535     10.67409515     20.14102745
B        15.73029041     11.89637566     17.80277061
B        15.08516598     10.81194592     15.14693069
H        13.07513428      9.51746464     15.85939217
H        16.59587669      8.82319355     15.63448334
B        15.43381500     10.60529804     18.91905594
H        17.78158379     10.34131813     18.16003799
B        14.10053349     10.15445995     16.23784828
H        14.90046406      8.09805870     17.97924232
B        14.58629131     22.05758286      7.63142633
H        13.58973503     19.80932045      8.71117973
B        15.83910084     20.98703766      8.56307507
H        14.44918060     19.00595284      5.41847754
B        16.33777809     21.97715759      7.16793728
H        17.19561195     20.09542274      5.35967302
B        14.32857609     20.23379707      7.90393591
H        16.08421135     18.26033211      8.13360500
B        14.78492546     19.86320686      6.15932083
H        12.64522171     21.06837273      5.95257854
B        16.49170113     20.29480743      6.31231785
H        18.40078354     20.68977737      8.17428017
B        15.88690376     19.34469604      7.69574451
B        13.65953159     21.10589600      6.67590570
H        15.05702114     22.32132530      5.00723314
H        14.15136909     23.01852798      8.27784634
B        17.20970917     20.72024727      7.75903177
H        15.58608437     21.09826088      9.83090973
B        15.13174629     21.71041679      5.98101187
H        16.90803528     22.89981270      7.27722311
B        16.67295647     20.25902367     16.15970421
H        17.85533905     22.27066612     17.62342453
B        16.58656693     20.06557655     18.01088905
H        15.01501369     23.58038712     16.82761192
B        15.08091259     19.43644714     16.99546051
H        13.06153202     21.38983727     17.54669189
B        16.87421227     21.83877563     17.18449402
H        15.64077663     22.35275078     19.53343964
B        15.16881943     22.32439041     16.85679245
H        16.73934937     22.47181129     14.64473820
B        14.17102623     21.03666496     17.37005234
H        14.33805466     19.60595322     19.53364563
B        15.52660751     21.65817070     18.53312874
H        14.13231659     20.86214638     14.77854824
B        16.21722984     21.85716248     15.61642647
H        17.45720100     19.56304359     15.38854408
B        14.90006638     20.05103874     18.50005531
H        17.58502769     19.57937050     18.41347313
B        14.87566757     20.95135307     15.73274326
H        14.76026440     18.45500946     16.61482048
B        26.56004143     11.95363712      8.15901756
H        24.37492943     12.64561462      9.52919674
B        25.73000145     10.54928493      8.86472607
H        23.52243233     12.17410278      6.17894793
B        26.77794075     10.32459354      7.21821976
H        25.04260826      9.87069321      5.20855141
B        24.78977585     12.04291058      8.56603241
H        23.20348358     10.04169559      8.14619160
B        24.37735367     11.84249783      6.82802534
H        25.56078911     14.18610573      7.16484642
B        25.25652885     10.22927856      6.34508371
H        25.67737198      7.97845554      7.82438898
B        24.33276749     10.43774605      7.91851425
B        25.54104424     12.96644497      7.33047533
H        26.84274673     11.95808125      5.33152390
H        27.62223434     12.32341480      8.71726608
B        25.56232834      9.22305012      7.74405670
H        26.10667801     10.33856773     10.08292675
B        26.27599335     11.85326672      6.36594105
H        27.94220161      9.88345051      7.10326862
B        26.55334091     10.94690990     17.14651871
H        24.94921875     13.12553978     16.48299980
B        25.74052048     11.65251827     18.62485695
H        22.91422844     10.48132229     16.45384407
B        26.15775299      9.78782082     18.59885597
H        23.76583672      8.55717659     18.32107925
B        25.10022926     12.09299660     17.00646019
H        23.17573929     12.12151146     18.85616112
B        24.02912712     10.60413361     16.85721588
H        25.71253395     10.81898689     14.71152306
B        24.24016762      9.65751934     18.23454094
H        24.51375008     10.46082306     20.75428772
B        24.10480499     11.58961868     18.37249184
B        25.42981339     10.83926582     15.86162186
H        25.51273346      8.40272999     16.44336891
H        27.72041321     10.86173248     17.09531403
B        24.87093544     10.52891922     19.58632851
H        26.22229767     12.55752659     19.25322151
B        25.47689629      9.50250912     16.95250320
H        26.91751099      9.03320503     19.04161263
B        24.80406952     20.89406586      9.01332855
H        24.20324707     18.55997849      7.60107470
B        26.29681778     20.15711784      8.16729355
H        23.40065002     21.00372124      5.56314135
B        26.02592278     22.12136650      8.35503006
H        25.53529167     23.02666092      5.87274981
B        24.67515755     19.71495819      7.55427265
H        25.79713821     19.72615433      5.18986464
B        23.97842598     20.96778488      6.54381800
H        22.45155907     20.29548454      8.63333225
B        25.45392609     22.12662125      6.65255308
H        28.04002953     21.74958420      6.69054842
B        25.68510628     20.43900108      6.25448847
B        23.35512352     20.73536301      8.10021973
H        23.79318047     23.34467888      8.06411648
H        24.70557213     21.04314613     10.22833920
B        26.94631767     21.41945648      7.18627214
H        26.85978508     19.28574181      8.70800495
B        24.25000000     22.18891525      7.86437798
H        26.39003563     22.79427719      9.13532543
B        23.85451889     21.53164864     18.26215935
H        23.48080063     21.58189774     15.46541405
B        24.07903290     19.93482208     17.27600861
H        26.46963501     22.88406372     15.98586273
B        25.14052963     20.26400375     18.61211586
H        27.79391289     20.47087860     17.64982224
B        24.13895607     21.62163925     16.48306656
H        25.54704666     20.51453972     14.88480568
B        25.84080124     22.22113037     16.73790359
H        24.61690331     24.02523613     17.73862648
B        26.61301231     20.67998695     17.69359970
H        25.80901909     18.11231232     17.08559990
B        25.57553673     20.63911629     16.10242271
B        24.59788132     22.88236809     17.70471191
H        26.20423126     22.34478188     19.50939560
H        22.96942711     21.39588356     18.99483109
B        25.65133476     19.31292534     17.28004456
H        23.22895622     19.04706383     17.28803825
B        25.70297050     21.96198654     18.54474640
H        24.92271805     19.85799026     19.79747009
B         4.80068636      6.79346085     11.63400745
H         8.02222061      5.66405344     13.51292706
B         4.84893847      4.90998316     11.53273201
H         7.20720100      4.01616287     11.16920185
B         5.62782621      7.11491728     13.21673298
H         7.60038137      7.41683435     11.31682014
B         6.93498230      5.76297379     13.07907677
H         5.69501591      5.53346109     15.33886242
B         6.63276911      4.97848320     11.68920708
H         5.56378412      6.06960630      9.24481106
B         6.68276644      6.80906439     11.71969032
B         5.57872057      5.68928146     14.16766834
H         5.61704588      3.41460013     13.57768631
H         3.11651421      6.00309563     13.31201839
B         5.84971952      5.95950079     10.55134487
H         3.87196684      7.53393793     11.47513771
B         5.71764946      4.55096579     13.08277798
H         4.15174246      4.06917620     11.14649200
B         4.28459215      5.81871223     13.07276535
H         5.76235151      8.14387989     13.75766659
B         4.42193794      5.03948021     21.82451439
H         7.89022207      6.56437635     22.79899025
B         4.13989639      6.03694296     23.37863922
H         6.44835186      5.69300365     24.94099617
B         5.84678364      5.98746347     20.96360779
H         6.85958767      3.89194345     22.21153450
B         6.83111429      6.45099068     22.35405540
H         6.10266685      8.63133049     21.05158997
B         5.89158392      5.68379402     23.81216812
H         4.33569431      3.67443442     24.18379784
B         6.23819733      4.74982262     22.45575905
B         5.86449862      7.54674625     21.60680962
H         5.28388500      8.15425587     23.96065712
H         3.47183681      7.32533693     21.25098610
B         4.73205423      4.46926308     23.47231293
H         3.64555883      4.57164669     20.89320374
B         5.39842272      7.24910879     23.29682541
H         3.26100969      6.09778118     24.20495605
B         4.40918827      6.85147190     21.77392960
H         6.20712852      5.83698130     19.76951790
B         4.98346758     15.24067020     13.78641701
H         8.05828571     15.59507847     11.46623325
B         5.25300121     17.04342270     13.86110115
H         8.18494987     17.34231186     13.62453175
B         5.45729923     14.86884117     12.01826382
H         7.28745890     13.92077446     13.65950584
B         7.03845215     16.02234650     11.90461540
H         5.03310585     16.27250099      9.87871552
B         7.05314732     16.79956245     13.47437477
H         6.55310059     15.80763245     15.90212822
B         6.74275351     15.00699329     13.42980862
B         5.60193777     16.21962738     11.01852894
H         5.95860863     18.53427124     11.77241135
H         3.20904827     16.65372658     12.08308220
B         6.21517754     15.96847057     14.65785313
H         4.03978634     14.63479519     14.21923542
B         5.96761703     17.37892723     12.17732334
H         4.62113333     17.92805481     14.55933666
B         4.50993586     16.37889099     12.25012970
H         5.31456375     13.72637844     11.66306782
B         6.04792166     14.37377071     21.37721443
H         3.01247120     16.76858521     22.66407013
B         6.73501348     15.95505524     21.35080147
H         5.04100180     17.63850784     20.29040909
B         4.80890274     14.59651661     22.78080750
H         3.31012750     14.82132149     20.75250435
B         4.20795012     16.37425613     22.52910805
H         4.95519733     15.78410530     24.95613480
B         5.18138552     16.74962425     21.05799103
H         5.93352079     15.29817867     18.87387848
B         4.41541767     15.12573242     21.07656288
B         5.20527840     15.87506962     23.73007393
H         6.48759937     17.88449478     22.88712120
B         5.68415165     15.49157619     20.04928970
H         7.42334747     14.56985664     23.36847115
H         6.71733904     13.29964161     21.24220276
B         5.93411779     16.86202621     22.58319092
H         7.86248779     16.41748428     21.06583595
B         6.48913336     15.13176727     22.96692467
H         4.23762798     13.59804535     23.04406548
B        14.90355873      5.09147978     11.30305767
H        17.24151039      7.93228722     13.01531887
B        14.04679298      5.27822876     12.88501072
H        16.30516624      5.80229473     14.76479530
B        15.73277855      6.75419283     11.04483986
H        17.73867989      5.71077204     11.98085213
B        16.19703293      7.38167000     12.77077103
H        14.58158779      8.95093155     11.30806446
B        15.76615810      5.84708500     13.68270016
H        16.00914192      3.32525992     13.04523849
B        16.61478996      5.64881229     12.12045097
B        14.86593437      7.90822887     11.75017643
H        13.70562172      7.48775339     14.23097038
B        15.59774113      4.45207882     12.62812424
H        12.89799023      6.53991508     10.88339138
H        14.72779942      4.49451685     10.29987431
B        14.44615364      7.11413097     13.32780933
H        13.17631340      4.63526344     13.21570396
B        13.87119770      6.56346035     11.69160080
H        15.90311623      7.06205463      9.83716488
B        13.92519093      5.65625095     22.82349586
H        17.55332565      4.33437490     21.27559853
B        15.01350212      7.08464146     22.73988724
H        17.47912407      6.10163307     23.60341454
B        14.53331661      4.93100500     21.24768829
H        15.21022129      3.44656277     22.77428627
B        16.46766853      4.96766758     21.42088699
H        15.61902237      6.00295162     19.02087021
B        16.54593658      5.96238375     22.88446236
H        15.14547348      5.87767553     25.11403465
B        15.32777977      4.64903212     22.74818230
B        15.52085114      5.87564373     20.21892357
H        16.76942635      7.89482212     21.12288857
B        15.06266022      5.85628223     23.95179367
H        13.44321060      7.33214045     20.79092598
H        12.74535942      5.45394278     22.98162651
B        16.08208466      6.98403406     21.42585564
H        14.79954529      8.23079014     23.19156647
B        14.23403358      6.60920286     21.26010704
H        13.95003128      3.89593172     20.75053024
B        16.55215645     16.94330215     11.69597149
H        12.94397354     15.38103199     12.10566235
B        16.48379707     16.58543587     13.50704002
H        13.80278969     17.20228386     14.24846363
B        15.40324402     15.87679100     10.89315033
H        14.00532341     17.95743752     11.14562988
B        14.06603050     15.71962261     12.12325764
H        15.15132332     13.42738914     11.42422390
B        14.65317822     16.86787224     13.51049519
H        15.97337532     19.12330055     13.20492649
B        14.74446774     17.22821617     11.77898502
B        15.28216076     14.48098373     11.86885738
H        15.27305794     14.50194645     14.41313934
B        15.72133541     18.02335358     12.73162556
H        17.75135231     14.87213802     12.30575085
H        17.35130119     17.52171326     11.02974701
B        15.35529041     15.21763420     13.47331429
H        17.36082649     16.82393837     14.35119915
B        16.67402077     15.17313290     12.15696812
H        15.26163864     15.82484722      9.66225338
B        14.32651901     14.98101997     22.25039482
H        16.66144943     17.93826294     20.93676567
B        15.69545937     15.23291111     23.38151360
H        18.07546043     15.62129211     21.83027649
B        14.23689556     16.76300240     21.29039192
H        15.58048725     15.19194508     19.75302315
B        15.98935509     17.21908188     21.48368073
H        14.43273449     18.81352997     22.96244049
B        16.88046265     15.75370026     22.14849663
H        16.20037079     13.14318657     21.85623741
B        15.46782494     15.60002232     20.96944427
B        14.79904747     17.81169701     22.50660133
H        16.65205574     17.54348373     24.18780518
H        13.52226734     16.28592110     24.16591454
B        15.84591484     14.31791878     22.08778954
H        13.43086338     14.15409565     22.33493614
B        16.13856316     17.00216484     23.20155907
H        16.03610039     14.85615826     24.50473595
B        14.46014404     16.42666626     23.35053825
H        13.21595192     16.68725777     20.72535515
H        23.48995972      6.12833691     10.44786358
B        25.47685051      7.20261097     11.64512062
H        22.80880737      5.23005342     13.50490665
B        26.28457832      6.58560324     13.10302639
H        24.41792488      6.84085083     15.10926533
B        24.22038078      5.97648764     11.36413288
H        22.90776443      7.84793711     12.50640774
B        23.75715446      5.54008102     13.01149559
H        24.18647385      3.44909477     12.01254177
B        24.79496193      6.68126869     14.01560211
H        25.50284958      9.11525059     13.51724625
B        23.88636589      7.17851448     12.56118107
B        24.63093567      4.52558947     12.08471680
H        25.71935654      4.44473219     14.44562626
H        26.84878731      5.04355526     11.08363914
B        25.31792068      8.03685474     13.12193394
H        25.90885925      7.78868675     10.68488503
B        25.41548157      5.04172182     13.49409962
H        27.47866821      6.71424770     13.32227135
B        25.92757416      5.47125816     11.77108860
H        22.86555862      5.74981117     21.28925705
B        24.40892220      7.18805075     22.86574554
H        25.20752525      3.46248865     22.20539474
B        26.22025871      7.29826164     22.84352684
H        27.07365417      4.87717628     24.07508278
B        23.97404861      5.92285681     21.71212196
H        23.81591988      4.95669794     24.32680130
B        25.26474762      4.63391924     22.16312027
H        25.23249817      5.01572943     19.54019356
B        26.28011513      5.48993826     23.34499168
H        25.47034264      7.22599506     25.38250923
B        24.49238968      5.55624294     23.53712654
B        25.29273796      5.42968798     20.67031860
H        27.64291000      5.91473770     21.07613564
B        25.34273911      6.81227446     24.21016502
H        25.28467941      7.88057089     20.42249680
H        23.76164818      8.10965157     22.95928955
B        26.60971642      5.84183407     21.62772560
H        27.10249901      8.05500031     22.93116188
B        25.24206924      7.05603647     21.30570412
H        26.00811577     15.98575878      9.97833920
B        24.43563080     15.09764481     11.73784733
H        27.65575981     16.81509590     13.01087666
B        23.73237801     16.10063744     13.20267868
H        25.82697487     16.13409424     15.01497459
B        25.61376762     16.17000008     11.13541317
H        26.90850258     14.27962875     12.60546589
B        26.52529716     16.82426262     12.67163372
H        25.75197601     18.70930290     10.94951534
B        25.34574318     16.12308884     13.91607666
H        24.21087837     13.79385567     14.21999454
B        26.03809738     15.07959366     12.57747173
B        25.54267883     17.84378624     11.70539379
H        24.43282318     18.48432732     13.89203739
B        24.46508026     14.71450329     13.49797916
H        23.12573814     17.17329788     11.02240562
H        23.85892868     14.35731316     10.88507938
B        24.90981483     17.61938477     13.21212101
H        22.64641190     16.33270073     13.71193314
B        24.07687759     16.82496452     11.63903904
H        26.96524048     17.72572136     24.19320107
B        26.41942787     15.44542885     23.35960197
H        23.66688156     18.25162697     22.90044403
B        25.71913910     14.95815563     21.88904572
H        22.75188065     15.38311768     22.06334877
B        26.19919014     17.21026611     23.45201683
H        24.17087173     16.16061974     25.15279007
B        24.42262077     17.34036446     22.64010620
H        26.08678436     18.98795700     21.59109879
B        23.96728706     15.65907288     22.34524345
H        24.76243019     13.48512650     23.85307693
B        24.80982590     16.10347557     24.05389023
B        25.94649124     17.82534599     21.94978142
H        24.93750000     16.64416122     19.96269417
B        24.96580505     14.54341888     23.29401016
H        27.68171120     16.32176781     21.01275253
H        27.31499290     15.06253052     24.01654816
B        25.01757050     16.61646843     21.18649483
H        25.78337669     14.07763863     20.98027420
B        26.76084137     16.47728920     21.86057663
