1056

Na       23.95043564    -40.05488968     32.72859573
Na       36.13175201     -2.00513768     84.78952789
Na      -64.00300598     22.16642952    -17.37170219
Na       25.41687393    -46.52815247     46.86711121
Na       51.08591843   -120.57629395     75.66540527
Na      -13.12722206    -37.99237442     27.27570915
Na      -55.05905533     53.95836639      9.06614494
Na       19.54714012     66.14317322    -83.03652191
Na      112.52421570    215.82432556      4.49115849
Na      108.33399200    -22.60581779   -145.85469055
Na       44.75764084    101.93276978   -166.25942993
Na       11.65279484    160.04280090     25.21646881
Na       10.67383003     76.10686493     75.15122986
Na      -88.22887421     52.02209091    -13.46142578
Na      -33.74186325     46.53005600    -51.81933212
Na      -72.99046326     57.06899643    101.04047394
Na       -5.24889088     31.78568840     55.02130508
Na       19.52815628    -27.01142120    174.31532288
Na     -148.16810608     28.56783295    -71.48332214
Na       14.08796120     23.23406410     17.40629005
Na       62.06351852    118.01064301   -162.86138916
Na      177.69654846    101.24952698    100.69857025
Na      -39.26707840     38.22858429     40.37808609
Na       20.59916878     62.03173828    101.41068268
Na      -28.16185951   -100.34176636     42.34910965
Na       -4.34700441      7.89896488    130.44970703
Na       35.97402954     16.57390404     61.21253204
Na      128.62417603    120.79331970     50.14799118
Na      -87.77568054     12.47841358     31.83533669
Na      124.65737152     -0.91131955     51.75513840
Na      -77.54605865     76.81217957    110.00567627
Na        6.20344353   -194.16989136    199.40652466
Na       -2.93668318     46.88619995    -18.18535042
Na       34.50681305     26.94541550     80.31664276
Na        5.28995419     27.62776184     65.14447021
Na       61.32675171    -89.33701324   -193.91270447
Na      143.79498291     32.92655945    -58.72305679
Na     -111.35022736     -8.17328930    144.96839905
Na      -74.01621246    -45.80267334     56.87673187
Na       89.27072906     57.55670166   -110.79376221
Na       -3.53375292     22.47410011   -141.52690125
Na        9.19309139    -15.83653450    -23.75214005
Na      119.76838684   -155.66290283    -92.29567719
Na       35.28315353    100.72337341    174.87333679
Na       84.79484558    -16.46605301   -106.49584198
Na      -93.91666412    -31.97298431     17.17422485
Na       -9.04363918     60.94863129     36.38634491
Na       34.86078644     91.29166412    -26.95029068
Na      103.66558838     56.11872864      7.58067846
Na       -9.08055973     37.43844604     27.37940598
Na       70.14244080    -51.52694702     75.85305786
Na      -87.78607941     42.10310364     37.08764267
Na     -116.41364288     35.91800690     56.82759857
Na       50.72760010    -11.70999908    -47.57714462
Na      -28.15213966     46.79850769     -2.47003150
Na      -54.50020599    -55.61821747    -67.95982361
Na       10.79156494     32.89818954    -52.47731781
Na      -49.06150055     47.84236145     11.41505051
Na       14.93879318     18.25391960    -26.61931229
Na       11.20839882     12.61548519     40.84484863
Na       26.28936768    -57.55840302     27.78775406
Na       29.89019585     22.63320351     51.55401611
Na       -3.57664537    136.29769897    -81.35713959
Na      -43.44302750    -46.89915085    -27.82839584
Na        6.32404709     76.60237885    -62.98413467
Na        1.33933222   -125.67352295    -23.63665199
Na       45.70002747    -71.44962311     80.97611237
Na     -157.18914795    -36.22562790     90.96974182
Na      -61.70315170    -43.57402420    -16.58159828
Na      138.63301086    -12.06662750    -13.35875225
Na      -24.25101280      8.47356415   -126.87033844
Na     -107.40293884     37.33184814     61.13722229
Na       80.29530334     12.08948040    103.91393280
Na       45.32865524    -51.56980133     11.53825378
Na       -8.03656387    -72.45005798     60.37313843
Na     -119.19369507    -87.24594879     20.18103027
Na       10.04325104     72.65502167     71.65522003
Na       40.21558380     17.74403191    -32.98888397
Na       -9.96400833     70.60146332     79.65711975
Na       35.76710510      3.09304357      6.93106890
Na       -7.42822933     -5.88414288    -68.81636047
Na        5.41043425   -165.32243347      2.34605694
Na       22.72129059    162.02940369    146.33911133
Na      104.62483215    -12.15305328    -72.29016876
Na      -73.90110779    -47.38739395     22.25392914
Na       41.26278687     62.61475372    -38.21865082
Na      -18.90918159    -51.24798203    -36.92380524
Na       40.54005432   -110.10821533     26.15298462
Na      -13.94942951    -52.30545425     55.93362045
Na       15.87138367     12.32945442     86.44704437
Na      -12.52201080     77.73060608   -120.85910034
Na      119.83217621     67.71151733    110.42935944
Na      -23.90109634    -91.53383636     16.24967194
Na      -13.50742722      2.15880275     20.85443687
Na       97.34091187     90.80867767     56.97610092
Na      -61.74756622     -3.79577184    -46.45131683
B         4.58862495     18.91912270      0.56719023
H         4.19702721     17.50970650     -1.80211782
B         2.86280179     18.60725594      0.33656409
H         1.38245368     20.93062401      0.81194592
B         2.50686955     19.54022217     -1.20978665
H         4.90168095     21.53190804      1.29151642
B         3.95058727     18.45880127     -1.12046850
H         6.11591101     20.20308495     -1.05430281
B         2.42193961     20.43976784      0.50236034
H         3.46738124     22.31935883     -1.23261917
B         4.15367794     20.85581589      0.72352600
H         3.43649840     19.48198891      2.89907789
B         4.98951864     19.90399170     -0.89583814
H         3.96546221     20.03851318     -3.31596732
B         3.49634647     21.10445404     -0.86454147
B         3.38507843     19.71496964      1.60908306
H         5.44657469     18.16745758      0.96578759
H         2.09069014     17.75888824      0.36577877
B         3.81169105     19.94515038     -2.11525226
H         1.35847521     19.58153534     -1.61193562
B         2.58903050     19.40896797     10.51921368
H         1.03015745     20.78380775      8.79362774
B         3.09718943     21.14331055     10.48676491
H         5.77304316     21.31459045     10.18036366
B         3.70989680     21.53821945      8.83249950
H         5.09780788     17.90830421      9.85266685
B         2.13041067     20.59873772      9.15449047
H         2.67284322     17.84214401      8.44641685
B         4.74605465     20.73007011     10.01363754
H         5.54528952     19.49173737      7.52936363
B         4.45061779     18.94345093      9.83407116
H         4.15907383     20.08407974     12.56211472
B         2.97412825     18.99794006      8.77202702
H         3.17052436     20.65049553      6.50140667
B         4.66088200     19.90869713      8.35781097
B         3.94693184     19.77102661     11.38273144
H         1.75220537     18.80877876     11.12830639
H         2.62725186     21.95283318     11.31674385
B         3.18775535     20.39039993      7.65833378
H         3.58748507     22.63945198      8.74883556
B         3.91223836     11.61913776     -0.33160582
H         3.20043206     11.34078407      1.98288357
B         2.03968406     11.41555882     -0.63070637
H         1.55421257      9.74288559     -2.76771283
B         1.70318019      9.76627445     -0.14872292
H         4.99842072      9.98191071     -2.42085075
B         2.97814679     10.78067780      0.93563706
H         5.53408957      9.65281582      0.27098548
B         2.30828333     10.07384682     -1.78411388
H         3.26935530      7.86561012     -1.33081996
B         4.10394907     10.11338139     -1.65429437
H         3.22333765     12.22256947     -2.81545973
B         4.46717215      9.91975784      0.10364470
H         2.70894051      8.09423256      1.76692855
B         3.22519445      8.87012577     -0.77487391
B         3.14069366     11.49682903     -1.88800287
H         4.49269533     12.55056477      0.25207558
H         0.93467867     12.04566002     -0.57037979
B         3.05238414      9.00388336      0.92798150
H         0.72876692      9.27363873      0.27472290
B         3.63239765      9.17150879      9.63619614
H         2.74304104      7.80661392      7.75295830
B         2.07743168      9.85350323      9.02643394
H         2.40996599     12.63688469      9.01982021
B         2.55897808     10.44685268      7.43406248
H         5.09864902     11.58992195     10.05987167
B         3.23511910      8.87413502      7.94170380
H         5.96978998      9.17836571      7.96583319
B         2.84002113     11.45908737      8.99983692
H         4.71755695     12.34375858      7.27935696
B         4.39536762     10.78242493      9.60974693
H         2.75148487     10.74313259     11.51155758
B         4.86757803      9.60716248      8.24865627
H         4.39724016      9.81956196      5.63932085
B         4.13139105     11.23960114      7.79144859
B         2.92475128     10.47159863     10.33735275
H         3.73261857      8.13291645     10.23862457
H         0.96803015      9.31401157      9.28664112
B         4.04404879      9.89729500      6.80781174
H         1.64842498     10.64662075      6.64323521
B        12.10730171     20.01452446      0.11148557
H        12.37703228     22.07662582     -1.06486821
B        13.75989723     20.53970146      0.55886155
H        15.62768936     18.51778793      0.44300929
B        14.66678333     20.26233673     -1.00681317
H        12.28507900     17.24000359      0.05256835
B        13.03692436     21.04565620     -1.00048852
H        11.26507854     19.40102768     -2.28801227
B        14.50424576     18.88723564      0.06616662
H        14.55248642     17.73921776     -2.19859481
B        12.70370579     18.33224297     -0.21585567
H        12.89325237     18.74595451      2.32869315
B        12.28343105     19.35194588     -1.61432838
H        13.83213043     20.86342239     -3.42592239
B        13.91535187     18.70527267     -1.61577690
B        13.21807671     19.15421677      1.26888299
H        11.02584934     20.39369583      0.47077340
H        14.27341175     21.37040138      1.29983354
B        13.63586044     20.31715202     -2.38168359
H        15.84933376     20.68991661     -0.97634703
B        13.03744984     21.29445267      9.36993885
H        13.29813194     19.59894943     11.42807102
B        11.94478226     19.89263535      9.06741714
H        12.27731323     18.91933060      6.27490425
B        12.95577812     18.45415878      8.74927902
H        14.44361877     21.50306511      6.94973660
B        13.32504559     19.65509605     10.19210625
H        15.72751045     20.65314102      9.77089024
B        12.65075397     19.50346756      7.37900925
H        15.03460026     18.95598984      7.01513481
B        13.74826527     20.88626671      7.74551201
H        11.28419590     21.57369041      7.38330078
B        14.72612762     20.33381081      9.24427128
H        15.25817013     17.66463280      9.81002808
B        14.41975689     19.24165726      7.97961521
B        12.05564404     21.00207138      7.98614454
H        12.88948250     22.26740646      9.99046326
H        10.95098495     19.58450317      9.56576729
B        14.48009872     18.64370918      9.49478626
H        12.60232449     17.27756119      8.91654205
B        11.83132839     10.94640732     -1.25130570
H        12.31684875      9.31344986     -3.22454214
B        13.64297676     11.07566357     -1.88064611
H        15.43225956     11.11584568      0.23411636
B        14.32877922      9.21516418     -1.43036628
H        12.25743008     10.62994480      1.65748072
B        12.61885166      9.58276367     -2.06942511
H        10.68808270      9.07260418     -0.21818565
B        14.35265446     10.75131512     -0.14429763
H        14.10481644      8.54637623      1.20671308
B        12.62898350     10.56277847      0.49152350
H        13.07715034     12.98814011      0.01875906
B        11.80426502      9.31302643     -0.46721920
H        12.92498875      7.07006884     -1.40129101
B        13.56925678      9.09316826      0.22287008
B        13.01879787     11.94604111     -0.50140578
H        10.82819843     11.46923542     -1.46881795
H        14.06972027     11.33456230     -2.94441223
B        12.93693447      8.22891235     -1.04206514
H        15.39937401      9.01518536     -1.92685831
B        13.94719028     10.40342331      9.87650776
H        11.60688591     11.52530766     10.47592831
B        13.44802666     11.28333855      8.36587238
H        14.03342915      9.55913448      6.15084457
B        12.01475048     10.28045464      7.88421917
H        14.70551777      7.78913069      9.04299164
B        12.23798466     10.78493786      9.74607563
H        12.61115742      8.18365002     10.82372189
B        13.74615765      9.68655968      7.47010183
H        11.99606228      7.39855766      7.86413240
B        14.10895920      8.79917145      9.04661465
H        16.01299286     10.33030701      8.39942455
B        12.68577003      8.93622303      9.92617989
H        10.08548164      9.19042110      9.24531651
B        12.47816849      8.53249359      8.23506832
B        14.90181065     10.40043068      8.63919353
H        14.30040073     10.81624985     10.91826248
H        13.37108135     12.38307762      8.09496593
B        11.28427029      9.37500858      9.17998791
H        11.46621132     10.79915524      6.88774538
H        24.56366158      2.11834645     19.99403954
B        23.35792732     -1.04831433     18.11482048
H        25.38321877     -1.04556048     19.77331352
B        24.02708626      0.57083225     18.18037415
H        22.27865219      2.37726498     17.74011612
B        23.64469337      1.33864009     19.74641609
H        20.50711250     -0.51738268     18.42468262
B        24.25890923     -0.47397381     19.62755013
H        22.05705261     -2.02614069     20.33598328
B        22.44107819      1.39660013     18.39716339
H        21.02635193      1.12136102     20.56157684
B        21.66817093     -0.16928908     18.49760246
H        22.47480011      0.47013378     16.08582687
B        22.55335999     -0.98009652     19.90147209
H        23.50933266      0.07242621     22.08188438
B        21.96360397      0.73698372     19.94276237
B        22.68029785      0.20003200     17.26269150
H        23.64908791     -2.23861051     17.82612228
H        24.95786095      1.00044382     17.58862114
B        23.30458832      0.13596673     20.89644623
H        22.83622169      1.02867758     12.13073540
B        22.53805161      0.48963115      8.02427197
H        21.22503281      2.58822799      9.33054924
B        22.04674530      0.04765335      9.82983685
H        24.00084877     -1.14589012     11.07138157
B        23.01363754      1.08471549     10.84461117
H        25.09483528     -0.05574973      7.69765425
B        22.02974129      1.76577854      9.42185593
H        24.06006432      2.48773861      7.68687534
B        23.66841507     -0.39883336     10.17208290
H        25.66064453      1.39949346     10.40927029
B        24.16046333      0.11541221      8.45958900
H        22.98002243     -2.18157816      8.45889187
B        23.63904381      1.81059980      8.52974796
H        23.50049400      3.67145896     10.34408760
B        24.61281776      1.20282638      9.94475746
B        22.99812126     -1.06535149      8.81956196
H        21.94518661      0.71527857      6.99867392
H        21.14649582     -0.56236178     10.35024643
B        23.45092773      2.50597024     10.01281548
H        24.09141731      8.22807789     19.53818321
B        22.06699181     11.67300892     18.98132133
H        23.97576523     11.06639957     20.98511505
B        22.15641403      9.95152664     19.60690498
H        22.17287827      8.23370838     17.32845116
B        23.69176483      9.29576874     18.99057388
H        21.82514954     11.67609406     16.27649498
B        23.69231415     10.94601345     19.80936432
H        24.10769653     12.90796375     17.82475853
B        22.33829308      9.34064865     17.86572266
H        24.43127823      9.54387569     16.43501091
B        22.30278969     11.10198212     17.21840477
H        19.86806107     10.40527821     18.17053604
B        23.71171761     11.91184044     18.25575829
H        26.12002563     10.52337360     18.86696434
B        23.87872124     10.03232765     17.32455444
B        21.10542870     10.42193985     18.37938118
H        21.71468544     12.57612896     19.69569016
H        21.76108742      9.44421673     20.67183304
B        24.97561455     10.55491924     18.67071915
H        24.69493484     11.57418060     10.77148724
B        22.02306938      9.28005791      9.11404610
H        21.36033821     11.84642410      9.93778896
B        22.95983505      9.83308792     10.61823940
H        25.70761490      9.16617680     10.02619457
B        24.02315521     11.01805782      9.92977238
H        23.69296455      8.33907700      7.22379112
B        22.26583672     10.95405960      9.59172153
H        22.15211868     10.56040573      6.73401451
B        24.53279877      9.36071682      9.75738049
H        25.43368530     10.49808216      7.48632622
B        23.63268661      8.86587238      8.26922417
H        23.15950584      7.22771740     10.29443264
B        22.59942055     10.40702248      7.86961699
B        23.44279861     11.84246063      8.50141525
H        23.28088760     13.02248859      8.17772007
B        24.44477654     10.45714283      8.21629047
B        23.23843193      8.33243275      9.86665630
H        20.86749077      8.80036449      9.05051708
H        22.93682480      9.87344742     11.83220387
B        11.94792461      4.80647707      3.25065136
H        11.66203403      4.44693565      5.90971470
B        12.42502880      6.25979662      4.28068542
H        15.20446968      3.45961571      4.99055624
B        13.22368431      6.20170212      2.73361850
H        16.02822113      5.49367428      3.25359511
B        12.40784359      4.61813784      4.92390823
H        14.15108776      6.03288317      6.39884090
B        14.24678707      4.14416456      4.57240868
H        12.80386353      2.21851349      3.65004754
B        14.77640438      5.53945875      3.62703347
H        14.39795780      8.14586067      4.27107048
B        13.89427757      5.67947483      5.25364351
H        13.74017239      4.02188063      1.35952353
B        12.79598522      3.38650012      3.78507352
H        10.83238697      4.62221241      2.91269255
B        13.96503067      7.00887299      4.05061722
H        11.40206528      6.80595398      4.68525982
B        13.66932583      4.43412256      2.66930437
H        13.08297348      6.87085533      1.73410916
B        13.89776039      6.58993053     14.41827202
H        12.27638626      5.96409130     16.60196495
B        14.28629589      4.87301254     15.05626202
H        10.38140488      5.29892063     14.08575153
B        14.29724121      5.18082380     13.27742863
H        12.13828373      3.79344893     12.09493351
B        12.62523460      5.57859898     15.53711605
H        11.90952873      3.24800134     15.68249035
B        11.62848854      5.36930227     14.01286221
H        11.77570534      8.02619171     14.32382393
B        12.69945049      4.25426245     13.07174587
H        14.63767624      2.60282278     13.78418732
B        12.56026268      4.05663872     14.88301563
B        12.31902409      6.93459988     14.26363468
H        12.40487766      6.49943686     11.87501526
H        14.86357021      7.23087120     14.73671532
B        14.05516529      3.65582418     13.94568443
H        15.25451565      4.68006611     15.72262478
B        12.69157410      5.98048830     12.91506672
H        15.21673489      5.60525322     12.51368332
B        13.42861080     15.43716240      5.60985613
H        15.07437515     17.15173912      4.53764057
B        12.58164978     16.17157555      4.30876970
H        15.66780281     14.14842319      2.92362761
B        12.19378662     14.54631805      4.67458487
H        12.94633198     12.80778503      2.51258254
B        14.44360542     16.24198151      4.26410341
H        13.74750900     16.41882896      1.89095151
B        14.77377987     14.50922775      3.56089473
H        15.97015095     14.80767345      5.81740046
B        13.05033112     13.77956676      3.18072939
H        10.84639072     15.11196423      2.65886950
B        13.56754971     15.65221214      2.78327727
B        14.96936226     14.88141537      5.32728291
H        13.59327412     12.59703827      5.47987843
H        13.05996609     15.76214218      6.76641273
B        11.95657921     15.02518082      3.02150178
H        12.04026031     17.18630409      4.55925083
B        13.72130203     13.63134956      4.73948002
H        10.96090412     14.50116062      5.11061239
B        14.35490417     14.09642506     14.35876083
H        15.42927361     14.96000385     11.86357021
B        14.32129955     15.90998077     14.07727337
H        12.16992760     13.71256828     11.37738800
B        12.90957737     15.23093033     15.03662682
H        10.60791302     15.43658066     13.52881241
B        14.62629604     14.69042683     12.64386177
H        13.56344414     16.60873985     11.64352226
B        12.71544838     14.10976982     12.30610847
H        14.16983223     12.01812458     13.02406311
B        11.82601929     15.25302982     13.47365189
H        12.57623959     17.65118599     14.15944481
B        13.35739803     15.84996986     12.48149967
B        13.87399387     13.12522411     13.07607460
H        11.73239994     12.76345634     14.33061790
H        14.83235645     13.47454548     15.32067108
B        12.70579720     16.55103683     13.90331841
H        15.38247585     16.49481773     14.33340549
B        12.46198750     13.66001415     14.05424786
H        12.22727776     15.42892838     16.13630486
H        22.66271400      2.69880652      3.59663343
B        22.19003487      4.70292091      5.11033535
H        22.33767891      7.50690937      5.18937778
B        21.92256927      5.43822908      3.59495139
H        25.44733620      6.67426586      4.65877485
B        22.87216568      3.85844636      3.80644727
H        25.45455551      4.28649139      2.88548970
B        22.77234268      6.42693520      4.75715828
H        23.92299843      7.12265396      2.24912715
B        24.47068977      5.96468782      4.57136393
H        23.86870766      5.84645271      7.04312944
B        24.42074394      4.60795593      3.33718324
H        22.69252586      4.30289698      1.33907032
B        23.55476952      6.29073954      3.07488799
B        23.55851364      5.48209381      5.90420818
H        24.46751022      3.12728691      5.54579496
H        21.39053154      4.21469879      5.84534931
B        22.89046478      4.88386869      2.34375072
H        20.85378075      5.78370571      3.35708332
B        24.09807968      4.22975683      5.07890415
H        25.75466347      4.58465481     14.86079502
B        24.13829041      6.53425932     14.73871708
H        21.60483170      7.24690676     15.23787689
B        23.21797180      5.29254675     15.68921661
H        21.55803680      5.63661671     12.20930290
B        24.51861191      4.85491276     14.61675262
H        23.14934921      3.18853593     12.62379169
B        22.30859375      6.52699184     14.58295536
H        20.91769409      4.11320400     14.80557919
B        22.35043526      5.53535128     12.97985268
H        23.15648460      8.15173912     12.90124035
B        23.37865448      4.05311203     13.34643173
H        23.45345306      2.49305940     15.21617222
B        22.01557350      4.68835354     14.49401093
H        25.11363983      5.55241013     12.38940811
B        23.25634193      7.03401375     13.24226761
H        25.07840538      7.39324903     15.01967716
B        23.38181305      3.71654868     14.97822857
H        23.04462624      5.60203123     16.91321564
B        24.19460487      5.77563906     12.97945404
H        23.10971642     14.59489059      1.11212230
B        24.48388863     14.19539547      3.46059418
H        23.96315575     13.54450130      5.91398954
B        22.88973427     13.48948956      3.64021587
H        22.54522896     16.78690720      5.81623507
B        23.00545502     14.74073792      2.27358675
H        21.51728439     16.94017982      2.96554518
B        23.64786530     14.26810360      5.08334303
H        20.96937943     14.42255878      5.53603458
B        23.09496498     15.95571899      4.89706802
H        25.78550529     15.95187664      5.00735378
B        22.08786392     15.98496819      3.31284571
H        20.62697411     13.80333710      2.56160831
B        21.78470230     14.61531544      4.55795527
H        24.34139442     17.00469780      2.48029423
B        24.67951965     15.57878017      4.66680956
H        25.53384590     13.72987652      3.02326059
B        21.53238106     14.39051628      2.98852110
H        22.65172768     12.29473400      3.56229281
B        23.88697243     16.05316353      3.09669948
H        21.23655319     15.55496883     15.81473064
B        21.93925858     15.13288021     13.31277847
H        23.88951492     13.85586357     11.84832859
B        23.11572266     14.09250736     14.22694874
H        24.73318672     17.17122078     12.61821747
B        22.26113319     15.45510578     15.05568027
H        24.50452423     17.33028221     15.49350834
B        23.62077332     14.79607964     12.61896133
H        25.77037621     14.66315556     13.99283028
B        24.15547943     16.32548904     13.07539558
H        22.77787209     16.42842102     10.99531651
B        23.93170929     16.40878296     14.93761539
H        24.13663292     14.26589966     16.60879517
B        24.61305046     14.99487019     14.10000896
B        22.70883942     16.14440536     12.15785789
H        21.91658401     17.80771065     14.08827496
H        20.83169556     14.69055462     13.12638569
B        23.72296143     14.89091301     15.62089825
H        22.72972870     12.92914200     14.44438362
B        22.46184158     16.81061745     13.78681087
B         5.07387400      5.12700081      4.67692471
H         3.98542213      3.67703319      6.72285795
B         3.52909994      5.89130211      5.31986809
H         1.96927178      6.58740568      3.10720372
B         2.20398545      4.60725260      4.96231794
H         4.60074949      4.70283222      1.98357189
B         3.80778694      4.07568073      5.59711361
H         5.15694189      2.70047927      3.77813506
B         2.70080423      5.79766512      3.62544155
H         1.99601948      3.62587047      2.24503875
B         4.28568029      4.92039156      3.04917407
H         4.46556282      7.54449654      3.71795797
B         4.41263866      3.48276687      3.98343158
H         2.74313736      1.84802127      4.69352722
B         2.58586264      4.10414648      3.22683740
B         4.24483585      6.43797636      4.00249290
H         6.27931547      5.07287121      5.16374636
H         3.40174103      6.60369349      6.31823826
B         2.88512611      3.10306811      4.56754494
H         1.10688615      4.58646965      5.52898073
B         1.78991187      6.25174999     13.61122417
H         1.37932289      3.65886569     13.28584003
B         3.25411749      5.36682224     12.80046940
H         5.59029865      6.19634962     14.00725174
B         3.93753338      4.37374115     14.01485538
H         2.98859096      7.92659140     15.55183125
B         2.16649652      4.47785330     13.86278725
H         0.99309510      5.54740000     15.99693871
B         4.39717722      6.13743258     14.03035164
H         4.31713200      5.51077414     16.54703140
B         2.98758554      6.91803408     14.86652946
H         3.06277037      8.27588367     12.87073898
B         1.92411315      5.55153799     15.24146175
H         2.98345995      3.02438498     15.94648552
B         3.76985645      5.52230406     15.54154396
B         3.23545885      7.11076021     13.21097565
H         0.81628305      6.60829115     13.33578491
H         3.45521331      4.99369574     11.68735504
B         2.94652033      4.08630466     15.32253170
H         4.72971773      3.61793995     13.68235016
B         3.97750640     14.72579479      3.35225058
H         2.52749658     12.66052532      4.36225891
B         4.46124268     14.25114346      4.98620844
H         4.58971691     16.64861107      6.46468115
B         3.05241990     14.79911137      6.02896690
H         3.67538524     17.53890610      3.16870093
B         2.77339959     13.88905144      4.43692255
H         1.69758844     15.58711624      2.33142900
B         4.24980116     16.15702629      5.52828646
H         1.95214772     17.46829414      5.14500618
B         3.86144781     16.42921066      3.79673147
H         6.27701092     15.72949028      3.94544244
B         2.30542874     15.42273140      3.45088911
H         0.40127939     14.96822834      5.07088566
B         2.49456143     16.40891647      5.11720085
B         5.17778683     15.69717884      4.28209448
H         4.37838030     14.48158360      2.25351644
H         5.04082537     13.25088310      5.45627880
B         1.52548015     15.04712772      5.05880594
H         2.96479607     14.65010262      7.23111391
B         4.53866053     14.21725655     14.23408985
H         6.23074341     15.80436897     13.02331924
B         3.70723271     14.59149837     12.60417557
H         1.12434876     14.91476250     13.12429714
B         3.29190803     16.20294380     12.81081676
H         2.49298024     14.27752590     16.10955620
B         5.02991867     15.71767807     13.36092377
H         4.87435341     15.46891880     16.25340271
B         2.21896124     14.89239502     13.39576340
H         1.88003719     16.92553139     15.18012047
B         2.93373251     14.54947567     15.03229237
H         2.77154589     12.24518967     13.54925823
B         4.30038929     15.65984821     15.08626366
H         4.97809029     17.96227264     14.45037651
B         2.76843572     16.32837296     14.53955555
B         3.08489823     13.44021797     13.76054573
H         5.39655113     13.55633640     14.67282486
H         4.16122818     14.16295433     11.53705311
B         4.30456257     17.03930092     14.12377453
H         3.02442622     16.80655289     11.82515526
H         8.80216503      7.89948559      4.81433249
B         7.41683388      9.32243824      3.29195523
H         9.23385429     10.94158649      6.41180038
B         7.79982901     10.94246769      2.64668107
H         7.29908228     12.42933178      4.87247181
B         8.83602905      9.04021740      4.45341969
H         6.93924189      9.76648140      5.85346508
B         8.99949646     10.66971207      5.26201105
H        11.33180714     10.18399811      4.13706779
B         7.70815802     11.56447887      4.33748531
H         5.34958744     10.73993683      3.73263431
B         7.44396210      9.99026108      4.95871305
B        10.16546726     10.15650749      4.11162472
H        10.03839779     12.50664997      3.27388191
H         9.50942993      9.32313061      1.61068749
B         6.53013802     10.62478352      3.66552329
H         6.92795181      8.38135338      2.47341347
B         9.43417263     11.50664234      3.59188938
H         7.42153931     11.60115147      1.65901160
B         9.19387531      9.82884789      2.74841571
H         5.35990334      9.85880470     13.11781979
B         7.76027250     11.50640488     13.03916264
H         7.51530218      8.54088020     15.71012306
B         9.39046574     10.86303711     13.34444141
H         9.74154472     10.40006638     16.04300117
B         6.59889174     10.09834862     13.46759796
H         6.28324270     11.47120285     15.55242825
B         7.58714056      9.25375366     14.80996323
H         7.13384962      7.45945883     13.21907330
B         9.01050377     10.37946606     15.02688885
H         8.96912956     12.97617054     14.69741535
B         7.23442554     10.96140385     14.87709332
B         7.45159912      8.56866074     13.26879787
H        10.03285980      8.50456142     13.93633175
H         8.00286865      9.81053638     11.22972298
B         8.63962746     11.90132141     14.43408489
H         7.31746578     12.33497334     12.22398663
B         9.08312225      9.10545158     13.72628021
H        10.31203842     11.03174019     12.63810062
B         7.96001196      9.88066864     12.41693211
H         9.45759583      2.13267946      5.94089508
B         9.94038677      0.10837817      4.30664539
H         6.51296663      0.98648643      5.90468121
B         8.94571018     -0.15769304      2.83669114
H         6.47027826     -1.15735757      3.68610001
B         9.01048851      1.38472295      5.14848852
H         8.63324547     -1.04472494      6.42935753
B         7.31661034      0.75978923      4.99740887
H         7.62821865      3.35107279      4.15650368
B         7.48715830     -0.62827247      3.88189006
H         9.55046463     -2.59170079      3.69764614
B         8.67274380     -0.37927270      5.39068508
B         7.90400696      2.13815618      4.10802603
H         6.58148241      1.18258274      2.23438668
B         9.08644867     -1.36434758      3.89160895
H         9.76998425      2.22242618      2.69329190
H        11.09900856     -0.04973454      4.37179899
B         7.38708448      0.90212870      3.07298088
H         9.30115509     -0.26408562      1.65112031
B         9.20340538      1.41643262      3.34304667
H         7.46992922      2.42885637     15.91056347
B         8.67571259      1.97386825     13.71713257
H         8.46955013     -0.97537518     16.52470398
B         8.68960953      0.30509251     12.58424854
H         9.99616528     -1.71569884     13.98836231
B         7.82137632      1.51443112     15.13430309
H        10.48910141      1.24355149     15.70428467
B         8.25102520     -0.25987482     15.52301788
H         5.72169065      0.07067831     15.22344017
B         9.49982071     -0.61467999     14.05253792
H        11.12422752      1.07440650     12.68620682
B         9.63503265      0.99090016     15.00073338
B         6.81816959      0.11685198     14.84883404
H         7.38444567     -1.80303204     13.44460487
B        10.03433323      0.88055778     13.27262497
H         6.12497044      1.30742335     13.01277256
H         8.88827324      3.18920112     13.42014122
B         7.75356960     -0.80055261     13.86254501
H         8.67368412     -0.02435715     11.47369003
B         7.23094273      1.00990236     13.36706924
B        17.82770920      8.62709141      4.18056726
H        19.77018547      9.58274841      5.87431908
B        17.39908600      9.98541451      5.23667955
H        20.52918243     10.79883003      2.80594850
B        16.70044327      9.97553158      3.58383989
H        17.62932205     12.29240036      2.24156690
B        19.10013390      9.71614552      4.91360998
H        18.95263100     12.26318359      5.48495770
B        19.45502090     10.61907864      3.41349697
H        20.26972008      8.26274586      3.04825258
B        17.84902000     11.37402534      2.98527789
H        15.98448753     12.14493179      4.69766665
B        18.53865242     11.46742058      4.68719721
B        19.26998329      8.77510643      3.39878964
H        18.08968353      9.32491493      1.28457296
H        17.30698395      7.53141165      4.39279318
B        16.97974968     11.42751408      4.39474201
H        17.17922020      9.67253017      6.40763474
B        18.08148575      9.65693283      2.49852586
H        15.59683800      9.72142982      3.25738478
B        19.56456947     10.11484241     12.77662086
H        20.25644875      9.77033615     15.59208584
B        19.25592613      8.50388908     13.44814491
H        17.32400894     11.26749992     15.65838623
B        18.07803535      9.27751446     12.11597729
H        15.76608944     10.11093330     13.43974400
B        19.50867271      9.89301205     14.72092819
H        17.33931923      8.50050640     15.79153442
B        17.83387566     10.81849861     14.72081757
H        19.88356018     12.33918285     14.00146580
B        16.88448715      9.77287579     13.38598728
H        17.09508514      7.02340603     13.17575645
B        17.79823303      9.01038837     14.77351189
B        19.25477982     11.36737251     13.96935940
H        17.80275917     11.95171452     11.97935390
H        20.57731056     10.26960087     12.19190121
B        17.39057159      8.20227909     13.32378101
H        19.86190605      7.41560841     13.38566685
B        17.99305725     11.09320450     12.84366131
H        17.99519157      9.12403584     10.94491863
B        19.43411446     20.96395874      4.88802385
H        20.56737900     18.40954781      4.93910456
B        19.84309196     20.14413071      3.27893519
H        17.15458107     17.92487717      5.20051193
B        18.25727272     21.24851418      3.47336864
H        16.01540565     19.81694603      3.26744413
B        19.63546562     19.13451195      4.77998447
H        18.73151398     17.58310890      2.74995923
B        17.78938293     18.88235283      4.90613604
H        18.71564484     19.79615402      7.16088629
B        17.22110558     19.79687881      3.44695783
H        18.42356682     20.14254379      1.08144474
B        18.63959694     18.66563416      3.29434538
B        18.63614273     19.81422234      6.00477123
H        16.65543556     21.31831741      5.38828993
H        19.91156387     22.10902786      5.18240356
B        18.39562416     20.06401062      2.29749942
H        21.05143166     20.48343277      2.92980051
B        17.62884712     20.66272736      5.01693869
H        18.02440643     22.52021408      3.18677640
B        17.00226212     20.48930168     13.28404331
H        18.54095840     20.44231606     10.90087986
B        17.82644272     18.80574226     12.74850559
H        20.57838249     21.51243019     14.03891945
B        17.30339050     19.18935776     14.36570263
H        19.82681274     19.35051727     15.84052849
B        18.45052910     20.40495110     12.09868145
H        20.71155357     19.25095558     12.58445740
B        19.47443771     21.03246689     13.78738594
H        17.71637344     22.88551331     12.90395546
B        19.04042625     19.63946152     14.94841480
H        18.75973701     16.99719620     14.37325382
B        19.57183456     19.35680580     13.14688301
H        17.64251328     21.65548706     15.57486248
B        18.03382111     21.74469185     13.10165405
H        15.77460575     20.54712868     12.98138809
B        18.69450569     18.16298676     13.96659374
H        17.46565056     17.89271736     12.14230061
B        17.98828125     20.92597008     14.73778820
H        16.36066818     18.59835243     14.92116261
B        29.17285728      9.72914219      4.67755699
H        27.25755501      8.16884995      5.57671070
B        28.50660324      8.66490078      3.50840592
H        25.84678841     11.22284317      4.69357967
B        29.06291199     10.18646336      2.94467545
H        26.90277672     11.98355007      2.40346456
B        27.42937088      9.12642956      4.88151026
H        25.73481750      8.80097103      2.98350906
B        26.82688522     10.68634224      4.35525179
H        28.09864235     11.15719318      6.62762594
B        27.42927933     10.97336483      2.77476287
H        28.12861443      9.18596649      0.70192558
B        26.79954529      9.27283287      3.15578079
B        28.03891563     10.56725788      5.57002926
H        29.05195045     12.48649788      4.04282284
H        30.21246147      9.40487957      5.26210737
B        27.95329666      9.56998158      1.88751745
H        28.99522209      7.59589911      3.33549333
B        28.58986092     11.29960442      4.18614149
H        30.16273499     10.27978325      2.57267404
B        27.38877869      9.29999352     15.31327152
H        27.46137238      7.77316952     12.96565342
B        29.04800987      9.07646656     14.65884113
H        26.80295753     10.96800232     11.90038013
B        28.73541069     10.45543098     15.53562260
H        29.00350571     12.57899666     13.64469910
B        27.63988304      8.85560799     13.53717232
H        29.49476242      9.90039635     11.81920052
B        27.43729019     10.52506256     12.86647701
H        25.21321678      9.59016895     13.75303268
B        28.68440247     11.44760990     13.95355988
H        31.14393044     10.75919628     14.47809601
B        29.10967827      9.99630737     12.95092964
B        26.32555008      9.76805210     14.09895897
H        26.47247505     11.89625263     15.46432400
H        27.07736015      8.51778412     16.17181969
B        30.05627251     10.47286892     14.38608932
H        29.60524178      8.02983475     15.08257580
B        27.05236626     10.99935436     14.97155380
H        29.06079483     10.94528580     16.69930649
B        28.71065140     20.19166565      6.08113813
H        28.99156189     22.39181519      4.58590126
B        27.26664162     20.98360825      5.48044729
H        29.11112785     19.44304276      2.54110289
B        27.19720268     19.09322548      5.76466513
H        26.88764763     17.96122932      3.40082145
B        28.77941704     21.17578506      4.65719318
H        26.75897980     21.49879646      2.84397554
B        28.75735855     19.79073715      3.56623459
H        30.98316193     20.00337219      4.74741459
B        27.27737236     18.86146355      4.08284235
H        24.87709999     20.12156105      4.43867493
B        27.18371391     20.65961456      3.70228934
B        29.83528900     19.91054153      4.87709236
H        29.23118401     17.52139282      5.01765203
H        28.83994102     20.53656578      7.15606499
B        26.15176010     19.84550858      4.70458984
H        26.94950294     21.84617805      6.14882708
B        28.78251076     18.65169525      5.05962086
H        26.63834572     18.58940315      6.82652330
B        28.52929878     18.87782860     13.25776386
H        30.12042999     19.08501816     15.42102528
B        27.49708748     18.63806152     14.50373650
H        29.61270332     22.14151764     14.70682526
B        26.91689110     19.67003059     12.91527557
H        26.63907623     22.28532028     13.67231178
B        29.23249626     19.54228210     14.80061722
H        27.58762932     20.61413002     16.45130730
B        28.77139473     21.17948341     14.26826954
H        30.87678909     19.99123764     12.91549206
B        27.11690521     21.21972656     13.84645653
H        25.21957779     19.88794136     15.23694229
B        27.67293930     20.38173676     15.37212276
B        29.77706718     20.10421181     13.28463650
H        28.21290016     21.18673325     11.55297184
H        29.01813698     17.93153954     12.55838680
B        26.24079704     19.85974884     14.57145023
H        27.16474152     17.46972847     14.87611675
B        28.39774704     20.53694534     12.51628113
H        26.29614067     19.52312469     11.82428741
B         8.84109116      6.37040949      8.94907761
H         6.01850462      3.66652560      9.13629341
B         8.86091518      5.86751842     10.71051598
H         6.19115210      5.66653299     11.44990635
B         8.20238400      4.83976412      7.96998405
H         6.08797932      6.39411879      8.07785130
B         7.08021879      4.17049217      9.30898666
H         8.84802723      2.39724159      8.52292061
B         7.11149788      5.51829720     10.56035519
H         7.54776764      8.26201820     10.35188198
B         6.99874640      5.93115902      8.80258465
B         8.51598835      3.46282315      8.93846607
H         8.41419411      3.52015734     11.62078857
H        10.74467468      4.49116325      9.43244553
B         7.82387829      7.08811569     10.16242599
H         9.70093536      6.96485758      8.46755028
B         8.27397156      4.12102461     10.65237141
H         9.43651676      6.20137882     11.75505638
B         9.53086472      4.82516336      9.47395325
H         8.16133022      4.88678980      6.73252821
B         8.76494026      4.30290508     20.05479813
H         6.59432602      5.28637552     16.95860672
B         8.75161171      6.05731440     20.12400818
H         9.02446651      7.03476620     17.61773300
B         7.18941164      3.79546094     19.38344955
H         8.79389286      3.19880271     17.59998512
B         7.08317518      5.16061544     17.98580742
H         4.94111347      5.25227165     19.16895294
B         8.60810757      5.99499559     18.26277924
H        10.99234581      5.09150219     18.96728706
B         8.64371490      4.22408390     18.23828888
B         6.15118599      5.07140875     19.30744553
H         6.75052547      7.54584265     19.27415466
H         6.95908451      5.13531017     21.72747040
B         9.80095100      5.18606567     19.20942497
H         9.28645802      3.67547727     20.89679146
B         7.15892792      6.38345718     19.25105286
H         9.07817841      6.80691433     21.05067062
B         7.30155468      5.09271383     20.54595184
H         6.87708378      2.63671279     19.38250732
B         6.85513449     15.28946304      9.40371990
H         9.48937321     15.27813911      6.48134089
B         8.12811184     14.13135242     10.10509205
H         8.88475609     12.70064545      8.02905273
B         7.83430815     16.56085014      8.57873249
H         6.54289293     14.91493797      6.68836832
B         8.92071056     15.38712120      7.66676044
H        10.24731255     17.47560692      9.00919628
B         8.40297985     13.77101612      8.38136578
H         5.90779209     13.05764389      9.10040092
B         7.27750921     14.98312473      7.67541933
B         9.47862720     16.54139519      9.00555420
H        10.77343655     14.41781139      9.78433895
H         8.03050613     16.51377296     11.15227890
B         6.82047319     13.77268505      8.98621941
H         5.96648026     15.80670166      9.99131012
B         9.69528389     14.86256886      9.47273159
H         8.37101555     13.42380524     11.02555180
B         8.41193676     15.90933418     10.13582230
H         7.44926405     17.60490417      8.08336353
B         7.59710503     16.06234932     18.24518013
H        10.81769657     14.82582283     20.13950348
B         7.54922771     14.19924259     17.96784210
H        10.22717762     13.45951653     17.72338486
B         8.50798035     16.26144028     19.79029274
H        10.45293140     16.54768944     17.99125862
B         9.69091320     14.91099262     19.65011406
H         8.38808537     14.66650105     21.90340042
B         9.40609646     14.22907162     18.00592422
H         8.47213268     15.43510437     15.73410606
B         9.44141197     15.98860645     18.24774170
B         8.29545116     14.71347237     20.71461105
H         8.58509731     12.54074001     19.45456886
B         8.46755409     15.20302391     16.94824028
H         5.99471903     15.04137325     20.09203911
H         6.90877867     16.87504768     17.88519096
B         8.42860317     13.66534615     19.42527390
H         6.77926445     13.35339260     17.46150208
B         7.16579294     14.93217850     19.57519341
H         8.56749630     17.26873207     20.33417702
B        17.06953049      4.74696159      9.64523411
H        18.40328407      6.07618189      5.92081308
B        18.92325974      4.67369699      9.57705879
H        19.84626007      3.87179136      7.18665361
B        16.89649582      6.20874023      8.48935795
H        16.38317299      4.12884903      6.91588068
B        18.28670883      5.93248940      7.16907167
H        18.05960464      8.53987217      8.37953663
B        18.90983391      4.47570848      7.80474854
H        18.24559402      2.31382537      8.82232571
B        17.14185143      4.53668690      7.75731516
B        18.18156815      7.29663086      8.32008171
H        20.77829170      6.44061947      8.65567398
B        17.91186714      3.48143339      8.76422405
H        18.16032982      6.79912519     10.85539150
H        16.15189362      4.81816864     10.27478504
B        19.48217773      6.06164646      8.53830338
H        19.74991989      4.37081432     10.37563896
B        18.10919380      6.24584246      9.79005337
H        15.69563198      6.43174267      8.49016857
B        17.60419464      6.23597670     18.93009949
H        19.85040092      3.55963349     16.86627579
B        17.46888542      4.70754576     19.83612251
H        17.63141441      2.67591596     17.97113228
B        19.35239983      6.11391735     18.29861641
H        17.70514870      5.42572165     16.34292412
B        19.40843010      4.16637993     17.84630966
H        21.54095268      5.37075615     19.27083206
B        17.80036163      3.73906207     18.40528679
H        15.40347481      4.99174595     18.29421806
B        17.84683609      5.16745853     17.45854759
B        20.38303757      5.05633307     19.05084801
H        19.37584877      2.68293738     20.15517426
B        16.50726700      5.02211237     18.56001091
H        19.09463882      6.17549133     21.02665138
H        17.39082146      7.40083742     19.14856148
B        19.17234039      3.89945364     19.55539703
H        16.87907410      4.62092209     20.92220116
B        19.03939247      5.61232853     19.96113205
H        19.77810097      7.14157820     17.88094330
B        17.65549850     15.87483788      8.44479179
H        20.24410820     12.88592911      7.98738909
B        18.01777077     15.27071571     10.12764740
H        18.08681297     12.54662609     10.11040306
B        19.17935753     15.48038864      7.54446936
H        17.39927292     13.53550625      6.89403248
B        19.55488014     13.79834270      8.30251312
H        21.68875694     15.45699501      8.67231369
B        18.17574883     13.56120396      9.40211105
H        15.70894814     14.25881100      9.57976055
B        17.85459328     14.24877357      7.77670479
B        20.47257614     15.30073738      8.62998009
H        20.25295448     14.33479691     11.02774429
B        16.77977753     14.58856010      9.13797760
H        19.65410995     17.52750206      9.57930279
H        16.88652611     16.65839958      7.87443447
B        19.67440414     14.57620525      9.94495964
H        17.61221886     15.41718197     11.17205238
B        19.27392769     16.35555458      9.23964214
H        19.16095924     15.91053581      6.34272671
B        16.84871674     14.30750275     19.35163689
H        18.64932823     17.13341522     17.27651215
B        18.63956642     14.23065662     19.89496803
H        20.28570557     14.33848190     17.68991089
B        16.90287590     16.00464821     18.76215172
H        17.18315315     14.54663563     16.50101662
B        18.48783302     16.21387863     18.01604652
H        17.84673500     18.12038803     19.65259552
B        19.31383133     14.62365627     18.29686356
H        18.43323898     12.28693485     18.24762154
B        17.54812622     14.71836948     17.68363953
B        17.98892403     16.94230652     19.54268265
H        20.29718971     16.02470207     20.31502151
H        17.14460564     15.40320206     21.51673126
B        18.11024284     13.38760471     18.54570580
H        15.97695160     13.82961369     19.92935944
B        19.23941040     15.92236805     19.75004959
H        19.20459557     13.71638966     20.85453796
B        17.59555054     15.54631329     20.43828583
H        15.76899147     16.44967079     18.61453629
H        27.26264954      6.37250090      7.08281898
B        29.36645699      5.83399296      8.39110851
H        25.85471153      6.03225231     10.31151867
B        29.56939697      4.63838720      9.79087543
H        28.17051125      5.96216726     12.10153770
B        27.59846878      5.89806652      8.10156441
H        28.29986000      8.13270855      9.34535408
B        26.94536972      5.73671675      9.68212128
H        25.68439865      3.93567657      8.48535252
B        28.36766052      5.84321499     10.85626984
H        30.77990723      7.06580830     10.32114697
B        28.33930206      6.95642805      9.34478855
B        26.83105659      4.47141981      8.63822460
H        27.26925468      3.56569266     10.89439487
H        28.85883331      3.30295682      7.80328989
B        29.82708931      6.31724501      9.99188328
H        30.03956223      6.02125120      7.47552443
B        27.81730461      4.35620832     10.11369991
H        30.39777756      3.87377906     10.14012623
B        28.49646950      4.21955919      8.46118927
H        26.15176010      5.69841194     16.78173065
B        26.95563507      3.93586111     18.63506889
H        29.00263214      6.63834953     16.99628067
B        28.04442406      4.57697010     20.06511497
H        30.60899353      4.97576237     19.03241730
B        26.92917633      5.42223644     17.61501122
H        28.74433517      3.95703745     16.42512894
B        28.54414368      6.13226604     17.93321037
H        26.75904083      7.94859457     18.52479935
B        29.44218636      5.03475952     18.95109558
H        28.82760429      2.27690291     19.18161011
B        28.36992264      4.36542368     17.48453903
B        27.23310852      6.83217335     18.44596863
H        29.02406693      7.20887518     20.33041573
B        28.46859550      3.35551620     18.88276100
H        25.68747902      5.61716890     20.32346344
H        26.09884262      3.09593630     18.69888496
B        28.42310333      6.37864494     19.61201477
H        27.97914124      4.43681335     21.25683212
B        26.70403671      5.48980761     19.53853989
H        28.19019508     13.51899433      6.98156595
B        29.23730659     13.27021599      9.48503304
H        27.99048615     16.78989220      7.87089682
B        28.50478172     14.32069492     11.00103188
H        29.14660072     16.97811317     10.71701622
B        28.13368034     13.90682507      8.15347004
H        30.51397324     15.32597351      8.10581207
B        28.08931923     15.69295979      8.69863796
H        25.56696129     14.83527565      8.24471951
B        28.95437431     15.90710163     10.26438904
H        31.21835327     14.72645855     10.76033592
B        29.61069489     14.90854931      8.74910545
B        26.68424797     14.78094769      8.68742275
H        26.26387596     15.71162987     10.84653950
B        30.04801369     14.56471443     10.33541393
H        27.08716011     12.41767502     10.04255009
H        29.72522163     12.16871071      9.18835163
B        27.20335579     15.20410728     10.20071602
H        28.26182938     13.98482990     12.14539146
B        27.37021637     13.52148342      9.75748539
H        25.95070076     15.77243137     20.52888680
B        27.23890686     15.22658348     18.22884560
H        28.92514038     16.82572174     21.47557640
B        28.99788666     14.67786121     18.08967590
H        30.61252594     16.77929688     19.07682037
B        26.97935867     15.42713356     20.07564163
H        27.40207672     17.79795456     19.09374237
B        28.68473053     15.99705982     20.61875725
H        28.03534126     14.02733994     22.05246544
B        29.53707314     16.09354210     19.07133293
H        28.43313980     16.94983101     16.73247910
B        27.71759033     16.62802505     19.11917114
B        28.20116234     14.43401051     21.03998184
H        30.59891319     14.19050598     20.23325157
B        28.50251770     16.18898010     17.65139198
H        27.38075256     12.76745605     19.10993767
H        26.28560448     14.62808037     17.55598831
B        29.56344223     14.46210194     19.81437874
H        29.48239899     14.13717842     17.21388626
B        27.90680313     13.90839767     19.52242470
