1056

Na     -176.85197449     17.63802719    -66.42220306
Na       51.61212158     13.61066723     50.24044418
Na     -194.94367981    143.28198242    113.61992645
Na      -18.02065659     48.56804276    -63.79253006
Na      -97.25386047    -25.93923187      5.67723179
Na       85.24118042    -10.86556149    -43.87520599
Na       76.14617157     53.42356873   -117.67162323
Na       86.53386688    -98.35331726    128.11564636
Na        1.81540835     39.66791534   -118.17536163
Na      -77.14006805    -45.32170486    -89.03550720
Na       36.34054184    -59.36241913    162.89646912
Na      -72.39852142    -44.60335541     66.03414154
Na      -57.32293320    -25.96907234     10.25497913
Na      -41.22547913   -122.94927216     70.59182739
Na      -56.40849686    -99.64196777    -83.03386688
Na     -171.19966125     47.79236603     88.41177368
Na      -66.92449951    -10.69019985    123.25655365
Na      -55.73491287    190.85473633     73.57674408
Na       -7.43704605      3.25291324    138.67582703
Na      154.55946350     84.71799469   -112.89405060
Na       16.99877548     58.02596664    -44.16962433
Na       86.62977600    -59.76571655    -33.78499603
Na       11.61136913     58.08049011    -57.55332184
Na      -27.45669556    -69.79546356    -49.04227448
Na      -32.15144348     57.99805450    -98.30722809
Na      -32.35928345    -34.44054794   -132.95843506
Na      -56.81646347    172.47097778    -34.12893677
Na      -12.86288834    196.69497681     83.84403229
Na      139.07766724     99.29720306     36.67351913
Na       38.04502487   -132.43927002    -64.75710297
Na       57.53820801     22.67750740    -40.13585663
Na       50.66070557     97.20043945      2.47143269
Na       43.17749405     12.56871605    170.88635254
Na        7.08151436    113.87955475      0.24686703
Na       20.94627953    -30.18826866    -58.59696579
Na       56.06241608    -45.32474518     39.36784363
Na      -42.53338623    -19.83791351     69.40557098
Na      -76.58701324    -20.58599281     30.05237770
Na     -126.11809540    -64.38523865     15.59010315
Na      -22.72421074     19.59661674   -137.96345520
Na       51.31369019      9.35964489      9.21718884
Na       16.36504936    -40.38786697     39.50819778
Na       96.62554169    122.82675934      0.48604742
Na       61.78503036    132.70927429      0.60770857
Na      -13.97372723    -71.10008240    -79.76462555
Na       32.11668777     69.03584290   -216.42192078
Na      -31.90316010     43.65557861     29.88363647
Na       75.23218536      4.55867434     84.26003265
Na       -6.36707115    -14.97979259     15.48050308
Na       -3.31782579     34.93289948    -88.85299683
Na       97.38446808     16.07060814     53.73696136
Na       61.95461655   -153.23326111   -128.91636658
Na      -97.38758850     -0.61834675   -108.43930054
Na        2.98359489    -16.67674446    -64.54583740
Na     -151.24157715    -30.37362099     -9.79275417
Na      -82.10375977    -25.61405945     10.28758144
Na      -61.97315598     -5.21543074     34.66153336
Na      160.03587341    -75.49591064     -0.00130162
Na       37.61513519     63.14897156     68.71763611
Na       32.50257874     43.30112076    -34.05629730
Na       22.05808830    -35.20936584    -34.88839722
Na      -49.13411713   -164.16578674     -1.69159269
Na      130.56687927    -20.76719093   -103.74549103
Na      -72.92030334     34.45562363     35.57494354
Na       51.58999252    -30.73130608     53.98424149
Na      -86.17337799     44.37391663    -78.78782654
Na      -47.00454712    162.50898743     23.97100067
Na       66.01914978    108.63063812    -14.73782730
Na      -17.35812187     13.67645359    -54.85958862
Na      -32.93617630     29.68019676     63.65552521
Na       38.49230194     41.04268646    -62.68410492
Na     -194.25985718     77.79926300    -52.83084106
Na       46.98768997     89.79915619     46.26555252
Na       60.44812775    -52.91863251     14.47838879
Na      -77.35166168    -10.96842384     20.36322403
Na       30.16697121    166.18495178    -15.73832130
Na      115.71981049     -5.51551390     64.53395844
Na       51.02897644   -104.72080231     20.10868073
Na      -66.43087006    222.07896423     68.29718018
Na       17.63799667    181.81433105    -44.14138412
Na      -22.72144127     -9.41101933     93.50552368
Na      -14.12427425    -90.53047180     88.39587402
Na      -52.04463959    -25.32384300      5.69078255
Na       71.24736786     84.36713409    148.51875305
Na       71.23741913     88.33045197     64.41279602
Na      124.61544037     18.17367363      9.60578346
Na       22.63914680     38.42632294    -13.78940678
Na     -118.64456940    108.89350891    233.00968933
Na       46.30396652    141.58961487   -117.68983459
Na      175.23284912     78.61690521     93.88845825
Na      -11.58422947     68.11808777    133.35250854
Na      -41.05691910     64.43399048    129.85049438
Na       -6.20339537   -117.64785004     72.56079102
Na      120.35090637    -40.20898056   -131.66378784
Na      213.70454407    -11.31019688    -39.85486603
Na       56.59278488     28.87190628    -39.30170059
B         5.95888853     16.40284920      3.13041401
H         5.26887178     14.61155033      1.53773296
B         4.39009047     15.70264626      3.66366839
H         2.56305194     17.80219269      4.26593399
B         3.30333996     16.28859138      2.31747174
H         5.55082417     19.11815071      3.33917594
B         4.94057751     15.65730381      2.04502845
H         6.27998304     17.82819557      0.83687937
B         3.61916780     17.30950356      3.81313038
H         3.14228368     18.95076370      1.83410370
B         5.12918186     18.05829239      3.20486784
H         5.52728367     17.02279472      5.72241688
B         5.49900246     17.33571053      1.55433404
H         3.82120299     16.94115257     -0.19492649
B         3.82539058     17.90390205      2.04144192
B         5.17513990     16.96316910      4.50247478
H         7.08510303     15.95058441      3.35352325
H         4.37183285     14.56131268      3.85985684
B         4.10899830     16.76568985      0.94158250
H         2.28811240     15.76774693      2.30046153
B         4.24005842     15.74886703     13.92800617
H         5.28972626     13.95454407     12.18161583
B         3.46069670     15.61683178     12.20391750
H         2.71590257     18.11078644     11.35957241
B         4.82692051     16.39404488     11.13901043
H         4.59958887     18.47326279     14.29023933
B         5.04653645     15.18089771     12.38587666
H         6.55027962     16.55673981     14.47800064
B         3.56084776     17.41770935     11.85106659
H         6.10696411     18.70752525     11.88866520
B         4.35684919     17.55844879     13.57610416
H         1.81029236     16.73514175     14.10974121
B         5.73729944     16.36826897     13.57206154
H         7.39798546     16.09605980     11.60465240
B         5.41140079     17.79779816     12.20160103
B         2.89101601     16.73407745     13.43956757
H         4.19973373     14.94758606     14.92625332
H         2.58617806     14.89062595     11.90590668
B         6.27581978     16.37567139     11.91251850
H         4.57793665     16.16316032      9.98639774
B         5.98116589      6.41744471      2.38004637
H         6.08245945      7.97393417      4.53305483
B         4.80802631      8.06462765      2.34319139
H         2.29242826      7.46141815      1.50396633
B         3.53201437      7.68603516      3.53700924
H         4.40856075      4.52680731      1.27451372
B         5.30229330      7.38024282      3.80334496
H         5.57844877      4.60804844      4.03611851
B         3.41812873      7.17324686      1.89778459
H         2.34375334      5.06396103      3.23371434
B         4.51837492      5.56207657      1.93420482
H         4.98295403      7.39132786     -0.00772642
B         4.98593521      5.48857117      3.57140756
H         3.91542792      6.05298185      5.73466921
B         3.25906897      5.90893221      3.17321420
B         4.94981432      6.99089956      1.08410299
H         7.22175407      6.34203100      2.40132713
H         4.86504555      9.28784943      2.21584392
B         4.02861786      6.35871315      4.56076241
H         2.88139319      8.54041958      4.16612291
B         3.84635878      5.91681957     13.78067780
H         3.40876341      8.29014874     14.96751690
B         5.33674526      6.89744043     14.22129440
H         7.00292683      6.36262512     12.10590458
B         5.35247183      8.19675350     12.85504246
H         4.00156450      4.74958420     11.40410519
B         3.84912610      7.85780621     13.95417309
H         1.89800572      6.62020874     12.42816257
B         5.89484596      6.51149035     12.52601814
H         4.47838688      7.32843304     10.33535862
B         4.47485542      5.54917479     12.17839527
H         6.14159727      4.45783997     13.75263309
B         3.12259555      6.89905500     12.53392315
H         3.40457344      9.48378563     12.16537762
B         4.52604151      7.27676630     11.56919575
B         5.33737087      5.30097342     13.53521729
H         3.21219301      5.38801289     14.71780109
H         5.99852657      7.29511023     15.18664169
B         3.73796344      8.44410801     12.40366650
H         6.02852345      9.25774479     12.62997150
B        14.12515068     15.20336246      2.56820798
H        16.24239159     15.73313522      1.63217545
B        14.07730675     16.96962547      1.98262990
H        12.92246246     18.77613258      3.59611392
B        15.27411652     17.87276077      2.90084982
H        12.85142422     15.38633060      5.12087679
B        15.56781101     16.19141388      2.44439435
H        15.52390003     14.50755596      4.92924976
B        13.52727222     17.70068932      3.56557298
H        14.91735744     17.36376762      5.76507664
B        13.53898239     15.93430233      4.27176666
H        11.54798222     16.16362381      2.70299006
B        15.22070694     15.42162704      4.04477406
H        17.52939415     16.76945877      3.95587087
B        14.87855625     17.08334160      4.62347078
B        12.76698208     16.25065804      2.90295815
H        13.96536922     14.10169601      2.10188246
H        14.11213207     17.28389549      0.81050086
B        16.36374855     16.60865593      3.86107993
H        15.86924648     18.92798042      2.53718424
B        13.93337154     15.60640717     11.93834686
H        12.25946140     17.37079239     12.53736782
B        14.25223446     16.08031654     13.80817127
H        17.21163368     16.44405556     13.89504147
B        14.82238960     17.73606110     13.55521488
H        16.31975555     15.47790623     10.67611504
B        13.44853973     17.14490700     12.53729439
H        14.20404339     17.12463379      9.93853283
B        16.03316689     16.37998390     13.40401649
H        16.99960327     18.06845284     11.57509136
B        15.64286423     15.85818100     11.54462242
H        15.35499477     13.79092598     13.01855278
B        14.34583378     17.15716171     11.16728401
H        14.07790375     19.42695618     11.92372608
B        16.02426910     17.54953003     11.95630550
B        15.12069416     14.94855499     12.82105350
H        12.94153786     14.89035034     11.62172031
H        13.87142754     15.84628773     14.91532040
B        14.59631729     18.42838669     12.08493519
H        14.85942841     18.66595840     14.36568451
B        15.35865116      6.90605354      3.68522429
H        15.11713696      9.43031693      3.68423748
B        15.69282246      7.58115625      2.11501312
H        14.35133553      6.07477427      0.15872902
B        13.83838463      7.88467693      1.73044944
H        14.10533905      4.44936943      3.55868292
B        14.58782196      8.42637253      3.35118484
H        13.31248379      6.91906452      5.32161665
B        14.50337410      6.36506128      1.31473315
H        12.02603340      5.85460854      2.06124401
B        14.25760841      5.56354666      3.14900517
H        16.91706276      5.48725605      2.09503961
B        13.55688953      6.97051668      4.16873503
H        12.00949001      9.27723789      3.00871181
B        12.89662266      6.56824589      2.45865202
B        15.71758461      5.93007660      2.38079429
H        16.24428940      7.26434994      4.48708200
H        16.37596893      8.39088440      1.59703827
B        12.80760860      8.28743935      3.04150200
H        13.67228031      8.57642460      0.74874866
B        15.37374020      6.01680231     12.14069557
H        13.10685921      5.16188478     12.44489861
B        15.11541367      5.89533901     14.01504040
H        15.76388454      8.33944225     15.14905357
B        13.86333752      7.18471670     14.29817867
H        16.65153122      8.31411457     11.68695259
B        13.62656784      6.06204987     12.89681053
H        13.49410534      7.32661438     10.60892105
B        15.48765659      7.63889074     14.17852402
H        14.20561981      9.80774021     12.91187286
B        15.72922802      7.76609993     12.26129246
H        17.75711060      6.32257605     13.60435677
B        14.05162334      7.34648609     11.71442223
H        11.89282322      7.99103737     12.89688396
B        14.27496815      8.56868744     13.13941002
B        16.52395821      6.61121273     13.35318279
H        15.56532669      4.96824312     11.61431122
H        15.13198853      4.99311304     14.66862488
B        12.95947266      7.57080984     12.83745384
H        13.09374237      7.20490265     15.26802635
H        21.86572456     -3.44249630     23.17011070
B        25.28439903     -1.72973931     21.88875771
H        23.72136688     -0.37726480     23.46138763
B        23.62743378     -2.12246728     21.61741257
H        23.43900871     -4.87026739     21.08971214
B        23.11979866     -3.14587188     23.03743172
H        26.57343483     -4.09397125     21.58721733
B        23.97817039     -1.59296453     23.27057648
H        26.55427551     -2.59509683     24.11955643
B        23.95791435     -3.87889123     21.54252052
H        24.73170471     -5.32876062     23.33749008
B        25.57113647     -3.57470250     21.92676163
H        25.13148117     -2.50099063     19.38403893
B        25.56232452     -2.56717348     23.43284225
H        23.91028976     -3.08801198     25.49028778
B        24.59029007     -4.08745718     23.23304939
B        24.87266159     -2.63267660     20.52821350
H        25.74468422     -0.57650745     21.87675667
H        22.69888687     -1.48201311     20.90943146
B        24.12360954     -2.84926629     24.39620781
H        26.36125565     -2.30366540     14.27082920
B        23.93716812     -4.18265533     11.82353115
H        24.87718391     -5.68480253     13.72295475
B        25.58509827     -3.61621547     11.99997139
H        25.36812210     -0.56987703     12.08562374
B        25.26316452     -2.98537302     13.69362831
H        22.31693649     -2.04881191     11.13442707
B        24.50987053     -4.55802059     13.44322014
H        21.81827545     -4.24185610     13.46907616
B        24.93740082     -1.74415636     12.23193550
H        23.10730934     -1.15841818     14.03402424
B        23.18483543     -2.55343342     11.77054501
H        24.41895485     -2.88427043      9.73546314
B        22.94471359     -3.75280285     13.27141953
H        23.51367569     -3.55148149     15.71060085
B        23.71779060     -2.08867455     13.54216671
B        24.47636032     -2.88436270     10.88021374
H        23.51150703     -5.15108013     11.24152374
H        26.67731094     -3.95702028     11.69053650
B        23.98154640     -3.44364381     14.64543724
H        24.77874565      4.53932476     24.20708656
B        23.75927925      7.42067623     21.55421638
H        21.92886925      6.10987854     22.87421227
B        24.25078392      5.60443974     21.78663254
H        26.95114899      5.56186438     22.62348557
B        24.61839867      5.53651619     23.61061859
H        26.17336082      8.64773560     21.98481560
B        23.04913902      6.43302965     23.00426102
H        23.76778793      9.19486523     23.50469398
B        25.80260468      6.02073431     22.45771790
H        26.24112511      7.61474371     24.65396309
B        25.39137840      7.75418425     22.24336433
H        25.79469109      6.45255566     19.96432114
B        23.96075439      8.01825142     23.21745110
H        23.47377586      6.81545019     25.55263710
B        25.43976212      7.01040697     23.92759895
B        25.27804947      6.70820570     20.95463943
H        23.11276245      7.94956017     20.78102303
H        23.78907585      4.46765518     21.38665390
B        23.84257317      7.00503969     24.48644066
H        23.37997055      5.01239634     11.01619244
B        25.86804199      7.02690411     13.43314362
H        26.81905937      5.70189953     11.46490860
B        24.67298508      5.57922411     13.14994144
H        22.05242538      6.73669720     13.27811623
B        24.06826401      6.00220823     11.43787384
H        24.30246925      9.23886204     13.51513863
B        25.82997131      6.01648283     11.85703278
H        26.67791557      8.49347019     11.95015240
B        23.32414627      6.71858501     13.01273823
H        23.33164024      8.60338783     10.66281509
B        24.48885727      8.12358093     13.12785530
H        24.26219177      7.07239485     15.54826927
B        25.69546890      7.85978508     11.87896347
B        25.19996834      6.95168591     10.63361549
H        25.57700157      7.20511675      9.41697598
B        23.93346786      7.73648739     11.38183498
B        24.41924858      6.75836992     14.33599663
H        26.96810341      7.15968037     13.84488583
H        24.69258308      4.34368896     13.45421219
B        15.49705505      3.08770442      7.90790510
H        15.63082504      1.49297702      5.52150202
B        14.17536354      3.30691123      6.88148689
H        14.51017666     -0.53078932      8.04411221
B        13.99072266      3.32290936      8.73610497
H        12.27374458      1.21343410      9.18148613
B        15.18491077      1.82054734      6.61323404
H        12.83540344      1.07618868      5.79815817
B        14.61335754      0.66218174      7.84566021
H        17.21121597      1.12256181      8.19861794
B        13.21244144      1.64497674      8.64948273
H        11.55977249      3.41186833      7.68876219
B        13.45075417      1.60911453      6.82978821
H        15.29187584      1.89701343     10.36328411
B        16.03682137      1.43423092      8.03713989
H        16.44991493      3.77761054      8.15888214
B        12.64245987      2.88962770      7.67592382
H        14.01245975      4.24959183      6.15819645
B        14.88523674      1.92341673      9.19342613
H        13.96831894      4.20344210      9.54274845
B        15.76715279      2.77774954     17.29848671
H        13.10025597      3.45251441     16.81712341
B        14.70156097      2.78611612     18.77645111
H        13.35911083      0.35747457     16.11050987
B        16.06915092      1.49608481     18.68099213
H        14.43581104     -0.88983160     18.61852455
B        13.92833519      2.68721461     17.08158112
H        12.30986309      1.55347979     18.64997673
B        14.11535358      0.98534197     16.73871231
H        15.26293278      2.26458526     14.75400925
B        14.78079796      0.22102460     18.18603134
H        14.44939423      1.24522281     20.78831482
B        13.46974182      1.48703253     18.31893921
B        15.08951283      2.08568406     15.99027252
H        16.93717575      0.51971716     16.58047485
H        16.50460434      3.68172026     17.09258652
B        14.62250042      1.23347986     19.56473351
H        14.58536625      3.83738327     19.33617210
B        15.89410877      0.88060844     16.97959900
H        17.20856667      1.32034278     19.06141281
B        14.32286263     11.74197578      9.28127956
H        11.64360523     12.13575935      8.35311508
B        13.47682762     10.42146778      8.45891857
H        13.54492569     13.49733639      6.16937971
B        15.13687134     10.65333462      8.20902824
H        15.76233768     11.79148960      5.65571356
B        12.93282223     12.14682388      8.25288105
H        12.23520184     11.55420494      5.90247202
B        14.00599384     12.90094090      7.06202364
H        14.07745552     14.38415432      9.23306942
B        14.91552925     11.65495968      6.49098492
H        14.54521942      9.06047916      6.15481186
B        13.13810253     11.45518208      6.64716578
B        14.09353352     13.36801529      8.68616009
H        16.63268661     12.77387238      8.15584278
H        14.60394955     11.78338623     10.42504692
B        14.19950581     10.09068584      6.80722094
H        12.75466537      9.64754486      9.07041550
B        15.44200230     12.49476814      8.00037766
H        16.11643982     10.18411255      8.56971455
B        13.81859589     10.67489147     18.47366714
H        13.94942665      9.99638939     15.69667435
B        15.42974567     11.02877235     17.78427887
H        12.64361572     13.18600082     15.87635231
B        14.73764515     11.93416309     19.22366905
H        14.37296772     14.63788509     18.05309296
B        14.14765072     10.84068108     16.61102486
H        15.66999626     12.55541706     15.48205662
B        13.25168705     12.62798500     16.75892258
H        11.51555157     10.74067879     17.13715363
B        14.40619659     13.35283756     17.89321327
H        17.03353691     13.01880074     18.23247719
B        15.18942833     12.41222477     16.66027832
B        12.57564259     11.21178722     17.44156075
H        12.30581760     13.05419064     19.35690117
H        13.67081928      9.49227428     18.97214508
B        15.88417625     12.66969013     18.09072113
H        16.21920204     10.35324287     17.36576080
B        13.00709057     12.35511684     18.57432175
H        14.71915340     11.68887043     20.36693764
H        25.01564217      1.99486220      5.26171255
B        23.44517708      1.37880266      7.02006960
H        22.27130890      2.76570368      9.19644451
B        23.69241524      3.20506811      7.11409998
H        25.35329628      1.54029500     10.28565693
B        24.97872353      2.19718170      6.39500046
H        27.20552635      2.35229158      8.00314236
B        23.26771927      2.36072063      8.67318249
H        24.72780609      4.53719425      9.22550869
B        24.79957581      1.81429052      9.26122761
H        23.15360832     -0.34417456      9.12795067
B        26.02650833      2.49438405      7.94953108
H        25.49130440      4.81437492      6.59456158
B        24.72157097      3.46718168      8.62744236
B        23.61827469      0.68689227      8.64714909
H        25.59170532     -0.12852064      7.50089979
H        22.63380241      1.01680791      6.24634600
B        25.30399132      3.68241143      7.01470709
H        22.79429817      4.02719498      6.88540602
B        25.11692810      0.99110842      7.68174791
H        22.63889313     -0.37693593     16.79159164
B        24.69416618      0.35866272     18.03323555
H        25.98717690      2.00398874     19.62710762
B        23.54731560      1.51451147     18.69800377
H        26.06978035      3.54331899     16.44617081
B        23.15464973      0.62813991     17.15377617
H        22.91056252      2.64593148     15.48883724
B        25.33160210      1.98943102     18.53262711
H        24.09883690      4.24350166     18.01120758
B        25.32141304      2.59092593     16.70483398
H        27.21891975      0.87655717     17.34253311
B        23.56585312      2.15167809     16.29099655
H        21.42049217      2.71872473     17.60598183
B        24.05210304      3.04940152     17.76730347
H        24.97202492      0.37198442     15.22490978
B        26.05975533      1.22590256     17.31909752
H        25.09140396     -0.90609759     18.32409096
B        22.53918076      2.22497892     17.56864929
H        23.11447525      1.38091290     19.71155167
B        24.91115761      0.93803018     16.23330879
H        26.50435829     12.48868465      6.13607359
B        24.15105629     11.03214836      6.54208231
H        21.72390747     11.63173771      7.92537403
B        23.78669739     12.82045841      6.73059607
H        24.16956902     10.91101265     10.17557144
B        25.37162018     12.41644478      6.77424288
H        26.18566704     12.77301884      9.62581348
B        22.88945580     11.45488358      7.83790302
H        22.70905876     13.79821014      8.90375328
B        24.10824585     11.42289066      9.11821842
H        23.56867599      9.09360600      8.18696499
B        25.30637741     12.66839409      8.72475433
H        24.79274750     15.06298828      7.92553902
B        23.46330643     12.95625401      8.44832993
H        26.54766083     10.59336662      8.00350666
B        23.92100525     10.27001286      8.02966976
H        24.04997444     10.53967381      5.47117329
B        24.76780510     13.82579041      7.74824953
H        23.29944801     13.63468838      5.99375772
B        25.40234184     10.89878845      7.93558168
H        24.58611488      8.92555904     17.61121368
B        24.94029617     11.28670216     16.62215424
H        25.12257767     14.08290577     17.22266006
B        25.45985413     11.61832809     18.39970779
H        21.95628929     13.14830303     17.41120148
B        24.44594574     10.11914539     17.76158714
H        21.71588898     10.57370567     18.61602592
B        24.64240456     13.00137329     17.59582520
H        23.79548264     13.09939861     19.98255539
B        22.94111061     12.53714275     17.56789970
H        23.79019737     12.73646355     15.10021973
B        22.82958221     10.94958687     18.36669731
H        24.14418030     10.02175426     20.39414597
B        23.84658623     12.33076382     19.10517502
B        23.84046745     12.48611259     16.18119049
H        22.66577911     10.33421230     15.95773983
H        25.86017799     10.98225498     15.81012440
B        24.30716896     10.72071075     19.34296227
H        26.62911415     11.51454735     18.61429024
B        23.28960419     10.98289871     16.63190269
B         4.18484926      0.47988075      8.15974808
H         6.20946646      0.98886013     10.12717533
B         5.72277308      0.70245141      7.36562395
H         5.35606241      2.34877944      5.10987806
B         6.29364586      2.38053441      7.74834204
H         2.28027868      1.88559020      7.17799950
B         5.67346954      1.36221313      9.08495808
H         3.28797364      2.49821281      9.87234402
B         5.08204031      2.06016517      6.26860666
H         4.20546103      4.40365267      7.32641220
B         3.41911364      1.80938435      7.21143770
H         4.03016376     -0.03678565      5.48670626
B         3.99700332      2.18260908      8.89207458
H         5.67512512      3.91651440      9.73448181
B         4.56996870      3.24321079      7.63736296
B         4.27347374      0.54621935      6.52470875
H         3.71072340     -0.42775372      8.86063099
H         6.77304316      0.20245250      7.30879211
B         5.49174166      2.97058153      9.08413124
H         7.37261724      2.70319033      7.34560156
B         4.37797403      1.20944643     19.18072891
H         4.77078962     -0.83200926     17.68034554
B         3.17959428      1.10804069     17.83163834
H         2.76154923      3.37357855     16.59195328
B         4.26748514      1.44640350     16.25113487
H         5.41765976      3.99796891     19.03474617
B         4.76436949      0.32081455     17.68628120
H         7.14215517      1.84923697     18.72926140
B         3.65675664      2.81823230     17.28055763
H         5.88480568      3.56161308     16.46868896
B         4.94517469      3.04367113     18.64072609
H         2.35105467      2.74769473     19.64050102
B         6.01890087      1.63662040     18.23848915
H         6.92140913      0.53193527     16.06107140
B         5.35259104      2.61419797     16.89543724
B         3.26503539      2.41102076     18.89723778
H         4.41962242      0.56183428     20.18783379
H         2.27395415      0.40554482     17.73815727
B         5.86740494      0.98812968     16.58240318
H         3.89822531      1.09800684     15.10282707
B         5.85516739     11.10281944      7.64699411
H         5.93969345     12.05115318      5.23345709
B         4.31988239     10.64944363      6.88562870
H         2.08726811     11.19647598      8.55358601
B         3.54214883     12.42276001      6.62122631
H         5.01090145     12.15139675     10.27733135
B         5.26267624     12.05927372      6.24949551
H         6.56066895     13.77855301      8.38562393
B         3.31095624     11.50499249      8.25834274
H         3.69261789     14.07618713      8.87083054
B         4.84151983     11.90606689      9.11707115
H         4.60273838      9.17563248      8.58445358
B         5.81197834     12.90965462      7.78638554
H         4.89252329     14.83735180      6.35094643
B         3.99661279     13.17012119      8.11982155
B         4.66285992     10.31262398      8.44163513
H         7.09136343     10.80710506      7.81227589
H         3.98138428      9.83032131      6.09432888
B         4.76438713     13.66908360      6.68844938
H         2.53656912     12.56092548      6.14125395
B         4.04213810     10.69032288     16.35064507
H         5.76588058     12.33660030     15.08188152
B         3.99431634     12.50504303     17.11852074
H         3.91061592     12.42739487     19.68618202
B         5.59030533     12.77157974     17.72186661
H         4.33544111      9.06817436     18.73618698
B         5.38533497     11.89922714     16.18167686
H         6.31725550      9.31105804     16.45248985
B         4.25416231     11.76551914     18.70145035
H         6.64895582     10.68255424     19.48922920
B         4.43232346     10.15148449     18.10044098
H         1.78045058     11.09484386     17.94913864
B         5.80722666     10.32589722     16.86198807
H         7.96296215     12.08745670     17.11154366
B         5.91797972     11.03303814     18.50950813
B         3.02215481     11.05823994     17.62039757
H         3.68453097     10.31495094     15.30434513
H         3.43669868     13.38563824     16.70534706
B         6.78984118     11.72525692     17.16285706
H         5.89996672     13.96755505     17.96496010
H         8.58418465      8.12367535      5.25292683
B        10.27195168      6.74871540      6.54570770
H         8.12344074      9.31381416      8.52578354
B        10.03535080      6.05719519      8.22735882
H        10.29702187      7.87757254     10.12794018
B         8.84120274      7.68787384      6.33159208
H        10.70551300      9.37453365      7.03494930
B         8.64193535      8.33330822      8.05538940
H         6.23081446      6.88185787      7.48655224
B        10.08750343      7.76383924      8.94370556
H        12.51647472      7.06504965      8.05940914
B        10.18841743      8.34840965      7.28063202
B         7.47389555      7.12081099      7.48317719
H         8.05952740      6.35247087      9.79557133
H         8.63845158      4.84703732      6.66671276
B        11.28874874      7.18545437      7.85433578
H        10.55432320      6.17907047      5.58258677
B         8.60920715      6.75235128      8.81789112
H        10.30372715      4.82478285      8.42107773
B         8.73225498      5.97173691      7.11576223
H         7.22296095      6.52794886     18.50628853
B         9.21763897      5.90660334     16.95583344
H         9.58095741      8.96429825     19.22562599
B        11.00789642      5.78594112     17.49109459
H        11.76811695      8.55130768     17.77864456
B         8.42240620      6.51962948     18.36037636
H         8.26401997      8.37174416     16.58216858
B         9.53351402      7.81928825     18.91894913
H         9.10364437      6.33286524     21.15534782
B        10.89742756      7.74495649     17.66685867
H        10.51130581      6.85249662     15.07624626
B         9.10242176      7.75464439     17.05645180
B         9.32845116      6.33355856     19.90906906
H        11.64807796      6.51897287     19.98351288
H         9.63830662      4.02819109     18.41721344
B        10.47271061      6.83950949     16.27767372
H         8.59338284      5.16415644     16.36495018
B        10.77309990      6.61358690     19.18919754
H        11.81382275      4.92239571     17.50754738
B         9.67190075      5.28978491     18.60083199
H        10.22264957     -1.87895393     10.59000111
B        11.08015251     -3.59666800      8.51887608
H         7.24274635     -2.90660882      8.91264820
B        10.89344025     -3.00465393      6.67440844
H         8.18550873     -3.97150636      6.06472921
B        10.01338196     -2.42652869      9.44945526
H         8.97438049     -4.91553307      9.63788795
B         8.43493843     -2.63974118      8.44357872
H         8.95835304     -0.05742759      8.76440620
B         9.05487156     -3.73308134      6.91853380
H        10.56865120     -5.79826450      7.15340710
B         9.38920879     -4.12030506      8.73908901
B         9.39162350     -1.16718090      8.42386627
H         8.99897194     -1.15302706      5.98170137
B        10.39203072     -4.66087103      7.38249397
H        11.72627640     -1.07316649      7.96795368
H        12.27060509     -3.72060847      8.88975620
B         9.47200584     -1.93640208      7.01947498
H        11.82570076     -2.91245389      5.90242338
B        10.88027954     -1.84598768      8.01641560
H         9.40975094     -4.48453617     19.19137764
B        10.80850506     -3.19648290     17.53958130
H         6.90201330     -2.53048825     18.12221909
B        10.49669361     -1.47260213     17.18869209
H         8.02028847     -1.04435384     16.03168297
B         9.42212009     -3.40658236     18.79088593
H         8.21265984     -4.49362373     16.66221237
B         8.07173347     -2.35113835     18.33049202
H         8.72719288     -1.77813756     20.66880989
B         8.72246170     -1.62035859     16.72632790
H        10.41518688     -2.80832148     14.84360886
B         8.92491531     -3.48984289     17.09118271
B         9.07039261     -1.96565926     19.59777641
H         8.71535015      0.25595123     18.44766235
B        10.13020420     -2.57043886     16.09182930
H        11.44620800     -1.78735077     19.63511086
H        11.71329975     -4.03073454     17.70420074
B         9.01081276     -0.90021360     18.29451752
H        11.37354660     -0.72656351     16.91398239
B        10.50001431     -1.98160279     18.85128975
B        19.48917198      8.39170933      7.99998474
H        19.86020088      7.69202328      5.32463121
B        17.97699547      7.78831673      7.05269098
H        20.64477158      4.96564102      6.94417763
B        18.23505020      7.37529135      9.00806046
H        18.59236717      4.60463285      9.23336697
B        19.60609245      7.49829435      6.43471289
H        18.20365143      5.20269346      5.88095760
B        20.01939011      5.95654345      7.41936970
H        21.99343109      7.66637897      7.94464350
B        18.62016487      5.64682865      8.49231339
H        16.17440796      6.23308086      7.94770479
B        18.48532104      6.10302734      6.64109659
B        20.86548615      7.27784109      7.67058468
H        20.60763741      6.75137091     10.05684853
H        19.66806602      9.64580917      8.21746349
B        17.28921318      6.49933767      7.90631151
H        17.12431145      8.55901337      6.51984882
B        19.93833542      6.92744827      9.03145981
H        17.70882034      7.96358490      9.91839409
B        21.12916183      6.43273687     17.20003128
H        20.16283226      4.69850254     19.34352875
B        19.72961617      5.44972610     16.77983856
H        18.91298866      7.42775393     20.03400612
B        19.72269821      7.06849051     16.21011734
H        17.66732788      8.42644119     17.63739395
B        20.21821022      5.59834051     18.62959099
H        17.63578224      5.23087263     18.64187622
B        19.36475563      7.13607550     18.99166489
H        22.03713799      7.26347876     19.53221893
B        18.53503990      7.67284012     17.52025986
H        17.25006104      6.02729893     16.11306953
B        18.53485107      5.93395519     18.17991638
B        21.05569839      7.04975319     18.77197075
H        20.86778450      9.05330849     17.46543884
H        22.27117729      6.05065155     16.89448547
B        18.33165550      6.33171558     16.55072021
H        20.03724289      4.44712639     16.26937485
B        20.35224915      8.06118774     17.78946686
H        19.97637558      7.74383211     15.25227547
B        19.87942696     15.89153481      9.09561348
H        21.74783897     15.24781418      7.10976887
B        20.98351288     17.09640884      8.13146687
H        18.50388527     15.45683289      5.58832550
B        19.46497726     17.59352493      8.89239788
H        17.86191177     18.20384789      6.73562670
B        20.64042854     15.55635548      7.44677973
H        20.50322723     17.14291954      5.25697279
B        18.99843216     15.80279350      6.71545553
H        19.06538391     13.54172611      7.93653917
B        18.66386604     17.57551575      7.19986629
H        20.17064476     19.71552467      7.35141993
B        20.20358086     17.23365974      6.44538403
B        19.30442619     14.72214413      8.04181767
H        17.13036346     15.86816502      8.67079067
H        20.13618469     15.58400345     10.24940586
B        20.07741356     18.49715996      7.51328802
H        22.12689018     17.11926651      8.52933216
B        18.29692841     16.11063957      8.34886169
H        19.13542366     18.18882751      9.89104366
B        18.08491135     16.17059326     18.82625389
H        18.14245605     15.18327904     16.28118896
B        19.45553589     15.32062531     18.36730003
H        19.00600243     18.60357857     16.15629196
B        19.73507309     16.65099907     19.49550819
H        20.90322876     18.82625389     18.44064522
B        18.50094795     15.99867916     17.02356529
H        20.82957268     16.26577568     15.92835045
B        18.92878151     17.66547585     16.94088364
H        16.36812592     17.39873886     17.55401993
B        20.30148888     17.75431633     18.26445007
H        22.19445610     16.02168846     18.93400764
B        20.28086472     16.49740410     16.94039345
H        18.33524513     18.98362350     19.43553925
B        17.52617836     17.32454300     17.72172928
H        17.22331429     15.76134872     19.54354286
B        21.04305267     16.29440308     18.45667267
H        19.82477379     14.04301548     18.49880028
B        18.73963165     18.00136757     18.74480629
H        19.82935333     16.56834221     20.72992897
B        30.99463844      7.61812019      7.00139093
H        29.69563675      9.37387371      8.79186630
B        30.86118507      6.93678570      8.54009247
H        27.22411537      7.91775942      7.55321503
B        30.63862610      5.90365553      7.15419865
H        28.19994736      4.90846395      7.03954411
B        29.65448570      8.27868080      8.24687481
H        28.29057693      6.64183187      9.85638332
B        28.26894760      7.54302931      7.49344015
H        29.37864494      9.49969196      5.99701071
B        28.95949364      5.86487150      7.24584198
H        30.06168556      4.30116844      9.21313190
B        29.08846474      6.72851562      8.83660698
B        29.44488716      8.41325855      6.60152674
H        29.12536621      6.48223829      4.97573042
H        31.96785927      7.99345493      6.41191816
B        29.88043785      5.29921722      8.52284622
H        32.03997421      7.06775188      9.16350079
B        29.52955246      6.83551931      6.07328129
H        31.51288605      5.33947945      6.56823158
B        30.10216331      7.50475264     18.83437729
H        27.70558357      7.20409298     19.97596169
B        29.61124420      5.80270004     19.20919991
H        26.92159081      7.02991056     16.65809441
B        30.78230858      6.13872242     17.85384369
H        28.91322899      5.36715698     15.68971825
B        28.33439636      6.98791695     19.07187080
H        27.38036156      4.64820194     18.17515755
B        28.03110313      6.87060499     17.38384056
H        28.63080978      9.49207878     18.14394379
B        29.30452347      5.72118473     16.71945763
H        30.12479019      3.52661490     18.04347801
B        28.25004196      5.40066195     18.27911758
B        28.72477722      8.28427219     18.05467415
H        30.34445953      7.96605968     16.05048180
H        30.47088051      8.13039207     19.82974243
B        29.86318588      4.70006561     17.88351059
H        29.68761253      5.48745775     20.34120369
B        29.85728264      7.40575886     17.05083847
H        31.87528229      6.08245182     17.81017685
B        30.62121582     17.61878967      8.69012737
H        29.58952904     17.94473839      6.00199127
B        28.83810043     18.07690430      8.32683468
H        29.38823891     14.69094467      6.50796366
B        29.30088997     16.93823242      9.69909096
H        28.23216057     14.57674217      9.18245792
B        29.67963982     17.37726593      6.96958113
H        27.20867920     16.81684685      6.65410614
B        29.58465385     15.61311626      7.20993233
H        32.14347458     16.09008408      6.82611418
B        28.63735008     15.55930710      8.77964306
H        26.78440475     17.29423141      9.71204376
B        28.17156982     16.69046593      7.42382956
B        31.10134697     16.50739288      7.32546949
H        31.08879852     15.38921833      9.70483875
H        31.16249275     18.62499237      8.90426540
B        27.71625137     16.96013641      9.06134892
H        28.55385017     19.27840805      8.10878181
B        30.37876511     15.96076679      8.90136528
H        29.10406685     17.17893982     10.92704487
B        29.76708221     17.43395805     18.44852448
H        30.49704742     18.50684929     16.09903336
B        28.20944977     17.59662819     17.38181686
H        30.96690178     15.37482262     15.59940338
B        28.38858223     16.20103264     18.62606049
H        28.97834778     13.82606411     17.07078171
B        29.82874107     17.52402496     16.48937225
H        28.51261520     16.44435120     14.88444138
B        30.28515816     15.88497639     16.46500969
H        32.36030579     16.99679947     17.41279602
B        28.78681374     15.02977085     17.29711342
H        26.30302429     15.82075596     17.07445717
B        28.58059883     16.36952591     16.07198715
B        31.11892128     16.84898186     17.59553719
H        30.51739502     15.14928341     19.18680000
H        30.01379967     17.98763466     19.44669151
B        27.42684555     16.06945419     17.27719879
H        27.55815887     18.58593559     17.26409721
B        30.14673233     15.62814617     18.25529671
H        27.88081169     15.97866821     19.81183624
B        10.54099846      3.13365769     11.55183697
H         7.49785757      1.51723599     13.64493752
B        11.21936607      2.77775526     13.31802559
H         9.11316776      3.35136771     15.02489662
B         9.20467186      1.84058082     11.50840473
H         7.86192274      4.17817020     12.05752754
B         8.49821281      1.89446998     13.14297676
H         9.09172821     -0.76180410     12.49371243
B         9.52307510      3.11563706     13.94650936
H        10.48640442      5.33563662     13.25712204
B         8.77295113      3.31665015     12.23877239
B         9.43248749      0.51164317     12.58777142
H        10.84094238      0.84742296     14.74291992
H        11.71543121      1.18429363     11.26494980
B        10.21385479      4.13959312     12.86608982
H        10.98451424      3.62299609     10.54283905
B        10.37447929      1.36168563     13.74834633
H        12.46348095      2.71721125     13.56241894
B        10.86722279      1.43440735     12.03939247
H         8.45447159      1.68629742     10.42301083
B        10.91390419      1.53793097     21.71694374
H         7.87061357      3.84169507     22.88233566
B        10.82030869      0.98546791     23.41339302
H        10.56305408      3.30938816     25.10149193
B         9.13859177      2.18964481     21.35005760
H        10.70741558      4.30493116     21.83623123
B         8.69132614      2.95433569     22.79071045
H         6.79264736      0.99655914     22.28503609
B        10.32322979      2.79294229     23.94952393
H        12.77094841      2.60703993     22.96109390
B        10.44916725      3.22546768     22.15561295
B         7.94197416      1.33466554     22.42379570
H         8.57279778      1.08377457     24.91247368
H         9.57084560     -0.64129621     21.92161942
B        11.62394619      2.38318443     22.93330956
H        11.59123993      1.07539904     20.90603638
B         9.01290989      1.44204903     23.92206955
H        11.25278282      0.11687645     24.17113113
B         9.51186371      0.48405492     22.22221184
H         8.93747520      2.34810448     20.11734581
B         9.13605499     11.88352203     14.26381874
H         8.88503647     13.14997864     10.38166714
B        10.79071140     11.58536625     13.44276524
H        10.03249359     10.53361225     11.03187656
B         8.58015728     13.29928207     13.35319424
H         7.13871908     11.32858658     12.30780792
B         9.18860054     12.74785423     11.49602890
H        10.01246166     15.25942230     12.20337677
B         9.86517048     11.22288704     11.89960384
H         9.62915325      9.22299004     13.58537865
B         8.24136448     11.57446861     12.67725277
B         9.82631779     14.07879448     12.44096661
H        11.85308552     12.97877598     11.35754204
H        11.19539452     13.75065708     14.62917042
B         9.39658928     10.41669750     13.30273914
H         8.67999649     11.91381073     15.39692020
B        10.87675667     12.75430870     12.13403416
H        11.74248219     10.87130642     13.67716026
B        10.40433407     13.26050472     13.83635044
H         7.71327019     13.91176128     13.96744633
B         8.07658195     11.21502304     22.64467049
H        11.16513443     13.08119965     21.07711983
B         8.68467903     11.92038631     24.10326004
H        11.55956745     11.63192463     23.46333504
B         8.62979794     12.43854046     21.32991409
H        10.21938992     10.55225182     20.84749794
B        10.28291416     12.77663231     21.89815140
H         8.81725121     15.08421898     21.51490402
B        10.39936829     11.81286430     23.23531532
H         9.35837555      9.31777763     23.65284729
B         9.71425819     11.17219353     21.79304314
B         8.97088623     13.85384655     21.95236397
H         9.90214348     14.21577644     24.31379890
B         9.30326176     10.45372868     23.39064789
H         6.88903236     13.66106129     23.30457497
H         7.10108948     10.44006824     22.46810913
B         9.52902889     13.48362160     23.47833252
H         8.32331276     11.75325680     25.38766289
B         7.85409927     12.99882126     22.92080879
H         8.36579609     11.99550438     20.18227386
B        18.86281204      0.87007719     11.66280651
H        19.01104736      4.41838551     13.30121613
B        20.75630760      1.57348418     11.60416889
H        20.57409477      4.13328600     10.96540737
B        18.31313133      1.69001710     13.01856422
H        17.24034500      3.09191298     11.36123943
B        19.19479179      3.32096505     12.89746284
H        19.59882164      2.32208419     15.56794930
B        20.07307243      3.22132182     11.50893307
H        19.63707352      1.87304425      9.31646061
B        18.26824760      2.56014895     11.43167591
B        19.47349167      2.17834306     14.24723053
H        21.84701347      2.77170610     13.71878529
B        19.54691887      1.80638373     10.42425251
H        20.08891869     -0.30791199     13.42323494
H        18.25067902     -0.22179452     11.42920208
B        20.73040962      2.40652490     13.12391758
H        21.69104576      0.92685258     11.18049526
B        19.83421898      0.81191754     13.16227150
H        17.16081047      1.38783979     13.36565971
B        19.06257057      2.09296894     21.43358994
H        20.69432831     -0.30649903     24.01226425
B        18.73978233      2.99568963     23.04619026
H        18.30054474      0.83611810     25.03198814
B        20.38670540      1.14783311     21.78066826
H        18.75375748     -0.78047907     22.05266380
B        20.19109154      0.65671986     23.47196198
H        22.50397110      1.82140422     23.61182976
B        18.63573647      1.29540348     23.90744972
H        16.54278755      1.63832283     22.52737999
B        18.91573334      0.42087483     22.37165451
B        21.46306038      1.81960416     23.10456657
H        20.13656616      2.74924493     25.23262215
B        17.77053261      1.72643042     22.47772217
H        20.82855034      4.10206842     22.02842712
H        19.02372169      2.22796035     20.31088638
B        20.12322617      2.32026625     24.04114342
H        18.26303482      4.00502920     23.48808289
B        20.47110367      2.99230599     22.35753250
H        20.98556900      0.56847793     20.88205528
B        19.85506630     11.32281685     11.32142162
H        20.38184738     13.35606003     14.92947769
B        18.85943985     10.42005825     12.65252113
H        20.44863701     10.32675743     14.99663925
B        19.66503906     13.03269291     12.25263023
H        22.08523941     12.32906342     12.76789474
B        19.93091583     12.60571194     14.04671097
H        17.95306396     14.20610428     13.83462143
B        19.97109032     10.87761974     14.02479744
H        21.24953461      9.35627937     12.18361378
B        20.92761230     11.92902660     12.76882267
B        18.47450638     13.24876785     13.52192020
H        17.54338264     11.38483715     14.85647011
B        20.50046730     10.27562141     12.43766499
H        17.20695686     12.20865917     11.59109116
H        19.86810112     11.42650795     10.09737015
B        18.44975662     11.57086277     14.05310249
H        18.04817963      9.42603493     12.69612885
B        18.16041946     12.06560230     12.26518250
H        20.24517632     13.93493080     11.76875973
B        17.73882484     11.94431400     22.28323174
H        20.54366875     11.07311344     24.92880249
B        19.24773788     12.43997097     21.46180725
H        21.01770973     13.30257320     23.46642303
B        18.26887512     10.45891571     23.23851395
H        18.03223991     12.58295155     24.96011162
B        19.92826843     11.01678944     23.93103027
H        20.29340172      8.80107307     22.64750290
B        20.02927589     12.65043354     23.15729713
H        18.22380257     14.48772812     22.68351364
B        18.52943802     12.11126995     23.90540886
B        19.75319862      9.78756905     22.69285774
H        21.58018684     11.39934921     21.47630692
H        18.50615501     10.05763149     20.47628021
B        18.53269005     13.35810757     22.65741539
H        16.63035583     12.02906132     21.79381180
B        20.53793526     11.25255489     22.04629517
H        19.48606110     12.82475185     20.33489418
B        18.90974998     10.60090160     21.48815727
H        17.39841461      9.87045956     23.75498581
H        31.92436790      1.35218203     13.02733707
B        30.21640015      2.82806659     12.02318859
H        28.92757988     -0.63406438     13.59936047
B        28.53185463      3.08027482     12.45254993
H        26.80356026      1.00063694     12.32285500
B        30.75180817      1.52284944     13.24991226
H        30.22599030      0.16041572     10.81750870
B        29.27758980      0.54772705     13.48598480
H        29.93304825      1.36002350     15.86267567
B        28.03957367      1.32554042     12.29960251
H        28.81785583      2.00611353      9.83946228
B        29.84293365      0.88498986     11.72288704
B        29.79210091      1.53028190     14.65999985
H        27.31645966      2.05902529     14.64750195
H        30.60694885      3.99450159     14.14477825
B        28.94533920      2.16072631     11.01053143
H        31.05224991      3.43667555     11.37668991
B        28.27460480      2.10607791     13.94925499
H        27.92628098      4.08974600     12.29560471
B        29.97747612      2.97784829     13.85575485
H        27.28660202      0.19753827     23.60094452
B        28.20237732      2.42349362     23.93432426
H        30.75851250     -0.58240938     22.83265877
B        29.63855743      3.31730556     22.89905739
H        31.97904778      1.90205228     23.83926010
B        28.26267815      0.82582074     23.33792877
H        29.68910217      0.64925438     25.59787369
B        30.05103493      0.36087841     22.98200226
H        28.51703262      0.47085720     20.58270073
B        30.74826431      1.89041245     23.51049995
H        30.12534904      3.74575782     25.56122208
B        29.51384163      1.24020982     24.59082794
B        28.90901947      0.85134077     21.69033051
H        30.76032639      2.25672317     20.85172272
B        29.80079651      3.09404206     24.49342918
H        27.50000000      2.61935234     21.59890938
H        27.13278198      2.83003283     24.40834999
B        30.18247032      1.94584537     21.84000587
H        29.88672256      4.31729555     22.53026199
B        28.42474747      2.28173327     22.19050598
H        29.78718376      9.40523148     11.75494862
B        27.92310524     11.36257458     12.22135353
H        31.09391022     10.32647896     14.30294228
B        28.49416733     12.91432095     12.93038750
H        29.47907257     12.57432175     15.56880093
B        29.57317543     10.50821495     12.16378403
H        28.13156509      9.30669022     14.10636425
B        30.38032913     11.03538704     13.69435120
H        31.83404541     11.36610889     11.35290051
B        29.11013794     12.09507561     14.38744831
H        26.46272659     12.39283657     14.25858212
B        28.58977699     10.46222782     13.68051720
B        30.90007401     11.58842945     12.14320755
H        30.92590714     13.71502781     13.52810097
B        27.49212456     11.88168144     13.76961708
H        29.19412231     12.77208519     10.52736950
H        27.21132278     11.21588898     11.26196766
B        30.24756432     12.77972412     13.15670109
H        27.86560249     14.10400677     12.67486382
B        29.43749619     12.18559456     11.58252716
H        27.59111977     11.28299332     20.69511414
B        29.81023979     10.67073822     21.89076996
H        28.20528221     14.31011486     21.99933434
B        30.28311920     11.25976849     23.63434601
H        30.83510017     14.08075428     23.22313118
B        28.29518700     11.57131386     21.62029648
H        29.99234200     12.80825233     20.16892242
B        28.59734535     13.20187569     22.34575081
H        26.35353470     12.25388908     23.53681564
B        30.34324837     13.01017189     22.94821739
H        32.22042847     11.39196777     21.96767426
B        29.80206299     12.38667870     21.27992630
B        27.47330475     12.11849976     23.19796944
H        29.10878754     12.73198605     25.15077019
B        31.05844688     11.67417336     22.19783974
H        28.44537735      9.70974159     23.79958534
H        29.90664673      9.58010769     21.37148857
B        29.02337646     12.37603092     24.00465012
H        30.98323631     10.62855339     24.42150116
B        28.57855415     10.77367020     23.29085350
