1056

Na      -48.85980606    122.14771271     51.37298584
Na      -78.13399506   -164.66462708     12.61145687
Na       30.52444649     68.72209167    106.33134460
Na     -109.41378021     57.73081970     15.94967747
Na      -98.67445374    -45.53199768      6.99846268
Na       -9.79468918     57.14821243    -43.04678345
Na     -153.57278442    107.86348724     70.50276184
Na      -18.46398735    -69.46714020   -139.76100159
Na      202.71659851     82.79138184    -42.38747787
Na        4.44836855     83.35048676    -12.71780396
Na       -5.63149261      2.42478466     11.34971619
Na      113.75621796    -61.13261032     12.15150261
Na      -33.41662598    -25.74915123   -126.69095612
Na     -103.65807343    171.20544434    -71.65521240
Na       45.48939514    225.46308899    -56.37249756
Na       53.61925888    -26.15624619     61.41855621
Na        0.02876458   -139.81196594      6.34345007
Na     -103.82293701      9.34293270    -52.10815048
Na       34.11787796    150.56600952    -40.58731842
Na     -117.64510345    -11.65397549     81.14288330
Na      -89.85607910      7.91637373    -87.60574341
Na     -201.30130005    -25.40620041   -188.72105408
Na      132.00268555    -46.68344879     79.77565002
Na      123.13745880      7.42598772   -142.08604431
Na      104.01352692    -35.78108215     51.56747055
Na      -44.13872528      1.60257804    -91.22576904
Na      -82.70175171    -89.10031128      5.62991095
Na      178.40469360      4.08252001   -155.45286560
Na       79.12760162    -30.70396805      8.42086411
Na      -53.32866669     42.70246506    100.83324432
Na      -59.24710464    -11.30687523     36.71253967
Na       15.72471809    -95.65090942    114.86017609
Na      -44.60798264     97.23452759    -26.77868462
Na       54.64354324    117.70500946    -76.28209686
Na     -157.12835693    -90.08940125     96.33982849
Na      182.54107666   -110.00740814    -57.44446564
Na      128.71565247    -15.42289257     -2.70039916
Na      -87.96932220    -27.30413628    169.63475037
Na     -148.19644165    -19.82643890     21.91966820
Na       53.29658890    -39.34278107     97.15883636
Na      336.57992554    -96.20790100     21.26392174
Na      197.96557617     42.98837280     17.09099197
Na       58.81302643    -22.19626236     90.01356506
Na      -99.00320435     53.11594772     37.10116959
Na       29.21103096     13.77934170   -137.24765015
Na       85.08446503     37.03811264     47.25274277
Na      -24.44671059     38.11477661     20.87201691
Na       73.58991241    157.24574280     76.48619843
Na      -49.84902954      4.20428228    -12.22852421
Na        8.96051788    -65.55432892     95.67994690
Na     -148.04618835     82.99483490   -149.49635315
Na       20.33934784    196.09111023     81.74014282
Na       54.86618805     23.30372620     22.86777687
Na        5.73831892    -49.41224670     12.60326481
Na      113.47795105      4.23942518    -12.60506248
Na      167.73558044     62.54000854    110.66294861
Na       -0.44451812    -17.45243263     -7.04472923
Na       79.36040497   -105.60576630    119.87744141
Na        4.94201231    -60.72086334    -87.49081421
Na      129.03373718    -31.44407845    -26.81830788
Na       54.86882019     47.94971085      1.55796516
Na     -133.52108765    113.22501373     95.00809479
Na       69.05156708     87.64798737    -32.10173035
Na     -161.54495239     22.93897438    -97.13333130
Na      -68.21015167     46.94562149     23.04569817
Na        0.20418693    113.03932190   -101.88864899
Na       29.53310776    -36.29107285     56.71587372
Na       15.02100372    -31.31336975     11.65187263
Na      -43.25422287    107.60027313   -101.97400665
Na      -20.13521004    106.59540558   -136.55178833
Na       78.58348083    136.32595825     66.62164307
Na       63.27556992    115.87434387   -102.40642548
Na       43.67478180   -100.87007141     64.76425934
Na       63.34288788    -25.98235893    -26.88798904
Na      172.82456970    -69.80554199     -3.21135020
Na       19.08575630    -89.03829193    -26.18792343
Na       94.37645721     43.16586304   -101.61489868
Na       10.47018814     52.43796921     27.27441597
Na      -14.69708443    116.80155182   -116.66794586
Na      138.38182068    -21.75462532   -106.78597260
Na     -114.10462952     73.32841492    279.99069214
Na       72.24170685     64.60447693      3.97238564
Na       29.88159370     13.32137108     65.07457733
Na       69.52470398    -21.78568459      2.83631635
Na      -63.96074677   -105.06510162     -2.98379564
Na      -83.66712952    -95.33466339   -125.94789124
Na      -49.93188477     13.49744892     22.41737175
Na      -89.43177795   -139.03002930    154.51744080
Na     -138.84158325   -120.74646759    188.66140747
Na      -14.27761745     53.78326035     -8.37377167
Na       18.81651497     24.20259666    -11.45379734
Na      -39.31294632   -115.44560242   -174.93383789
Na      -55.11630630    116.97608948     85.92179871
Na      -48.54446030   -138.57438660     47.55984879
Na      142.71623230    -11.49421883    -91.81057739
Na      113.85462189    -26.56077576    -52.50614166
B         3.06919217     22.17014503      3.64215541
H         5.11110401     20.66067314      4.17736959
B         3.54179764     22.06526566      5.31242657
H         1.35482776     21.92789078      6.89376831
B         2.98766994     20.56754684      5.83075809
H         0.34911290     22.17012596      3.63255978
B         3.90127349     20.73651505      4.20492840
H         2.21610618     19.83200073      2.31582856
B         1.85313976     21.82351112      5.76155043
H         0.18604475     19.89295387      5.04822206
B         1.38793314     21.78685570      4.07516098
H         2.42544222     24.29975319      4.74971437
B         2.30771732     20.46136665      3.34769416
H         3.15242934     18.18375206      4.91183233
B         1.35865688     20.24385834      4.94373226
B         2.35004115     23.05687141      4.76059294
H         3.66147327     22.72949409      2.66366410
H         4.49412107     22.34836769      6.06907320
B         2.85872221     19.42569733      4.56866169
H         3.35986710     20.37001610      7.00772953
B         2.48093534     20.93079567     15.94514561
H         1.48320091     18.44674110     15.56850624
B         1.04151928     21.15466881     14.89514542
H         1.58670831     22.43102646     12.53765965
B         1.71285844     20.12972450     13.33481884
H         4.47756100     22.52895546     14.72267151
B         1.96514428     19.47694969     15.17585373
H         4.60990763     19.93815994     15.90647888
B         2.11241508     21.84448051     13.49988842
H         4.41564417     20.79587364     12.61133575
B         3.54291797     21.65647888     14.71588802
H         2.18785882     23.53570747     15.77210808
B         3.71930885     20.04326248     15.05025005
H         3.17008758     17.92492676     13.54333210
B         3.41980934     20.68727493     13.21473312
B         2.05981970     22.47983742     15.19909954
H         2.52467108     20.90038109     17.19880676
H        -0.22358799     21.17277908     15.02173519
B         2.92516327     19.10591507     13.76554966
H         0.98852473     20.01688576     12.44238377
B         3.18695045     11.63122654      3.16036034
H         2.22812057     13.77514458      4.51587915
B         1.43992841     11.56385231      3.37907767
H         0.83099234      8.88268089      4.13974094
B         1.29546881     11.15174294      5.12216377
H         4.41835451      9.36153126      3.71144867
B         2.46903515     12.49587822      4.45299530
H         4.95737600     11.65737152      4.93304396
B         1.50323653      9.83820152      4.08819532
H         2.91554046      9.34644032      6.40476322
B         3.41473246      9.97159195      3.85244846
H         2.31633854     10.30613041      1.43221009
B         3.78273845     11.33913040      4.92984009
H         2.62456012     12.26848316      6.96681356
B         2.65495348     10.10030079      5.45109367
B         2.24882770     10.35522938      2.63002563
H         3.97304177     12.14694023      2.52178216
H         0.56725144     12.09283447      2.66231680
B         2.59379911     11.77071857      5.97757864
H         0.29518437     11.24577236      5.70756912
B         3.11748290     11.82311535     15.88546753
H         5.43061733     11.56859779     14.45321465
B         3.81520295     10.12113380     15.90622902
H         1.62548935      8.45981884     15.50491238
B         3.35919285      9.58997536     14.09333897
H         0.39240637     11.27436447     15.68648338
B         4.21781254     11.16315174     14.48112774
H         2.13769174     13.12264824     13.75042534
B         2.22431135      9.46750832     15.31938362
H         0.70170134     10.07907581     13.18290615
B         1.58268559     11.11117649     15.42703342
H         1.95771849      9.97181892     17.77053070
B         2.55795860     12.10781384     14.33916378
H         3.02204514     11.18802452     11.94389629
B         1.75013745     10.36590576     13.90079594
B         2.43818617     10.46238995     16.72665215
H         3.27208948     12.74284840     16.52398682
H         4.80327511      9.51696777     16.29333115
B         3.08915043     11.07537651     13.18343067
H         3.80242252      8.56757069     13.61278248
B        11.23423481     21.28300858      5.21218729
H        11.49232197     23.05095673      3.49671674
B        12.98280430     21.95609474      5.31872463
H        14.69470787     19.87743950      5.81912088
B        13.67447090     21.38194656      3.81528258
H        11.87920570     18.35740280      5.50831699
B        11.88446617     21.97784805      3.78812265
H        10.31960106     19.97837830      3.23969555
B        13.64798164     20.30430031      5.24167633
H        13.48177719     18.61991310      3.32670546
B        12.03104782     19.57708168      5.23925924
H        12.45007229     20.85820961      7.55966377
B        11.37989521     20.24356270      3.68643498
H        12.67785358     21.01705360      1.42861402
B        13.13285160     19.64603996      3.78081322
B        12.43537426     20.82609558      6.34887552
H        10.15778160     21.81882286      5.56815052
H        13.42762375     23.00168991      5.71124601
B        12.66735554     20.85588837      2.64359856
H        14.85144806     21.81322098      3.64706588
B        13.17945957     21.32337189     15.44810390
H        11.03655434     22.97781563     15.30176830
B        13.10010624     22.11768723     13.88027287
H        13.76968288     20.17276764     11.93780994
B        11.72124195     21.36738396     13.02276516
H        13.58834839     18.58673477     14.71969509
B        11.54854202     21.96925163     14.79690456
H        11.46177197     19.72912216     16.32634544
B        13.38752651     20.53255844     13.03846741
H        11.62468624     18.70507622     13.11926460
B        13.34078979     19.75959015     14.51846027
H        15.64866829     20.92454720     14.28418732
B        11.77049446     20.32249641     15.30659485
H         9.36765289     20.74225235     14.12110996
B        11.85249329     19.72068977     13.64764309
B        14.36955643     21.00729942     14.29013348
H        13.62824249     21.84679413     16.51834679
H        13.19754219     23.23156929     13.50007534
B        10.59935951     20.78948975     14.11470509
H        11.56745434     21.79681969     11.76060772
B        13.05615234     11.72757053      3.60770607
H        14.81385899     10.54358578      5.07414389
B        12.61404419     12.06882381      5.42258024
H         9.74060535     11.56291771      5.22478104
B        12.03704548     10.22075462      5.92412281
H        10.75381184     11.17725277      2.18612480
B        13.61661434     10.54504108      4.89213753
H        13.04970741      9.48591518      2.25960684
B        10.84276104     11.35387230      4.94216013
H        10.43732452      8.73403168      4.41890192
B        11.34119511     11.10401535      3.21373916
H        11.37793827     13.49334049      3.63258910
B        12.75377750      9.89171124      3.41211009
H        13.14797878      7.86768818      4.72712088
B        11.09186268      9.69631767      4.42551565
B        11.75112629     12.54440784      4.11272907
H        13.93005657     12.41854572      2.97084284
H        12.70413303     13.00787163      6.19441223
B        12.80912876      9.07459068      4.99099827
H        12.00151348     10.31178474      7.18355465
B        13.98452091     10.45439434     14.26094437
H        13.01321411     12.65240765     13.16798973
B        12.25459099     10.43730450     13.68340874
H        10.89082909      9.07252502     15.77184868
B        11.41004848     11.59240246     15.08473778
H        13.66054916      9.34428596     17.16580009
B        13.03591728     11.94897652     14.07604980
H        14.99221611     11.94303322     16.12724304
B        11.66140366      9.87429142     15.26952457
H        11.96292686     11.47358513     17.64263344
B        13.25891685      9.72366619     16.01279068
H        12.95269012      7.95807171     13.88595772
B        13.87126637     11.66379833     15.60493088
H        12.15464783     13.69232464     15.84359932
B        12.38089371     11.19655609     16.49735260
B        13.02903175      9.03432560     14.47032547
H        15.08126640     10.25675392     13.63028431
H        11.90935707     10.31713009     12.58378029
B        12.57778740     12.63924026     15.59955215
H        10.27711296     11.91136456     14.95751381
H        21.26521683      0.74463069     21.98804665
B        23.42801476      2.04078889     24.83549500
H        21.73161697      3.47035551     23.34458351
B        23.32896233      1.21176195     23.20022583
H        23.50082779     -1.31996179     23.70141792
B        21.63021278      0.73853970     23.17970276
H        23.27916336     -0.00545660     26.72180748
B        21.89603806      2.39182472     23.99998474
H        21.22632027      1.97353578     26.56802559
B        23.08606911     -0.26261917     24.04242897
H        20.70616341     -1.07259238     25.01630974
B        23.03905106      0.50801963     25.70063210
H        25.54909515      0.48682642     24.63623428
B        21.81218338      1.56902146     25.52017593
H        19.53029060      1.39797056     24.15503311
B        21.45108986     -0.14639488     24.79983711
B        24.36548805      0.69229829     24.59700394
H        23.90079117      2.97859669     25.44663620
H        23.84445190      1.34085739     21.96984100
B        20.64578438      1.27130067     24.36725998
H        25.06187057      1.30987918     13.11261177
B        21.47269440      1.72821057     15.15348721
H        21.98994637      2.74311256     12.69767284
B        23.21800995      2.35874748     14.82219124
H        24.92361069      0.45536917     16.16167831
B        23.97056198      0.99822116     13.63933277
H        21.67808533     -0.87834787     16.39143562
B        22.26348495      1.86790025     13.42634201
H        20.44347191     -0.14568138     13.67543221
B        23.90730286      0.73817039     15.45480633
H        23.55257607     -1.59221733     14.25216770
B        22.12210464      0.01376251     15.56883621
H        22.68187904      1.97149003     17.41804504
B        21.47860336      0.27265602     14.03672123
H        22.53651619      0.27670142     11.52195740
B        23.18682289     -0.41956079     14.10097313
B        22.60035133      1.54889929     16.26592445
H        20.37627983      2.23578668     15.18065071
H        23.67188263      3.39626193     15.02143764
B        22.73199081      0.36525646     12.69799137
H        21.91033173      8.47406578     25.91581535
B        21.65967560     11.88729477     23.66475868
H        20.10733032     11.45688343     25.83131599
B        21.12286568     10.21786022     23.86169434
H        23.34469223      8.61433220     23.30869293
B        22.25831604      9.58770847     25.38047600
H        24.28997231     11.76140022     22.95495605
B        21.30440712     11.21711922     25.26320267
H        23.37149429     13.24833679     24.88503838
B        22.98326492      9.67953205     23.70775795
H        25.07312393     10.42826748     24.93359756
B        23.34803772     11.34584808     23.55473709
H        22.06896400     10.58430672     21.45414543
B        22.86517715     12.18099594     25.05320168
H        22.74914932     11.10993099     27.42586708
B        23.83499527     10.50029659     24.96490479
B        22.17295837     10.61182594     22.68071556
H        21.04614258     12.93103313     23.34930420
H        19.87975502      9.89733124     23.92014694
B        22.60636330     11.02888775     26.31557083
H        24.00755119     11.58992290     12.38681889
B        21.20036888     11.16617393     15.31890965
H        20.59980011     11.29605961     12.66657734
B        22.34513092     12.34706879     14.33308125
H        25.00334358     11.13442230     15.33366585
B        23.31344223     11.19767475     13.36632729
H        22.61784172      9.57926941     17.08022881
B        21.52256012     11.13443470     13.44826412
H        20.97597504      8.57563686     14.67658424
B        23.79133987     11.14410686     15.12582302
H        24.11295509      8.72016048     14.59286213
B        22.44713402     10.08785152     16.00798035
H        22.26994514     12.35088825     17.03862190
B        21.49697876      9.57364082     14.44801521
B        22.45238686      9.68850327     12.96210480
H        22.20034409      8.98048401     12.04809284
B        23.24961281      9.52622700     14.36373425
B        22.47370911     11.90533924     15.94519711
H        19.90875435     11.12726974     15.74552345
H        22.23443031     13.46894550     14.00483036
B        11.36534309      5.83358717     10.03815556
H        11.50046730      5.89468336      7.24649763
B        12.26547146      4.41639948      9.14414597
H        13.76202202      8.07749462      8.52387619
B        12.56504536      5.09628630     10.92296600
H        15.36947346      6.04288626     10.43009853
B        11.90652752      5.97670603      8.35834789
H        14.54860687      5.30299616      7.66624689
B        13.28655815      6.98292875      8.89369011
H        10.96250916      8.25975704      9.18090630
B        14.08068466      6.00230885     10.20974255
H        14.71685505      3.74147773     10.15128422
B        13.74575043      5.40997696      8.54722977
H        12.68955612      7.45152998     11.76573467
B        11.57554436      7.36859703      9.45846176
H        10.17317867      5.65746117     10.30473518
B        13.84611416      4.39853096      9.90131283
H        11.61015701      3.49565959      8.74700451
B        12.64312363      6.86009932     10.62821960
H        12.28443813      4.78226471     12.07916451
B        11.75986290      6.84261274     19.86999893
H        11.24811935      5.23088741     22.00605774
B        13.42218971      6.49860334     20.83180618
H        11.89525986      3.00828528     19.24915504
B        13.33868122      6.75563335     18.99629974
H        14.12403584      4.40849590     17.84497643
B        11.78506184      5.43671465     20.87062073
H        13.97197723      3.76318669     21.14410591
B        12.08982468      4.15845203     19.51450920
H         9.63962841      5.22610760     19.19959831
B        13.56815624      5.00160933     18.73971176
H        15.70091915      5.91677237     19.55537415
B        13.49892330      4.70852613     20.49311256
B        10.76922703      5.50633097     19.46016312
H        11.94827366      5.78783226     17.12969971
H        11.04975700      7.94447041     19.96534348
B        14.55163670      5.97729778     19.82904243
H        13.44344425      7.08563805     21.84205437
B        11.99980068      5.60104036     18.35021591
H        13.46713448      7.63004589     18.25090790
B        13.58338070     16.51110077     10.46945000
H        11.20809937     16.85107231     11.94042110
B        12.57406425     14.97140217     10.57467747
H        10.56360626     17.75329971      8.85387039
B        13.49812508     15.32002640      9.04973316
H        11.89775944     15.69162464      6.91154957
B        11.74488831     16.58619690     10.83103848
H         9.86672878     14.99340630      9.88147926
B        11.40707302     17.00518990      9.08854008
H        12.98404121     19.08628654     10.35442924
B        12.00854874     15.55959225      8.08656120
H        12.17239666     12.98997593      9.05316353
B        11.00345325     15.25987625      9.73153973
B        12.63909721     17.81286240     10.11250496
H        13.97090912     17.34578133      7.86040497
H        14.69863510     16.53300858     10.95603657
B        12.12530422     14.15568542      9.11790180
H        12.80290794     14.07355309     11.33901310
B        13.11470985     16.95926857      8.60149479
H        14.64476204     14.99356937      8.61254215
B        11.53398800     15.49788857     18.09492683
H        13.97558594     14.06325054     18.26960945
B        11.72408867     14.63383579     19.72716331
H        14.71384430     17.39382362     19.18484688
B        10.92583847     16.31318665     19.53704262
H        12.59642792     18.05745316     21.08422279
B        13.28155899     14.89383316     18.75858688
H        13.80054760     14.73828983     21.20046806
B        13.73394012     16.73843765     19.13742065
H        13.70664787     16.58489799     16.81208992
B        12.36245060     17.03917313     20.45687294
H        11.48120117     15.44064045     22.21851730
B        13.19455528     15.39190769     20.39158440
B        13.07946396     16.17928886     17.68047142
H        11.56631947     18.18161392     17.89200592
H        10.86820316     14.72312641     17.47267914
B        11.66222477     15.58601761     21.09881592
H        11.22269440     13.60523987     19.44177628
B        11.94765091     17.15774155     18.36044884
H         9.70363808     16.32867622     19.58715439
H        21.53932381      3.48614311      8.57843304
B        23.34368324      4.93784189      9.74318409
H        23.70617485      6.89514589     11.69611931
B        21.89982986      5.08064365     10.80182838
H        22.67729950      8.49922180      8.76825905
B        21.68334007      4.57945251      9.03919983
H        20.16548729      6.56745005      7.89284801
B        23.15382957      6.61784840     10.54996395
H        20.74021339      7.76572037     10.80146503
B        22.48206139      7.31893110      9.06491280
H        25.04380608      6.78891277      8.93181419
B        21.01186752      6.27267075      8.72501659
H        19.35760880      5.43924713     10.26903534
B        21.39004898      6.95481491     10.30383587
B        23.97180176      6.44761181      9.19141865
H        22.88467598      5.48695755      6.97501278
H        23.94069099      3.97590303      9.95179939
B        20.46919441      5.43121719     10.00550461
H        22.17047882      4.26976061     11.60968590
B        22.79542351      5.70682335      8.21302509
H        20.20840454      6.62430525     21.13672638
B        21.31504822      5.71999550     19.04200935
H        23.42952156      4.27152348     18.12283134
B        22.13438797      4.42845964     20.38720131
H        24.68024254      7.27846289     19.12564278
B        21.20672226      6.10689592     20.70102501
H        23.15300369      7.92820835     21.66582298
B        23.13570023      5.08048534     18.92228889
H        24.75032043      4.96460199     20.91799545
B        23.65075493      6.65238380     19.23355484
H        22.39666557      6.84267902     16.84560394
B        22.89503288      6.93963718     20.91435623
H        22.48178482      5.19689941     22.93617630
B        23.73373413      5.34940147     20.47022247
H        21.20033073      8.29125595     19.35235214
B        22.45247841      6.36782074     18.06320572
H        20.14909554      5.33045006     18.71722031
B        22.46193314      5.46351194     21.65457916
H        21.74621391      3.29277730     20.27819824
B        21.89287758      7.31588984     19.43186569
H        20.71651459     15.07900715     11.28222084
B        22.86109352     16.26091766     10.81847382
H        24.23721695     17.79487419      9.16904354
B        21.81536484     17.02585793      9.55029583
H        24.35147285     14.60027409      7.70193911
B        21.31508446     15.34353828     10.26401043
H        21.75384521     13.55315495      8.23675251
B        23.55782890     16.87345123      9.16225529
H        22.35655403     16.51142693      6.98891306
B        23.54953194     15.08382130      8.54661083
H        25.36739159     15.30688953     10.37470913
B        21.96127892     14.58557224      8.82777023
H        19.81522942     16.07303047      8.19173813
B        22.34140968     16.17683029      8.07703876
H        23.17340469     13.56617165     10.75026035
B        24.27297020     15.61982155      9.99019337
H        23.15698624     16.62016678     11.93299961
B        20.86714363     15.95479965      8.79557896
H        21.30148315     18.12496185      9.70237350
B        23.09224129     14.64306927     10.24517250
H        24.24990845     14.42415905     18.61416626
B        22.29093552     16.18183899     17.90858078
H        21.13675690     18.43865204     19.42858696
B        23.28752518     16.80447960     19.35476303
H        19.75988960     15.60050201     20.74632645
B        23.24194908     15.00079536     18.99046135
H        21.95549011     13.68811417     21.02610207
B        21.57946014     17.37613869     19.32837486
H        21.80531693     17.25722694     21.75325012
B        20.75337029     15.79977798     20.08234406
H        19.64212799     16.48885155     17.84114838
B        22.16023636     14.78599358     20.44549751
H        24.74222374     15.44110584     21.13256073
B        22.27584267     16.63778496     20.84494400
B        20.62763977     16.31307983     18.46046066
H        21.32748604     13.69082355     18.26924706
H        22.95103645     16.41622353     16.90860176
B        23.70070839     15.66925144     20.68723679
H        23.87051582     17.83394623     19.10746002
B        21.51313019     14.78725052     18.65556526
B         2.82081556      6.92399788      8.89401150
H         4.91218710      5.78292418      8.89136124
B         3.51029921      7.14031982     10.44292736
H         1.18749714      6.93925810     12.29074287
B         3.23679376      5.51394272     11.42112541
H         0.14262761      6.52550220      9.20372009
B         3.97232866      5.60270071      9.65823460
H         2.02339721      4.76451731      7.82606411
B         1.88826931      6.73528957     11.26053333
H         0.51523697      4.95023727     11.34627342
B         1.18839419      6.49667788      9.60656548
H         1.57736707      9.07877254      9.83224964
B         2.32119656      5.22981739      8.98098660
H         3.17851996      3.20813489     10.63895416
B         1.54430687      5.17641783     10.69931984
B         2.05952430      7.85722017     10.02757549
H         3.13921332      7.29680347      7.81308079
H         4.32472706      7.99666643     10.76286602
B         2.98295045      4.29563379     10.27130318
H         3.65031457      5.35445499     12.45790672
B         2.95846987      6.06364298     20.65575790
H         5.10353088      4.69564724     20.51638985
B         2.69909739      4.51282883     19.93620682
H         0.90507030      4.86553812     17.77693748
B         3.45171952      4.50551319     18.18414879
H         1.71691942      8.04184055     19.40412140
B         4.32143784      5.23839188     19.81949615
H         4.70310116      7.83981514     19.49540901
B         1.76862299      5.10159779     18.54788017
H         2.81265330      6.84661770     16.77847290
B         2.12771845      6.88522768     19.28426743
H         0.24576037      5.55234957     20.69124603
B         3.94248366      6.88822460     19.16443825
H         5.61077690      5.71014977     17.68756294
B         2.86528993      6.25755692     17.82113266
B         1.41599011      5.67584991     20.10120964
H         3.03234982      6.55258703     21.86488533
H         2.31708312      3.36138821     20.23194885
B         4.55346537      5.70114183     18.19462776
H         3.44094658      3.52752090     17.45046234
B         1.23429000     16.47583961      9.13932037
H         0.57057279     14.53951168      7.67449474
B         2.66158700     16.30742836      7.83248949
H         4.95975828     16.52707863      8.87557411
B         3.34282112     14.70649242      8.22664928
H         2.96056437     17.13946915     11.57985020
B         1.51107705     14.95976257      8.30279541
H         0.79264498     14.66444874     11.02197552
B         3.86552715     16.22042656      9.04563808
H         4.22620487     14.19050312     10.72445869
B         2.79394865     16.46361160     10.45779610
H         2.53217936     18.55837250      8.83048439
B         1.71289575     14.98906803     10.21088028
H         2.16371822     12.66012764      9.22248268
B         3.35502148     14.73051643     10.06507111
B         2.58458376     17.39915276      9.02138710
H         0.15872563     17.13437653      8.93393326
H         2.48966074     16.60642433      6.68974447
B         2.36122274     13.74123859      9.23596001
H         4.14511871     14.36086369      7.44619417
B         3.32291102     16.37290764     20.42206001
H         1.09698963     18.15744591     19.69259071
B         3.31510115     17.09542084     18.67709351
H         3.84609056     15.03474712     17.12497520
B         1.69470000     16.27703667     17.90287399
H         3.92003822     13.78856468     20.28541946
B         1.68546021     17.18817711     19.34035683
H         1.64121342     14.67717648     21.35907555
B         3.46627021     15.42338562     18.13960266
H         1.78978992     13.49387646     18.06573105
B         3.44375992     14.81664753     19.73525810
H         5.70151472     16.33355713     19.45925331
B         1.82144344     15.44280148     20.36149025
H        -0.45256296     15.78008366     19.05232048
B         1.92278552     14.57359314     18.67428398
B         4.50796795     16.12519455     19.33858299
H         3.57801795     16.79224205     21.49382019
H         3.63739204     17.95449829     17.96510887
B         0.69561374     15.72910500     19.10779762
H         1.44708228     16.60357666     16.79885101
H         8.36790371      8.61800098      8.56455421
B         7.08640242      9.88465786     10.43246651
H        10.55654240     11.44051838      9.17694950
B         6.82479668     11.69332504     10.41656494
H         9.19514275     12.96611023     11.05065536
B         8.27223015      9.62434864      9.12831593
H         9.67852211      9.53564453     11.33171272
B         9.39396572     11.18824768      9.26154709
H         8.54221058     10.62065792      6.92385626
B         8.60488319     12.01363468     10.60427666
H         7.62068462     11.10008812     12.83494186
B         8.93175888     10.25980282     10.72833920
B         8.28785706     10.89819908      8.05935478
H         7.72578144     13.29888535      8.60200310
H         5.81983423     10.37002277      8.07529068
B         7.62362814     10.97160053     11.67280006
H         6.43872213      8.96585369     10.81692696
B         7.80084801     12.20210934      8.94897938
H         5.84237814     12.49860477     10.45841789
B         6.78494787     10.57850361      8.83424950
H        10.21716881      9.84919357     20.59903145
B         7.80432749      9.56160641     20.10021019
H         9.24178982     13.25197506     19.98809242
B         6.76631451     10.55864239     18.93449211
H         6.23409891     13.09816074     19.88202667
B         9.30026722     10.34997272     19.99140167
H         8.61828232     11.55802250     22.15386009
B         8.82783413     12.14542294     19.82149124
H        10.22952080     11.36775684     17.57604790
B         6.96562910     12.12887764     19.77895164
H         5.67636204     10.72699642     21.41411781
B         8.12104988     11.28080654     21.06328201
B         9.41810608     11.25358105     18.51307106
H         7.32458401     12.32794666     17.50231361
H         8.66883564      9.17327499     17.65739250
B         6.61944199     10.70006657     20.69913864
H         7.37954855      8.57088470     20.53929138
B         7.86267710     11.79576111     18.34997368
H         5.65718269     10.05935574     18.43728256
B         8.26989079     10.00931168     18.44013977
H         7.27978611     -0.13466597     11.98268032
B         6.55645132      1.78320456     10.17307854
H         9.96865463     -0.42779025     10.40244293
B         7.07135677      1.75854850      8.46391678
H         9.90205193      2.06458163      8.59328842
B         7.30928421      0.23525615     10.86933422
H         8.84681511      2.04645157     11.87634945
B         8.93574333      0.08280130      9.94954109
H         7.51993084     -2.20250320      9.58530712
B         8.86207390      1.55269051      9.04749012
H         7.71458435      3.94968700      9.56789303
B         8.34244823      1.71558857     10.74506569
B         7.49302626     -0.93061966      9.63924980
H         8.45278454     -0.44280741      7.40329552
B         7.77004528      2.83964491      9.57153225
H         5.30398226     -0.17386995      8.83586693
H         5.59126234      2.39401960     10.43112087
B         8.11716557      0.07846270      8.44275951
H         6.69480324      1.98089981      7.26675844
B         6.42997742      0.19088621      9.17255116
H         7.41489840      3.25688982     20.08718681
B         6.48417282      1.19204843     18.61795235
H        10.20981884      1.35314691     19.71571922
B         6.83274174     -0.57442296     19.02308655
H         9.60803986     -0.71186614     18.24266815
B         7.64092541      2.05944967     19.86413193
H         8.60638142      2.41658711     17.42320824
B         9.03307247      1.00062370     19.70878983
H         8.34762859      1.24244010     22.36886215
B         8.59603024     -0.15748526     18.46207237
H         7.36117601     -0.35921067     16.48123550
B         8.23667812      1.57143581     18.24510193
B         8.10885620      1.11508119     21.18605423
H         8.28925514     -1.60642576     20.60196686
B         7.28634548      0.27643898     17.63996696
H         5.59062386      0.75097680     20.96337700
H         5.65204525      2.00037456     18.33993149
B         8.13347340     -0.39562449     20.31641006
H         5.98307753     -1.30630243     18.96195984
B         6.56743717      0.68474293     20.38463783
B        17.04657555     10.00042820      8.75547218
H        14.79421806      9.48314762     10.35625553
B        15.90562725     11.31059837      8.91693592
H        17.32477951     10.34931946     12.44884968
B        17.66099167     11.88826942      8.73033428
H        18.29638290     12.95874786     11.37740993
B        15.87662983     10.11954021     10.17066002
H        14.93598366     11.97641850     11.26093960
B        17.21855736     10.77745628     11.28652000
H        17.60919762      8.24328327     10.47693253
B        17.75161171     12.24622440     10.52910709
H        16.09925461     13.94109249      9.27476883
B        15.80271721     11.68431473     10.63461876
B        17.35834885      9.33141327     10.29241276
H        19.59927750     10.48189259      9.82085800
H        17.26859283      9.09989548      7.85373163
B        16.40249825     12.85303020      9.52668667
H        15.04437447     11.19546509      8.14955139
B        18.40881348     10.63423634      9.90167046
H        18.21401978     12.28378773      7.77935743
B        17.54483414     10.86537743     18.18867111
H        18.76507568      8.52952003     18.62721443
B        16.42305946      9.65034294     19.06176567
H        19.34950638     10.74123669     21.56827164
B        16.26146698     11.33910084     19.22051430
H        16.33965492     12.02400780     21.70222664
B        18.33901024      9.53530598     19.09120750
H        17.35569572      8.40161419     21.30816841
B        18.67259026     10.61419964     20.61616135
H        20.37544823     11.18309116     18.59219360
B        16.97435951     11.32808590     20.94945908
H        14.78823185      9.93644524     21.21163750
B        17.35249519      9.42168522     20.57905388
B        19.21874809     10.99937916     18.92737579
H        18.14762688     13.20459461     19.62080765
H        17.47215652     10.81633759     16.94559097
B        15.73966312     10.28430462     20.53604317
H        15.82175636      8.78253460     18.47640800
B        17.90767860     12.02762508     19.60834885
H        15.32678032     11.99380016     18.64863014
B        16.20807648     20.96326828      9.70873642
H        17.43484688     21.54027939      7.23648071
B        16.83288193     19.56242561      8.78370190
H        19.90364838     21.73858452      9.41203022
B        16.84080696     19.53887177     10.53550816
H        19.36900902     19.79600906     11.59807873
B        17.57218170     21.19465637      8.37713814
H        19.66313553     19.96467781      8.02621269
B        18.81321526     21.33756447      9.59903908
H        17.19900703     23.51588249      9.78740406
B        18.65900421     19.75837708     10.60881042
H        18.08662415     17.26042175      9.27757645
B        18.69909477     19.88232613      8.67620564
B        17.45174789     22.34472847      9.66397095
H        17.63338470     21.67937660     11.88699436
H        14.96187592     21.03743744      9.72118282
B        18.03530884     18.57276726      9.56908989
H        16.37830734     18.83078194      7.91880655
B        17.53909111     21.06988525     10.92860889
H        16.14037132     19.13152885     11.36189842
B        18.14451408     21.78494835     19.96958351
H        18.37655258     22.21572304     17.23521805
B        16.60976410     21.47587585     18.75474930
H        19.71344948     19.26250267     18.06314278
B        16.91302109     20.59693146     20.39623070
H        17.26135635     17.90843010     19.73365021
B        18.27272224     21.39367294     18.08531952
H        16.90407944     19.76423264     16.71065521
B        18.72745895     19.69623566     18.56515884
H        20.74737549     21.19591141     19.22233963
B        17.25060844     19.10324287     19.47026825
H        14.82218647     19.83978271     19.47595215
B        17.10287285     20.02696800     17.88401222
H        19.08862305     19.76904488     21.44756508
B        19.46769333     21.17560196     19.21958351
H        18.17321587     22.73154831     20.55345917
B        15.93092442     20.11800194     19.16145706
H        16.25483704     22.64619064     18.33556366
B        18.66009521     20.13178444     20.27233696
H        16.30384827     20.87796783     21.45900536
B        28.16888809     10.41778660     10.55881405
H        28.25075150     13.24047470     10.28797626
B        26.57207680     11.35188293     10.71816921
H        27.91951370     11.63956833      7.03994131
B        26.56343079      9.56514168     10.14752102
H        26.01656342      9.88801861      7.29393148
B        27.94009972     12.09976578      9.82235336
H        25.92324829     13.02798653      8.68697166
B        27.82987976     11.34550190      8.09420967
H        30.19941711     11.48766327      9.36918926
B        26.43172836     10.21667194      8.37504673
H        24.31196594     10.23986912      9.55498886
B        26.38611412     11.93999290      9.10675049
B        29.15165901     11.05070400      9.27653790
H        28.47492599      8.53721046      8.70218754
H        28.48526192     10.22047234     11.74736023
B        25.41951942     10.65878868      9.66096401
H        26.18484688     11.84108257     11.89304256
B        28.07327271      9.69595146      8.90882587
H        26.40810204      8.58904839     10.82503796
B        27.26051331      9.93695164     20.56174660
H        29.78508759     10.54953480     19.65843964
B        27.35371971     11.73753452     20.61739540
H        27.92870712     10.40662766     16.94410324
B        25.78172874     10.89633179     20.22968483
H        25.34153557     11.41757679     17.52642822
B        28.59330940     10.61729527     19.60006142
H        28.26391029     13.05605221     18.23888588
B        27.50675392     10.54341507     18.09359550
H        28.48134613      8.09835243     19.13048935
B        26.03643227     11.31326580     18.43621826
H        25.64622116     13.50187111     20.20146370
B        27.64105225     12.17875957     18.84924889
B        27.86870575      9.11835289     19.10166931
H        25.34803772      8.76231003     18.80369759
H        27.53619194      9.56668472     21.70942688
B        26.17375565     12.53620529     19.91490173
H        27.72628784     12.11779690     21.69069290
B        26.24535942      9.66392326     18.96293068
H        24.73241425     10.83536911     20.81023407
B        28.66683960     21.56926727      9.85493088
H        26.24250221     22.33259583     11.39966393
B        27.84196281     20.08805275     10.72513103
H        25.14435005     21.72914314      8.35526085
B        28.60410118     20.04114151      9.02387047
H        26.81135750     19.45270538      7.22907543
B        26.85259819     21.71791649     10.53560257
H        25.11391068     19.73870659     10.41585445
B        26.30545425     21.52657509      8.83421803
H        27.20898056     23.82339096      9.35194588
B        26.96788788     20.02430725      8.36096954
H        27.17691422     17.77985954      9.82978249
B        26.18268967     20.11446381     10.00616550
B        27.39109230     22.63224983      9.38973427
H        28.37626076     21.88780594      7.22702503
H        29.63479233     22.10354996     10.24236107
B        27.39890671     18.95297241      9.66304398
H        28.59450340     19.86117935     11.67094612
B        28.02531815     21.55834961      8.25695896
H        29.72303009     19.78771591      8.55375957
B        27.72534943     22.19996643     18.93338394
H        25.29305649     21.98510933     17.94917488
B        26.40447617     21.90133667     20.27179718
H        27.21098518     18.52003479     18.01025391
B        28.25290489     21.51445961     20.57501602
H        28.55248260     18.67871094     20.23775101
B        26.17875481     21.37124062     18.61507034
H        25.10785675     19.34576416     19.99349403
B        27.26701546     19.72629929     18.49792290
H        28.17294312     21.47343445     16.59428787
B        27.83721161     19.66344452     20.04243660
H        26.81982040     20.31935692     22.52490807
B        26.08138657     20.16559219     19.94737053
B        27.62728310     21.18501472     17.64857864
H        30.02943611     20.43494606     18.73769569
H        28.07196808     23.32576942     18.95490456
B        27.05894089     20.56458664     21.34780121
H        25.72795296     22.87364006     20.64037895
B        28.73685265     20.64147186     19.01085472
H        29.25453186     21.92642403     21.03538513
B         9.09365559      5.96973801     13.56429482
H         5.43528557      5.07214069     14.74481201
B         8.39110088      7.48447037     14.43536472
H         5.72215796      7.69450140     13.87403965
B         8.17944241      4.72563362     14.56198406
H         6.68716621      4.68588877     12.41412258
B         6.60132027      5.45805645     14.76601219
H         7.50723743      4.91961956     17.24884415
B         6.72008181      7.03378487     13.86890030
H         8.06466484      7.75039673     11.82961369
B         7.29997015      5.50049496     13.11453915
B         7.58621979      5.24787331     16.14294243
H         6.80649662      7.54280663     16.47190857
H         9.85046101      6.13955259     16.12828445
B         8.02708530      7.02653646     12.76577091
H        10.18483925      5.90970230     13.20499134
B         7.25330162      6.88900280     15.61120319
H         8.91006374      8.63876057     14.71652794
B         8.82337475      6.12414265     15.51427555
H         8.55610561      3.55445409     14.36957169
B         8.66722870      6.16443777     23.51548004
H         6.33735275      3.57895803     25.14376259
B         6.92420340      7.03501892     23.66228676
H         4.98546743      5.19035053     23.12105179
B         8.66010475      5.03774166     24.87935257
H         7.94273710      3.69557238     22.81388283
B         6.85725355      4.61955070     24.95399475
H         7.31064701      5.55176115     27.30813217
B         5.93516302      5.41974115     23.62018394
H         7.20005512      6.14148903     21.32685280
B         7.60355282      4.60244179     23.47500992
B         7.48308182      5.54827690     26.15976334
H         5.31422853      6.87988424     25.71920967
H         8.54294300      7.89131308     25.34173584
B         7.25622034      5.95515919     22.42925453
H         9.76403427      6.34978962     23.06743813
B         6.15828276      6.31168079     25.07464790
H         6.63187075      8.16794109     23.24202728
B         7.97311878      6.80825949     25.07461548
H         9.54846096      4.30592060     24.98509979
B         7.03982592     14.59889507     14.88458443
H         6.69412041     16.49957657     11.31628513
B         8.58474541     15.46823597     14.71732140
H         9.26007938     15.42376423     11.90298748
B         5.81104279     15.79607677     13.91012573
H         6.20410252     13.74358559     12.30855465
B         6.93924093     16.19866562     12.49149609
H         5.91655731     18.34645271     13.76416302
B         8.43206787     15.35463047     12.79026222
H         8.60231781     13.00945473     14.16983223
B         6.84346342     14.48612976     13.00991917
B         6.42922592     17.30646324     13.76820755
H         9.08470154     17.73130035     13.55282688
H         6.73929405     16.83797836     16.08572578
B         8.23280811     14.07948685     13.86628246
H         6.58240700     14.03541565     15.86822605
B         8.12893677     16.92094421     13.72363853
H         9.50804901     15.75612831     15.51572895
B         7.10981512     16.39883804     15.13422394
H         4.67690039     15.61687374     14.34229755
B         8.58976841     15.11507034     25.02859306
H         5.91519213     18.22818375     25.32695580
B         7.06652927     14.65788078     23.77681160
H         4.71312666     15.37924767     25.24935913
B         8.43628216     16.95151329     25.06589317
H         7.43589687     16.14699745     27.20281792
B         6.55039358     17.19789505     25.14082527
H         7.70301723     18.55580521     23.12128830
B         5.87988806     15.53025627     24.98033714
H         6.70705700     13.40724087     26.06116486
B         7.38030386     16.01493645     26.09610176
B         7.49459267     17.60047340     23.67802620
H         5.60305929     16.55161476     22.64861298
B         7.04334402     14.39709282     25.41390038
H         9.12700081     15.97386551     22.57793236
H         9.49315739     14.54311085     25.38241768
B         6.41686392     16.27549934     23.42817116
H         6.96051216     13.79839802     22.98397827
B         8.15242290     16.06981659     23.41203117
H         9.38626766     17.29807663     25.57347870
B        17.75442886      4.84546471     15.23408222
H        16.41862106      8.31081581     14.04562473
B        18.76544571      5.24692154     13.86292076
H        17.13677216      5.79388762     11.93737125
B        17.23080254      6.36007833     15.67592621
H        15.06705856      5.67957640     14.36787605
B        17.04892540      7.34456062     14.22246456
H        18.44930649      8.45171738     16.08288193
B        17.36843300      6.05275631     13.01138306
H        17.27963829      3.32239437     13.31644440
B        16.27915001      5.76072454     14.36531734
B        18.33171272      7.68185902     15.19914913
H        19.48787498      7.50727987     13.00276852
B        17.25869751      4.48593903     13.67490196
H        20.00684166      5.85221195     15.92548752
H        18.11594582      3.96590734     15.99706554
B        18.81852913      6.93954372     13.71062565
H        19.86317635      4.96859455     13.50801659
B        19.02849770      6.07963181     15.37659645
H        16.78949928      6.53589964     16.93227386
B        16.42098618      5.02363586     25.29673195
H        20.17166519      5.29993343     24.03871155
B        16.56396294      6.73667526     25.04627609
H        19.25737000      7.22102261     26.07541084
B        17.40658951      4.42313337     24.04806900
H        18.71120644      3.81325150     26.15230179
B        18.97851562      5.40146494     24.16249847
H        18.42418671      5.53663063     21.75825500
B        18.44335365      6.46260929     25.55093002
H        16.94623566      6.51541853     27.51725006
B        18.11000824      4.74110699     25.61281395
B        17.98136520      5.54395771     22.84075928
H        18.37375069      7.90719986     23.36842346
B        17.16248703      5.89816809     26.51399422
H        15.40739727      6.18810034     22.88661003
H        15.34938049      4.50773430     25.42732430
B        17.94559479      6.90788889     23.89214897
H        15.98714828      7.72963667     25.14797783
B        16.41990280      5.82036018     23.54484940
H        17.45368767      3.16368532     23.88149452
B        18.11612129     14.54247952     13.42766953
H        17.55417061     17.35179710     16.16801834
B        16.39289284     14.46239853     13.81959629
H        16.51374245     14.76980019     16.81561661
B        18.53597641     16.43021393     13.81046486
H        19.56307793     14.70741081     15.69954872
B        17.44006729     16.57492638     15.24321747
H        17.13240814     18.56610107     13.54279995
B        16.92220116     15.01236725     15.59767914
H        17.34985542     12.67191410     15.17825413
B        18.55175209     15.12846279     15.14386272
B        17.12836838     17.34242249     13.85134029
H        14.80895042     16.51079941     14.27609253
B        17.57927895     13.79239750     14.78781796
H        17.10326004     16.17136955     11.72846317
H        18.84293747     13.95739937     12.66539764
B        15.98879433     16.06532097     14.28519630
H        15.54152393     13.72115993     13.43867779
B        17.18429947     15.92597866     12.83201981
H        19.63696289     16.87101364     13.64191246
B        15.63883972     15.40933132     25.28225899
H        17.49568939     15.79056931     21.77495193
B        17.39634132     15.42493725     25.87103653
H        18.59287071     13.80840111     23.80562019
B        15.68881989     16.45244980     23.83633804
H        15.70859146     13.77925968     23.05433655
B        17.22568130     15.92319012     22.93619347
H        17.37413216     18.52109528     23.42475319
B        17.94370651     14.72000504     24.19579315
H        16.61745262     13.05036354     25.97724915
B        16.24321556     14.59188461     23.75863457
B        17.18634796     17.43690491     23.66732979
H        19.43564796     16.78425598     24.88553429
H        16.30097008     17.94077301     25.92850113
B        16.77244759     14.02810669     25.26227951
H        14.66678619     15.44975471     25.91112900
B        18.36071396     16.48924065     24.56660843
H        17.93095207     15.66749859     26.85566711
B        16.62519646     17.06274414     25.25885963
H        14.53732109     16.68049812     23.24509430
H        28.01163483      3.26246929     15.54520988
B        28.65237427      5.36166954     14.24061394
H        24.98555565      5.39782333     15.79778194
B        28.18227196      7.18271017     14.38497829
H        25.64691925      7.49279785     13.54750824
B        27.69619560      4.46624613     15.30047989
H        26.31880569      4.05153275     13.20987511
B        26.13604546      5.47781229     15.33065319
H        26.99997139      5.40498638     17.95874405
B        26.38147163      6.76561737     14.11707211
H        27.75373268      6.12904978     11.68582630
B        26.83885765      4.99631357     13.84507465
B        27.20643806      5.45021248     16.74329185
H        26.56470490      7.97907066     16.38668442
H        29.80937576      6.12241220     16.15812111
B        27.61183548      6.19782686     13.05670261
H        29.66999435      4.86335611     13.88372993
B        27.05728912      7.15145826     15.70851612
H        28.81483078      8.20248890     14.16069317
B        28.50780678      6.13602781     15.81038857
H        28.34983635      4.18939304     22.80381393
B        26.60681534      5.83414650     23.38056374
H        29.07463455      4.86460876     26.45301628
B        26.63498306      7.25067282     24.49464417
H        26.66201782      6.18654013     27.00860214
B        28.25296021      5.14772034     23.50042343
H        26.58628654      3.60572195     25.06134987
B        28.58159447      5.28898096     25.43469048
H        30.41629601      6.27938414     23.68096924
B        27.05542755      6.07064581     25.95585060
H        24.73604202      5.54361629     25.31885338
B        27.06890869      4.70216560     24.77210045
B        29.30166245      6.35324860     24.11873627
H        28.65667725      8.23437214     25.86978340
B        25.78285789      5.85205412     24.88980293
H        28.11338234      7.51816273     22.29158020
H        26.14326096      5.66912842     22.26178169
B        28.36844635      7.31487846     25.15380287
H        25.87121773      8.17216301     24.21916008
B        27.93034744      6.93225384     23.41628456
H        26.32921791     12.98603439     13.63246727
B        27.67423630     15.18544674     12.59681702
H        25.42337418     15.60061646     15.86970520
B        28.62761688     16.35283661     13.71952343
H        26.67032242     17.90385437     14.99714184
B        26.67486954     14.19543648     13.75741196
H        24.99309731     15.75564766     12.76731205
B        26.29689980     15.29012680     15.19362164
H        27.56414223     13.24174118     15.96901131
B        26.99203873     16.85974312     14.46328068
H        27.11071205     18.12700272     12.05866337
B        26.07781410     15.78601360     13.37417316
B        27.50888824     14.19015884     15.27953911
H        28.79070282     16.11552429     16.28433228
B        27.21804619     16.93469810     12.80339241
H        29.65350342     13.96858978     13.86750031
H        27.94831848     14.53767586     11.67443657
B        28.16283035     15.74496841     15.32659912
H        29.72962952     16.79844284     13.62318325
B        28.60541725     14.62545395     13.94118977
H        25.43256187     14.18362617     23.51707077
B        26.12718964     16.22934532     24.97762489
H        29.05059433     13.90978146     23.27115822
B        27.43275261     17.54377937     24.30310440
H        29.74477386     16.40575027     25.14536285
B        26.40489769     14.84370708     23.60682106
H        27.93120956     13.97800255     25.78123474
B        28.22006226     14.79715061     23.47020531
H        27.28810883     15.00296783     21.18915939
B        28.73802757     16.18673325     24.58880615
H        27.81864357     16.78270912     26.87678146
B        27.53970146     14.93334675     25.08797836
B        27.27437019     15.38859653     22.35567474
H        29.08929062     17.31560326     22.53446770
B        27.47503853     16.57106781     25.71781731
H        25.61907578     17.10449600     22.53690720
H        25.00093269     16.22025681     25.50064850
B        28.17724800     16.67974281     22.93495750
H        27.58538628     18.71365547     24.36800957
B        26.39963341     16.60368156     23.15814400
