768

Li        2.15838289      0.76972294      0.50335377
Li       -0.21923760      2.87975287     11.31384087
Li        4.73153973      2.68569493     19.40348053
Li        4.37107372      2.25195432     27.06553650
Li        6.69810867      0.38778380      0.45845997
Li        4.58380938      4.64746809      7.18490553
Li        2.58404517     -0.76082218     18.34071159
Li        0.17351651      4.54567909     23.14014244
Li        6.32096195      6.55414581     -3.88831878
Li       10.18023682      8.47322845      0.47795689
Li        1.56535912      6.84014893     17.99296188
Li        1.48365617      7.95336199     30.05307579
Li        6.47813797      7.95953512      0.80249619
Li        8.42707157     12.58756542      7.16944504
Li        8.32693577     12.50925541     14.46433163
Li        8.22785378     12.07664967     22.14925957
Li        4.32201290     -2.76580477      0.17307988
Li       -6.22693014     -6.38314009      7.66497040
Li        3.98668647     -4.31580877     11.56633282
Li       14.89806175      0.95911682     15.84457302
Li       10.47889709     -1.25284898      4.02722549
Li       10.66367435     -0.45281714     10.73899364
Li        6.11087608      1.75544548     15.29081249
Li       -4.24561167      5.25483036     22.14354515
Li       10.65306759      8.19883919      8.13033962
Li        6.42995787      0.67404127      7.88494682
Li        8.80327415      5.07611609     15.67686367
Li        8.68944073      4.72542715     22.00096321
Li       12.48626328      4.51351881      0.21688472
Li        4.22030783     10.19902611     11.52864361
Li        8.47195721     10.07310486     11.62573719
Li        0.28436208     12.09239292     29.85021973
Li        6.15268326     -8.56986046     -3.60762954
Li        6.32449532     -6.38975382      8.41945744
Li        8.60248184     -9.68110752     14.31650925
Li        3.81513929     -4.33317709     18.97039413
Li       12.48624802     -3.13620949     -0.98049021
Li        8.23992920     -3.19286704      7.12794685
Li        8.26243019     -1.99807858     14.75814915
Li       12.41656780     -2.99694967     22.47879219
Li        8.24296188      5.18662262      7.02975178
Li       10.70668697      0.98276109      0.67448097
Li       18.98957634      0.99693316     15.21421051
Li       10.68926907     -0.59069359     25.36591339
Li        7.97340727      4.89898872      0.03416914
Li       12.37270737      4.58454084      7.33712387
Li       20.78075790      4.83110571     15.43903351
Li       13.00078583      1.89293432     18.39395523
Li       -0.19600439    -12.14241600      4.43765783
Li        8.74284458    -10.30121136      8.28504562
Li       12.78909683    -11.63554096     11.69203281
Li        4.34076405    -11.71405888     26.43105316
Li       16.57958031     -4.07471657     -3.47926593
Li        4.02835464     -4.59992313      4.61297131
Li       10.36995316     -6.40823603     22.76634216
Li       14.76493168     -6.33932066     22.97302437
Li       21.18303680     -4.62982464     -3.47252870
Li        8.57737923     -5.35749531      4.52094746
Li       12.27092075     -4.60326147     19.18684006
Li        6.06912231     -1.10329771     18.23229599
Li       17.05689621     -2.83727551      0.41502297
Li       14.82640839     -1.29544175      3.44903827
Li       13.10147285      2.71342850     11.47327137
Li       14.74571705      0.85996062     22.64221191
Li        2.27477789     -0.65593648      3.23096275
Li        1.98803556     -0.68246925     10.85703278
Li        4.31735420     -2.75705600     14.68157768
Li        2.32596302     -1.02276349     25.95604134
Li        4.63798857      2.71935415      4.12849760
Li        2.18761706      0.74513352      8.04518795
Li       -3.87134361      4.83445597     14.48372364
Li       -0.03351333      2.72793913     26.88321877
Li        6.03362036      6.14260483      4.21542931
Li        4.01851463     12.05145550      7.25301504
Li        5.92851305      6.05441618     18.44483185
Li        6.37930775      8.17709637     37.29541016
Li        8.48203754      9.92289162      4.46216726
Li        6.14852571      8.34304619     15.57581329
Li        3.94763279      9.84959126     26.23236084
Li       14.79196644      8.12879848     22.60360146
Li        1.35624099     -8.34054184      3.33735037
Li        8.10375500     -2.50803256     21.99193382
Li        6.83520031      0.81304169     22.79697037
Li        8.13066483     -4.30364847     19.03151131
Li        6.23060036     -2.20641136      3.79640603
Li        6.22623920     -0.58540219     12.09511185
Li        4.52520132     -1.84336805     21.86412621
Li        6.93042946     -0.88782614     26.41642189
Li       -3.98548341      2.67708039      4.41444921
Li        7.87469053      3.18865633     11.82129478
Li       10.68416500      0.92154336     22.36417389
Li        8.26675797      2.92187619     26.01208496
Li       12.78044891     12.58363628      7.30048609
Li        9.82511711      6.10914898     10.85386848
Li       10.76837254      6.43456888     19.56062508
Li       10.66163063      6.37013483     26.96227837
Li        5.80531311     -8.44648361      3.82501888
Li       -2.45284605     -8.16217804     10.89458275
Li        6.11866426     -8.38976955     18.21755219
Li        8.52041340     -4.63329554     26.74716568
Li        6.20339012     -6.38710880      0.62313998
Li        6.03389788     -8.34934044     11.16722584
Li        6.62920523     -6.14371729     15.48296642
Li       12.63328075     -4.50635099     33.97142029
Li       17.16030693      4.56472588     -0.01410898
Li       14.47621822      0.68222773      7.85987425
Li       11.24172115      1.10671782     14.91773796
Li        8.53715801      2.20688200     18.81295204
Li       10.34423447      0.68796653      7.64071178
Li       17.20618439      2.95586419     19.28388214
Li       14.61560345     -2.06919599     18.70397377
Li       21.34553337      4.08820581     29.91728401
Li        8.71358490    -11.91229820      4.21644068
Li       10.63680649     -6.41589594     15.14778614
Li       10.33114815    -13.85149193     22.96700478
Li       12.57913685    -10.28176498     22.60265350
Li       10.04656792     -8.65930271      3.41170168
Li       10.82443142     -7.79846334     10.98027611
Li       18.89453125     -6.07203197     15.34201527
Li       10.88766861     -8.71192265     25.79625130
Li        8.26736259     -4.20442104     12.02822304
Li       12.48252583     -2.60226250     14.45835495
Li       18.90509415     -6.27672672     22.82653999
Li       16.59802055     -4.60064220     19.34341431
Li       14.58522034      0.74817693      0.58934283
Li       14.72456551     -1.75273275     10.69938946
Li       10.79144096     -1.34079480     18.02851486
Li       14.94943810     -0.73981315     25.61094093
H         2.36100936      1.75316775      1.83996642
H         2.40133500      2.85893583      3.44397116
H         1.31987751      1.05046105      3.52466226
B         2.28682113      1.68224263      3.02656293
H         3.29148650      1.16091156      3.49679303
H         2.30351424      1.68391240      9.45796394
B         2.18311596      1.65199327     10.65492821
H         1.31994081      1.07145405     11.13380146
H         3.22408557      0.92603463     11.04460812
H         2.14607644      2.82120156     11.00618649
H         3.49426126      1.18539441     18.99741745
H         2.52458572      1.70498347     17.24215698
H         2.45753288      2.89965987     19.09341812
H         1.51504302      1.23980308     19.04154968
B         2.51920152      1.79285932     18.49113655
H         2.08740115      2.58688426     26.72274590
H         1.92702222      1.52211201     25.08025551
B         1.94043553      1.46761250     26.29119682
H         1.11962366      0.78998119     26.76567459
H         2.88366890      0.88900226     26.89350891
B         4.21290493      5.20139265      4.74825907
H         5.22870398      4.60635233      5.22137451
H         4.14374828      5.33118486      3.57647562
H         4.19822598      6.38466549      5.04808712
H         3.20323277      4.62683868      5.14024067
H         4.96066856      4.74038601     12.83495903
H         4.00365210      6.49070358     12.74575710
H         3.87010884      5.33027172     11.07428932
B         3.95422268      5.33865643     12.29609776
H         3.02037311      4.72522306     12.68150806
H         3.65203977      4.58608580     20.45666122
B         4.65590000      5.23532772     20.14558220
H         5.61358118      4.61369228     20.52132797
H         4.58776045      5.12126017     18.89952660
H         4.65671825      6.38110828     20.56513405
B         4.07143879      4.51128292     27.03446388
H         3.12982106      3.93464184     27.59303665
H         5.00356627      3.88035893     27.45997620
H         4.01968336      5.72057390     27.53553581
H         4.15942860      4.50335026     25.85089874
H         6.31543446      8.57413101      2.20755291
H         6.44505739      9.76285744      3.87371492
H         5.33321762      7.96763420      3.80358839
B         6.44178247      8.61344051      3.40583110
H         7.36133671      8.08054161      3.88146353
H         6.18022919      8.92061615      9.22700024
B         6.20832825      8.89810085     10.41782284
H         5.19057512      8.39723969     10.72944927
H         7.30838871      8.41523266     10.82135677
H         6.26506376     10.09258175     10.82701492
H         6.87748384      8.25423431     18.90946007
H         5.97067642      8.95927811     17.29129410
H         5.83851242      9.99352741     18.85782433
H         4.87910509      8.30017090     19.04054451
B         5.97107506      8.89019299     18.51258469
H         6.38291836     10.21628761     26.11087799
H         6.38901424      9.16593361     24.51254082
B         6.43331289      9.10854149     25.78547096
H         5.39668894      8.60592270     26.13916016
H         7.46713352      8.54935169     26.17139435
B         8.33997250     12.17015457      4.97954321
H         9.39177990     11.69399548      5.37638807
H         8.36361122     12.36776924      3.67276812
H         8.38368893     13.36775017      5.24205828
H         7.26792860     11.63183212      5.39561939
H         9.37841702     11.83932495     12.33487797
H         8.33466816     13.53842163     12.27266884
H         8.41261196     12.50997543     10.68116188
B         8.40378475     12.39983273     11.89612484
H         7.41892815     11.91322994     12.37849903
H         7.24527740     11.73468876     20.46097946
B         8.16101933     12.26662540     20.01169205
H         9.05324554     11.60143661     20.45510101
H         8.11492252     12.39315033     18.72724724
H         8.03386116     13.43922234     20.31509972
B         8.61865997     12.36027336     27.14081383
H         7.54475021     11.76899338     27.47582436
H         9.70236874     11.81697464     27.38828278
H         8.66511154     13.53694153     27.34609795
H         8.70916176     12.45555782     25.86343002
H         3.79156184     -2.33234477      3.70188260
H         3.91788197     -1.12132883      5.30248213
H         2.87087297     -2.98952866      5.26172876
B         3.86317825     -2.33188391      4.86639786
H         4.81139040     -2.90090489      5.35379934
H         4.35430193     -2.32583857     11.15425968
B         4.39799881     -2.18566036     12.33206940
H         3.35782385     -2.76327038     12.69987392
H         5.43487930     -2.73850775     12.76019859
H         4.41779661     -1.09363770     12.86490059
H         5.06210136     -2.57092929     20.07534218
H         4.03699350     -2.07128096     18.57268524
H         4.03380442     -0.76514179     20.18629646
H         3.05317903     -2.54340601     20.06030083
B         4.08064270     -1.98068690     19.75736046
H         4.17723656     -0.95352930     28.35050011
H         4.15485907     -2.14568329     26.54331398
B         4.16100979     -2.01643634     27.80787086
H         3.10615492     -2.54994321     28.20109749
H         5.17141151     -2.50554085     28.19695663
B         6.36215448      1.48744380      3.15846562
H         7.37756014      0.87356585      3.61300659
H         6.39884806      1.49008811      1.97037220
H         6.42359352      2.68937659      3.58530116
H         5.48306990      0.88132644      3.57614207
H         7.26055622      1.00015223     11.47103691
H         6.17762232      2.67457342     11.55790234
H         6.18529892      1.48234975      9.90612507
B         6.18301249      1.44583845     11.18122005
H         5.11249399      1.01043189     11.47315979
H         5.40589142      0.81694424     18.77694321
B         6.46531296      1.31792104     18.34754372
H         7.52409077      0.83301848     18.75729179
H         6.48573971      1.38028562     17.16621971
H         6.47891188      2.46435142     18.75849724
H         5.42549324      1.22371936     25.78359222
H         7.71247149      1.31930828     25.77001190
H         6.65176439      2.99928761     25.69370079
B         6.56382704      1.83189881     25.44244385
H         6.60810804      1.92602229     24.19630814
H         6.97988415      4.40953827      5.22172070
H         8.83531189      4.48921013      5.24743176
H         7.97659540      6.19671011      5.12789297
H         7.91037893      5.13264275      3.58390808
B         7.87228298      5.01632929      4.78267908
B         7.99206257      5.39442110     12.05548477
H         7.01772022      4.73387909     12.59168911
H         8.92838764      4.86138105     12.52752304
H         8.08347321      6.50395966     12.54946995
H         8.06250858      5.37558937     10.87082672
B         8.54191971      4.75158596     19.27995300
H         8.48923969      4.81995726     18.05606270
H         7.59356308      4.16787672     19.61663818
H         8.51780987      5.99565172     19.58888817
H         9.54385376      4.10910463     19.69332314
B         8.70392418      5.32472801     27.39884186
H         8.72575665      5.32355595     26.15119553
H         7.74589300      4.66103888     27.73955345
H         9.69073105      4.75811481     27.76544571
H         8.80238152      6.57258272     27.76002884
H        10.45756245      8.46265984      2.05504537
H         9.42473125      7.91545963      3.61926007
H        11.47607803      7.89989090      3.60582495
B        10.39531803      8.54541016      3.30387545
H        10.43692207      9.68189526      3.65050292
H        10.23600292      9.91324329     11.27166176
B        10.23229408      8.69389629     10.88454628
H        10.31221676      8.76722717      9.69156456
H        11.34696484      8.13868332     11.26377678
H         9.18560886      8.17365360     11.33197689
H        11.24625206      8.55456448     18.89870262
H        10.29244995     10.14914036     18.81014061
B        10.19874382      8.98975754     18.47550201
H         9.19960117      8.47428513     18.86449242
H        10.21879482      9.12765694     17.22907448
H        10.63278580      8.92477989     24.44803238
H         9.51692200      8.32817650     26.20643997
H        11.54525089      8.29963589     26.07270050
H        10.50636864     10.03537369     26.10019112
B        10.47033691      8.89431381     25.62342262
H         5.89247894     -5.33306551      2.32109714
H         7.00808239     -6.05033159      4.05718517
H         5.96406126     -4.20832491      3.90243387
B         5.92786455     -5.35600567      3.51245427
H         4.97255421     -6.02001333      3.94723153
H         5.30818701     -6.24999094     11.54118538
H         6.40525532     -5.51142740      9.88040829
B         6.33807039     -5.72678471     11.15571404
H         7.43224669     -6.26725531     11.49263096
H         6.35526514     -4.46396160     11.35989285
B         5.78006077     -5.65812016     18.08610725
H         4.86631393     -6.26491642     18.45576477
H         5.70378637     -5.51089191     16.76786041
H         6.78764153     -6.15905714     18.64527893
H         5.91865444     -4.41371250     18.44336891
H         6.16439152     -4.51604700     25.87890244
H         5.20303774     -6.19401217     25.85849190
H         6.25446749     -5.70655918     24.31852531
B         6.30177402     -5.66822195     25.50643921
H         7.31553411     -6.30358648     25.82444572
B         8.71219540     -2.87351298      4.82546568
H         7.74747944     -3.46761465      5.14581490
H         8.59054661     -2.90610147      3.59421921
H         9.61053467     -3.43023133      5.26696348
H         8.71138191     -1.73049343      5.23814917
H         9.44376278     -2.62492180     13.00186253
H         8.44209957     -0.88554752     13.14200592
H         7.49764729     -2.59189153     13.06523609
H         8.51275539     -2.13744020     11.38327885
B         8.47425938     -1.95719361     12.63203239
H         7.96707678     -0.81575030     20.26399994
B         8.06240749     -1.94198525     19.82771873
H         7.01977158     -2.44825196     20.28375053
H         7.96179295     -1.88263595     18.65321732
H         9.14698124     -2.58254266     20.38485527
B         8.54238796     -2.11781836     27.47840309
H         9.55210209     -2.61792421     27.82691956
H         8.44550514     -0.92973405     27.67697334
H         7.32770681     -2.62439203     27.88929939
H         8.49137115     -1.88570678     26.18241882
H        10.15315342      1.33305824      2.39760447
H        11.11132622      0.70203811      3.99006152
H        10.10718822      2.44476914      3.96453047
B        10.13629150      1.33754504      3.58835673
H         9.16754055      0.73927224      4.02014256
H         9.34621334      1.34182346     11.35890865
H        10.32894897      2.04380202      9.60784531
B        10.36340427      1.89282775     10.87565804
H        11.32511806      1.31897855     11.35849667
H        10.31588268      3.06597972     11.21592331
B        10.74633980      0.93956751     18.03435898
H         9.82480049      0.29959288     18.59721184
H        10.73649597      0.90788335     16.78607559
H        11.60833836      0.40610549     18.61047554
H        10.80881214      2.04152775     18.61183739
H        10.45893288      2.95747519     25.95183182
H         9.70017338      1.13431787     26.12093735
H        10.56413746      1.84017491     24.33343697
B        10.57703018      1.71937120     25.58658218
H        11.51063347      0.96518809     26.11134911
B        12.77421379      4.80221176      4.71892977
H        11.82320404      4.20372581      5.19888353
H        12.77664471      4.91234684      3.58896184
H        13.74105358      4.20963764      5.20784664
H        12.78724957      5.95548201      5.07305288
H        13.66409588      4.41623259     12.45007896
H        12.79551411      6.29720402     12.27553177
H        11.76785088      4.32438755     12.38904190
H        12.69251347      5.14809036     10.77606010
B        12.75148296      5.03911829     11.98882389
H        12.58832169      6.66753769     19.98139000
B        12.58052635      5.35068941     19.59699821
H        11.70098114      4.75750303     19.96677399
H        12.57094669      5.39106941     18.40431213
H        13.54418659      4.71794033     20.01651382
B        12.80116558      5.26526690     27.35222054
H        13.91823006      4.54730272     27.74747467
H        12.76269817      6.40819073     27.64686775
H        11.77244568      4.64272642     27.68855095
H        12.76988602      5.26562214     26.06674194
H         8.57236576     -9.65334225      3.43925333
H         9.61655140    -10.10131359      4.93848801
H         8.61187935     -8.48893070      5.00968885
B         8.45866108     -9.68768978      4.67768097
H         7.41479588    -10.21240234      4.96717405
H         7.27048779     -9.87002850     12.06580067
H         8.21080971     -9.24264145     10.53257084
B         8.29462814     -9.24751091     11.74831581
H         9.29492664     -9.94673538     12.12615490
H         8.21627617     -8.07527256     12.03726768
B         8.62002182     -9.06296921     19.42244530
H         7.66807127     -9.77126884     19.88568306
H         8.64253139     -9.06937885     18.14740181
H         9.63380051     -9.66551113     19.93436050
H         8.74252510     -7.93909359     19.84985161
H         8.45030403     -8.33197212     27.74834251
H         7.50767660    -10.11797237     27.67034340
H         8.44503212     -9.59455967     26.06735611
B         8.48947525     -9.44077682     27.26705933
H         9.38255310    -10.11197948     27.67185974
B        10.61202049     -6.06022835      3.36528063
H         9.59058380     -6.70982075      3.74071383
H        10.58998108     -6.17284060      2.08846927
H        11.63011456     -6.66034746      3.78334308
H        10.65319443     -4.90548372      3.84741759
H        11.64455509     -6.16717005     11.13309765
H        10.55064011     -4.34524012     11.17428875
H         9.63522530     -6.06411219     11.14397240
H        10.61862755     -5.55968189      9.48851299
B        10.63958073     -5.49163294     10.68058491
H        10.33967590     -4.15797806     18.26593590
B        10.27237701     -5.34825468     18.00809669
H         9.18912601     -5.95349932     18.35610199
H        10.33868408     -5.26894903     16.84664154
H        11.28894043     -5.83728790     18.27517509
H         9.33110332     -6.86705399     26.41459274
H        11.43659496     -6.99356794     26.47378349
H        10.27428436     -5.21077776     26.44352913
B        10.39703465     -6.39983606     26.02738762
H        10.29831696     -6.35593891     24.75514603
H        11.47276592     -2.59141898      5.31700134
H        13.45149517     -2.72534227      5.17980719
H        12.34614849     -0.92601216      5.23971701
H        12.53523254     -2.07192802      3.60948467
B        12.44535923     -2.14078808      4.82247400
B        12.91202450     -1.64813268     12.26862621
H        12.86056614     -1.62356246     10.99658680
H        13.97126102     -2.16167521     12.73163223
H        12.89269066     -0.49547610     12.73105049
H        11.86874580     -2.13013649     12.67002583
H        12.32670784     -2.20785308     18.54236984
H        11.21833229     -2.78563476     20.31795692
H        13.38434219     -2.74023199     20.30277634
H        12.34065819     -1.05074310     20.32754326
B        12.32447910     -2.23328590     19.96715927
B        12.51771545     -2.61362386     26.62752151
H        12.54837799     -2.76223660     25.47653198
H        11.55652523     -3.17817712     27.12080956
H        13.40383816     -3.27965474     27.00035286
H        12.39229965     -1.51926172     27.16936302
H        15.76493645      0.95663005      3.99153066
H        14.76660919      1.75563955      2.43509245
H        13.88663292      1.09166646      3.96765232
B        14.83841133      1.65729928      3.60670853
H        14.70884132      2.93078399      3.87789345
H        14.79922009      2.52747250     11.23369598
B        14.82137299      1.40850866     10.80198765
H        14.65297222      1.48689818      9.51578808
H        15.77492523      0.89837521     11.37080860
H        13.80273819      0.88638061     11.20070744
H        15.28467560      1.70131052     17.26154518
H        14.36760139      1.05091703     18.83035851
H        16.26988602      1.09108436     18.88557816
B        15.37226295      1.73142672     18.43211174
H        15.35353088      2.94448447     18.85129166
H        14.73620892      1.93747127     24.86281395
H        13.76710606      1.20596218     26.55926895
H        15.76971722      1.15648460     26.58051872
H        14.72556400      3.01602745     26.41635895
B        14.79607201      1.80453575     26.07718849
B         1.98196054     -1.59323275      1.34837615
H         2.96971583     -1.04152501      1.78617990
H         1.02956629     -0.88991731      1.75797462
H         2.02119303     -1.52226663      0.10679152
H         2.13093710     -2.80587029      1.83214140
H         2.10180855     -1.63190329      7.35270691
B         1.90123177     -1.46673036      8.59558964
H         0.89562833     -0.96643883      9.05740452
H         2.01819420     -2.69652867      8.91414452
H         3.00626159     -1.04409182      8.90132713
H         2.03684402     -1.34793878     14.83924961
B         1.98357677     -1.41336715     16.06584740
H         2.96159720     -0.78547525     16.55491638
H         2.11200237     -2.47115302     16.50630760
H         1.04149199     -0.65792942     16.55215645
H         2.21159315     -1.40549159     22.48849678
H         3.18115115     -0.78519046     24.02564812
B         2.13100433     -1.32701719     23.69367599
H         1.15480912     -0.70883727     24.05109215
H         2.23410392     -2.49806404     23.95911789
H         3.60391688      2.40758038      0.56410825
H         4.55848122      0.71191698      0.60265541
B         4.65814590      1.86974990      0.02836699
H         5.62390900      2.47158694      0.52394003
H         4.62740326      1.91891038     -1.09588909
H         3.91060948      2.03114772      5.69975567
H         3.93234491      0.82926971      7.31963396
H         5.01022339      2.57025790      7.29096079
B         3.94345641      1.86208844      6.92642927
H         2.98349452      2.49576354      7.21116829
H         4.16566896      2.41129732     13.35461807
H         5.06187391      3.02757549     15.11662197
H         4.01777935      1.44462538     15.11458302
H         3.17162514      2.91329455     15.21731186
B         4.10849190      2.54610372     14.66400051
H         4.12762260      2.06885433     21.04336929
H         3.14927554      2.66267514     22.57859802
H         4.15558958      0.96404743     22.56595993
H         5.06967258      2.60942507     22.57529068
B         4.11940145      2.04152083     22.19397545
B         6.21146774      5.59637928      0.82333338
H         7.29498243      6.17958212      1.20037615
H         5.20139790      6.12406921      1.23302209
H         6.25910616      5.66978359     -0.38247958
H         6.20011425      4.39787769      1.32590938
H         6.11635780      5.18657494      7.24202585
B         6.01850748      5.28274918      8.55276775
H         5.09843063      5.97300482      8.95329666
H         6.14919949      4.04332256      8.82196712
H         7.00450039      5.86015129      8.91480923
H         6.29740143      5.75076771     14.97236061
B         6.26468801      5.79924059     16.13328171
H         7.27009439      6.38154697     16.47020912
H         6.20407629      4.63866234     16.47499657
H         5.22799587      6.32962179     16.54826927
H         6.50841475      6.13154268     22.37492561
H         7.44867229      6.66040468     24.11562157
B         6.48623085      6.11168289     23.62292480
H         5.52609110      6.62366724     24.15451050
H         6.45556641      4.98739386     24.17889786
H         7.46623850     10.04396248      0.56398058
H         8.46106815      8.37178898      0.52188176
B         8.39389515      9.46688652     -0.01445052
H         9.39373779     10.00807476      0.54263610
H         8.45840359      9.44507217     -1.17388821
H         8.54506779      8.95642567      5.82048225
H         8.44727898      7.99147320      7.36213779
H         9.31789589      9.81542969      7.56843281
B         8.43597126      9.21378517      7.01704073
H         7.56493521      9.82220173      7.69282484
H         8.26607037      9.23021698     13.28868103
H         9.32044792      9.84730244     15.05447102
H         8.31866932      8.18588543     14.95490074
H         7.22966290      9.89766407     15.02449703
B         8.21806049      9.33217144     14.59462929
H         8.46298790      9.34743977     20.83798599
H         7.44423199      9.99844265     22.46932602
H         8.39843178      8.19890499     22.37594986
H         9.37130737     10.00922489     22.39874840
B         8.35353565      9.39972782     22.04030800
B         3.77122235     -5.21838140     -0.12432135
H         4.71576309     -4.65408564      0.36144984
H         2.74119687     -4.62959194      0.32490703
H         3.70522499     -5.28339767     -1.32453549
H         3.74969196     -6.32929945      0.25913835
H         4.47562265     -5.50498533      6.13421249
B         4.28276825     -5.27821732      7.29554224
H         3.25170970     -4.68672943      7.81706047
H         4.29838514     -6.58161354      7.51137781
H         5.29172134     -4.71752548      7.57825804
H         4.34977436     -4.91117239     13.30984879
B         4.39179420     -5.00079441     14.63753700
H         5.27061462     -4.25249481     15.10065556
H         4.35362291     -6.13311291     15.06316376
H         3.42878962     -4.24796677     15.09981346
H         4.05623436     -5.24262571     20.60064316
H         5.12148142     -4.66009188     22.26862144
B         4.15327358     -5.14381552     21.87752724
H         3.07145810     -4.62846136     22.20896339
H         4.12386227     -6.34526300     22.20650673
H         5.22678280     -0.88736796      1.54667115
H         6.43064976     -2.69937921      1.63526344
B         6.34382200     -1.50564778      1.35413623
H         7.50139761     -0.96422452      1.51550186
H         6.41230440     -1.41889060      0.08105521
H         6.57524395     -1.62508929      6.94590330
H         6.51017761     -2.81426430      8.58829594
H         7.48688459     -1.08689475      8.50916386
B         6.50476742     -1.69910288      8.19788170
H         5.56332731     -1.10413241      8.57639027
H         5.94603205     -1.23856473     14.60452652
H         6.91450691     -0.54399604     16.31482887
H         5.94026709     -2.36800122     16.22636032
H         5.04391098     -0.58896142     16.29046631
B         5.98842955     -1.19460344     15.78189278
H         7.45273399     -0.76596487     23.63665199
H         6.44043589     -2.39431810     23.71185493
H         6.43109465     -1.23251295     22.02563858
H         5.32265615     -0.70506501     23.66882896
B         6.43968582     -1.30226779     23.24596024
H         9.48045921      2.60039663     -0.13040629
H         7.48713970      2.66858315     -0.18250087
H         8.54285049      0.79842067     -0.11867426
B         8.50885963      2.04474068     -0.47797745
H         8.46086121      2.05779886     -1.73553169
H         9.33631802      2.52542663      7.49159527
H         7.27116585      2.51859546      7.49444103
H         8.29782581      0.79252273      7.31249905
H         8.30489540      1.77479267      5.84466839
B         8.24201584      1.98056269      7.04957199
H         9.51556301      2.95262051     15.32586765
H         7.47621536      3.13819647     15.34293556
H         8.56413269      2.35269260     13.49330997
B         8.49491119      2.46431541     14.78536034
H         8.65660286      1.28039300     15.22383213
B         8.68360138      1.96603215     21.82992744
H         8.61678886      1.99531126     20.61259842
H         9.65498734      2.54285765     22.30315971
H         7.69324827      2.55160642     22.22999191
H         8.68169403      0.87287199     22.27282143
H        10.15705967      4.58455372      1.71903729
H        10.08272743      5.76641273      0.11758899
B        10.13153076      5.74174643      1.26209033
H         9.09917545      6.29186153      1.62676728
H        11.20415688      6.28563404      1.71373296
H        11.30638504      6.24201202      8.83081818
H         9.31123734      6.28848934      8.86534977
B        10.28313446      5.68386889      8.41688347
H        10.35095787      5.65465689      7.24716139
H        10.34906197      4.60144806      8.78833485
H         9.52359581      6.93461943     16.09779167
H        10.55599403      5.22732878     16.09605980
B        10.58299255      6.37901163     15.69306087
H        10.57328224      6.37389851     14.38906288
H        11.53385162      6.90313053     16.05362511
B        10.50632095      5.80704308     23.18027878
H        11.48336220      6.38618708     23.62162399
H        10.58613491      4.65887356     23.52566528
H        10.40594959      5.82460737     21.98274231
H         9.52284813      6.48206091     23.46838760
B         6.46081448     -8.61546803      1.38414395
H         6.47547293     -9.74584579      1.80091059
H         7.41391754     -8.13097000      1.89167261
H         6.38888216     -8.70547676      0.08808966
H         5.41805983     -8.06228256      1.83462012
H         6.03867531     -9.08370972      7.32207966
B         5.94541645     -9.01257515      8.61752701
H         4.97841549     -8.55418015      9.05354977
H         5.92599297    -10.17049313      8.99535179
H         7.06555510     -8.44333839      8.99467182
H         6.42796993     -8.59765625     14.34522057
H         5.43774843     -7.93151283     16.07511520
B         6.40444183     -8.55063629     15.52452374
H         6.36309910     -9.69955063     15.95321274
H         7.32369375     -7.91116524     16.00959015
H         6.15436459     -8.89772415     22.31911469
H         7.06528473     -8.29257584     23.99956703
B         6.10838985     -8.88497353     23.58965111
H         5.21692801     -8.17506790     23.97317314
H         6.24287033    -10.03954697     23.91993713
H         9.09903431     -4.66081524      0.13308628
H         7.00379229     -4.64010096      0.16405071
B         8.01240730     -5.23211241     -0.23251769
H         8.06935215     -6.42634249      0.08091846
H         8.08328629     -5.30636024     -1.43722725
H         8.47596359     -5.17603779      6.41824198
H         8.47901917     -6.43870878      8.09351921
H         9.44632244     -4.67767620      8.00225830
B         8.45756817     -5.31308317      7.66698837
H         7.42690945     -4.62871218      8.03324032
H         8.47602749     -5.48581362     13.18682289
H         9.50181580     -4.70947886     14.89152145
H         7.53438282     -4.83793640     14.88619137
B         8.52837372     -5.43749189     14.35362720
H         8.40685177     -6.65980339     14.79992008
H         8.17316437     -5.41339254     20.70928764
H         7.20903111     -4.61407804     22.37493515
H         8.34568691     -6.44372988     22.27918816
H         9.24081230     -4.75352669     22.48731232
B         8.28198528     -5.29620171     21.92244530
B        10.56093597     -1.40957963      0.89290285
H        10.38020420     -2.62540126      1.14144301
H        11.58848763     -0.76692986      1.05922937
H        10.52583694     -1.39405239     -0.29317510
H         9.42905045     -0.91538477      1.13415468
H        10.80741692     -1.44417644      7.41798878
B        10.76463604     -1.52385914      8.69951534
H         9.78037834     -0.92298865      9.16780758
H        10.61624432     -2.62165022      9.09681511
H        11.66820145     -0.79822779      9.02068424
H        10.35598564     -1.56895947     14.70756340
H         9.51773262     -0.98699802     16.05327415
B        10.49919033     -1.56865382     15.84445572
H        10.60551548     -2.74552894     16.21143532
H        11.53184223     -1.08021474     16.29375267
H        10.66710854     -1.38796270     21.98266602
H        11.62887192     -0.78115124     23.80029678
B        10.70729351     -1.40813935     23.19218826
H         9.79040337     -0.78429329     23.74931335
H        10.70691776     -2.50014210     23.73930931
H        13.46866512      2.84208775     -0.03062445
H        11.54761696      2.81695628     -0.02427423
B        12.46044159      2.28692508     -0.55274045
H        12.48637772      1.09359062     -0.05828792
H        12.50661564      2.22131014     -1.75354612
H        12.50527668      1.43003833      5.61384678
H        12.43659687      0.20295076      7.13813877
H        13.35290337      2.14267945      7.16753101
B        12.47058487      1.37892473      6.86688614
H        11.49642658      2.15645719      7.26204634
H        13.18992233      1.95859957     13.34447289
H        14.11564636      2.54879546     14.94713783
H        12.12584305      2.60464096     15.01119137
B        13.08174896      2.03492141     14.53694916
H        13.16910839      0.83133584     14.94121838
H        12.89927959      1.75880265     20.43023491
H        11.84411716      2.24846482     22.12914085
H        12.73711586      0.40863311     22.16003990
H        13.79076195      2.34121418     21.99531937
B        12.84185696      1.63246417     21.62978172
B         8.60727692    -12.33717442     -0.17353956
H         8.63948441    -13.46230888      0.18219195
H         9.56635571    -11.80532265      0.23945898
H         8.55896664    -12.36520004     -1.37680602
H         7.54286766    -11.70732117      0.21055347
H         8.24686432    -12.52621078      6.33145189
B         8.22950459    -12.48352909      7.52186441
H         7.25309372    -11.89833355      7.97780418
H         8.35850716    -13.62589836      7.99191475
H         9.28077888    -12.00407028      8.04086494
H         8.59089661    -12.09583759     13.16529274
H         7.61046314    -11.47860527     14.77864933
B         8.63635063    -12.10339832     14.44430256
H         8.60826492    -13.33981323     14.79234982
H         9.60938644    -11.47668934     14.80082512
H         8.27552509    -12.33488178     21.05892563
H         9.29620934    -11.77145863     22.77412415
B         8.26780701    -12.28889561     22.29484367
H         7.24515581    -11.72919846     22.76486969
H         8.30727959    -13.48034763     22.76168251
H        11.39375210     -8.38050461      1.46568632
H         9.30277443     -8.30889034      1.57283437
B        10.32119274     -8.78185749      1.02448440
H        10.41028404     -9.82545853      1.55140233
H        10.45709324     -8.80872822     -0.19366844
H        10.63013554     -8.40728569      7.35379696
H        10.69465160     -9.60275364      9.15772438
H        11.60103130     -7.94962454      9.09916592
B        10.62334061     -8.52707577      8.60114384
H         9.62939358     -7.85789585      9.08471584
H        10.61831570     -8.63193989     14.60734463
H        11.51509666     -8.07145596     16.07384109
H         9.44019413     -8.07092381     16.24565697
B        10.46414375     -8.66371346     15.81075573
H        10.47810650     -9.79162407     16.17297554
H        11.62025452     -8.17105961     23.97138977
H        10.64538479    -10.08353996     23.93637085
H        10.67039204     -8.85650921     22.25848198
H         9.73065376     -8.20578098     23.97861481
B        10.73560047     -8.82387257     23.45785713
H        13.86727428     -4.73770571      0.28264084
H        11.66461658     -4.82340765      0.30896708
H        12.69172573     -6.43796110      0.25896508
B        12.75812435     -5.34557533     -0.05528818
H        12.76248074     -5.36759996     -1.34664261
H        13.63516045     -4.61288166      7.38108587
H        11.74526119     -4.48525095      7.41771889
H        12.80074215     -6.47951078      7.30526018
H        12.75739574     -5.28025389      5.87968969
B        12.69567585     -5.27321911      6.98141050
H        12.59339333     -5.89770269     15.03770542
B        12.60162640     -4.70191479     14.64831829
H        13.55796051     -4.15197563     15.06703758
H        12.65816307     -4.79943657     13.32789803
H        11.62146187     -4.14772415     15.14951897
B        12.44118690     -5.14871025     22.05267334
H        12.45477676     -5.28290224     20.80628204
H        13.54544163     -4.68786335     22.44030762
H        11.38415527     -4.61200762     22.40047836
H        12.53049088     -6.27985859     22.32596016
H        14.01013279     -0.73349470      1.68724501
H        14.94250202     -2.51805997      1.61222959
B        14.90700245     -1.36661255      1.13803923
H        15.91177273     -0.71218956      1.56997156
H        15.05122948     -1.33608687     -0.06572374
H        15.63743782     -1.09445798      8.96327591
H        13.67157173     -1.26216006      8.91420841
B        14.63310337     -1.86144876      8.48245525
H        14.56565475     -1.77224684      7.30186319
H        14.50927162     -3.01361442      8.95663357
H        13.56469250     -1.12714839     16.22766685
H        14.65676403     -2.87190604     16.34212494
B        14.63141251     -1.68540704     16.07811546
H        14.54876423     -1.66364884     14.78420067
H        15.69596767     -1.15767050     16.33844757
B        14.64108276     -1.52554667     23.40934753
H        15.56583405     -0.88523179     23.87039185
H        14.64477444     -2.59326768     23.97871208
H        14.69694519     -1.38155758     22.22693825
H        13.70175648     -0.87255567     23.94328499
