768

Li       11.56805325     12.56103611     -9.64738941
Li       -0.01544907     -2.97436309    -36.01349258
Li        6.36777449     15.13929844     30.00536156
Li      -14.63252354     15.11051464     30.56239319
Li       -1.78687823     19.34899712      5.36531925
Li        8.32908821     15.85202217      4.06138754
Li        0.48158556    -10.02861023     16.11565208
Li       12.93004131     23.70818710     18.88200951
Li        0.43479285      3.62418222     -6.84013605
Li       -1.82822430      7.86640406      9.10087681
Li       10.98769379     12.44783878     12.35814095
Li      -18.93045235     22.83485985     38.22945023
Li       16.64724159     33.45834732     15.59500694
Li       31.89114952     22.83599472     15.73557281
Li       17.24921227      4.70260954     30.17580223
Li      -12.92185402     -5.19358921     11.66941261
Li       -7.84152365    -20.32925606      4.38481617
Li       12.59787273      4.50717735      8.48736572
Li        2.80052590     -6.63090897     22.98496628
Li        4.72210598     -2.94224977     37.68645859
Li       -6.15219545      7.77849722      0.69168115
Li       11.23122692    -16.59567451     -2.55342317
Li       16.80740356     -2.89370108      1.31694126
Li       19.62653351    -24.52601624     26.43343544
Li       17.55061150      9.17012215     12.56584167
Li       19.16229630     12.73872948     12.54739666
Li        8.78397179    -10.96093750      7.90807581
Li        4.46810436      7.84506130     33.31138992
Li       16.68554878     18.91010857      9.05764675
Li       25.63562584      1.45903695     11.90013027
Li        6.60520458     14.96391869      7.96489429
Li      -18.77560806      8.35301304     23.74697495
Li       -5.65639544     -1.98634505     -9.70648670
Li        9.41368008     -5.54877758     -3.06318331
Li        2.48779988     -9.02336121     -3.49790215
Li       -1.92580378      0.42929766     15.22941399
Li       18.76116180    -13.22331238     16.07174492
Li        4.65162134    -17.07753754     16.28964233
Li        2.94284987     -9.27675056     20.24907303
Li        4.08914948     -2.52488065     15.44905090
Li      -14.66712856      8.71986485      0.33552849
Li        2.56299520      8.70749855     15.56197071
Li        7.10886908     12.26488018     19.06222343
Li       -2.42005253     14.60824680      0.94210577
Li       10.22540760     19.65001488    -10.63793755
Li       11.05179310     27.06171989     -2.58209491
Li       29.61189461      8.58205605     -2.88835669
Li       -3.23885632      9.33745956     19.04491806
Li       18.92872620      1.53969193    -13.70459080
Li        8.57292938     -2.74184442    -28.18433189
Li        8.18745327     -2.94117808     23.35022736
Li       23.21366119     -1.93353701     11.99143505
Li       12.98156452      4.10970831     -6.02007532
Li       16.88559532     -3.26464486      8.58478928
Li       17.40370750      0.67379844     -3.29236674
Li       13.01130962     -3.05088806     30.47973061
Li       13.03523922      1.49491632     -3.08430028
Li        8.65021801     11.85732937    -13.41720963
Li       11.01962757      5.48638678      3.79684830
Li       17.30159569      8.70322514     19.43501282
Li        4.61276579      1.99602449    -10.10789299
Li       15.18162155     12.43701077     -2.32924390
Li       17.38274765      8.96822262      4.57324839
Li        1.50002623      0.47028399      1.43841672
Li       -6.10167933      0.93500841      8.50100231
Li       14.57400703     -1.33267367     11.82745266
Li       -1.87721694      5.37417841      5.25555563
Li        8.61465168      4.75038576     22.81130219
Li       -1.16972125      5.66275787     12.64580727
Li      -14.24100685      5.06692410     11.63592720
Li       15.00913525      5.05421591     19.62447548
Li       17.04622459      1.67813444     18.87278748
Li       12.63465691     18.51042366     -6.23965311
Li       21.72958374      9.53221035     11.97940922
Li      -10.43336010     15.19832325     22.31571770
Li       19.01387787      0.57734197     38.35428619
Li       15.20290184     26.78281212     -3.63796878
Li       -4.35401201    -10.08106709     31.38281250
Li        3.79655123     -3.29500532      0.80088603
Li       10.48887348      8.70055962     38.28786850
Li        7.04889584     -1.85363281      4.37856579
Li       -2.54361510    -13.73758698     15.66503620
Li       15.64135647      4.45670557     27.01692390
Li       -1.45131326     -9.15303612     19.51492691
Li       12.94016552      4.33197021     30.57243156
Li       11.45142841     -1.92119622      5.62086058
Li       18.53718948     15.24870014     23.17358971
Li       13.15252590     -5.82367182     26.58689308
Li        6.12192297     -6.78208303     15.91540527
Li       -7.57978964    -12.61735344     11.70155048
Li       -1.51414287     12.55084133     18.78199768
Li       13.13838768      1.37649930     42.01504135
Li       19.39028549      7.16023302     -6.68688393
Li       14.36419201     14.67617989      7.79872274
Li       -4.08766508     18.92321968      8.52875233
Li        0.78328890    -10.74073982     30.36279678
Li        0.68456197     -5.45094252     12.56846619
Li       23.59528351      5.17097139     27.65818596
Li       21.06272697     -2.86920238     23.13711166
Li        7.11316919      0.29442969     22.77469444
Li       12.43065453      4.55442047    -13.76003933
Li        0.49422550    -12.71449471     27.13304520
Li       -2.03566551    -35.85264206     23.15754509
Li        8.51573372      1.23387063     19.34197617
Li        2.73032856     -9.36291218     11.51947498
Li       34.26120758     -5.75210047     20.10981369
Li        6.57219076     -6.52225780     30.91826057
Li       21.09525871      4.82621241     16.35796928
Li       -1.69756949     -2.37943363      4.66792536
Li        0.29221496     -5.76151705     26.93708611
Li        4.52916718     11.49258518     39.13722229
Li       22.29427719     10.68999767     22.46027565
Li        5.24114561    -27.89264488     -1.99880266
Li        4.77288294    -12.88223171      5.06338978
Li        2.67077589     -2.21231508      4.79855728
Li       -3.74536705    -12.93894863      4.94382906
Li       14.51855183     -6.62055540      1.17268825
Li       -6.46218872    -35.38286972      7.79884148
Li       10.64392853     -9.54105377      4.63252592
Li        4.46861029    -12.78311634     18.71660614
Li        1.18790805    -12.46712494      3.90167546
Li        8.45134354     -3.12869072      8.61048126
Li        0.06376372    -17.33396530     16.03582573
Li       19.15104866     -6.12741947     15.75234222
Li       13.09346676      8.55321884      3.85015464
Li       10.49477482    -14.21455479     23.49332047
Li       21.77856445      1.77232003     11.92853355
Li       15.72937775     -9.24187851     42.67246628
H         2.57806349      0.45441163      2.80835843
H         2.56633925      1.59068847      4.26307344
H         1.68517423     -0.18459295      4.32146883
B         2.67679572      0.42252335      3.95300651
H         3.65614653     -0.30505240      4.39159203
H         3.10695887      0.41224131     10.18495274
B         3.06437135      0.31101444     11.32271290
H         2.01231289     -0.11922497     11.72545147
H         4.16115808     -0.17655230     11.68052483
H         3.03708863      1.50460565     11.69443703
H         3.59751344      0.16997115     19.06294250
H         2.70433211      0.79181355     17.42741013
H         2.77521229      1.95228815     18.98965454
H         1.69928181      0.02353804     19.07841873
B         2.61435127      0.70559806     18.70186043
H         3.13367605      1.40228641     26.57756424
H         3.00035095      0.16377045     24.96988297
B         3.02400231      0.14233255     26.22574615
H         2.02857995     -0.50350624     26.52914047
H         4.01845455     -0.37630582     26.60305595
B         4.51188183      4.17173958      4.46012402
H         5.47785997      3.54172015      4.89682293
H         4.59252214      4.10580444      3.25748897
H         4.60542345      5.35751534      4.93146944
H         3.63591456      3.48567533      4.91963911
H         6.17098284      3.46108270     11.62787628
H         5.18570375      5.20274591     11.59571934
H         5.21121073      4.08649635     10.01707840
B         5.22272539      4.07751751     11.27348995
H         4.22049141      3.47266793     11.65141296
H         3.65683198      3.66190863     19.80522346
B         4.66511393      4.15559244     19.18110466
H         5.63850737      3.64832234     19.66461372
H         4.75830698      4.21520281     18.01885986
H         4.63590384      5.21307611     19.69196129
B         5.37614393      3.72816682     26.07393265
H         4.36213017      3.03804946     26.43791771
H         6.44266081      3.08920407     26.39256859
H         5.44669676      4.87915754     26.31996155
H         5.45475149      3.75786924     24.91007614
H         7.10028696      7.68893147      2.96170187
H         6.95255804      8.76416492      4.49416590
H         5.94944477      7.04552126      4.65867424
B         6.86366177      7.61987877      4.10766411
H         7.91268206      7.07034206      4.46148348
H         6.87991047      8.04205704     10.51723194
B         6.73168850      8.01983547     11.72903728
H         5.84165525      7.35940742     12.17212963
H         7.76674747      7.34667492     12.07606697
H         6.79317427      9.11140728     12.01385212
H         8.29953098      7.34186506     19.08527756
H         7.20086575      7.80048323     17.53429794
H         7.26200628      9.13547897     19.19421768
H         6.23432446      7.34754705     19.00494385
B         7.17629051      7.98045969     18.73840332
H         6.68125391      8.78249454     27.18806076
H         6.71874285      7.53391218     25.38105774
B         6.62685728      7.70021152     26.62181854
H         5.73184156      7.06874418     27.09893990
H         7.60606861      7.08294582     27.04376030
B         9.39288712     11.28971767      3.99126387
H        10.23649788     10.42479801      4.45517254
H         9.30448914     11.18243027      2.78188944
H         9.17917156     12.38702583      4.42084312
H         8.40421867     10.58782673      4.49532747
H        10.33155441     10.70821381     11.62861729
H         9.36135578     12.37137604     11.64558315
H         9.28093052     11.20079803      9.98605156
B         9.27963543     11.16836548     11.16764641
H         8.26387882     10.63472843     11.58144855
H         8.40088654     10.94235229     19.45543098
B         9.31224442     11.71756649     18.84559059
H        10.30150509     11.09734058     19.26140022
H         9.55553722     11.65745354     17.68721390
H         9.48541927     12.92330265     19.35420609
B         8.92683983     11.05546474     26.05305672
H         7.98642635     10.43058777     26.40106201
H         9.86982441     10.50400162     26.51142120
H         8.99170303     12.20734501     26.43712425
H         8.85948086     11.06523037     24.94756508
H         4.63457823     -3.34775591      4.41652775
H         4.51390553     -2.24289131      6.09980106
H         3.68274331     -3.85658383      6.14321423
B         4.64911652     -3.37116790      5.59326410
H         5.60557652     -4.00698853      6.10099268
H         4.53633165     -3.09458590     11.93951130
B         4.43605661     -3.13185883     13.14520454
H         3.41938877     -3.72086740     13.67992020
H         5.38723040     -3.75919175     13.50279236
H         4.37011957     -1.97344172     13.53108883
H         6.02136850     -3.83543015     20.74990845
H         4.95138788     -3.22423768     19.03260612
H         4.97542048     -2.09230876     20.70441055
H         3.82557106     -3.89541817     20.76369476
B         4.98986387     -3.32935786     20.35918236
H         4.94616795     -2.07332873     28.43552208
H         4.99110222     -3.27147865     26.91544342
B         4.95126820     -3.28860974     28.05773735
H         3.88453603     -3.86468911     28.45862770
H         5.96597004     -3.84053922     28.38622856
B         6.46877527      0.23450208      5.38862085
H         7.55152369     -0.28918055      5.80350208
H         6.40492821      0.29271176      4.09537983
H         6.48450994      1.46027410      5.75683594
H         5.44722033     -0.27201980      5.69351530
H         7.76366997      0.12856480     13.46254349
H         6.84666157      1.69496560     13.43959141
H         6.75580025      0.61978227     11.69800949
B         6.69298553      0.56969780     13.02804852
H         5.70512199     -0.00106814     13.44163799
H         5.60231638     -0.22664545     20.63095856
B         6.65417480      0.28564689     20.06179428
H         7.60995865     -0.19699633     20.46786308
H         6.74737930      0.35980940     18.77220917
H         6.63181448      1.41260207     20.51806068
H         6.24743652     -0.28591257     28.27508545
H         8.26184750     -0.32245255     28.36982727
H         7.22299671      1.50516474     28.31693459
B         7.26692390      0.35349706     27.95938492
H         7.16640615      0.30341014     26.70976067
H         7.73889399      3.37320471      5.38776636
H         9.65363598      3.35466623      5.29059649
H         8.68020916      5.21337557      5.24277163
H         8.76853561      4.06964207      3.59024048
B         8.82085896      4.10716248      4.82615185
B         9.02765465      3.94390726     12.84169674
H         7.99571943      3.35813880     13.13325787
H        10.00360489      3.38570809     13.27948284
H         9.02353668      5.16591263     13.31532764
H         8.88791847      3.86750817     11.62871647
B         9.33807755      4.47938919     20.42996979
H         9.28729248      4.52924776     19.25967598
H         8.31862926      3.90981102     20.81598282
H         9.23964214      5.74619389     20.77886009
H        10.32584381      3.81443977     20.82434654
B         8.91704655      4.10808802     28.07839966
H         9.05243397      4.06818819     26.87769508
H         7.93627262      3.55143285     28.57400131
H         9.90674686      3.44788361     28.37668991
H         8.83183193      5.21751213     28.47917175
H        10.95327759      7.49417257      3.48019433
H        10.11070728      6.74611425      5.04005241
H        12.15774727      6.80773544      5.28457832
B        11.07863522      7.51977158      4.78651428
H        11.18759251      8.75638199      5.10024261
H        10.94222355      9.12571239     13.55673313
B        10.79858971      8.00537014     13.27726555
H        10.73096275      8.02517891     12.02126026
H        11.84131718      7.42462873     13.72297668
H         9.83064556      7.30195141     13.54984379
H        12.40748024      7.33835983     21.28845978
H        11.44823551      8.93930054     21.24279213
B        11.39008904      7.87059069     20.71346283
H        10.38232708      7.27677679     21.13152504
H        11.28480434      7.82028675     19.47311020
H        11.17417908      7.64628983     26.57311058
H        10.08095551      7.22279453     28.22883224
H        12.21929932      7.19615698     28.18958855
H        11.12705803      8.68703079     28.26912880
B        11.16582775      7.64180279     27.74906921
H         6.76861000     -6.73729563      2.90703297
H         7.73973513     -7.26371813      4.50112534
H         6.77232552     -5.57340240      4.53676081
B         6.68837118     -6.65462255      4.06464386
H         5.79235554     -7.27097082      4.50039339
H         6.29701424     -7.32937193     12.41671085
H         7.27606106     -6.71516705     10.93181801
B         7.34997129     -6.68464708     12.17283344
H         8.39576912     -7.20616150     12.54689026
H         7.45309496     -5.56374073     12.49792385
B         6.90862560     -7.23719692     18.62381935
H         5.95629501     -7.93040085     19.01442528
H         6.98837137     -7.33893490     17.42605782
H         7.96634579     -7.90936232     18.98970413
H         6.97953939     -6.07766438     19.03621101
H         6.73713255     -5.78717995     27.03355598
H         5.67222929     -7.63292027     27.01249123
H         6.69091654     -7.01092577     25.44111633
B         6.62195301     -6.94609642     26.59041023
H         7.71446705     -7.58236217     27.03474808
B         9.51455784     -3.23677826      4.11779833
H         8.51652050     -3.76016307      4.70576239
H         9.61627197     -3.28535986      2.96043015
H        10.50818539     -3.83047175      4.55331087
H         9.45146370     -2.06634688      4.70015764
H         9.64273930     -3.52289462     12.37191963
H         8.68715191     -1.59386253     12.28404427
H         7.75641775     -3.50854564     12.39259243
H         8.71305370     -2.78465939     10.80814362
B         8.64068508     -2.71216631     11.98113728
H         8.99463463     -2.14711261     19.17002106
B         9.04206276     -3.28301048     18.82134056
H         8.05705929     -3.94921589     19.28864861
H         9.08931065     -3.29253817     17.54460144
H        10.09838009     -4.04515362     19.24068069
B         9.05409431     -3.17010403     26.15961456
H        10.12257195     -3.66175556     26.49666405
H         9.04800129     -2.10329270     26.66744804
H         7.96691847     -3.66551614     26.67943954
H         9.19500351     -3.21804667     24.93476486
H        11.28605270      0.76259768      2.88505697
H        12.43758011      0.00331657      4.68351030
H        11.38734341      1.67262816      4.40744209
B        11.40710354      0.49977815      4.15029716
H        10.34684658      0.00894054      4.55579138
H        10.05705070      0.01677850     11.87711334
H        11.08266926      0.53590810     10.21533966
B        11.08185101      0.49975234     11.45013428
H        12.03312778     -0.00801029     11.82161999
H        11.02362156      1.67525971     11.87721062
B        11.15716362      0.57891756     18.84671593
H        10.13300705     -0.06901602     19.10103226
H        11.04626942      0.49205956     17.56586266
H        12.11252022     -0.12738471     19.17321777
H        11.07221603      1.68140733     19.13905144
H        11.23880386      1.30172694     26.33401489
H        10.27620125     -0.43907440     26.36113930
H        11.26066494      0.15355243     24.73648262
B        11.25685501      0.17553154     25.93605804
H        12.26539707     -0.47601929     26.36054230
B        13.46993828      3.85635304      4.04960155
H        12.49965191      3.33522987      4.48579168
H        13.53172398      4.00582314      2.76820755
H        14.46698666      3.24851799      4.39569092
H        13.40822506      5.02878094      4.29782724
H        14.29406834      3.52650452     11.74043179
H        13.33578968      5.28360033     11.71502113
H        12.24688339      3.45108628     11.75289249
H        13.30261707      4.11713839     10.16960716
B        13.27795982      4.06975317     11.42525005
H        13.00484180      4.95028830     19.53118706
B        13.06844139      3.85024786     19.22981453
H        12.16796017      3.23826218     19.70129585
H        13.15404510      3.88218284     18.00334358
H        14.01658249      3.13730669     19.58989716
B        12.82165623      3.68696713     26.61144257
H        13.85108566      3.15920806     26.96556282
H        12.82223225      4.90523815     27.06713295
H        11.80355549      3.16508317     27.01123810
H        12.86298561      3.66967607     25.43405151
H         8.72542286    -10.24335670      4.63420963
H         9.77023220    -10.74192333      6.31879950
H         8.73684597     -9.03619671      6.38610411
B         8.82412148    -10.12765408      5.91699457
H         7.74134111    -10.72005272      6.29058027
H         8.04274940    -11.33942127     13.14310360
H         9.08838081    -10.49997330     11.42349434
B         8.98491383    -10.65008163     12.63593102
H         9.99882317    -11.27485561     13.08405876
H         9.07670212     -9.45357227     12.91229725
B         8.47425556    -10.73574829     20.63647842
H         7.47718382    -11.25124454     20.99837494
H         8.55852795    -10.65526581     19.38411140
H         9.58712578    -11.27621841     20.95808983
H         8.51052666     -9.56771469     20.93303680
H         9.18868065     -9.21197510     28.19684601
H         8.26894474    -11.05430031     28.26681137
H         9.24996376    -10.41068363     26.61993790
B         9.19032574    -10.35935593     27.80830574
H        10.16359615    -11.08615875     28.21457481
B        11.00427341     -6.67009640      5.54963446
H        10.04805279     -7.33344507      5.88074017
H        10.98392963     -6.58135033      4.34693766
H        11.97570610     -7.27921629      5.93450880
H        11.05884361     -5.36110592      5.82660723
H        12.25580215     -6.76882935     13.78116512
H        11.34412193     -5.22848320     13.70734501
H        10.35762787     -6.81202221     13.73603821
H        11.28229618     -6.22113752     11.97374630
B        11.32144737     -6.29208279     13.26329994
H        11.16570282     -5.50654030     20.18163109
B        11.14626884     -6.73987341     19.69086838
H        10.16025829     -7.27240038     20.18182182
H        11.19168186     -6.69769526     18.48893356
H        12.17404556     -7.27407551     20.15153503
H        10.01140785     -7.20589066     27.56494522
H        12.03559113     -7.17763805     27.72288895
H        11.04796886     -5.57573986     27.59722519
B        11.00304985     -6.67967510     27.15140915
H        10.90303707     -6.60869789     25.91974449
H        12.41035366     -3.79909325      6.10039663
H        14.40030384     -3.88624406      6.11563969
H        13.32985401     -2.15289330      6.09373188
H        13.36756897     -3.26572609      4.47039604
B        13.39140987     -3.29508662      5.67012739
B        13.21760845     -2.88380146     12.90869331
H        13.22823524     -2.82730198     11.62271786
H        14.25625038     -3.46432042     13.32818031
H        13.24640560     -1.70484352     13.26333332
H        12.15190697     -3.51319504     13.34047222
H        13.54560852     -3.52049661     18.91595840
H        12.57559299     -3.91548777     20.47493172
H        14.64476299     -4.00970173     20.52087593
H        13.52858639     -2.27692890     20.62472534
B        13.57165909     -3.38713622     20.04926109
B        13.57382393     -3.14054942     27.71264839
H        13.59911060     -3.20977092     26.45552444
H        12.55142117     -3.85612893     28.18747330
H        14.47976780     -3.84828901     28.08707428
H        13.52238464     -1.95683861     28.12484741
H        16.29871750     -0.27592757      6.08027315
H        15.29472542      0.22763841      4.30409908
H        14.32323742     -0.47796029      5.98741817
B        15.27486420      0.26233611      5.56841850
H        15.48594379      1.40368915      6.02149200
H        15.33433056      1.87685323     12.98222256
B        15.41074562      0.73648024     12.55406666
H        15.33637333      0.90457231     11.38147736
H        16.35477066      0.19438377     13.13845158
H        14.44011307      0.26726043     13.09000111
H        15.31380177      0.27682859     18.74741936
H        14.44883919     -0.32085663     20.32752609
H        16.41589355     -0.32720450     20.46929741
B        15.50061226      0.28190342     19.96115303
H        15.42687035      1.39877474     20.36976624
H        15.45687103      0.32635581     26.60160065
H        14.60767841     -0.23493534     28.40169144
H        16.49575806     -0.34044483     28.47909355
H        15.46034527      1.48373055     28.41521454
B        15.60869122      0.31563881     27.88469505
B         1.87995827     -1.64172709      0.21768808
H         2.89992452     -1.16156256      0.62438333
H         0.67828429     -1.17966688      0.56159329
H         1.73130465     -1.69533765     -0.99611264
H         1.77342558     -2.85341954      0.63266116
H         2.14706397     -1.85457838      6.71606302
B         2.17466354     -1.96190763      7.90121031
H         1.24719143     -1.36600423      8.27597046
H         2.25478888     -2.96156859      8.38755322
H         3.11637926     -1.45030141      8.34879017
H         2.09220052     -1.30290914     14.06430244
B         1.99666727     -1.33510149     15.29696941
H         3.08755398     -0.91138965     15.73206139
H         2.05925751     -2.47444177     15.89040375
H         1.06476665     -0.93090725     15.75738525
H         2.29813838     -1.85636222     21.56228828
H         3.13480949     -1.31825876     23.07240295
B         2.22058678     -1.98858392     22.67754745
H         1.30791354     -1.39998269     23.19566154
H         2.15058661     -3.12215066     23.22932625
H         3.16679883      2.34461331      1.20959187
H         4.21963739      0.68670714      1.26920223
B         4.16443348      1.78391612      0.69846356
H         5.24206543      2.32705569      1.25615263
H         4.17207527      1.82041883     -0.45921168
H         4.39656496      1.80662394      6.88136005
H         4.42994833      0.61853528      8.57868767
H         5.39080811      2.26649261      8.50415897
B         4.40949392      1.73744607      8.04720402
H         3.37746549      2.31939173      8.50084496
H         4.16717577      2.60420871     14.05775166
H         5.23433590      3.09605265     15.60391426
H         4.13631105      1.41256857     15.69690323
H         3.09412026      3.06381726     15.61897755
B         4.15859699      2.56400299     15.24461174
H         3.61508512      1.80589283     21.25781441
H         2.68181038      2.34055424     22.84640503
H         3.71189380      0.59780633     22.95418930
H         4.65489197      2.29027534     22.93047333
B         3.61690903      1.66796136     22.48486519
B         5.93515968      5.68169546      0.60712171
H         6.97647810      6.25130510      1.03795779
H         4.90168333      6.30340242      0.90897083
H         5.84902096      5.74813938     -0.55339223
H         5.98419809      4.53461933      1.02806914
H         6.11332989      5.45700169      6.80237436
B         6.33457470      5.59725380      7.97445631
H         5.37080860      6.22807264      8.41172123
H         6.37932587      4.41934347      8.39622402
H         7.20803261      6.12425852      8.66375732
H         6.68615103      5.47746563     14.52725601
B         6.71610260      5.54135132     15.72478485
H         7.74991322      6.08805275     16.11598396
H         6.69454432      4.43093729     16.04937553
H         5.65847635      6.07691002     16.09807777
H         6.00570965      5.35333967     21.48734093
H         7.06036186      6.03243256     23.14562035
B         5.99942255      5.46094751     22.70561790
H         5.01726770      5.95369291     23.13264465
H         5.97062397      4.25004721     23.07756805
H         7.54670858      9.75830078      0.64525241
H         8.62710094      7.91383410      0.82731974
B         8.59781551      9.07939053      0.48482227
H         9.60541248      9.69936466      0.87944859
H         8.40172577      9.18570328     -0.75419766
H         8.42275047      9.31159496      6.39515305
H         8.36445045      8.04955006      8.14913177
H         9.35887718      9.81525326      8.02449417
B         8.39138222      9.13496590      7.61872721
H         7.48553467      9.74856281      8.04854298
H         8.49367619      9.66596222     14.34963131
H         9.43905067     10.22628021     15.96108150
H         8.50620174      8.56358147     15.94671059
H         7.55023098     10.23963070     15.95470905
B         8.46971703      9.67547798     15.54237843
H         7.96344042      9.03496456     21.33729553
H         7.19768333      9.78090286     22.94951057
H         8.16984653      7.98792362     22.91789246
H         9.07040310      9.73956013     23.17234802
B         8.18535805      9.13926411     22.50452614
B         4.35177660     -5.57682085      1.51356280
H         5.23842907     -4.92386723      1.95276797
H         3.32372379     -4.99003124      2.03932452
H         4.33146954     -5.54487944      0.34092113
H         4.22377682     -6.62122154      1.95994675
H         4.28614330     -5.13777828      8.28368473
B         4.40272331     -5.22985983      9.52567101
H         3.42494297     -4.62670279      9.94374657
H         4.27052069     -6.36959219     10.00688362
H         5.36477995     -4.48312664     10.02529907
H         4.56492949     -5.42764902     15.48735523
B         4.57136440     -5.50751734     16.81098175
H         5.53663683     -4.87121964     17.29337502
H         4.53461266     -6.59030008     17.32893562
H         3.65735316     -4.94325256     17.27949715
H         4.25643110     -5.24381447     22.85439301
H         5.37116385     -4.84881639     24.62986755
B         4.37555838     -5.21344757     24.10030365
H         3.34147334     -4.60460377     24.42041779
H         4.56781244     -6.24898720     24.51517296
H         5.60167789     -1.42716753      2.29329872
H         6.59474850     -3.15612078      2.39080524
B         6.58780289     -1.96890223      2.03976703
H         7.72432947     -1.34835362      2.27709818
H         6.65418768     -1.87772512      0.85439628
H         6.58029222     -1.80163801      7.82158279
H         6.63709593     -2.96119070      9.53448105
H         7.60885382     -1.18933463      9.59210968
B         6.63241243     -1.76760423      9.14810753
H         5.57700920     -1.13833737      9.55901814
H         6.16487551     -1.46019197     15.21732807
H         7.16893101     -0.85503256     16.79138756
H         6.19447660     -2.74922490     16.80039978
H         5.12502861     -0.80018753     16.79467201
B         6.20885754     -1.54316354     16.46212006
H         7.27907705     -1.13021624     24.42333221
H         6.21731043     -2.83621478     24.42052841
H         6.21563911     -1.70138347     22.89706802
H         5.22734880     -1.17167199     24.39175797
B         6.22756004     -1.64346588     23.97386742
H         9.86098766      2.24207830      2.07230783
H         7.77182817      2.39629698      2.16377354
H         8.94996452      0.65431267      2.13912559
B         8.89119244      1.80784416      1.73108590
H         8.93522739      1.78353024      0.45174357
H         9.78367329      2.45953870      9.82744312
H         7.90905190      2.54683614      9.80194664
H         8.92196369      0.80534744      9.74787140
H         8.85149670      1.87417233      8.08063507
B         8.81496906      1.94067109      9.33728600
H         9.67550755      2.80144596     17.15759659
H         7.66862679      2.81190538     17.24383926
H         8.74641228      2.21664238     15.63359261
B         8.60900116      2.30573010     16.82503891
H         8.68112469      1.11548603     17.17372131
B         8.40192223      1.98141944     24.09930038
H         8.38282013      1.97323859     22.87143707
H         9.40633583      2.53053808     24.56411934
H         7.40579271      2.56626248     24.52279854
H         8.43700218      0.86955041     24.52687073
H        10.70375252      4.03745651      1.88552999
H        10.73872185      5.40491295      0.11153598
B        10.78354931      5.22692966      1.37311506
H         9.83709908      5.88552427      1.76462030
H        11.67290497      5.94470310      1.76288891
H        11.19089794      6.26582336      9.78960323
H         9.10354805      6.20949221      9.85040760
B        10.12523746      5.70052147      9.46391201
H        10.18070221      5.65294552      8.21198368
H        10.09844017      4.48917341      9.81865692
H         9.74679470      6.57746553     17.18551254
H        10.74405575      4.98091412     17.19793892
B        10.77939224      6.10175610     16.76890755
H        10.67754364      6.01811743     15.54689217
H        11.78966522      6.60538054     17.28636360
B        10.57465363      5.47084618     23.98425865
H        11.58056736      6.07705307     24.38868523
H        10.56163311      4.33500862     24.49402046
H        10.56500626      5.59400892     22.80224228
H         9.57240582      6.05990171     24.38074303
B         6.48062325     -9.20066929      0.10979814
H         6.51637745    -10.26620865      0.44165358
H         7.46865988     -8.56257534      0.39382792
H         6.53374434     -9.09415722     -1.11291897
H         5.52557707     -8.54033756      0.43043479
H         5.91877890     -8.53392029      6.74407387
B         5.95335674     -8.49014282      7.90299511
H         5.02460003     -8.04965591      8.37896919
H         6.01326847     -9.57026196      8.46221542
H         6.89576578     -8.11095428      8.45172882
H         6.26454306     -9.15894699     14.19434929
H         5.22409678     -8.57270718     15.88755131
B         6.21133423     -9.10746670     15.46984673
H         6.30752802    -10.26216507     15.89057922
H         7.22653770     -8.66763592     15.87375641
H         6.36517096     -8.96280956     21.71731186
H         7.31763458     -8.54997444     23.33801460
B         6.36039114     -9.00653934     22.84776688
H         5.30893040     -8.48366261     23.37856865
H         6.37070942    -10.14726067     23.46242523
H         9.18661594     -4.66741800      0.57630551
H         7.26237440     -4.58056164      0.65941167
B         8.21770191     -5.21559095      0.10772419
H         8.29971409     -6.32091522      0.58429533
H         8.31787395     -5.22093773     -1.18811941
H         8.16539478     -5.09400272      6.37972736
H         8.25740910     -6.27092314      7.99467325
H         9.19481659     -4.60097885      7.98419237
B         8.12897968     -5.12936735      7.59157276
H         7.12504053     -4.48841810      7.95006132
H         8.52052402     -5.33210373     14.49571896
H         9.58750057     -4.76775599     16.08220482
H         7.48117542     -4.74528074     16.05750465
B         8.55023193     -5.40989161     15.67373466
H         8.55380058     -6.55778074     16.09543610
H         7.99227285     -5.20353270     20.93306732
H         6.91613102     -4.62594080     22.56567001
H         8.01223946     -6.32364798     22.56712723
H         8.90679932     -4.74230528     22.50937843
B         7.85254574     -5.16942120     22.12793541
B        10.59280014     -1.84903789      0.52480251
H        10.53545570     -3.03296852      0.73672080
H        11.54426575     -1.21805143      0.89414811
H        10.61128426     -2.01537275     -0.76094741
H         9.61632252     -1.26982760      0.95084006
H        10.40539742     -1.73982739      6.90789127
B        10.54673290     -1.77836990      8.18256283
H         9.44830418     -1.20454860      8.47832966
H        10.53507710     -2.99995184      8.62496758
H        11.64815712     -1.18935966      8.64778900
H        10.56721973     -1.55651128     14.14567375
H         9.62306881     -0.99715668     15.81350231
B        10.63388634     -1.53818440     15.36205578
H        10.62642479     -2.73021698     15.86964321
H        11.57174969     -1.03066063     15.86186600
H         9.89253235     -1.60360467     20.88772583
H        11.04485321     -1.10263407     22.59549522
B         9.99972343     -1.55960834     22.10480499
H         8.91773796     -1.07493150     22.47719765
H        10.00528717     -2.73037004     22.57175827
H        13.97643089      2.24712873      0.66162694
H        11.95065212      2.19167495      0.73185277
B        12.93962193      1.60982108      0.31967890
H        12.91551685      0.44873551      0.68878955
H        13.00499725      1.62194121     -0.95292890
H        12.93190765      1.93696582      6.63782406
H        12.94446564      0.73648173      8.25364780
H        13.99323654      2.44077659      8.19219971
B        12.97473621      1.92355192      7.90134335
H        11.89837742      2.43922830      8.17621231
H        12.30588627      2.24548507     14.18695164
H        13.30035210      2.80867052     15.76340961
H        11.40189743      2.78336787     15.71766567
B        12.38649940      2.18059587     15.37515926
H        12.32921124      0.99448156     15.79331779
H        12.55844975      1.62563002     21.57540894
H        11.58649731      2.30265379     23.30696869
H        12.51271629      0.69462776     23.12936211
H        13.58449268      2.38669086     23.30995750
B        12.58686829      1.80295789     22.78729820
B         8.44727802    -12.38802052      1.90731704
H         8.40523243    -13.55345917      2.39747429
H         9.53901100    -11.87577438      2.33340597
H         8.43247700    -12.39126301      0.67044264
H         7.33446741    -11.91215420      2.34139109
H         8.67682362    -13.06134987      7.54552078
B         8.66437149    -12.98113155      8.82804966
H         7.79717064    -12.25039959      9.11590004
H         8.73852062    -14.25052547      9.00042820
H         9.60985851    -12.29082108      9.16370010
H         8.05660915    -12.40921211     15.16474056
H         7.02867413    -11.90045738     16.81191444
B         7.99538088    -12.57671738     16.41968346
H         8.10786915    -13.71721363     16.94588280
H         9.07585907    -11.96466255     16.83052826
H         8.78241253    -13.06903648     23.08208084
H         9.63735580    -12.50848007     24.69447327
B         8.64799690    -13.01244831     24.32365608
H         7.73984528    -12.48851395     24.80151367
H         8.70589066    -14.14020538     24.72375679
H        11.45682812     -8.45118904      2.28312564
H         9.48961163     -8.35635281      2.33898091
B        10.48808098     -9.01087379      1.94277811
H        10.55535126    -10.23336315      2.33826208
H        10.54638672     -8.98801136      0.67341244
H        10.81777096     -9.35669518      7.91185045
H        10.68221092    -10.51297379      9.56673050
H        11.79304790     -8.73137283      9.51695347
B        10.73009968     -9.34281445      9.16403866
H         9.69478703     -8.80262661      9.63266850
H        10.51601982     -8.91478062     15.70614910
H        11.41412354     -8.37416172     17.32447624
H         9.54257488     -8.34173965     17.35953140
B        10.51155758     -9.02434158     16.92101097
H        10.50642872    -10.15995789     17.38755417
H        11.43429375     -8.83349037     24.41960335
H        10.38549614    -10.53128529     24.49491882
H        10.55102158     -9.42439079     22.73999596
H         9.49388409     -8.92424202     24.55823517
B        10.44540691     -9.40172005     23.98978806
H        13.40061092     -4.78782511      1.73987782
H        11.55580616     -4.77648449      1.77595150
H        12.48802948     -6.58045149      1.71035576
B        12.40986824     -5.39832497      1.28097045
H        12.51190662     -5.42621660      0.03364671
H        13.87963200     -4.71581745      9.76924229
H        11.85194778     -4.63309288      9.87560272
H        12.93743229     -6.61479998      9.86708450
H        12.97823429     -5.27861023      8.19680691
B        12.76355743     -5.35886288      9.40892315
H        13.08069801     -6.06780672     16.86559486
B        13.01691055     -4.92186451     16.51868820
H        14.03727341     -4.36493444     16.91329575
H        13.09160137     -4.98348999     15.38977146
H        12.02306747     -4.30659056     16.96739197
B        12.75575733     -5.60003471     23.74138451
H        12.74156761     -5.64235592     22.49347878
H        13.69108295     -5.04698086     24.26877213
H        11.84546089     -4.96351290     24.20597649
H        12.84055710     -6.76639509     24.18418503
H        13.77066231     -1.34270263      2.10475087
H        14.81193256     -2.99488378      2.14693475
B        14.80355358     -1.87761116      1.75058985
H        15.81851864     -1.36272657      2.13730931
H        14.77373695     -1.87597454      0.51969850
H        15.67499352     -1.07694960     10.18178558
H        13.74960041     -1.06901884      9.97562313
B        14.70363712     -1.73662210      9.65031242
H        14.54634666     -1.75300956      8.42383766
H        14.71916676     -2.84271836      9.98210812
H        14.14816475     -0.88345456     17.32863235
H        15.06334305     -2.62226844     17.13123131
B        15.01633072     -1.47413945     16.63834572
H        15.16584682     -1.59026778     15.40324211
H        15.99972916     -0.87120855     17.21267700
B        14.82681370     -2.05168295     23.90555954
H        15.81218052     -1.51729262     24.34366226
H        14.79292870     -3.24230623     24.38764572
H        14.77647209     -2.04212093     22.63358498
H        13.80754471     -1.53684866     24.31006241
