768

Li       34.03984070    -33.33844757    -32.65841293
Li       18.35337830     -1.22536457     27.26747704
Li      -12.76444340    -19.32753181     12.70991802
Li       14.60409260     20.96885872     42.58868408
Li      -22.38783264    -19.72382736    -21.72527122
Li       21.79179955     17.71851158     -3.13257790
Li        2.28505826    -19.71680832     45.57878113
Li        4.00066042    -19.14131927     35.05795288
Li      -29.07558441     48.75465012    -14.16380692
Li        6.66319513      8.59145069     23.82787323
Li       27.58137131    -12.71333885    -13.26958752
Li       14.87521648     37.77371216     46.16708755
Li      -20.72060204      3.02151108     -9.38931751
Li       -3.98774004     13.20475674    -21.06222153
Li       18.82262230     30.86317444     31.00196457
Li      -21.30319595    -19.22097206    -10.09275818
Li       25.35038948     -2.01317263    -14.17927551
Li       19.39249039    -12.95075703      1.11690509
Li       30.95189476    -29.57581139     26.72589111
Li        2.39757514     -5.52351522     23.41329956
Li       21.45810509    -25.85585785     11.73081017
Li       20.93437195     12.76234341     23.86761665
Li      -22.81755638     13.47765541      4.96908712
Li       33.30545807      9.29920864    -24.90031624
Li       21.15799713     35.00730515      8.24622059
Li       25.16739845      9.55061913    -10.31458664
Li       10.39316559     13.35379219     -9.72617912
Li       27.12021255     -5.50202703     38.35865784
Li      -26.97311974     16.97535133    -36.00561142
Li       -6.11611700     20.18383217    -25.23133850
Li       -0.60153013     27.48879242     37.56214523
Li      -12.85279465     41.58181000     30.66845512
Li       16.48005867    -11.95845985    -24.80325317
Li        8.44166374     -8.89090443      8.45719814
Li       -0.17730719    -15.92813683    -51.24597168
Li       15.09144592    -27.36577797     60.20348740
Li       26.99624443    -30.31333351     42.46168518
Li        0.01411130      5.72153711     30.45444107
Li       36.09586716     -5.14243126      0.20944911
Li       21.03756332      2.44405174     19.28440285
Li       17.73759460    -37.28173828     57.16071701
Li        8.75621986     34.69604111     46.19251251
Li       20.81275558    -23.88145065      0.73906487
Li       19.02862167    -12.52903366      9.48638153
Li       19.99171448    -19.43642235     -1.99344146
Li       51.61913681    -15.62296200     -2.38062024
Li       -1.92205036     30.98899269     45.32308960
Li       -3.94031262      6.23927879      8.30148792
Li       -1.78810406     -5.62861347    -42.52796936
Li       -0.42925778      2.80746341     12.96603584
Li        9.40442276    -22.07126808     11.64936352
Li       22.44970512    -36.91092300     -2.13276672
Li       13.02114296    -30.93286705    -13.24396229
Li       26.60830498    -12.75314236     36.28047562
Li       44.75399399    -12.66642189     39.61758423
Li       -0.21965562     24.59097672    -17.82957077
Li       39.68339157    -15.27764225     11.99797440
Li       20.90203285      2.51068878     -2.57605410
Li       21.58086395    -15.05692291      4.02865458
Li      -18.54592323    -19.88483620     38.40625381
Li        8.25737667     17.27900505    -39.14565277
Li      -12.93323326     -4.44272709     41.98610687
Li       13.14018536     -9.30710506     46.22642136
Li       14.44811153     13.79160213    -16.54838753
Li       25.21988106    -38.24423599    -13.69196510
Li       18.59958458      5.69555664     27.00325394
Li      -17.39340401      2.45629311      4.14539528
Li      -25.51195908     -2.33371019     -6.27353859
Li      -17.87012100     -2.39222240     -6.58988190
Li       18.69049454    -15.81359577      5.81903315
Li       -1.35601032    -13.14469051      0.91288513
Li       -1.96057689     -5.37006283     38.61222076
Li       29.29787064     19.75856400     -6.70556116
Li       22.95944595     -8.79611111      5.48237610
Li       -0.13208506     31.17583656     27.04761696
Li       29.03018570    -16.85115814     61.30289841
Li       -6.51585388     42.43486023    -17.40854836
Li       -4.63615179      2.90583611     35.19427872
Li       -8.80096531      3.13955283    -16.44591713
Li       -4.08031130      5.41364813     -6.86382341
Li      -24.91581535    -16.64818192     44.85117722
Li       16.77227974    -45.00600815     60.26952744
Li        1.98023665      6.24813747     19.14774323
Li       14.98855782      5.95605993     50.09300232
Li       -8.41265202     -5.21943998    -10.62290478
Li        4.31246138     -9.10776043      0.71051854
Li      -10.92617226     -2.32675004     26.42882538
Li      -27.43932533     -5.37148666     60.82484818
Li        2.56118989     -7.68855858    -25.07739067
Li       35.77908325     35.16544342     41.56499481
Li       14.71819973     -1.59704077     19.58078384
Li       10.60783958     28.38284302     -9.86564541
Li       -8.10976219      2.63597798     19.72006226
Li        6.47626829    -12.64961243      7.58693981
Li      -17.70409012     25.35298538     34.26165771
Li      -12.61184978     24.12878227     35.13723373
Li       18.70308876     -8.22325516     19.56936264
Li       -9.17050457    -33.74844360     -1.64299715
Li       19.13318253     16.21995926     15.55257416
Li       11.87112808      3.21737647     12.01344490
Li       12.61339951     41.47604370    -43.27543640
Li       15.01544571    -12.21228313     52.55720139
Li       19.25963402      1.44862366     23.31826210
Li        2.32194519     16.81562805     24.07975578
Li      -19.46349907     21.08945274    -31.94932747
Li       -0.34667340    -12.13710785     27.62227058
Li       48.53905487    -12.61436939      8.19146729
Li       10.71601486     -5.06315851     -5.99986315
Li       16.80246162      9.78955841    -17.56435585
Li       14.49582005     -8.54358387     20.15328026
Li       22.97732544    -22.53035545     64.55711365
Li       -4.26882458    -11.78992844      3.95299482
Li       -7.92065144    -23.37294960      1.56788957
Li       -1.63275301     16.34678078    -14.29373264
Li      -14.58765411    -20.29849052      1.66955936
Li       31.59620667     -5.57316732     31.41643143
Li       17.34270859     -9.01870346    -35.67730331
Li       -1.68016529     13.74689674     19.93530273
Li        3.82963610    -19.38834190     20.37940788
Li       23.24129677     23.26985741     23.94557190
Li       18.84522629     -5.62550974     46.36234665
Li       -2.78568339      6.77948809    -17.35043526
Li       17.04996872    -38.00422287     67.63865662
Li        8.18243980     12.88145447     60.06958389
Li        0.25789273      5.47881889     23.88687515
Li       29.60819435     12.87516403     -5.87806749
Li       21.17855263    -16.34810066      8.74505424
Li       31.50232315     14.08798695    -25.22596741
H         2.04678440      1.52641225      3.16105461
H         2.10287404      2.68113017      4.62153816
H         1.11864305      0.93002844      4.60040712
B         2.19847417      1.44144928      4.37150955
H         3.16491151      0.88510668      4.69968939
H         1.15522110      1.52630436     10.18925381
B         1.13007617      1.49756181     11.46015644
H         0.26479217      0.81957215     11.86365223
H         2.10045290      0.90919018     11.93016243
H         1.26023400      2.66157770     11.82977390
H         2.85321760      0.77719533     20.03588867
H         1.81640172      1.30198109     18.52572632
H         1.90566695      2.60132933     20.06857300
H         0.93208718      0.76216733     19.93722343
B         1.89708376      1.44721580     19.70390892
H         1.95991445      2.62227178     26.81739807
H         1.91664886      1.18001318     25.28927994
B         2.06994867      1.35510540     26.45646667
H         1.02676499      0.70407492     26.61866188
H         2.96762991      0.66102421     26.70066833
B         4.14477491      5.20841551      5.72595024
H         5.07818222      4.65866566      6.04739714
H         4.18797493      5.18002272      4.42109013
H         4.10169411      6.32767439      6.13775158
H         3.17457986      4.68717146      6.13332129
H         4.90546894      4.51355076     13.38497257
H         3.87329626      6.26115990     13.47591209
H         3.87515974      5.01186180     11.79927540
B         3.85993838      5.05363035     13.08378506
H         2.79231811      4.48537302     13.40722084
H         3.20967698      4.17957067     20.84192848
B         4.20469618      4.84765005     20.33158493
H         5.18209410      4.20993137     20.64601135
H         4.36466980      4.90420341     19.03212357
H         4.22217846      6.03468227     20.64146805
B         3.45496035      4.77460814     27.70347214
H         2.58527493      4.06559229     28.16609764
H         4.42772865      4.21400166     28.21873665
H         3.63502836      5.90129280     27.97494888
H         3.50761414      4.93142271     26.49898148
H         5.73838758      8.83447075      3.40996838
H         5.90741587     10.01665783      5.04472637
H         4.96542120      8.25757980      4.93307638
B         5.95562935      8.94709396      4.59112978
H         6.81828403      8.27555084      5.12635803
H         6.06104231      8.76526451     10.66394997
B         6.19787121      8.74091244     11.92118549
H         5.14553404      8.06328487     12.17571545
H         7.26693249      8.23171997     12.41394234
H         6.35210133      9.90745258     12.26174545
H         7.28269529      7.91871929     20.06648064
H         6.35250139      8.59367752     18.59407043
H         6.25466108      9.87374783     20.10159683
H         5.30100727      7.96166277     20.15688896
B         6.33885384      8.62539196     19.76876831
H         5.37138557      9.96821594     26.62848091
H         5.31205177      8.78571796     25.10631943
B         5.51409340      8.88510513     26.24426079
H         4.41845131      8.16869736     26.61320305
H         6.35948896      8.14839268     26.69804955
B         8.49800968     12.78237057      5.66727638
H         9.41655731     12.00374508      6.02288771
H         8.37744141     12.70066166      4.38800287
H         8.34262276     13.85625744      5.95898676
H         7.56264734     12.17346382      5.94649220
H         8.97462559     11.92426491     13.08966351
H         7.95085764     13.68307018     13.24816608
H         7.98316526     12.37899685     11.49755573
B         7.87440157     12.51876068     12.79545307
H         6.82553625     11.86563206     13.16996384
H         7.13826370     11.91134834     21.25057983
B         8.18509960     12.38341045     20.98679352
H         9.22675800     11.89113998     21.38658333
H         8.06547928     12.35657787     19.75145149
H         8.16500950     13.51447773     21.40675163
B         7.80037785     12.16258430     27.83221817
H         6.71956062     11.73324108     28.28188324
H         8.93156910     11.66089630     28.20974159
H         7.76291275     13.25699234     28.24634171
H         7.86365891     12.21727180     26.60317993
H         4.38892221     -2.14920163      3.45822334
H         4.25142479     -1.11855268      4.83274031
H         3.14615941     -2.79062414      5.00536871
B         4.21642160     -2.26071906      4.67974758
H         5.39907026     -2.81509185      4.85512829
H         4.09739351     -2.01025414     10.96035767
B         4.23467445     -1.90507174     12.12211990
H         3.23975611     -2.48118854     12.48166180
H         5.15498829     -2.51753664     12.59043789
H         4.16589355     -0.79086852     12.62093449
H         4.66433287     -2.80898595     19.32777023
H         3.58506322     -2.15897012     17.69802856
H         3.67437840     -1.15305674     19.16991806
H         2.60000110     -2.85772777     19.25293541
B         3.65009809     -2.32550001     18.84881210
H         3.21833324     -1.64128292     27.45345688
H         3.31257558     -2.77744579     25.70034790
B         3.20025659     -2.74242616     26.98951721
H         2.28064013     -3.26867580     27.45644569
H         4.22665215     -3.30945158     27.37056923
B         5.89791727      1.57984245      5.39037561
H         6.93077755      0.89001971      5.85237503
H         5.94579268      1.54148340      4.12050200
H         5.94883919      2.72661328      5.80735445
H         4.94120121      0.87518203      5.85843801
H         6.57900763      1.06652570     13.69032955
H         5.63320351      2.71706676     13.76272297
H         5.74512386      1.61309803     12.09755230
B         5.58995056      1.58791435     13.32149315
H         4.63981533      1.03905237     13.84632778
H         5.68536568      1.12958479     20.40348625
B         6.71930599      1.58356249     20.05704689
H         7.70124483      1.02984536     20.60910034
H         6.49583912      1.62418890     18.77821159
H         6.60692835      2.68056154     20.49520302
H         5.24094343      1.34079897     28.70286560
H         7.25088835      1.21880400     28.59659004
H         6.14026499      3.05557299     28.63644600
B         6.21485090      1.87053621     28.33645630
H         6.29744673      1.88426781     27.15708923
H         6.83209229      4.35937214      4.29223061
H         8.91424751      4.32409286      4.39928913
H         7.84261608      5.96856499      4.53824234
H         7.77422905      4.70210648      2.76422906
B         7.96093750      4.91150379      3.90283895
B         7.93747330      5.14415264     12.02102375
H         6.91059017      4.63131905     12.34341431
H         8.95033836      4.55828810     12.42720318
H         7.86721706      6.27273941     12.48866749
H         7.84056902      5.05676842     10.82928658
B         8.26324558      5.02749634     19.34388924
H         8.13670921      4.97705269     18.22031212
H         7.23378229      4.53699923     19.83444023
H         8.17367744      6.05329847     19.92587090
H         9.24410057      4.46163988     19.93221664
B         7.47881556      5.22211695     26.59988022
H         7.55311155      5.33721590     25.33054924
H         6.43404865      4.69746876     26.99383545
H         8.51644135      4.63717175     26.87684441
H         7.42302608      6.34910345     26.81953239
H        10.74333477      8.92339420      4.69078493
H         9.80309963      8.26145840      6.32502604
H        11.73882484      8.31093216      6.37723970
B        10.73030376      8.81225109      5.88791800
H        10.81380939      9.98826694      6.27766609
H        10.29640198      9.96484470     13.15492916
B        10.18299484      8.76756096     12.67873096
H        10.01433086      8.74955845     11.41230202
H        11.09715080      8.21477509     13.27659893
H         9.22302437      8.05737400     13.04214001
H        11.54765606      8.25353813     20.48882866
H        10.47768784     10.01584625     20.51196098
B        10.47332954      8.82968235     20.12877846
H         9.39127254      8.24404335     20.46415138
H        10.45203400      8.80446529     18.84523582
H         9.70363426      8.30364513     26.98040771
H         8.59464645      7.83654499     28.72215843
H        10.57982922      7.69225073     28.52784729
H         9.46227741      9.53480625     28.67779541
B         9.59461403      8.43653488     28.18474770
H         6.10587740     -6.38058043      3.19006753
H         7.14401484     -6.92115402      4.80654669
H         6.06895065     -5.12322474      4.89206457
B         6.16663551     -6.30997705      4.42064571
H         5.08331966     -6.86952019      4.81637430
H         4.83275843     -6.04120588     13.02348328
H         5.85004330     -5.69873571     11.35993767
B         5.79955578     -5.52419949     12.51449299
H         6.69054413     -6.15100670     12.87531185
H         5.66656065     -4.47212887     13.10159874
B         6.41469097     -6.04138994     19.48072052
H         5.48741627     -6.62826920     19.81019402
H         6.37311316     -6.16970778     18.21915245
H         7.33928728     -6.72475195     19.82488060
H         6.32979536     -4.93664980     19.89431381
H         5.86048031     -4.41962099     26.88497734
H         4.84263754     -6.14500189     26.80768394
H         5.81698751     -5.61793756     25.40971375
B         5.92612314     -5.58701897     26.56513405
H         6.92011642     -6.16913080     26.87714195
B         8.28102398     -2.21825695      5.96769190
H         7.39164019     -2.96863651      6.35979557
H         8.35743999     -2.19258857      4.65262127
H         9.28388309     -2.96243691      6.33885384
H         8.34313011     -0.98334336      6.22911024
H         9.40258503     -2.36138725     13.76663589
H         8.53993988     -0.65125620     13.65972233
H         7.42131186     -2.50917983     13.76891613
H         8.45808125     -1.73947465     12.08876705
B         8.33471012     -1.78282130     13.26957417
H         8.17989254     -0.86254382     21.16801834
B         8.07600689     -2.04716945     20.81855202
H         7.13239050     -2.79268169     21.16126442
H         8.20194054     -2.16896701     19.60742188
H         9.03382492     -2.68092299     21.05591583
B         7.80659437     -2.26992702     28.35305786
H         8.86323929     -2.75273776     28.64914513
H         7.75845194     -1.04826069     28.85273361
H         6.65739059     -2.75058699     28.64154053
H         7.75285244     -2.37830305     27.16136742
H        10.31219101      1.52211583      3.02052426
H        11.37287331      0.84239805      4.81496954
H        10.35665607      2.65415764      4.70631027
B        10.33305359      1.50793529      4.30146980
H         9.40298462      0.87850887      4.73427296
H         9.01012993      1.10201323     12.61334229
H        10.04649544      1.63210535     11.07535744
B        10.11071587      1.73505831     12.32672119
H        11.13859940      1.11183417     12.65038490
H        10.08286953      3.00042200     12.74428272
B        10.78833389      1.73820031     19.60465050
H         9.82809067      1.06008756     20.09255600
H        10.78666019      1.81970882     18.41085052
H        11.77970409      1.12862253     20.13846397
H        10.86325073      3.00765967     20.02255440
H         9.85188007      2.69200873     26.89986610
H         8.72187805      0.72331393     26.83119583
H         9.75782394      1.36780012     25.43512726
B         9.86225891      1.46926653     26.61240959
H        10.85050011      0.79916543     26.89184380
B        12.39398479      5.07528019      5.92349529
H        11.45316315      4.49075079      6.46251917
H        12.46132374      5.16411591      4.69987583
H        13.34944820      4.42801523      6.36668634
H        12.34697533      6.17457342      6.27295113
H        13.37024403      4.41744852     13.26688290
H        12.37188625      6.17001343     13.24247551
H        11.37552452      4.41860008     13.31509113
H        12.41209984      5.04671764     11.72593212
B        12.35955715      5.08072662     12.95981312
H        12.73933983      6.37770844     20.69182014
B        12.61400509      5.24559879     20.38159752
H        11.63257694      4.73258352     20.65193939
H        12.66634178      5.28693628     18.98916054
H        13.78438663      4.76821518     20.71784401
B        12.33243275      5.34172773     27.87075806
H        13.37063503      4.77189875     28.33900833
H        12.28791809      6.55716228     28.29611778
H        11.25892925      4.80291843     28.31253433
H        12.28384590      5.40577030     26.73526192
H         8.10157108     -9.82089710      2.95853114
H         9.28856754    -10.28676987      4.66793776
H         8.12563133     -8.64989090      4.73882723
B         8.22835541     -9.75605965      4.26224327
H         7.09168863    -10.21229649      4.58681726
H         6.90114260    -10.13950157     12.26584148
H         7.90113831     -9.44121265     10.62817478
B         7.78356314     -9.48124218     11.84820747
H         8.80961037    -10.06334877     12.23826790
H         7.92132616     -8.37650013     12.16103458
B         8.35053825     -9.61662197     19.02851105
H         7.45918560    -10.19137955     19.47824287
H         8.35271072     -9.55048466     17.87365341
H         9.36643219    -10.13395691     19.57341003
H         8.46253872     -8.46295357     19.47775459
H         8.09456635     -8.76083946     27.17463493
H         7.09392309    -10.64780807     27.05654526
H         8.08128071    -10.12321854     25.54245567
B         8.02608776     -9.92725277     26.74693489
H         9.01492500    -10.60145569     27.04073143
B         9.89761448     -6.05256271      5.92326355
H         8.91472530     -6.68559742      6.12218094
H         9.83686638     -6.06769419      4.73857880
H        10.92916203     -6.51473856      6.28794003
H        10.06991196     -4.78350544      6.28337193
H        11.78769398     -6.14525175     13.52505112
H        10.87735558     -4.44511938     13.64162445
H         9.81224537     -6.23460865     13.59464931
H        10.88347721     -5.68426657     11.99272442
B        10.76115894     -5.69653702     13.24043560
H        10.32901287     -4.73767567     20.56370544
B        10.29478168     -5.95146561     20.03952408
H         9.27181053     -6.58777761     20.42663574
H        10.30936337     -6.08900404     18.75635719
H        11.20935345     -6.48566723     20.37810707
H         8.72553730     -6.52115250     28.22215462
H        10.87616825     -6.38969421     28.41723442
H         9.91469955     -4.71938276     28.37824059
B         9.76105595     -5.93671703     27.93385506
H         9.68050957     -5.93115520     26.70772552
H        11.49624538     -2.88793421      5.46414661
H        13.43973351     -3.02796364      5.28421164
H        12.34671974     -1.07954061      5.40814877
H        12.57400513     -2.36460876      3.73350668
B        12.46687889     -2.27528477      4.91461945
B        12.58797169     -1.89100659     11.98444748
H        12.56706715     -1.77612674     10.69824409
H        13.55374718     -2.56642461     12.49600220
H        12.61586475     -0.71723092     12.28067493
H        11.63393116     -2.59185743     12.45401859
H        12.27725697     -2.56047940     18.07034492
H        11.53539753     -3.11158180     19.54643631
H        13.41879845     -2.93619514     19.85344696
H        12.62898731     -1.15752447     19.86794472
B        12.50630474     -2.38214588     19.26123428
B        11.92824745     -1.90056944     26.93399048
H        12.02398682     -1.86811304     25.75754738
H        10.89965820     -2.52810669     27.33745003
H        13.00119972     -2.48913026     27.26171875
H        11.98418331     -0.74646187     27.24296761
H        15.46834564      0.88060945      5.62426758
H        14.47356129      1.36020517      3.95167708
H        13.65307140      0.79242700      5.48703241
B        14.62451553      1.39749718      5.11168718
H        14.63707733      2.46291208      5.57493830
H        14.48426437      2.72374845     13.87798977
B        14.59079170      1.57540250     13.34076023
H        14.51869011      1.63026690     12.16886044
H        15.55507755      1.02447236     13.89756489
H        13.55713081      1.10742676     13.88203812
H        14.54807377      1.93719375     19.99904633
H        13.53078461      1.38371289     21.68251610
H        15.49932098      1.38378978     21.64185143
B        14.53113651      1.90387654     21.18789101
H        14.51512051      3.09692216     21.68158340
H        14.61060619      1.20711923     26.73556519
H        13.47555637      0.59518170     28.31725502
H        15.51409626      0.89734226     28.28517151
H        14.75650597      2.41433358     28.40254974
B        14.40707207      1.27201450     27.90005684
B         2.12131214     -1.10349393      0.80825621
H         2.97906566     -0.44924051      1.18069530
H         1.02173316     -0.54258108      1.22743642
H         2.00964856     -0.99564815     -0.44965926
H         1.91956413     -2.22442818      1.28466368
H         2.26806116     -0.09541923      6.99415970
B         2.28076172     -0.23453948      8.18462658
H         1.30738246      0.41240862      8.52758026
H         2.24460483     -1.34448671      8.59454918
H         3.23181224      0.44126749      8.51894188
H         2.36891508     -0.45083547     14.38559437
B         2.27349091     -0.52606821     15.56904507
H         3.25255847     -0.01625602     15.95784760
H         2.39711261     -1.67603195     16.06602478
H         1.29351270      0.12701601     16.02392578
H         2.57160687     -0.59442586     21.84154510
H         3.51747847     -0.12031381     23.34648514
B         2.49114752     -0.71328986     23.09040070
H         1.48526633     -0.18632969     23.45595360
H         2.44420099     -1.86548483     23.53880692
H         2.98665547      3.66711044      2.17520428
H         3.98850393      1.94536650      2.04172730
B         4.00389671      3.09132481      1.55021214
H         4.92251730      3.62794566      2.10556865
H         4.02225876      2.98694301      0.33612129
H         4.44666433      3.05392098      8.17165852
H         4.55280972      1.87686658      9.93647480
H         5.40136337      3.52379918      9.91768360
B         4.45762777      3.02279305      9.44667625
H         3.47163725      3.65810251      9.88237190
H         4.34375381      2.56001687     15.75273895
H         5.34285498      3.24535561     17.29416466
H         4.20757198      1.32214510     17.33079147
H         3.26767468      3.13255024     17.38185883
B         4.31538534      2.55602908     17.03141975
H         4.58396816      2.89283824     22.65547180
H         3.67934442      3.59248829     24.39768219
H         4.64339209      1.81123590     24.32092094
H         5.60290718      3.58987164     24.46860886
B         4.64055824      2.93706751     23.95163345
B         5.91206837      6.46559381      0.79991943
H         6.85730696      7.08657265      1.24658930
H         4.90177011      7.10614347      1.13360929
H         5.79254818      6.61059284     -0.38955602
H         5.89648628      5.38045216      1.28066540
H         6.53196287      6.73482704      6.91047096
B         6.47402143      6.63007498      8.12710571
H         5.50891113      7.26293278      8.51723194
H         6.40969658      5.45599651      8.52010345
H         7.44516420      7.34069061      8.42218304
H         6.69481754      6.36336470     14.73750877
B         6.68975163      6.34904909     15.81460571
H         7.66599703      6.93241453     16.25816917
H         6.73263502      5.22821951     16.23340607
H         5.72793531      6.97360182     16.24066925
H         6.73202085      6.54044104     21.83655548
H         7.60203743      7.13658571     23.33450699
B         6.64696312      6.47987652     23.00611877
H         5.69037580      7.05936861     23.46724319
H         6.57933426      5.31018972     23.44126892
H         7.21738911     11.03752518      2.66469145
H         8.23568916      9.36413479      2.67252159
B         8.25838375     10.55950832      2.18527150
H         9.29214478     11.05955410      2.47587967
H         8.40248966     10.58252144      0.89267397
H         8.74505424     10.84423923      8.02515602
H         8.61839867      9.80972004      9.76937866
H         9.65389061     11.31795597      9.66042614
B         8.60993958     10.86491680      9.26131725
H         7.54241610     11.34133339      9.83210373
H         8.66389179     10.24789429     15.73218822
H         9.58944893     10.83940315     17.43422318
H         8.58863068      9.16524506     17.44651031
H         7.73163271     10.75636768     17.46936798
B         8.73968601     10.31275558     16.91952515
H         8.73661900     10.02988243     22.85421753
H         7.58644962     10.63386440     24.50571060
H         8.68719864      8.99499512     24.41454887
H         9.78897476     10.63445759     24.44503403
B         8.72337914     10.12702656     24.06179810
B         4.33576155     -4.42727852      1.23146498
H         5.35186863     -3.84334016      1.62866604
H         3.34222054     -3.97968841      1.61563218
H         4.29666185     -4.54093790     -0.08603854
H         4.22896338     -5.59651804      1.55096030
H         4.34037113     -4.13899183      7.62879181
B         4.43822241     -4.15555143      8.89171696
H         3.41068888     -3.50061703      9.20596981
H         4.48624754     -5.33044195      9.26487732
H         5.43645525     -3.57298827      9.33351612
H         3.92666817     -4.64511347     14.23458576
B         4.07673407     -4.48582029     15.52668190
H         5.15831423     -3.94027162     16.02015686
H         4.05384731     -5.64557934     15.79818344
H         2.97477531     -3.95493293     15.85431957
H         4.52717447     -4.39321280     21.63648224
H         5.48952484     -3.79633451     23.13375282
B         4.45552731     -4.44623852     22.81976128
H         3.42480755     -3.95171690     23.27509308
H         4.32260084     -5.61649704     23.26989746
H         5.39792919      0.20131806      2.53749394
H         6.35406208     -1.69326282      2.54092073
B         6.35654688     -0.55947345      2.09942031
H         7.23362064      0.15710725      2.47700500
H         6.37756681     -0.41165394      0.99567658
H         6.51626110     -0.78817034      8.03672123
H         6.53841782     -1.89396846      9.59385967
H         7.57377148     -0.15770870      9.66110325
B         6.53965902     -0.65652025      9.29561424
H         5.50726366     -0.16013315      9.63225937
H         6.43234825     -0.75895596     14.79823971
H         7.47535181     -0.36974731     16.52092743
H         6.45606041     -1.88212168     16.62852859
H         5.35956717     -0.32517439     16.52375793
B         6.45202827     -0.85250944     15.98786736
H         7.42876053     -0.20176414     24.71494102
H         6.42879772     -1.97715688     24.65921021
H         6.48912287     -0.88274771     23.13683128
H         5.46059132     -0.22009836     24.77583694
B         6.43930531     -0.66566634     24.42518234
H         9.92371368      3.23501086      1.04580331
H         8.07440090      3.24052405      1.20534086
H         9.00383186      1.52893174      1.14631939
B         8.99271679      2.60331202      0.62988567
H         9.13106060      2.68859220     -0.56632918
H         9.69693089      3.57444715      8.10336971
H         7.86720562      3.37305474      8.18896770
H         8.60765743      1.73563206      8.26090717
H         8.79212570      3.00301194      6.52899790
B         8.85221195      2.86296630      7.74448776
H         9.86191082      3.46239829     16.27978897
H         7.73562527      3.46563148     16.19153404
H         8.72780132      2.79015064     14.66164112
B         8.78590584      2.92572427     15.79024982
H         8.80156803      1.76016593     16.12378120
B         8.72340107      3.19106913     23.08926964
H         8.69849300      3.18413663     21.91419029
H         9.74608898      3.84239149     23.61249924
H         7.74441290      3.79299092     23.57258606
H         8.70246792      2.11465788     23.52185631
H        10.73888016      5.56155729      2.44311404
H        10.75707912      6.63568306      0.83247125
B        10.76773453      6.77111149      2.08593798
H         9.66354275      7.30896521      2.55014634
H        11.83601570      7.32155037      2.53640676
H        11.39679050      7.38791800      9.48552704
H         9.49613380      7.42972755      9.43364048
B        10.44462109      6.70935154      9.11300087
H        10.41633987      6.82982206      7.93499899
H        10.48267078      5.67139721      9.45802307
H         9.55052376      7.16178989     17.40299797
H        10.58712673      5.46987247     17.30397224
B        10.54872513      6.57061958     16.91037178
H        10.60460091      6.51457930     15.69508839
H        11.50923729      7.09568834     17.33488083
B        10.96587563      6.53183556     23.28691864
H        11.91295433      7.01998472     23.75310326
H        10.97188950      5.33263159     23.54220009
H        10.91168690      6.29243469     22.11408234
H         9.98411942      7.04694891     23.69861031
B         6.51446009     -7.60238218      0.62840927
H         6.59065390     -8.76406574      1.10461962
H         7.56451464     -7.18473577      1.10476494
H         6.56175804     -7.69550228     -0.67339414
H         5.48916817     -7.11105108      1.12091982
H         6.69126081     -7.65043402      7.31023979
B         6.72269869     -7.56168222      8.66245270
H         5.75340748     -7.03825712      9.06187153
H         6.65533638     -8.76887989      9.00265598
H         7.68064308     -6.96702480      9.06780910
H         6.58935785     -8.16023731     14.03618145
H         5.42811680     -7.63087606     15.70342636
B         6.48355770     -8.14588356     15.21768284
H         6.43678999     -9.25376320     15.62231636
H         7.52420235     -7.58541679     15.54842949
H         6.61611414     -8.07258415     21.98397446
H         7.52582073     -7.53630924     23.47290039
B         6.50044012     -8.11479950     23.20352173
H         5.50148964     -7.60225677     23.62174606
H         6.45654249     -9.21242523     23.59444618
H         9.31317234     -4.01618242      2.21593428
H         7.18139172     -3.90882540      2.28139281
B         8.22686577     -4.50440264      1.87839091
H         8.34025574     -5.69426441      2.32732773
H         8.33242702     -4.46604109      0.59199625
H         8.58817387     -4.90689611      8.81172085
H         8.63237572     -5.72533178     10.32110119
H         9.75479317     -4.16798830     10.57944965
B         8.65506172     -4.57660866     10.02007294
H         7.61722136     -4.22991562     10.48134327
H         8.86559010     -4.45372915     15.43100071
H         9.95249653     -3.76841712     17.08564377
H         7.90788126     -3.88583899     17.04963493
B         8.99246216     -4.42296839     16.67214966
H         8.82849884     -5.60277987     17.03077316
H         8.59455967     -4.25767088     22.98048401
H         7.76168680     -3.65516877     24.58963203
H         8.71979332     -5.35541773     24.62812805
H         9.70326233     -3.64052606     24.75338173
B         8.72371101     -4.23772478     24.26497078
B        10.62163258     -0.78295815      1.36526263
H        10.61725903     -1.94515264      1.83445978
H        11.53536701     -0.12304905      1.81574559
H        10.51339531     -0.65213078      0.13625818
H         9.63233757     -0.08447480      1.71628654
H        10.70328140     -0.46549389      7.12373161
B        10.56176186     -0.47073439      8.29721546
H         9.65601063      0.01797397      8.79118347
H        10.57858753     -1.52189445      8.74695778
H        11.54527283      0.04343944      8.65703678
H        10.80929947     -0.67421424     14.32334805
H         9.76054478     -0.20241588     15.98138523
B        10.81875420     -0.68092233     15.58999825
H        10.71510124     -1.90790987     16.02667999
H        11.84477234     -0.10131217     15.93677998
H        11.02233028     -0.46411812     21.97966766
H        12.05444908      0.18274464     23.43709946
B        10.97787285     -0.41008160     23.21753120
H         9.85632992      0.12071819     23.54163933
H        10.90167332     -1.58140767     23.44915771
H        14.36766338      4.10530186      2.21359301
H        12.45409584      4.10407495      2.05418158
B        13.37939835      3.42261434      1.72857559
H        13.40981770      2.25958467      2.05247211
H        13.28074074      3.41376805      0.44905809
H        12.76309395      3.33622026      8.31184101
H        12.61053276      2.19846964      9.95786667
H        13.67206097      4.00902987      9.93753052
B        12.69319820      3.38670158      9.56435394
H        11.71619225      3.91250372     10.05652714
H        13.41335201      3.04096293     15.54198170
H        14.34433270      3.62183690     17.11116409
H        12.28809452      3.49979281     17.27341652
B        13.29247379      3.12430096     16.67137527
H        13.21051979      1.96364379     17.20694733
H        12.68208981      3.21526885     23.17238426
H        11.60809135      3.83738041     24.95523262
H        12.55247402      2.00339150     24.86441803
H        13.55253601      3.86952710     24.81880379
B        12.59901714      3.25034475     24.39465523
B         8.73441124    -11.53874397      0.46621984
H         8.64845753    -12.65066910      0.86034924
H         9.57824326    -10.86727238      0.92248946
H         8.70386696    -11.55196762     -0.69845271
H         7.81512260    -10.92295837      0.95185030
H         8.36029148    -11.09275150      6.57358694
B         8.39442062    -11.11133957      7.76646709
H         7.25328684    -10.64012241      8.06893253
H         8.34635639    -12.34486580      8.18397808
H         9.58020210    -10.55884647      8.10930538
H         8.83670902    -11.35482693     14.17164326
H         7.76106119    -11.02965832     15.93522263
B         8.74238110    -11.44930553     15.35142708
H         8.59294701    -12.59016609     15.99296188
H         9.71384335    -10.86279869     15.75385284
H         8.81696701    -11.38947678     21.61291504
H         9.94236088    -10.80077744     23.26545143
B         8.91311455    -11.36550808     22.83016396
H         7.88827658    -10.81034184     23.14842606
H         8.90703487    -12.55809784     23.20755959
H        11.67916584     -7.36327362      2.65439939
H         9.63698292     -7.32383204      2.56882238
B        10.65855980     -7.92598820      2.19035339
H        10.69223213     -9.08848286      2.50558591
H        10.59971046     -8.02518082      0.92090201
H        11.09242916     -7.89671373      8.25221920
H        11.15137672     -8.89160538      9.70673466
H        12.10156250     -7.20962811      9.87683678
B        11.13042355     -7.75568676      9.44442654
H        10.11570358     -7.16027069      9.83967590
H        11.01290607     -8.35663319     15.85531330
H        11.96416283     -7.66662884     17.66892815
H        10.14279747     -7.61089611     17.59970284
B        11.07884216     -8.19436455     17.07589531
H        11.10174656     -9.27894402     17.45272636
H        11.66939354     -7.44916105     25.26381302
H        10.77528095     -9.21054363     25.12551117
H        10.69842911     -8.12067986     23.49621201
H         9.80125809     -7.40302467     25.20122147
B        10.68110085     -8.10668659     24.80618858
H        13.68573284     -3.81322479      1.33242643
H        11.69380283     -3.81051040      1.20160186
H        12.69211864     -5.53250504      1.21767914
B        12.68204308     -4.31979561      0.84802341
H        12.58381176     -4.43282223     -0.39034498
H        13.77226353     -3.67439699      8.66150093
H        11.70527935     -3.56065631      8.63407421
H        12.83727360     -5.16713715      8.70879841
H        12.74936676     -4.07768822      7.06426668
B        12.75952053     -4.04714584      8.20633602
H        12.76662350     -5.87453890     16.74194908
B        12.94309807     -4.71868706     16.16245651
H        13.73695850     -4.01081514     16.72919464
H        12.81315327     -4.64709616     14.89496136
H        11.96576691     -4.10866356     16.71896553
B        12.76579952     -3.93421245     22.84172058
H        12.72083759     -3.77905250     21.67452049
H        13.90652847     -3.28314042     23.15078545
H        11.73150921     -3.39029288     23.06808281
H        12.72622108     -5.05180025     23.24622726
H        13.75387096      0.02146079      1.93788326
H        14.78064060     -1.79628348      1.94793057
B        14.76825237     -0.55439913      1.55376720
H        15.85051060      0.04634608      1.90707111
H        14.82053375     -0.55244470      0.29083720
H        15.72308254      0.28165975      9.26020336
H        13.73515797      0.27003703      9.30027771
B        14.71480942     -0.34750506      8.86712074
H        14.75864410     -0.39365390      7.67045498
H        14.71905613     -1.53774273      9.21108246
H        13.88428783     -0.37250292     17.56028557
H        14.81125069     -2.02996111     17.42597771
B        14.97186661     -0.87952989     17.06751442
H        15.01684475     -0.93232286     15.82830429
H        15.98519421     -0.22990768     17.40807915
B        14.71709061     -0.31096861     24.50641441
H        15.72185421      0.27061793     25.08659554
H        14.75134563     -1.42574346     24.89512253
H        14.51234150     -0.33694786     23.33179855
H        13.69981289      0.31739637     24.82692146
