768

Li      -19.32503510    -21.09224892    -13.79006672
Li      -20.54305077      7.03266191     27.04702377
Li       15.05617237      2.09472346     36.20325470
Li       -4.71917725     -4.10962868     17.62930489
Li       13.76866245      8.70594501      0.83655965
Li        5.60259485      5.74056387     12.04471684
Li       15.54549885      4.57130575     -4.82679653
Li       -0.80000365     -2.83667946     30.31772614
Li        9.57453537    -15.40321922     11.73993397
Li       12.54153633      4.46269321     15.72549629
Li      -21.61333084     10.70247746    -19.87746811
Li       16.13141060    -11.19692326     24.48575783
Li       16.73833847     54.99619293    -21.61063194
Li       18.21151352      1.17072797     22.61956215
Li       15.54845047     18.55000305      2.22608447
Li       28.63119698     23.92838287    -16.21063042
Li        0.26449057     20.67185783     -1.76660514
Li       -6.02917480      2.98102403      4.07318258
Li       41.09891510     18.25002480    -19.78455162
Li      -12.46706581    -30.76004219     35.67700577
Li       -7.02288103     -1.30447769     19.28682709
Li       -3.12945747     -1.57755947      6.10528040
Li       24.87285614    -30.71448326      7.85061932
Li      -15.23369789     15.73471832     29.92713737
Li       33.06516266    -10.81932926    -19.82028580
Li       11.86215305    -16.55327988     31.51699829
Li       23.48485374     25.11751175      4.65062618
Li       28.65731812      4.84706688      7.51327419
Li        0.96236795     -7.38649416      9.62487316
Li       -5.70380306     -3.12152982     39.70937729
Li        2.76353335     18.01675415    -10.71195126
Li       14.78759480     22.70360756     30.03401375
Li        7.37244940     16.94048309    -30.78291321
Li        2.13060546     30.24084663     15.13552475
Li       40.41032028     -4.42067051     18.85146713
Li       -2.05093861     -6.78255272     15.38964462
Li        2.08319783    -54.89766693     -2.90949035
Li       -6.09695864    -27.98456001     38.09787750
Li       13.48024368      6.06089830      4.11917496
Li       14.22410583      8.19981861     22.89650917
Li       12.75637436     -1.96207261     28.32257462
Li       -9.18289375     26.55388260     -6.68652391
Li       10.05171490    -21.34516525     17.65808487
Li       12.24767971     -9.42877483     59.96345520
Li       37.73640823     -2.18030667     -1.29631293
Li       13.67870522     -6.03704166      8.24153233
Li       29.98134232     -2.42387891     -8.29754448
Li       17.94284058     20.30295181     13.93182564
Li        6.83964252      1.52677059    -16.11497879
Li       14.50560188    -12.65744305     -1.08210886
Li       31.08926964     14.76470566     32.51734161
Li       20.30455589      5.16747379     15.19734097
Li       11.47171688    -20.76260185     13.67260170
Li       27.21741295    -27.43107605    -14.04690266
Li       22.05007744     15.15286160     25.08315468
Li       16.59949493    -37.24258041      5.52689075
Li       29.30036354    -10.32163334    -21.44740105
Li       -2.16263914     30.91382599     21.47657585
Li       24.13420868    -10.46744251      2.58686638
Li       22.71622276      0.27476880     46.91658020
Li       16.36297989    -31.60805511     15.40268421
Li       26.01259041     -6.63057327      2.65509295
Li       34.80626297    -15.33308792     33.92545319
Li       -2.44533849     -6.24545717     23.12339783
Li       10.36140347     -5.55356598     21.28505325
Li      -22.79015923    -11.64791393      4.44005060
Li       -1.36025405     16.07233810     51.06463623
Li        4.92756796      6.98512125     18.72374725
Li       -3.14275360     -8.66120052     26.20001411
Li      -15.05584526      0.98399091      0.45010868
Li       19.20264435      2.57448769     12.05609322
Li        0.63868463     14.10082722     41.58783722
Li        5.18091011      0.60022652     -4.71688223
Li        5.19508266     14.52704430     17.46698952
Li       28.44408607     12.19113350     16.84974480
Li        4.38680983     14.72514534      2.57652974
Li       27.68481255     -3.37247849     24.80688667
Li       -2.09349060     30.79248810     13.56306267
Li      -13.94310856     23.77470398      5.88612461
Li       20.15714264     46.76049423    -18.03338814
Li       29.93469429     -1.93983877     13.91437626
Li      -15.73065281     36.58338547     24.82897377
Li      -25.02237892      7.05628681      1.97057128
Li       26.24032593     -6.69531536     39.61661911
Li      -18.02267265    -19.11565781     -2.82021570
Li       21.61157036     -8.02641773     11.29860783
Li       20.18236542     -4.64456892     -9.28475571
Li      -24.62018013     13.97159195    -10.49104977
Li        8.51491261     14.01942730      4.41705084
Li       -0.71881211     17.06765556      6.00253487
Li        5.54229069     14.52965736     69.14416504
Li       28.68688393      4.64265966     22.91574097
Li       12.40532970     -7.98752928      4.75195694
Li      -16.58440399     26.46524048     22.75139618
Li       16.13946152     12.01244545     30.30976486
Li       24.77893066     -8.26169205     -0.73199862
Li      -14.12461472    -11.38417435     -3.26991773
Li        9.37302589     -8.73804665     36.07943726
Li       -4.57120705    -39.17677689     -6.92502642
Li       19.42727852    -20.35044479     28.50998116
Li       16.32072639     -8.97806454     21.34703064
Li        9.24341583     -7.06249952    -12.86257076
Li       19.08454132     15.28645897     -6.91011810
Li       29.77033615    -16.65856361     43.34458160
Li       29.56071091    -15.85923576     -9.15833664
Li       -0.73200905    -25.75830078     17.46798897
Li        7.35304356    -19.01438332     63.29248047
Li      -15.93230534     21.98590469     -5.11156893
Li       20.05758858    -33.04795456     54.53310394
Li       11.53855228     -3.54505491    -27.38119888
Li       22.45870781     -7.98694706     19.24444389
Li       26.08065987     -9.85863018     20.93867874
Li      -23.54259872    -19.58974648    -30.97979546
Li       24.29992104    -19.66444969     18.75667572
Li       10.30193329     -4.83769321     36.33668137
Li       25.17914772     -2.56641865     44.96952820
Li       15.56117439     -4.23900986     11.82238865
Li        9.06097889    -29.56124878     26.64492798
Li       15.66845512    -48.18299866     12.21708012
Li        6.34207153     -6.42257071      8.13698959
Li       18.05545998     -0.70718145    -32.70686340
Li       23.25588036     10.44819450     -3.30453777
Li       25.20222473     -9.00618839     13.23561001
Li       36.97574997      2.43029213     18.54114723
Li       10.17778778    -13.54464626      7.89119911
Li        3.98095298     -9.86414242      0.19958492
Li       -3.18771243    -13.41201782      9.63068867
Li       -1.09966063     18.89527321     47.06777954
H         2.13228369      0.76113015      4.34220123
H         2.23518705      1.72640145      5.96053171
H         1.07581770      0.02642246      6.07415199
B         2.09656310      0.56287426      5.67626953
H         3.13185930      0.17809087      6.09376860
H         0.70600510      1.22494209     11.77019215
B         0.57937342      1.24409986     13.13651752
H        -0.29132754      0.54223502     13.53352165
H         1.53686845      0.68164915     13.48226166
H         0.74350667      2.36607742     13.47722340
H         2.82322669      0.18099755     20.96141624
H         1.80573606      0.95533144     19.14155197
H         1.82532418      2.05591035     20.79188538
H         1.04112828      0.30438107     20.85119629
B         1.95628047      0.82317883     20.41746521
H         1.10631025      2.41631269     28.53662872
H         1.17647469      1.17067087     26.75692940
B         1.06665599      1.28278065     28.00007820
H         0.17092142      0.66853964     28.49439240
H         2.04326153      0.66763753     28.40978432
B         2.95444703      4.91839409      5.76242447
H         3.93561912      4.41316795      6.11346912
H         3.01008177      4.90915346      4.48813105
H         2.90658021      5.99156141      6.20948315
H         1.95298898      4.45672703      6.20977211
H         4.97019529      3.86412597     13.25432110
H         3.98429132      5.65600252     13.32751560
H         4.04721832      4.42946625     11.71260738
B         3.95180297      4.38675117     13.04215813
H         2.81777096      3.75984693     13.40553093
H         2.50353861      4.44657469     20.67049217
B         3.67131972      4.87973452     20.21226501
H         4.72988224      4.27275848     20.65913200
H         3.57440686      4.93975782     18.95189095
H         3.46618080      5.98868704     20.62581635
B         4.00187254      4.25066233     27.97881126
H         2.95129013      3.75262141     28.40448380
H         5.02117777      3.67190170     28.38577461
H         3.91632867      5.44174862     28.36298370
H         3.97769070      4.31958389     26.73995781
H         5.97259569      7.94130707      4.76533031
H         5.92701149      8.91542435      6.36639881
H         4.96874666      7.20380402      6.57186747
B         5.88995266      7.83321333      5.91395760
H         6.82618570      7.23792076      6.49222660
H         5.77767467      8.54726887     11.90609837
B         5.63861322      8.58866405     13.09450340
H         4.75295734      8.00824261     13.53954697
H         6.69370079      7.98475933     13.46598911
H         5.70299244      9.67129326     13.51023388
H         7.63746977      7.15488577     20.89827728
H         6.51443148      7.66523027     19.20759010
H         6.66880322      8.88225555     20.87349510
H         5.58833694      7.09033775     20.75429344
B         6.59445858      7.66474867     20.47690773
H         5.33741760      9.98278809     28.27546501
H         5.40145683      8.70048046     26.56275940
B         5.44583082      8.77555656     27.82248116
H         4.48245144      8.18162823     28.22901726
H         6.35110998      8.08998680     28.21447754
B         7.23101282     12.29345417      5.70388603
H         8.18482113     11.62469769      6.00742197
H         7.20566320     12.26599026      4.33561945
H         7.25916004     13.59037018      5.98902035
H         6.27163649     11.58898163      5.96704721
H         9.18329906     11.16671085     13.71169186
H         8.10811520     12.88907433     13.59213448
H         8.02306271     11.80559635     12.02079773
B         8.22291374     11.72416782     13.17915916
H         7.21464396     11.27162170     13.53429127
H         6.75960493     11.59348202     20.74761391
B         7.65552664     12.20187664     20.37413216
H         8.66003895     11.64954758     20.69583321
H         7.76924562     12.24797821     19.16631889
H         7.75837612     13.46078396     20.70800972
B         8.26366425     11.64427090     27.58966446
H         7.23599768     11.01637077     27.95716858
H         9.36654758     11.13267708     27.96945381
H         8.40199661     12.78686333     28.04543304
H         8.32576656     11.56786633     26.40987396
H         5.30128717     -1.93141437      2.42391729
H         5.20063019     -0.82772779      4.01499557
H         4.05948019     -2.61663342      4.17139196
B         5.22970629     -2.00203347      3.67007899
H         6.26154709     -2.57031012      4.01449394
H         3.45956063     -1.78543222      9.93812084
B         3.66272640     -1.77246594     11.16142464
H         2.66502786     -2.40087152     11.56034279
H         4.56372595     -2.48748970     11.71807098
H         3.53936291     -0.60705417     11.58919334
H         5.76768637     -2.28928375     18.72117805
H         4.91388559     -1.66595650     17.17382050
H         4.78224850     -0.58130622     18.74541283
H         3.80795670     -2.28284836     18.88001633
B         4.92122602     -1.70382023     18.31556892
H         3.45649076     -0.43083331     26.53320885
H         3.38927603     -1.68100762     24.86985207
B         3.41658711     -1.62524641     26.07537460
H         2.46256566     -2.22013617     26.43095207
H         4.37358046     -2.17577505     26.48212242
B         6.02662992      2.21927023      3.71577573
H         7.07599163      1.66418064      4.12214756
H         5.98732567      2.24908471      2.42571020
H         5.88863897      3.34741116      4.15851355
H         4.91457987      1.78732550      4.15702391
H         7.89179325      1.14416015     11.67188740
H         7.08265448      2.70617604     11.75809288
H         6.97454357      1.52101922     10.05043793
B         6.95518351      1.59815979     11.23112583
H         5.99582815      0.98383725     11.65227795
H         5.15738869      1.74933553     18.75972939
B         6.19927216      2.23257899     18.24696350
H         7.20805597      1.74220383     18.73881912
H         6.19749403      2.23139453     16.96458054
H         6.17654610      3.32800841     18.79415894
H         5.83430004      0.96150476     26.81542015
H         7.82228661      0.92519021     26.54234695
H         6.79684353      2.64343309     26.73954010
B         6.80696487      1.52384341     26.23430252
H         7.04099417      1.45265055     25.07173920
H         8.21390915      4.57458305      3.91909480
H        10.44126701      4.76677561      4.00490284
H         9.49403095      6.48914766      3.93920207
H         9.31295586      5.29841423      2.35340261
B         9.38513660      5.27093315      3.59297562
B         7.86211061      5.71226597     10.79029846
H         6.88987303      4.98373604     11.21935844
H         8.77671337      5.02777338     11.28138638
H         7.87142944      6.93140602     11.10808754
H         7.79512548      5.78096485      9.67729187
B         9.45286465      5.48110723     19.18177223
H         9.30097675      5.45154858     17.86433792
H         8.30260754      4.94496012     19.44205093
H         9.50060558      6.68971491     19.64481544
H        10.50692844      5.05562401     19.60797501
B         7.48477411      5.36386061     25.94089508
H         7.49260712      5.25044298     24.72399330
H         6.57194853      4.60396481     26.40427017
H         8.44446087      4.76574850     26.48169899
H         7.64831305      6.45544147     26.46781349
H         9.18616486      9.19975567      2.88070369
H         8.12739182      8.55580425      4.43950701
H        10.26141930      8.54803944      4.44640636
B         9.21938133      9.17514420      4.03964996
H         9.18768215     10.32651901      4.38280916
H        10.91096210      9.96839619     11.60390472
B        10.90937233      8.73070240     11.18632030
H        10.76456833      8.65428829      9.93337917
H        11.74303246      8.09436226     11.62504196
H         9.94269371      8.01572990     11.50211048
H        10.59986877      8.77904606     19.34777641
H         9.64889526     10.59759808     19.28458405
B         9.62119961      9.37899971     18.93942451
H         8.70778847      8.78474236     19.30575371
H         9.61827660      9.42701817     17.65953827
H        10.67508316      8.80196190     24.81761169
H         9.65238762      8.24602890     26.45218468
H        11.81704140      8.30110741     26.54467964
H        10.78241539      9.92750072     26.52402878
B        10.74928379      8.73352528     26.13954926
H         5.42423582     -6.10437393      4.71694374
H         6.31709099     -6.73538208      6.24249077
H         5.28527689     -4.83093262      6.33089113
B         5.37916899     -5.99687815      5.93350935
H         4.39959335     -6.65101433      6.35372686
H         4.97931385     -7.33557701     13.60821915
H         5.71163416     -6.71281052     11.93514252
B         5.87081146     -6.74655867     13.20487118
H         6.71463585     -7.44740438     13.73347664
H         5.75012922     -5.51034641     13.61584854
B         5.39234209     -5.96183395     20.38907623
H         4.34968138     -6.37802267     20.79611778
H         5.43656158     -5.77552319     19.21197701
H         6.45013046     -6.29912901     20.77961922
H         5.46822929     -4.79431152     20.73862076
H         6.35912418     -5.16338253     28.67252922
H         5.18844318     -6.78190899     28.56126785
H         6.37124395     -6.35431004     26.88490295
B         6.31639910     -6.21947241     28.13554955
H         7.28345585     -6.63967896     28.44524384
B         8.55066490     -2.45018840      5.74767208
H         7.59257030     -3.10266733      6.19330502
H         8.60896778     -2.49927616      4.53044987
H         9.57599926     -3.09083891      6.16787195
H         8.59452820     -1.36237538      6.15909719
H         8.45323849     -3.07337189     13.45612526
H         7.46901512     -1.21748722     13.45203209
H         6.53888607     -3.04214072     13.40637875
H         7.44580698     -2.46423197     11.83637047
B         7.53234673     -2.42199278     13.05047798
H         8.16493988     -2.22056365     20.96858025
B         8.32997131     -3.44322157     20.61851311
H         7.20975828     -3.80572629     20.99657249
H         8.26920891     -3.31019258     19.41727066
H         9.37263298     -3.95151353     20.97063637
B         7.43551826     -2.24174070     27.98423958
H         8.52397060     -2.77158642     28.24808693
H         7.52578640     -1.07851708     28.40868950
H         6.50665951     -2.78367805     28.52871704
H         7.74913216     -2.22998595     26.75766754
H         9.36400318      1.37623191      4.42491055
H        10.44353294      0.78661609      6.10433960
H         9.36837578      2.48056531      6.07658720
B         9.45015240      1.30029786      5.64052010
H         8.42429733      0.86229503      6.04611588
H         9.68131828      0.16230237     13.66647530
H        10.60967255      0.63165349     11.96477032
B        10.71478653      0.74226558     13.32136536
H        11.79707527      0.10823213     13.80609131
H        10.69237041      1.87392306     13.82407379
B         9.63524818      1.04965329     20.42022514
H         8.69102097      0.39954174     20.83243561
H         9.61979103      0.89567339     19.24911690
H        10.58607960      0.39052847     20.85222816
H         9.63074589      2.09209061     20.91003609
H        10.50785923      2.02901983     28.28610420
H         9.56356335      0.37065008     28.28168297
H        10.43679905      0.95946181     26.57649994
B        10.63165760      0.91420609     27.86283493
H        11.47524357      0.35731912     28.37619972
B        12.93695068      4.18365479      5.57049561
H        11.94188023      3.47333121      6.03884363
H        12.96736336      4.13610029      4.35416698
H        13.81983757      3.51425409      5.94667006
H        12.91629887      5.30275822      5.94983149
H        12.75565910      4.32689905     13.60477257
H        11.88073444      6.10175371     13.67873192
H        10.87620544      4.25207186     13.60958576
H        11.84217262      4.82507467     12.02881050
B        11.78476334      4.96939516     13.19851685
H        12.89014339      5.45854092     21.16210365
B        12.72495079      4.25758696     20.77234650
H        11.90113831      3.50899386     21.20675850
H        12.85193348      4.22297192     19.56656647
H        13.72092438      3.60034442     21.19081306
B        11.41370583      5.30921936     27.38330078
H        12.53963375      4.65061045     27.77814674
H        11.46510410      6.42037058     27.81958199
H        10.51235008      4.72091722     27.96957397
H        11.66328049      5.31455088     26.22868538
H         8.11743259     -8.59049702      2.71332431
H         9.07857132     -9.12589645      4.27161741
H         8.15475178     -7.34860802      4.30857372
B         8.08922672     -8.52437305      3.94320178
H         7.07454824     -9.21618557      4.28952885
H         7.37071037     -9.29243851     11.56836987
H         8.36741638     -8.77069283      9.87799168
B         8.43771839     -8.84123325     11.10774422
H         9.33009911     -9.42932701     11.49707794
H         8.23185539     -7.64484978     11.51419353
B         7.60524940     -8.87309837     18.32822800
H         6.74277639     -9.57767963     18.67881203
H         7.72313023     -8.91165638     17.12993050
H         8.64136314     -9.53792095     18.65644646
H         7.72650099     -7.71462536     18.63296509
H         8.66494465     -7.90183115     26.60578537
H         7.59740877     -9.70697689     26.69801521
H         8.70751858     -9.04282379     25.18634033
B         8.55941963     -9.04693604     26.33042145
H         9.62845135     -9.64691544     26.60459709
B        11.03686047     -5.73326683      3.74439025
H        10.08631706     -6.13766336      4.34419489
H        11.17920589     -5.62665558      2.59401441
H        12.01438046     -6.31246519      4.12404203
H        10.89896584     -4.59895039      4.17506266
H        11.11795044     -5.54459095     11.83203697
H        10.03879166     -3.71853995     11.93851471
H         9.08903599     -5.46988010     11.91500568
H        10.14845276     -4.97153282     10.30083370
B        10.17438793     -4.96826887     11.56146526
H        10.86978531     -4.56749630     18.89959717
B        10.84261703     -5.82702303     18.46637344
H        10.07446766     -6.49340343     19.00054169
H        10.97683907     -5.81815481     17.22476959
H        11.77018929     -6.55407619     18.91338158
H         8.60085773     -5.85729361     26.60120392
H        10.55345917     -5.85498714     26.60715675
H         9.57915592     -4.04709911     26.66010666
B         9.57438374     -5.23130322     26.35988235
H         9.57300949     -5.30616283     25.09567451
H        11.15297413     -1.90426648      4.16450119
H        13.18206692     -1.90752351      4.19821310
H        12.16469955     -0.19938730      4.25315046
H        12.13883686     -1.40398800      2.60082269
B        12.18219948     -1.39530051      3.78746819
B        13.39451885     -2.16821599     11.17786598
H        13.36625767     -1.94143283      9.94702721
H        14.34598827     -2.71429300     11.68136787
H        13.42085838     -0.91869307     11.46363354
H        12.36189461     -2.79156232     11.66943741
H        12.04881477     -2.00271797     17.58184242
H        11.09922886     -2.80561090     19.30411530
H        13.02535057     -2.72787476     19.34768486
H        12.12961102     -0.83821011     19.19692039
B        12.10924816     -2.08931732     18.86803818
B        12.82128048     -2.20992827     26.05324554
H        12.74712276     -2.14227843     24.80233765
H        11.70873356     -2.66382170     26.38736534
H        13.94078636     -2.73226786     26.45795822
H        12.76548290     -1.02313054     26.42635155
H        16.31347656      1.19614697      3.89579725
H        15.20242786      1.85168195      2.20282102
H        14.12541103      1.33814240      3.92684269
B        15.28156090      1.74635267      3.45093322
H        15.09647179      2.99504542      3.90360856
H        13.85525608      3.26596045     11.59615707
B        13.95218658      1.99382603     11.13927269
H        13.77846909      2.00131416      9.94420815
H        14.84961033      1.31108785     11.68374062
H        12.96713161      1.37242031     11.54738426
H        15.06919003      1.41135478     17.44585800
H        14.04831886      0.85759956     19.14464378
H        16.12953377      0.80568379     19.14911842
B        15.15569019      1.40373194     18.62722206
H        15.04396725      2.54810047     19.13886642
H        14.63749790      2.10357523     25.36965752
H        13.50908375      1.61771393     27.07886124
H        15.42533779      1.49125063     26.82553291
H        14.35769176      3.33020949     26.99728012
B        14.43960476      2.16856360     26.57953835
B         1.02573848     -1.22903216      1.84009945
H         1.89161384     -0.62906510      2.42103243
H         0.16702470     -0.62779623      2.45483017
H         1.05734348     -1.24283922      0.61840588
H         1.03041816     -2.31147718      2.38075566
H         0.21955624     -0.52804893      8.01681709
B         0.26216504     -0.52013916      9.26970387
H        -0.72724438      0.13362652      9.49859333
H         0.35022205     -1.65313685      9.50840569
H         1.32707691      0.07553837      9.61840630
H         1.42121649     -1.18699813     15.35790348
B         1.40480578     -1.16726255     16.64512634
H         2.52602744     -0.55667281     17.06088257
H         1.41170478     -2.33963037     17.02824020
H         0.35974091     -0.59267575     17.04662514
H         1.04322851     -0.68872243     22.58618164
H         2.07226825     -0.10697202     24.21104050
B         1.02046907     -0.70538187     23.81228065
H        -0.00079800     -0.17476287     24.24424553
H         0.97702646     -1.80931008     24.23631859
H         1.31242466      3.42699170      2.32737255
H         2.35426998      1.80842745      2.54710770
B         2.40077353      2.87223983      2.06015539
H         3.47038364      3.46987057      2.44275451
H         2.28449368      3.05498743      0.83305597
H         3.27752280      2.33749056      8.16626644
H         3.19902062      1.15331817      9.77283096
H         4.24730444      2.88191652      9.69097900
B         3.27801442      2.26758432      9.36072063
H         2.27851653      2.80814338      9.73554230
H         2.04013658      3.18911552     15.49751663
H         3.16790009      3.62869811     17.07786751
H         1.98167396      1.99195910     17.22590828
H         0.89422637      3.57166839     17.10908127
B         2.01140094      3.05619693     16.69967270
H         3.53381109      2.70104003     23.11865234
H         2.57173085      3.28875661     24.50280190
H         3.55352712      1.41196501     24.55512238
H         4.59608889      3.32383895     24.55205154
B         3.55473661      2.66996098     24.33411407
B         5.76591825      6.02215767      1.90211153
H         6.80893040      6.53379726      2.36827397
H         4.76542568      6.43682718      2.34703302
H         5.74174595      5.99184656      0.59413344
H         5.70319939      4.89645529      2.39693189
H         3.96716666      6.64471388      8.22223854
B         3.92612267      6.61840200      9.49797821
H         3.05458903      7.25472879      9.97941399
H         4.00748968      5.44547510      9.99694633
H         4.85917664      7.19629240      9.98825741
H         5.45968628      5.78632212     15.29181671
B         5.43337011      5.88190079     16.58259964
H         6.53853035      6.43833542     17.00557518
H         5.53939629      4.72702217     16.86961174
H         4.46150494      6.48380566     16.93881416
H         4.32120657      6.93884134     23.00704765
H         5.43732882      7.24423075     24.51650620
B         4.24893522      6.80256128     24.17967987
H         3.14173985      7.17852592     24.57815170
H         4.23263216      5.74140787     24.77904892
H         5.37240601     10.65373325      2.20581508
H         6.35729027      9.05476665      2.18728590
B         6.35495567     10.19575596      1.68727648
H         7.36858845     10.66898346      2.13711524
H         6.42235565     10.13981056      0.39227259
H         7.33805943      9.75684357      8.33969307
H         7.53653526      8.47236538     10.03777981
H         8.53462219     10.18197250     10.00569630
B         7.52360058      9.62759113      9.49799633
H         6.46226549     10.22595692      9.79399204
H         6.64491701     10.08809853     15.58122826
H         7.51559448     10.72772312     17.20419884
H         6.55345583      8.97150230     17.20265579
H         5.57316923     10.73820210     17.32353592
B         6.54444361     10.14435387     16.80613708
H         7.62994766      9.59027004     22.68126297
H         6.57562590     10.12512779     24.15165138
H         7.64449930      8.39722252     24.20449829
H         8.71877193     10.12824535     24.17196083
B         7.62869263      9.56468964     23.93164635
B         3.66475844     -3.94041324     -0.07614901
H         4.67090702     -3.28843093      0.32572001
H         2.74623060     -3.24704480      0.26664746
H         3.67301488     -3.96960020     -1.27988505
H         3.74441028     -5.08204985      0.19227149
H         2.93368506     -3.35419226      6.06634045
B         2.95218229     -3.29184771      7.33009434
H         1.95048618     -2.67478442      7.78389215
H         3.03797960     -4.37965775      7.72993088
H         3.97275186     -2.76295805      7.84982920
H         3.81748772     -3.86668301     13.65997887
B         3.76763368     -3.81942964     14.93344307
H         4.74918270     -3.27106452     15.39018440
H         3.84157300     -4.94964600     15.33672428
H         2.85722280     -3.22675848     15.39122105
H         3.31016159     -2.98624611     20.85037804
H         4.30158138     -2.63394308     22.33462143
B         3.28118801     -2.96128368     22.00752640
H         2.22009540     -2.45790482     22.33229065
H         3.41329193     -4.14159536     22.43220139
H         3.45694590      0.50648880      0.63584054
H         4.31874943     -1.25427103      0.54332566
B         4.44125414     -0.03239189      0.22414652
H         5.34909058      0.60379392      0.63997412
H         4.37066317     -0.13740772     -1.01818717
H         5.92224073     -0.86538070      6.40879917
H         6.00114250     -2.04455519      7.93086386
H         6.93943453     -0.27388310      7.98100376
B         5.87871647     -0.82777297      7.60912609
H         4.87716293     -0.16667619      7.95918989
H         5.10239792      0.44242465     13.52123070
H         6.20881701      0.95521146     15.14149094
H         5.05064249     -0.75390005     15.23430920
H         3.95110250      0.92135906     15.18144417
B         5.10170364      0.41134912     14.75899601
H         7.12906408      0.08699664     22.76103020
H         6.04203510     -1.68083525     22.72801971
H         6.03079700     -0.52636689     21.17534637
H         5.03183460      0.04263988     22.71530914
B         6.03073263     -0.53740102     22.39775848
H         8.71081924      3.84196258      0.47602728
H         6.56203985      3.85122275      0.50721747
H         7.64444876      2.07137132      0.56580091
B         7.57258415      3.29515600      0.08449173
H         7.66546965      3.32427144     -1.10718977
H         7.75065517      4.48400831      8.13212681
H         5.93123913      4.58878279      8.26100826
H         6.93168354      2.79484272      8.15623665
H         6.97745991      3.91864848      6.43804979
B         6.79654121      3.89563012      7.73657894
H         9.25441456      4.14534950     15.15792847
H         7.25726986      4.13193512     15.02533627
H         8.14463043      3.61427760     13.58150959
B         8.18055820      3.51360011     14.73781013
H         8.24422455      2.32388830     15.17675781
B         6.59230471      3.52760029     22.38345337
H         6.62561417      3.51922441     21.18235207
H         7.50700712      4.09502125     22.86961174
H         5.74059534      4.15179348     22.85098076
H         6.67296648      2.38096309     22.83530617
H         9.13775444      6.52364683      0.20213307
H         9.09735394      7.72176075     -1.38082206
B         9.11033726      7.69842005     -0.16415341
H         8.16123581      8.25634861      0.13132495
H        10.06501102      8.22790623      0.16086559
H        11.06489563      6.72088146      7.66026258
H         8.98875999      6.48268843      7.66547155
B        10.08800697      6.14408827      7.23859119
H         9.96057987      6.12594366      6.09875011
H         9.82054710      4.98851538      7.72965384
H         8.43342304      8.15346718     15.59764290
H         9.38504219      6.38400650     15.70151901
B         9.50062561      7.61495924     15.30794334
H         9.44112873      7.69420242     13.87769604
H        10.64257717      8.33008766     15.65359974
B         9.65744114      5.97441673     22.94249535
H        10.68169880      6.52151394     23.30902863
H         9.70631123      4.83321238     23.23144913
H         9.70548534      5.88622236     21.73949432
H         8.67198086      6.55554295     23.33159447
B         4.34079599     -8.01810932      2.11109734
H         4.38770056     -9.17240429      2.55672622
H         5.30461407     -7.41545057      2.52358842
H         4.40037012     -7.97657204      0.84154981
H         3.41594338     -7.38378620      2.56101251
H         5.00157261     -8.53765965      7.89918661
B         5.00693846     -8.48730183      9.12888145
H         4.02169323     -7.95712662      9.55246830
H         5.12044621     -9.55590725      9.57573223
H         6.05942440     -8.04937267      9.63379192
H         4.22718096     -7.84524488     15.69257164
H         3.18407106     -7.34223557     17.27096558
B         4.25080204     -7.85786200     17.03103638
H         4.29523230     -9.02629280     17.37550163
H         5.42833996     -7.32956505     17.36408997
H         5.32150173     -8.17675972     23.16438866
H         6.26294899     -7.65755749     24.74802780
B         5.22893095     -8.14634037     24.35357285
H         4.21985435     -7.63765097     24.83876228
H         5.25864077     -9.32721138     24.82682991
H         8.04165363     -3.96244168      2.68636727
H         6.15280247     -4.05830622      2.60329461
B         7.15120268     -4.70022345      2.30711126
H         7.01420641     -5.84876442      2.55703473
H         7.00060749     -4.70494032      1.03911066
H         6.67656231     -4.61620998      8.51093674
H         6.55841923     -5.69051361     10.08437729
H         7.52237463     -4.00411081     10.06628609
B         6.51391840     -4.62870979      9.81646347
H         5.60632467     -4.01095724     10.20529747
H         7.32400560     -4.92779541     15.42759037
H         8.28063679     -4.40498352     17.04053688
H         6.34717035     -4.34303141     17.03134537
B         7.35207748     -5.00134993     16.71247482
H         7.36755562     -6.18811083     17.08960342
H         6.07340574     -4.09896231     22.79648209
H         5.14401627     -3.60851717     24.52951622
H         6.05248833     -5.31919765     24.60125351
H         7.04761600     -3.55848742     24.53907585
B         6.09325838     -4.15878725     24.08175850
B         8.90700722     -0.87361497      1.67591798
H         8.95915413     -1.99082696      2.18420291
H        10.06848431     -0.34926364      1.98096883
H         9.03457737     -0.74822491      0.43372464
H         7.74320889     -0.28771019      2.11655116
H         9.83875084     -0.82960892      8.13280869
B         9.87407780     -0.81506670      9.29951191
H         8.91630173     -0.25190109      9.74583817
H         9.77917099     -1.99753475      9.71327400
H        10.73087788     -0.20060909      9.70807743
H         8.74543667     -0.66010296     15.62163258
H         7.78049707     -0.14448369     17.15462685
B         8.74237347     -0.75857025     16.79684258
H         8.68675613     -1.95248485     17.21038246
H         9.70955372     -0.07719863     17.13006783
H         9.37151814     -1.24502587     23.14162254
H        10.33204174     -0.65730107     24.73638535
B         9.28416061     -1.24958277     24.35298729
H         8.28431511     -0.61933529     24.79994011
H         9.34105778     -2.45536041     24.76699448
H        12.70549488      3.18522191      2.10293365
H        10.60039711      3.13620520      2.18067241
B        11.68250084      2.56172395      1.82345903
H        11.61049557      1.32194376      2.11138988
H        11.70170498      2.51892018      0.55046421
H        10.60469818      3.07014108      8.27305126
H        10.70060253      2.01823378     10.06713200
H        11.63426781      3.57312417     10.10972309
B        10.55935097      3.12803602      9.59538174
H         9.63166428      3.65122461     10.04593182
H        11.87062454      2.67204309     15.44521141
H        13.03763103      3.07330394     17.12624741
H        11.03889275      3.13844895     16.89860153
B        12.09490585      2.54517913     16.68440437
H        12.09467888      1.39765215     17.15629959
H        11.12054539      2.57103395     23.11397362
H        10.10033894      3.14955950     24.84656334
H        11.01301765      1.31585670     24.81528282
H        11.95882607      3.16868687     24.72847366
B        11.02157974      2.53367233     24.36094856
B         6.83951950    -10.15190411      0.17960212
H         7.00343323    -11.32637882      0.62091160
H         7.97752428     -9.57160664      0.54079056
H         6.96767855    -10.05911636     -1.02392912
H         5.90098619     -9.49749947      0.54741001
H         8.01847935    -11.06912613      6.37076092
B         8.04456711    -11.04079437      7.62300539
H         6.99638653    -10.58005333      7.85404539
H         8.06654549    -12.23399544      7.95093250
H         9.11321831    -10.59361362      7.90354156
H         7.08974314    -10.81932545     13.64725876
H         6.03304768    -10.23780727     15.37214375
B         6.95028925    -10.69023609     14.82209969
H         6.94031334    -11.79057980     15.21372986
H         8.01520920    -10.14102650     15.25835609
H         8.15164185    -11.32365799     21.14030838
H         9.11965942    -10.76969528     22.65244675
B         8.04034233    -11.32516384     22.28492546
H         7.13241100    -10.69296837     22.65490913
H         8.19248295    -12.54415226     22.66649628
H        11.34049606     -6.97776651      0.63428545
H         9.21262455     -7.08036995      0.65006584
B        10.28119755     -7.56818104      0.31323519
H        10.18770409     -8.72241020      0.72575188
H        10.25937176     -7.51503277     -0.97226584
H         9.18179512     -6.98707247      6.58844852
H         9.37989712     -8.04673576      8.17592525
H        10.30997562     -6.44636393      8.30588627
B         9.18830204     -6.93960047      7.80135918
H         8.22991848     -6.31940556      8.15114403
H         9.96948528     -7.81435108     13.43840981
H        11.08574390     -7.22001553     15.07792854
H         8.92202950     -7.30067110     15.06567764
B        10.06357288     -7.81983328     14.63048077
H         9.93403816     -9.00102329     15.09989738
H        10.05316544     -6.93110847     22.71876335
H         9.19257927     -8.45395851     22.65635109
H         8.97762966     -7.37369442     20.91258430
H         7.93021917     -6.69914484     22.61875153
B         9.00934315     -7.31748724     22.23794174
H        12.31705093     -3.14361787      0.55950606
H        10.31669521     -3.02562141      0.44819373
H        11.41906166     -4.80069160      0.61219013
B        11.24722767     -3.62085986      0.06423639
H        11.26140976     -3.55494475     -1.25144053
H        12.98672962     -3.18801880      8.35604000
H        10.93632030     -3.32850289      8.35645771
H        11.83986092     -4.92020988      8.48837948
H        11.92054653     -3.68811011      6.75056934
B        11.97795391     -3.77634096      7.99562788
H        11.50700760     -4.72000694     15.26845837
B        11.45652103     -3.32368731     14.87081242
H        12.45089722     -2.74120975     15.31642056
H        11.31401062     -3.33525825     13.64225864
H        10.40673256     -2.65091991     15.14397812
B        11.89237595     -4.08344650     22.45209312
H        11.89618397     -4.00955582     21.26423454
H        12.79090881     -3.48637104     22.87974739
H        10.92770481     -3.43667984     22.90764046
H        11.90234089     -5.21282482     22.93104362
H        13.08355999     -0.11188809      0.72319508
H        14.16126728     -1.76132846      0.62602854
B        14.12458420     -0.69825280      0.29648644
H        15.22821236     -0.11810133      0.68228167
H        14.19154072     -0.73565727     -0.93940139
H        14.50168705      0.86557114      8.01820183
H        12.41232300      0.96611249      7.90883827
B        13.41874599      0.43128648      7.66080666
H        13.39760780      0.48306510      6.34771395
H        13.54407787     -0.70870626      8.07962608
H        13.49665737     -0.19033442     15.59650230
H        14.39752483     -1.79266167     15.49683666
B        14.56420326     -0.64021403     15.12002563
H        14.65972328     -0.66689849     13.90923977
H        15.60220146     -0.01492838     15.39839840
B        13.72039413     -0.22921109     22.59022331
H        14.76656055      0.33425316     23.09777069
H        13.83039856     -1.30963326     23.10951424
H        13.81482792     -0.19258474     21.44249725
H        12.80399418      0.38635352     23.11422348
