864

Li     -114.23592377   -135.28247070    144.31814575
Li      171.31912231   -250.09043884    131.86187744
Li      127.32352448    -19.98878479    129.82780457
Li      133.16511536    302.46069336    110.25233459
Li       -3.57612610    -14.56269169    269.35198975
Li       46.56015015      6.37560511    -97.52516174
Li       55.08521271    -18.55689621      4.48413563
Li      132.23651123    154.41966248    -92.56558990
Li       54.66557693     11.12466240     34.41183090
Li       59.62261963     59.25448227    132.14724731
Li     -101.11103821    118.68587494     21.63373375
Li      120.03218079    -30.05142021     21.29736328
Li      193.27215576   -150.19541931    -71.80760956
Li       25.10397720    135.75112915    195.39002991
Li     -161.61904907    136.36276245     47.12860489
Li       71.49952698   -166.64505005    -71.76671600
Li        2.77363348      7.47647572   -118.51520538
Li       12.08748245   -189.37550354     25.59982872
Li       72.18162537    107.70651245    115.23137665
Li      -79.16712952   -240.95124817    -45.43894196
Li     -113.90930176    373.92095947     72.80955505
Li      -70.80099487   -180.03904724   -114.61612701
Li       63.34329605   -378.22460938   -143.47412109
Li      146.01368713    -95.09272766    106.28138733
Li      218.57774353    -25.95532799    221.09965515
Li      128.03250122   -205.00619507    -42.94175720
Li       24.13161469     75.46188354      5.19471979
Li       42.51451874     82.19837952   -216.07604980
Li     -148.34732056     58.15195465   -131.25234985
Li        3.11357689     48.17993927   -172.44621277
Li     -156.55307007   -163.49163818    135.97496033
Li     -286.52038574   -236.39640808    -88.24370575
Li     -141.44081116    -14.56638718   -162.93084717
Li      -61.39142990    216.90599060    -76.23677826
Li     -209.34135437     90.87171173    305.59176636
Li      -23.01079369     80.00186920    -28.27278519
Li     -100.92453003   -195.21841431   -143.39152527
Li     -169.61312866   -104.71528625    381.33935547
Li     -140.09939575     90.82833862     76.71530151
Li       54.84341812     44.65488815    -55.03129196
Li     -140.04295349   -231.38385010   -203.51963806
Li      162.51564026    -48.98983383    -16.60984039
Li     -195.34362793    241.50065613    204.02032471
Li       37.11898041     53.57471848    -46.19445038
Li     -181.87156677    278.69366455   -408.86129761
Li     -126.77737427    132.16972351   -342.98229980
Li       93.81957245    215.03681946   -300.45025635
Li      -40.58806229      5.19108248    211.93359375
Li      -65.80182648    -32.92023849   -155.31826782
Li       50.49775696     40.42147827    114.84391022
Li      150.11276245     20.43380737     -7.86815929
Li       84.99088287   -145.05137634     89.38691711
Li      -26.63750839    -17.37649536     97.36982727
Li      -10.00017834   -129.81472778   -228.69458008
Li      -96.51636505   -337.84545898   -211.67236328
Li       45.02420807      5.09691048     13.91219711
Li      -74.61959076    114.87265015    139.42834473
Li     -152.36364746    -39.69644165    229.34852600
Li      114.62672424    391.87533569    224.17880249
Li      158.64869690    215.20884705   -194.43338013
Li      -84.95716858     47.82656097    164.28617859
Li      -37.01449585    127.48691559     93.32706451
Li     -122.70005035   -138.72503662   -219.39555359
Li     -165.37623596    134.26341248    110.38155365
Li       -2.78352690    -54.15521622    145.99024963
Li      -74.70831299     79.10609436   -100.38809204
Li      -86.84730530     49.56860733     76.55039215
Li       45.65245056    290.03457642    -41.91347885
Li      149.97842407    -91.53707123    -45.77499008
Li      -83.16831207     56.05589676    204.15725708
Li      -22.89543343    103.47958374   -156.73449707
Li     -160.86750793   -273.65997314     85.43270111
Li      -74.73717499   -127.48416901    177.79873657
Li      113.38590240    107.72151947     48.73937607
Li       80.22007751     32.26037216     51.44956589
Li       91.57511902    -74.62100983     10.44241238
Li      -18.01918602   -103.30281067   -160.61994934
Li      -14.61351299    290.74139404     97.05384064
Li      119.76799774    -43.99305725    182.36419678
Li      -59.57968140    -36.86802292    320.94107056
Li      102.67176056     -9.48394203     29.88857269
Li      189.33801270   -140.11486816     63.73020935
Li      -57.45311356    319.75753784     47.14643097
Li      -57.75025558   -140.07476807    -88.67222595
Li      -62.14698029   -413.19375610    -37.71740723
Li     -183.69343567    -11.52753162     69.81219482
Li       24.71965218   -187.10963440     22.07503891
Li       -0.54218417    -22.13051224    -37.76328659
Li      -69.37290192    100.13690948    212.34619141
Li     -154.46736145     84.09207916     70.69374084
Li     -356.08139038   -160.81329346   -223.64602661
Li       30.50327492    233.03042603    -65.20510864
Li      327.73873901    116.15547943   -223.92344666
Li       33.15647125    353.31146240    224.77612305
Li      119.78553009    252.86401367    110.20549011
Li      176.43849182    163.32397461     34.04323959
Li      -31.98271942   -312.08789062     50.82508087
Li       16.38505173    274.49880981    148.20726013
Li      -65.68769836    -77.16102600    372.67230225
Li       24.39524269    154.92132568     38.57183075
Li       64.03650665    157.02597046    261.56414795
Li     -126.22478485     44.95472717    -76.13301086
Li      -30.61998749    213.98883057     21.51774597
Li      -35.69490433    376.49349976     67.95388031
Li       22.98267746     25.40992737     10.98166180
Li     -118.22295380    -28.77174187     38.70149612
Li      -87.29290771    262.17410278   -173.24905396
Li      336.22375488    459.94189453     39.18800735
Li       19.99054337   -133.43113708     -7.80465364
Li     -285.67166138    -46.36285019    132.52882385
Li       -6.18681955    -46.11415482    118.13540649
Li     -195.82240295   -149.23934937     63.88031387
Li       87.17355347   -174.16619873   -120.45916748
Li      -19.89714432     65.74069977   -145.47874451
Li      -92.59659576    327.60507202     46.55570984
Li      -73.60873413    181.22479248    144.13697815
Li      188.67433167     81.45122528    216.38740540
Li     -274.09793091     59.53874588     97.39791870
Li     -175.25781250    156.85733032    150.54406738
Li       48.39860153     23.79124451    130.14918518
Li     -130.57562256   -139.89591980   -266.46179199
Li      -43.90667725    119.91445160   -208.26071167
Li      181.11616516    -13.20440674    225.10304260
Li      215.21609497     22.95663834   -135.28561401
Li      115.50148010    210.94659424   -101.45894623
Li     -100.64072418     54.98146820    -49.49900818
Li      -33.34529114    228.16973877   -277.87478638
Li      -28.64067459    101.41883850    -78.16164398
Li        7.31164169   -312.54455566    233.58644104
Li      318.33645630     70.26255798    -97.41876221
Li      119.73543549   -159.22257996    219.95559692
Li      124.86058807    -99.37840271    267.47421265
Li     -118.27703094    -18.91642952   -203.53623962
Li       84.82331085     58.36626053    229.13536072
Li      -10.41553593    -17.60560036     46.61150742
Li      -73.23368073    -47.29788971   -183.83645630
Li     -104.52666473    108.25801849   -206.91148376
Li       68.22744751     56.67386627      1.09746349
Li      -13.21733761     11.64701843   -154.09669495
Li     -110.05471802     67.92245483     93.70984650
Li       84.41615295   -189.74656677      0.50165349
Li      -83.28247070    324.08856201    178.41691589
Li      -13.92271042    245.78967285    -63.60488129
Li      244.57034302   -305.83041382    190.58682251
Li      218.52548218    168.01679993     38.10007858
Li       37.59329987   -382.69262695   -131.03880310
Li       20.17187691   -182.17642212     84.30354309
Li       50.33533478     34.90901566   -110.39539337
Li     -212.93115234   -155.96974182     11.33100033
Li      127.51902008     72.63086700     71.88436127
Li      167.72717285    402.17996216     63.99232864
Li     -192.29431152    178.62669373    128.98812866
Li       29.48659134   -134.26045227   -156.55378723
Li      232.45005798    -13.32662010   -147.77922058
Li      -43.87252808   -163.83851624     67.20691681
Li      132.60115051     39.98373795   -232.75262451
Li      123.89327240   -132.60498047     55.41270447
Li      119.39550781    -68.03332520   -105.50839233
Li       46.94048309   -158.38319397    101.77883148
Li        2.35137272    137.46733093   -250.47456360
Li      -87.83580017    173.16265869    169.80902100
Li      -83.04209137    125.67176056      0.14827219
Li        2.61683178    119.86314392    102.62306976
Li     -432.95831299   -105.94615173      9.06703472
Li      -62.22248077   -123.47624207     33.79230881
Li      -78.51362610     91.85723114     43.06215286
Li      241.25405884     89.66483307     47.29769897
Li       94.45212555    115.66876221   -104.76437378
Li      262.96490479    -29.89541626     68.36247253
Li       79.83719635    -19.67916870    -86.00348663
Li       24.17142868     27.33257103     80.54918671
Li       71.80556488      8.53190136     75.89451599
Li     -273.31237793   -119.39057159    -63.85592651
Li      179.23229980     54.43153763   -101.37049103
Li      139.41378784    -79.34817505    -48.51964569
Li      -36.16327667    -89.60379028    -16.14986992
Li      163.24925232    -16.64492989    -33.55831528
Li     -152.55868530    184.65425110    -25.36304092
Li      -44.89440918   -148.06333923    148.53689575
Li      -31.76432610    291.12625122    -72.19512939
Li     -131.03868103    -99.92953491    110.70983887
Li       -3.61862087      3.00906968    141.91355896
Li      -74.38694763    184.00228882    143.91648865
Li      -19.21339989     99.55059814   -181.71038818
Li       -9.39247990     30.99217606   -216.25741577
Li       76.74238586    328.28961182   -296.02957153
Li      -48.91412354   -188.97103882   -118.46492767
Li      -53.03269958    -48.05804443    -24.97946358
Li     -122.11643219   -215.09526062   -211.34034729
Li       25.81030273    101.23515320    102.97319794
Li       12.31732273    172.72811890    139.66184998
Li      313.92233276   -170.14350891     63.71750641
Li      -40.24866486   -208.35371399    -54.74093628
Li     -142.70420837    160.54061890   -116.49918365
Li      -22.56161118    377.34420776    -71.80796051
Li      197.51591492   -281.26303101    199.89680481
Li      187.82325745   -196.08630371    -93.24536133
Li     -190.09054565   -142.40356445    273.59072876
Li     -100.83445740    145.63510132    -63.54588699
Li      -91.89861298   -100.68389893    168.54380798
Li     -113.23748016    -25.58711052    -16.71013641
Li       50.37245560    142.44497681    -55.75348663
Li       10.91655350    116.83718872   -169.62353516
Li       94.66999054    -91.60544586    -77.09310150
Li      -70.15697479    415.68988037   -195.06361389
Li      163.79360962    318.25701904     93.86761475
Li     -142.73880005    -28.94440460   -159.17568970
Li      258.59082031    -79.63164520     88.99012756
Li      214.03694153   -386.35250854    167.13020325
Li      -22.77969170    111.30536652     13.65784740
Li      104.15664673    100.80945587   -209.97972107
Li       54.82851791    -22.16163445    245.92121887
Li      227.86532593    180.43243408     18.26382637
Li       37.19338608    207.63870239     50.71484756
Li     -105.05117035    151.58543396     51.16554260
Li      190.38121033     75.45807648     20.06022263
Li      138.64978027    101.28601837     27.82971954
Li       55.40561295   -120.39093781     80.25891876
Li       63.84481430     -8.32702160     84.85257721
Li      -81.47765350   -282.92666626     28.13558960
Li     -212.87834167   -548.03784180    237.30906677
Li     -122.56350708     21.46011543    132.64018250
Li       51.16950607    321.84652710    148.77661133
Li     -167.52455139   -158.99189758     32.73217392
Li      -31.59769440     83.41194916     11.57940578
Li      -49.61643600    -94.81431580     64.06143951
Li      163.29078674     38.25876999   -151.98452759
Li       37.76472473     22.74588776    195.32618713
Li       37.65211487    173.58352661    -33.64463043
Li     -217.62115479    -27.18025589   -207.24891663
Li        8.10072041   -209.62307739    142.71360779
Li     -105.78965759    358.68533325    136.33296204
Li      175.99848938   -174.63249207    216.52622986
Li      232.26345825    159.29002380     51.27550125
Li      170.53536987    -20.40042686     -5.73648214
Li      -48.71017456   -297.14019775     93.83283234
Li      -46.10096359    -96.39177704   -154.87815857
Li      -12.08946896    166.01135254   -129.09880066
Li      -68.76661682    -16.20302200    188.48405457
Li      154.53485107    182.05769348    -41.97594070
Li      119.66697693    316.25015259    -12.36949348
Li       32.53485489    114.87294769     63.07850647
Li        2.92758250    -48.45948792     -3.71812415
Li       76.76573181    -97.84069824    165.40425110
Li      -74.37210083   -271.38964844    -12.41749382
Li      -40.30208588   -225.19856262   -122.62424469
Li      -61.96417999   -192.85392761    114.07332611
Li     -109.56275177    174.55734253    -88.92802429
Li       76.20309448   -119.11476135    116.08537292
Li      -18.47934151    224.86390686    153.60871887
Li       88.18564606    -43.90671539    205.65892029
Li      188.28117371   -138.64257812     97.61574554
Li      -53.45725250   -313.05374146    228.10566711
Li       63.18651199   -272.86520386      8.21625423
Li      206.42788696    -23.11131287    -33.54814911
Li      -73.56721497     30.36306000   -230.08906555
Li       98.21897888   -317.62167358   -106.14047241
Li      197.93164062   -167.03462219    -17.04565048
Li      -57.30899048     92.79276276    170.29089355
Li       24.92963028    138.91221619   -202.63655090
Li     -122.13621521    -94.48972321    -12.79255676
Li        7.56908321     72.02302551     76.30616760
Li     -110.42903900    216.50039673    143.83526611
Li      176.12623596   -283.83825684    199.17837524
Li      -64.27368927    -65.73022461     69.93466187
Li      -57.42159271   -222.34120178   -126.83606720
Li       72.39460754     65.71951294    -29.53464890
Li     -174.91369629    -65.95211029     59.63751984
Li       -9.78473568     46.97830200   -253.23902893
Li      108.95720673    120.30825043     66.18470001
Li     -109.15840912   -397.61434937     29.70445824
Li      -18.95001793    -78.51107788    -62.68971634
Li     -264.66442871    -35.41996765   -189.97744751
Li      -48.49448776    -69.08437347    106.47565460
Li       55.24820328   -229.68099976    -33.63370514
Li     -140.12663269   -107.63520050     55.26963425
Li        6.99324799    178.28358459    102.62979126
Li      -87.56819916    -74.47389221    215.93013000
Li      -57.39117050    139.56488037   -118.80787659
Li      -40.07739639    177.19581604    152.91247559
Li      102.74704742     65.11313629     80.36640930
Li      -19.45237160   -225.44760132     81.01425171
Li      106.74061584    -15.79770565     -8.26972580
Li      223.33953857     96.89909363    -16.46327972
Li     -182.49594116   -111.69207001    -58.43902969
Li       20.16898346     -9.40879345     72.43517303
Li      -71.39885712    108.75363159    211.79536438
Li      167.21572876    -31.44282722     55.31389618
Li      128.73970032     13.49565411    -33.65114975
Li       63.37280273    -38.42154312   -143.73069763
Li      237.65182495    -74.71528625    104.70767212
Li       52.84858322    -92.19286346     -1.51257527
Li      -44.64366913    105.95750427      4.06092834
Li      215.52735901   -154.18959045   -274.83749390
Li       12.01002407     72.61569977     93.58867645
Li      146.48735046     86.14144897     33.85860443
Li      297.11190796    447.06350708    110.26621246
Li      202.22866821   -203.82064819    -20.79849243
Li      -92.21823120     89.73845673    106.09934998
Li       42.72998810   -103.81107330    156.73341370
Li      -87.71982574   -284.02334595   -114.22010803
Li     -135.02609253    114.74903107     17.67087173
Li       37.03849792     97.58483124    -28.68693542
Li      -14.27100086    492.41717529    -46.58232117
Li     -199.41271973    267.53796387      0.71750814
Li      149.31687927    -66.33141327     59.73194122
Li      -31.01770210   -247.31440735     -7.62968493
Li      123.95877838    581.38903809     59.86401367
Li     -299.47994995    -93.04994202   -122.97817230
Li       49.82346725   -256.15432739      9.54017544
Li       72.37160492     -0.97359943    -97.21863556
Li        2.51015425   -175.49757385      8.67492676
Li      172.61613464    584.04693604   -185.97631836
Li     -156.65951538   -140.17756653   -245.35087585
Li      120.14842224     11.25798893   -317.80447388
Li       -1.53863883     21.24023247   -135.79399109
Li      -51.22723770     25.28201485     31.91222572
Li      -50.52333832   -335.70095825    142.73582458
Li      114.51327515   -120.92556763   -110.03401184
Li       21.10677719   -159.10682678   -105.49871063
Li      106.52022552    -36.26641083    -46.54141998
Li      -64.52142334    142.25932312    -99.12268066
Li        3.20703506    167.05128479      5.14652681
Li     -113.19595337    170.39057922    142.93029785
S         1.22202742      6.95953083      0.69269174
P         1.02993810      8.20677376      2.42135239
S         2.60716701      9.51445580      2.29430342
S        -0.88584650      8.94048500      2.44249701
S         1.37148142      7.06609154      4.08975458
S         0.79434061      6.70341158     12.65040588
P         0.69169778      7.92509365     10.99535370
S         0.52967012      6.89697647      9.23519897
S        -1.13370883      8.84073830     11.36666107
S         2.44163418      8.89518833     10.71320915
S        -0.89241475      8.59757519     19.09479713
S         0.73620397      6.43536234     17.50805664
P         1.05293214      7.66542768     19.25028610
S         0.84099263      7.07029390     21.21493530
S         2.75586796      8.75488472     19.26517105
S         0.95625395     16.29518318      3.98154259
S         2.17105603     18.76106262      1.89073205
P         0.71637744     17.09808159      2.18874788
S        -1.11467266     17.69652557      1.86791170
S         1.27099681     15.71555996      0.68453699
S         0.53940058     15.83149624     13.32565117
S         2.44624972     17.93039131     11.30844593
P         0.62686926     16.86764145     11.50764942
S        -1.05134571     17.90374565     11.21993351
S         0.56586605     15.44061947     10.00113106
S         1.41840875     15.46560955     20.78810883
S         2.39026809     18.02285767     18.91464424
P         0.96089405     16.51723480     19.08106422
S        -0.93805146     17.48957253     19.22442245
S         0.67466301     15.32910824     17.43069839
S         2.71511745     26.58224678      3.13526344
S         0.83785880     24.81665802      0.85174477
P         0.79766154     25.91862679      2.60138130
S        -0.13476123     27.60830498      2.14845896
S         0.15469946     24.72942924      4.15076876
S         0.90150797     24.78857613     12.79119110
S         0.77447790     24.67658424      9.37044144
P         0.84452099     25.83420372     11.07444096
S         2.43927431     26.95144463     10.90688038
S        -0.92314810     27.02148819     11.37133217
S         0.90844268     25.15351486     21.31347275
S         0.75829941     25.37266922     17.74307442
P         1.21464908     26.26159668     19.58856583
S         3.05068707     26.94092369     19.70699120
S        -0.14837316     27.83946228     19.72186279
S         8.42509365      9.05562115      2.63233685
S         9.84812450      6.59994698      4.29929829
P         9.74347878      7.38652754      2.39463592
S        11.65801811      8.35195923      2.07710266
S         9.33618546      6.30850887      0.82079017
S         8.98519516      6.79345560     12.46132374
S         7.80347347      8.98040104     10.63413715
P         9.36457062      7.70599079     10.70139122
S         9.18923187      6.58291435      9.02961349
S        11.00812340      8.96428776     10.65552425
S         9.85104752      7.13657522     21.05238152
S         9.55803776      6.94825125     17.51586533
P         9.73123169      8.12269020     19.30031967
S        11.38166332      9.30087948     19.30876160
S         8.02731609      9.28317928     19.37949181
S         9.42939854     15.49750805      3.76357675
S         9.34762859     15.96912479      0.49087217
P         9.55848694     16.79862595      2.29166389
S        11.03121758     18.13256454      2.49721241
S         7.64308500     17.80941963      2.42368507
S         7.50437880     18.00467110     10.67182827
S         9.22548866     15.95559597     12.72110939
S         9.12131310     15.69591808      9.08606720
P         9.21643639     16.79728508     10.89079094
S        11.05784607     17.89932060     10.91382790
S        11.62318420     17.30837631     19.52318382
S         8.60135460     18.86408424     19.73698807
S         9.00725746     16.43787193     17.37277412
P         9.57373714     17.09152412     19.25935364
S         9.23346519     15.71226883     20.78937531
S         7.93107653     27.32392883      2.37765288
S         9.67607689     24.82471466      3.61881161
S         9.62186146     25.28149605      0.38910982
P         9.69806385     26.17176056      2.25428104
S        11.41619015     27.45745277      2.47289515
S         8.08469582     27.62447929     10.57084370
S         9.13033009     25.37615967     12.70003796
S         9.29338360     24.74531364      9.47214699
P         9.34351635     26.15346909     10.85707951
S        11.24512005     26.93491745     10.61456680
S         8.11245155     27.31361008     18.77165222
S         9.35487652     25.10818863     21.09918785
S         9.83244228     24.83910370     17.59875679
P         9.74879456     26.09780121     19.30939484
S        11.50517368     27.10596657     19.54174614
S        16.53278732      8.69029427      2.51244330
S        18.44403648      6.56983757      3.89645600
S        18.25061417      6.68547297      0.35843810
P        18.39236450      7.77897024      2.09723043
S        19.86935806      9.22964764      2.05611420
S        20.06319618      9.21456432     10.24218369
S        16.51267052      9.30755997     10.86807632
S        18.40028763      7.18041849     12.53571224
S        17.97447586      6.77017021      9.11839867
P        18.21775818      8.07869339     10.62110615
S        19.81975746      9.12372112     19.02392960
S        16.10290337      8.68138313     18.99512291
S        18.26956177      6.72347355     20.69258690
S        18.07798576      7.03716850     17.36168861
P        18.09801865      8.02707005     19.16808701
S        19.95229149     17.58914375      2.60307288
S        16.46116257     17.76861954      2.37046599
S        18.11389160     15.75491714      4.55125904
S        18.26777649     15.33032036      0.83774829
P        18.14911270     16.48088837      2.55609536
S        16.63721848     19.02071381     11.40371799
S        18.06869888     16.25720215     12.55390358
S        20.01973343     18.42337227     11.08850479
S        18.00859642     16.51671791      9.27316856
P        18.17487907     17.56234169     11.04282761
S        19.38542747     18.83557701     19.60887909
S        16.23969460     18.07805443     19.13435555
S        18.18179321     16.17538452     21.14090538
S        18.56598663     16.09627342     17.77969551
P        18.07257271     17.26154709     19.34778976
S        19.88048553     27.34198952      2.21432948
S        16.40759277     27.27919960      2.37412691
S        18.47254944     25.17395592      4.23971987
S        18.45044327     24.63627815      1.09569991
P        18.22926903     26.23600197      2.39703608
S        16.90602875     27.42283821     10.48107910
S        18.23595428     24.48837090      9.15524483
S        18.08179665     25.12479782     12.60905457
S        20.33634377     26.81664658     10.85651016
P        18.29529572     25.78539276     10.72222805
S        19.87784958     27.29930878     19.06472397
S        16.41055298     27.46851921     19.27551079
S        18.26881027     25.34565163     20.93491554
S        18.23398209     24.89417839     17.63033867
P        18.14807129     26.26063347     19.17518997
S        11.35500526      0.62668997      6.80804873
S         9.75795841      3.03016448      4.85050917
S         8.10738373      0.95498860      6.98497248
S         9.93555641      3.13871694      8.34523964
P         9.82225513      1.97421253      6.66880512
P         9.45770454      2.02915502     14.95619011
S        11.17034435      0.76733601     14.96197414
S         9.36334133      2.86564589     13.09302330
S         7.58781815      0.97861838     15.24372959
S         9.43439484      3.19699621     16.84840584
P         9.57017708      2.02269363     23.59057426
S        11.43371105      1.10171676     23.41877937
S         9.55254078      3.36799288     21.92273712
S         7.99900675      0.78578383     23.47544861
S         9.50371647      3.23634100     25.31352234
P         9.62178993     10.85489845      6.63800287
S        11.15614986      9.48481560      6.45203066
S         9.64243507     11.92645645      4.90020084
S         7.67978191     10.03806114      6.68946409
S         9.71990967     12.11709595      8.23319340
P         9.61734104     11.04016781     14.63354683
S        11.41123295      9.93870449     14.73908043
S         9.49943161     12.18983650     12.85042858
S         7.89835835      9.67774582     14.90302086
S         9.50664043     12.06457233     16.45915413
P         9.65231991     10.75766182     23.97632408
S        11.47297859      9.54513454     23.69133568
S         9.31790733     12.05163765     22.37003708
S         8.22436142      9.34480858     24.49571609
S         9.92255783     11.84211540     25.66077995
P         9.28363419     19.73423767      6.65885162
S        10.30656528     17.98460197      6.34438229
S         9.58684921     21.08277893      5.23243284
S         7.20078421     19.16876793      6.87939501
S         9.76677036     20.50753975      8.53153038
S         9.67832279     21.28069115     17.07516861
P         9.91638088     20.23544312     15.21844864
S        11.60776424     19.17046356     15.20355892
S         9.84083843     21.55637550     13.66622353
S         8.20843124     19.05198860     15.08847904
S         9.61066628     20.86815834     25.61749458
P         9.41388321     20.22902298     23.64962959
S        11.03664303     19.00347710     23.48406029
S         9.44546318     21.87193871     22.38373184
S         7.51776648     19.25319099     23.51985168
S        18.38075638      2.97946239      7.94628668
P        18.13196373      1.73116648      6.29340458
S        19.97756767      0.73207992      6.01368237
S        17.88175583      2.54899549      4.32655382
S        16.65727615      0.36373028      6.62202311
S        18.21346855      3.33354831     16.55348206
P        18.32821083      1.90281820     15.09451962
S        20.13504410      0.90729094     15.27967834
S        18.53030777      2.82624888     13.26744366
S        16.60054779      0.80618823     15.22390175
S        18.72178268      3.35393071     25.30023193
P        18.49176216      2.03897643     23.67879105
S        19.74894905      0.42318046     24.13082504
S        18.90389824      2.92049098     21.90890121
S        16.38403893      1.34905648     23.78255463
S        19.83018875      9.59718037      6.60174370
P        18.10966492     10.85680008      6.47582006
S        16.15255547      9.80976486      6.58283043
S        18.35247993     11.83040047      4.48982334
S        17.94502258     12.13091183      8.13026142
S        18.12837219     11.78532505     17.16568375
P        18.26737404     11.03400898     15.24411488
S        20.24822617     10.25863743     15.17958546
S        18.18405724     12.56036568     13.84524155
S        16.59107018      9.99221325     14.90269184
S        16.50837517      9.46148014     23.41087151
S        17.87392044     12.07443333     24.96658134
P        18.09843445     10.82211399     23.33632851
S        19.88636589      9.99108601     23.22796631
S        18.21971130     12.24345875     21.71325684
S        18.18836021     20.85422325      4.66870594
S        20.08974266     19.26504707      6.70459747
P        18.21363258     20.05827713      6.58977938
S        18.12694359     21.24098206      8.22551918
S        16.23948097     19.31301498      6.71372080
S        16.43442535     19.02606773     15.10664558
S        18.06137657     21.33098984     17.01279640
P        18.12619591     20.20065689     15.40427017
S        19.90502739     19.13113976     15.66222382
S        18.05842018     21.39425278     13.66954708
S        18.42750740     20.61484528     25.74526978
S        16.16098213     19.10398865     23.75565147
P        18.15512085     19.89400101     23.77356529
S        18.10765076     21.08837700     22.21273804
S        19.90404892     18.81695557     23.50687599
S        24.84874725      1.16128552      7.18214035
S        27.12788391      2.87774348      8.79677296
P        26.80421638      1.73564100      7.09729433
S        28.02546120     -0.12055819      7.02308559
S        27.03872108      2.87123442      5.36152124
S        25.26640701      0.81586123     14.93954277
S        27.07039642      2.59345770     17.01776505
P        27.08479691      1.81674254     15.24598980
S        28.88803864      0.88457400     15.16453457
S        26.91538429      3.31750727     13.78628635
S        25.27627563      1.24868548     23.64529037
S        27.19113350      3.15054631     25.44640350
P        27.22106552      1.97799695     23.71320534
S        28.85969543      0.79327697     23.89144325
S        27.63372421      3.31391358     22.05845642
S        26.76527786     12.12091827      8.34312153
S        28.46262360      9.86135674      6.62085724
P        26.80697060     11.11009312      6.64339638
S        24.80643845     10.07869911      6.51914120
S        26.87482262     12.19288254      4.76888943
S        24.86375809      9.93589020     15.15752888
S        26.96252441     12.09706783     16.64065361
P        26.76998138     10.76162434     15.05738163
S        28.49894142      9.72995663     15.19810772
S        26.94448090     11.64388943     13.23625851
S        25.15509605      9.58281136     23.82361412
S        26.63771057     12.50148106     25.08079529
P        26.74279976     10.98351955     23.78533554
S        28.56285667     10.07601547     23.91203499
S        26.58584595     11.77199078     21.94495964
S        26.56765556     20.94909668      5.13321257
S        25.38744164     18.34356117      6.94319296
S        26.52892494     20.86153984      8.53025627
P        26.75801277     19.78354073      6.79466009
S        28.56661606     19.08052444      6.74325085
S        26.98408699     21.32120514     13.72570324
S        25.02259636     18.84990120     15.53549767
S        27.01369286     21.29215622     17.15119171
P        26.79115295     20.16460609     15.42609119
S        28.42951775     18.98347473     15.53090191
S        26.85254288     20.75300789     21.41370773
S        26.82741165     21.02907181     24.79740906
S        28.40448952     18.52956009     23.39835548
P        26.88641739     19.81661034     23.25238228
S        25.23027420     18.59641266     23.28625679
S         6.88728619      4.29444218      2.51516795
S         4.81261635      2.11718583      4.46885014
S         5.00322723      2.12208796      0.99365091
S         3.61839485      4.67436314      2.69885731
P         5.18245840      3.26440454      2.72768879
S         6.98922586      4.11571455     11.22364998
S         5.05293465      1.50489616     12.47366428
S         5.27885532      2.25856638      9.01526070
S         3.48894644      4.17729092     11.01899910
P         5.25337982      2.97021985     11.00781631
S         6.37459898      5.22227955     19.40509224
S         5.54127359      2.32492137     20.63302994
S         4.91132355      2.80489016     17.41341782
S         3.16073632      4.58803797     19.40881920
P         5.05008841      3.62228441     19.17345810
S         6.86010313     13.72503281      2.52716422
S         5.31666613     11.36586380      4.29628372
S         5.36389589     11.10066605      0.96725351
S         3.41899776     13.24354744      2.34765172
P         5.27950954     12.32031727      2.49420834
S         6.65268373     13.85129547     10.65815926
S         5.14921951     11.43680191     12.60598373
S         5.01808739     11.38632202      9.31105709
S         3.39956212     13.63263988     11.13894844
P         5.13948870     12.64311600     10.99200821
S         7.09025908     13.29651546     19.41539764
S         5.10486317     11.24002075     21.17180061
S         5.28361464     11.22963428     17.67287254
S         3.44193363     13.43226147     19.27222252
P         5.24542284     12.34185982     19.43857384
P         5.20987320     21.74876404      2.68698978
S         4.99407387     20.65676308      0.92902607
S         4.82319212     20.52264404      4.37197685
S         3.72157812     23.11156654      2.79721379
S         7.11458731     22.38049316      3.05638790
P         5.07467985     21.06676102     11.18158436
S         7.06848574     21.86411667     10.79407406
S         5.00644636     19.91074944     12.91160393
S         4.63967323     19.88163185      9.48478889
S         3.43121076     22.40640450     11.18055725
P         5.46903706     21.08689499     19.25972557
S         7.08703566     22.64941597     19.53771782
S         5.02258778     20.10621452     21.24011421
S         5.68173456     20.00385284     17.65293121
S         3.65593433     22.07353973     19.12112999
P        13.70674419      3.43864775      2.46598077
S        15.37319851      4.76800156      2.33291078
S        13.55671310      2.42239428      4.23442078
S        14.04375267      2.24888158      0.77769619
S        12.02708721      4.69593620      2.09095073
P        14.18709946      3.46866250     10.73406029
S        13.96306419      2.05820775      9.37857819
S        14.40867615      2.44562221     12.55219173
S        12.51661396      4.69887161     10.68620777
S        15.97820663      4.60279083     10.55756855
P        13.90075684      3.60583019     19.02441406
S        15.83097744      4.45437860     19.14653969
S        13.60491562      2.42151284     20.77334595
S        14.00703049      2.61709213     17.21611404
S        12.24120808      4.93174934     18.83209229
P        13.85602570     12.14870834      2.45488524
S        15.58571529     13.36831570      2.36835265
S        13.82501507     11.17154980      4.08342218
S        13.97350311     11.15521240      0.57370061
S        12.08571339     13.35558033      2.35091257
P        13.94889069     12.69300365     11.03396511
S        12.33620644     14.07269573     10.77363205
S        13.37568092     11.92420101     12.82944202
S        15.81221008     13.27183723     11.00130081
S        13.69634247     11.51697826      9.46573734
P        13.76883888     12.52094650     19.08968544
S        11.99475193     13.53094864     19.16791725
S        15.15898323     13.98473549     19.22122192
S        13.83366966     11.38129520     17.41614723
S        14.13506889     11.44960308     20.89898872
P        13.79355621     21.34674454      2.58321381
S        15.68261147     22.39307785      2.48282528
S        13.35736561     20.76500130      4.41540098
S        13.75435352     19.83891678      1.23180330
S        12.19133472     22.61563683      2.00386882
S        13.52513313     20.40116692     12.49204731
P        13.87028503     21.45241356     10.76696491
S        12.27392101     22.64994049     10.56873226
S        15.56686878     22.56707573     10.94320202
S        13.90040493     20.35367775      8.99395275
S        13.69309807     20.69910431     17.83821678
S        13.49860859     20.56216431     21.32879448
P        13.92436504     21.74002838     19.70415497
S        12.47232246     23.10110474     19.54066277
S        15.87909794     22.49953651     19.61618996
S        20.88611031      4.54999113      2.40364408
S        24.28943634      4.80331326      2.65448165
P        22.59190178      3.46311140      2.62988424
S        22.73816681      2.27660012      0.85649264
S        22.51148033      2.25543976      4.14656258
S        22.53675270      2.49437499      8.72795486
S        20.72911644      4.47303152     10.66041946
P        22.31795692      3.30446506     10.63080311
S        24.14247513      4.45053864     10.85948753
S        22.57147217      2.12723255     12.25073242
S        23.15279961      2.27015376     17.44672585
S        21.01100731      4.06855154     19.11056328
P        22.82121658      3.13792181     19.27391052
S        24.45538330      4.39714956     19.87429428
S        22.73378944      1.80525196     20.84637451
S        22.41589737     11.56336594      0.48810917
S        20.88246918     13.97866440      2.21053934
P        22.58439827     12.74717236      2.15479326
S        24.30424500     13.74705219      2.25874662
S        22.55902290     11.58607101      3.88775659
S        22.62804222     11.59489822     12.93445492
S        22.61799049     11.11523151      9.44216633
S        20.56124115     13.37687206     10.86238289
P        22.49911499     12.46898842     10.90126324
S        24.30036545     13.36046028     10.97988033
S        22.89055061     11.01121712     21.14825439
S        22.85857010     10.91831684     17.83723259
S        20.95271683     13.08037663     19.34890556
P        22.86659050     12.08477879     19.51089287
S        24.41290855     13.43299770     19.44044304
S        22.76440239     19.49746895      4.13783169
S        22.34995651     19.69315529      0.89406252
S        20.94666100     22.17570114      2.46215558
P        22.75279617     20.81510925      2.43029594
S        24.33924103     22.09408188      2.47376919
S        22.38541985     20.55076599     12.94000721
S        22.87285614     20.64636993      9.24001217
S        20.69711113     22.44250870     10.93605232
P        22.50585747     21.53643799     11.08678055
S        23.74126434     23.30316544     11.25400829
S        22.29231644     20.02983665     21.32496643
S        24.51138878     22.19556618     19.59893799
S        22.61215401     20.04397964     17.90779877
P        22.85364532     21.14335823     19.67698860
S        21.13124275     22.37058449     19.70565987
S         5.60079861      7.30931330      8.52086258
S         5.49943495      7.37293100      5.04128551
S         3.31308436      5.78360224      6.95402622
S         6.47631407      4.52258682      6.69998455
P         5.32753897      6.19336510      6.78930807
S         6.74380398      5.54994869     15.06939125
S         4.58726549      7.56448793     16.79548264
S         3.48455215      5.30074024     14.62642574
S         4.97757244      7.91166210     13.47628212
P         5.01081800      6.60188627     15.06102753
S         5.29009438      7.39622068     25.58911514
S         3.58822751      5.49513531     23.97515869
S         6.85822248      5.04648972     23.58926201
S         5.12068462      7.74995661     22.18937111
P         5.37019300      6.43424511     23.82138062
S         4.89721346     16.85069084      7.95073271
S         3.27324605     14.19002914      6.38417101
S         6.66965485     14.38427353      6.39872313
S         5.06679249     16.63208771      4.56817913
P         4.89000130     15.55894184      6.34968281
S         5.19462299     16.37622261     16.77746201
S         3.41657686     14.06286716     15.14579105
S         6.75651932     14.02613544     14.89850998
S         4.96144676     16.63580894     13.40609264
P         5.04149580     15.30141258     14.95995045
S         5.10116577     16.24649048     25.76258850
S         3.79042482     13.78886318     23.76312637
S         6.99328327     14.29144573     23.87109375
S         5.00301504     16.39321899     22.39254951
P         5.20224667     15.12884426     23.94908524
S         5.42702341     25.39463615      8.54059315
S         3.33576751     23.25553703      7.02118826
S         7.02625084     23.14929581      7.18639851
S         5.30440712     25.50234795      5.37984467
P         5.24296379     24.17627907      6.92181492
S         5.63593769     25.34795761     16.91209030
S         3.42339444     23.20932198     15.44437885
S         6.86074734     23.07381058     15.13047981
S         5.05057478     25.43664742     13.38876629
P         5.24807215     24.26334000     15.19203854
S         5.13788271     25.61162376     25.46994209
S         3.68844843     23.21565056     23.41431808
S         7.15562057     23.72093964     23.85297394
S         5.39029360     25.88412476     22.09023857
P         5.26415777     24.45578575     23.73695564
S        13.62474155      7.55431652      8.28365326
S        15.66296959      5.45358992      6.48262405
S        13.84938908      7.70221519      4.73676729
S        12.29509163      5.24913216      6.42539501
P        13.92894936      6.53610659      6.48878193
S        14.24442768      7.78425503     16.40757751
S        12.50260544      5.34864140     14.67769146
S        15.90239811      5.60518503     14.56503296
S        13.98267365      8.11608028     12.79889297
P        13.94935131      6.78760958     14.50777149
P        13.73104191      6.38870525     23.37807465
S        13.78731632      7.50063801     25.24812508
S        13.67607307      7.63890696     21.87415314
S        12.10441589      5.04489183     23.21773720
S        15.29470253      5.10902834     23.47024345
S        14.04782200     16.84489632      5.11155128
P        13.72246170     15.65579033      6.67706537
S        13.52926064     16.72466850      8.46411133
S        11.97352791     14.55256176      6.49391413
S        15.31963253     14.38774109      6.97550106
S        14.05423832     16.36460304     13.30758190
P        13.94182205     15.48608494     15.31909943
S        14.00619793     16.74593925     16.91072273
S        12.37196255     14.20521545     15.52011013
S        15.74610138     14.34647655     15.23229027
S        13.66790295     17.01605606     22.43543625
P        13.79775238     15.45533562     23.74151421
S        15.63160419     14.75144958     23.65953445
S        13.28510857     16.08731079     25.68318939
S        12.25540257     14.16762161     23.26121140
S        13.76912594     25.66108513      4.71563387
P        13.80558681     24.74114418      6.51605892
S        13.85085201     26.02875519      8.24639702
S        11.96607304     23.82060242      6.82785559
S        15.52423000     23.65675545      6.51163483
S        14.01024151     25.77540970     13.27266598
P        14.02477646     24.56315994     15.01078701
S        15.57636070     23.27834320     14.84211540
S        14.12030792     25.63339996     16.77956390
S        12.16272449     23.60686111     15.09780216
S        14.07436180     25.41975975     21.66207123
P        14.05686378     24.41806221     23.42785072
S        14.16388321     25.67271614     25.11837578
S        12.35520935     23.41818237     23.72731972
S        15.68237019     23.19293022     23.37548256
S        22.71064758      7.73479843      4.92204809
P        22.62210846      6.41964912      6.47105455
S        22.56509018      7.50702953      8.26241207
S        20.89537811      5.31816149      6.27273369
S        24.52153969      5.42858601      6.35450029
S        22.29692650      6.94126129     13.15151501
P        22.40431786      6.26191330     14.97932625
S        21.98862457      7.75331593     16.39007950
S        20.92680740      4.92728710     15.35920811
S        24.28355217      5.57587814     15.34019279
S        22.87229729      7.95870161     21.78799248
P        22.53907776      6.68389750     23.38753128
S        22.55352592      7.48328543     25.49191093
S        20.81194305      5.55802917     23.18242836
S        24.27977753      5.34125900     23.24185753
S        22.06469727     16.21909332      8.57223415
S        22.49210548     16.21150398      5.16638041
P        22.38500404     15.13910675      6.95537663
S        20.57874489     13.82793617      7.10770941
S        24.11980438     14.11569595      7.21029711
S        20.68017197     14.37005520     15.25098133
S        23.94270897     14.52016449     15.41519737
P        22.14737701     15.60024834     15.82634354
S        21.95090103     16.31317139     17.60963249
S        22.01673698     16.98623276     14.22662830
S        24.39184761     14.88256168     23.69283104
S        22.04210663     16.43381691     21.33018494
P        22.64339638     15.67198181     23.21177673
S        22.60286331     17.00025368     24.66778564
S        21.17279625     14.15736389     23.45898819
S        20.80574036     23.68200111      6.81052494
S        24.27125740     23.27893448      6.64544582
P        22.63474464     24.60228348      6.51296043
S        22.66911888     25.96604347      8.07758999
S        22.74955177     25.56351089      4.66393089
S        24.55600166     23.39285851     15.52646351
S        22.73246002     25.83250237     13.77289104
P        22.87239456     24.42984581     15.28450298
S        22.94874954     25.41503525     17.20242119
S        21.11064148     23.50987434     15.43903923
S        20.82886124     23.50925255     23.55074883
S        24.22132111     22.57760239     23.79626465
S        23.16158676     25.44016266     22.49988937
P        22.69952011     24.21370316     23.95992470
S        22.69447327     25.10766983     25.86137581
