864

Li       15.50105953     59.38374329    144.90190125
Li      -62.98594666    212.93550110    102.32736969
Li     -195.68736267    -25.30438042   -133.05418396
Li        6.39394426    -33.61507797   -186.20274353
Li      170.47122192    247.64585876     51.10028458
Li       66.66977692     13.15939045     76.76416779
Li        6.55970573    -86.88191223      8.83353615
Li     -269.78997803   -205.08082581    -54.23323059
Li      -93.28017426    168.65704346      9.34026718
Li      209.04620361    151.09864807     55.39896774
Li       37.05519104   -140.48435974    -50.43503189
Li      135.12277222    187.95079041    -76.75698090
Li      192.05569458    235.35424805     30.25497627
Li      -10.66879177    196.31784058     79.67977142
Li       79.84410858    179.45736694    471.18612671
Li       79.23686218    -30.23913956      9.19851303
Li     -278.73898315     85.06781006   -351.06896973
Li      110.31928253    266.51934814   -177.39381409
Li      131.26614380   -223.51638794   -113.19788361
Li      -38.48204041   -152.46600342     45.22021103
Li      174.77471924   -219.85726929    -16.24626350
Li      -62.53510284    -41.34337616    140.40252686
Li     -123.22824860   -109.54561615    242.11346436
Li      243.55471802   -131.07723999      4.75798464
Li       32.04731750    480.69146729     25.82356644
Li       45.85793304     76.59593964    195.18862915
Li      167.62107849    251.32130432   -102.91379547
Li       45.92514420    144.14030457    -87.88061523
Li       97.71823120    -10.79248524   -129.58602905
Li       -2.43864107    -39.73275375     17.92582703
Li     -145.53077698    168.55870056    -63.62041092
Li     -110.65634155     39.30788422      8.16543865
Li       74.97454834     34.09606552    -95.88253021
Li      -98.58148956     55.70268631    -88.62729645
Li       23.73232079    -21.42384148   -245.34289551
Li      152.96646118   -209.18640137    191.66358948
Li        6.78279114    488.84240723   -169.00415039
Li      170.02285767   -137.24084473    195.21438599
Li      122.50228119   -161.98840332   -169.01362610
Li      162.61779785    -17.89427567   -377.86077881
Li      -97.54043579    -43.84865189    -30.10238838
Li      -23.25802231      9.78066444     51.52848053
Li       31.20034790    -58.97389603     13.51167488
Li      125.78841400    291.00793457    -23.05810165
Li     -131.56121826    -29.88190651     12.48272610
Li      -51.72601318     38.55855942    -27.16759300
Li      205.00505066      2.52729130   -274.71780396
Li      127.83293915    231.40806580   -164.88537598
Li     -274.89111328    310.73876953    118.75155640
Li       -4.49701262     71.03443146     41.06091690
Li        1.59291577     24.53299141    198.94349670
Li       23.31960297     -0.20610942   -194.60490417
Li      157.50621033   -164.40650940    -71.29518890
Li      -65.59073639    137.28457642   -243.37557983
Li      -68.05435181   -160.04251099    101.54914856
Li       66.82091522   -143.20738220     51.53314972
Li       -6.73721170    -19.45737457   -220.69676208
Li     -101.53654480   -125.77973938     55.23537064
Li       28.16475296    -91.94068146     42.49985504
Li        2.14542603    118.10916901     34.45807266
Li      178.80584717    -47.08803940   -110.04570007
Li     -102.21455383    -75.30476379   -236.69433594
Li     -214.11932373    249.55978394   -317.07647705
Li      -47.11042786   -182.70075989    -86.05503845
Li     -110.76640320    -78.54321289    178.61178589
Li      -79.70350647    -60.34302521    -87.93443298
Li      -63.64548874   -342.25024414   -394.92028809
Li      101.17387390     49.42285919    -54.61800766
Li      -26.55256653    -21.79911613    283.53561401
Li      144.70600891     47.62143326     59.98516846
Li     -292.58255005    395.55300903    198.32110596
Li       40.40175629    -33.81066895   -165.17578125
Li     -175.24079895   -111.93421936    119.76544189
Li     -192.56794739    179.35096741   -173.24073792
Li       21.63339233    -74.95874023    151.43280029
Li       10.82877731    -45.69126129     21.21265984
Li       58.29372787      7.57372952   -118.13667297
Li      -41.38924026   -129.92851257    -83.84663391
Li     -102.70231628     54.38378525      0.51264536
Li      170.46405029    251.03181458    -24.89797211
Li       79.44340515   -193.45895386     94.55158997
Li      184.08595276    149.36094666    -54.65302658
Li      146.02146912    -38.47027206     53.05677414
Li      -37.23970795     97.49303436     34.01486206
Li      123.50659943   -188.26124573     88.75431824
Li      174.33952332     24.10099792    154.26670837
Li       62.78459549    188.11944580   -122.15142059
Li       54.18800735     99.80196381      4.85136080
Li     -114.03593445    199.15356445    157.07998657
Li      -40.44968414     97.29614258   -146.42741394
Li      121.52331543    110.35269928   -341.10162354
Li      270.21517944    188.40567017    -42.09049225
Li      -88.86759949    193.34333801    -71.32807159
Li      261.65698242    -40.90767670   -240.75471497
Li     -132.13917542   -227.89851379     59.92891693
Li      188.34548950     54.46083832     80.74614716
Li       53.94877625    332.46832275     -2.97245097
Li     -119.32633209    265.55548096   -198.00013733
Li     -101.45040131    -86.41400909    200.31712341
Li      178.20199585    122.30964661   -274.67755127
Li      139.54275513    259.08218384     12.32905769
Li      131.05564880   -133.22364807   -121.69586182
Li      -31.71083832   -330.18481445    -38.05086136
Li      125.83854675    -70.93244934    -57.05333328
Li      230.53431702    207.11662292   -122.24781799
Li      -23.10334015    215.29479980    -61.28508759
Li      -11.37745380    227.27998352    331.22473145
Li       12.40686035     -2.08242965     23.74040985
Li       35.87433243   -201.70870972    -98.35488129
Li      330.94738770    284.04693604    225.36698914
Li      -80.32894897     92.05614471    -89.34971619
Li      186.27253723     79.15961456    134.31861877
Li       -6.29612732    -67.07915497   -164.53622437
Li      144.35984802    236.37312317      4.40556765
Li      274.43276978    141.61077881    275.83007812
Li      148.52807617    -26.77843666     30.40686035
Li       57.53575897    173.58963013    136.80195618
Li       18.76404381    271.48947144    229.63690186
Li      -27.53279114    120.38865662   -110.56983948
Li      -83.85941315   -127.92322540   -105.15579224
Li      252.47256470    291.68518066    259.03060913
Li     -118.67324829    159.07014465   -190.59349060
Li     -110.78339386    -84.92915344    275.71041870
Li      158.62280273    188.02372742    -26.71836662
Li      -24.17964745    147.57290649    -69.76117706
Li       67.42963409    147.86601257    262.26071167
Li      -10.85411167    352.46932983   -173.27980042
Li     -145.04188538    -64.93463898    -84.24346924
Li      148.44670105    310.33435059     25.01255417
Li     -114.73702240      1.54634523     -7.33739567
Li      273.08367920     61.16114044     57.23435211
Li      -40.73450089     74.13953400     98.02423859
Li      131.70878601     50.79155350   -267.17178345
Li       -2.40829277   -179.30148315     29.88302612
Li      -62.93324280    -66.40041351   -312.75463867
Li       61.42821884     -3.03274584      1.58334053
Li     -208.68557739    171.26170349     26.60135841
Li     -158.70080566     95.35871124     25.73310661
Li      113.78714752    -45.37057495     67.89188385
Li     -386.85989380    308.13235474   -312.73022461
Li        1.98923969   -298.44598389   -313.36019897
Li      -45.56520844    -19.30643845    -28.90351295
Li     -127.53659821    444.14700317    173.96960449
Li      110.72166443    178.62438965   -126.57272339
Li      -41.63409424   -163.08219910     68.49810791
Li       57.90055084    137.44325256    128.05371094
Li      -25.00181389    452.23199463    -15.88170528
Li      -60.90020370    -11.19287872    -14.69974518
Li      162.02352905   -476.74475098   -146.65507507
Li      -79.69053650     78.44392395    -58.55259705
Li      191.60998535    -43.53551865   -178.01565552
Li      144.95706177   -220.76554871    -88.81825256
Li      -93.56288147    -15.51877975   -189.80146790
Li      -16.49280739    -54.57660294    -11.46894550
Li        1.56130779    283.94046021    -24.85553169
Li       75.73056030     39.24828720    212.30926514
Li      -45.34693146    167.64878845     98.33245850
Li      -19.93651772     13.88999176     -3.63510036
Li       36.51988220   -100.00464630    -96.95827484
Li      -43.39864349     78.19107819     35.92158127
Li       11.28508663     73.07365417    -88.91046143
Li      200.85832214   -312.26177979    258.55874634
Li     -305.32266235    194.27555847   -143.34980774
Li      149.07865906    344.38922119    -92.75379944
Li      -89.89547729    -79.65237427     53.29708862
Li      -15.21359921   -287.11172485    106.41844177
Li     -106.88470459     58.13473129    -84.05979919
Li       66.68682098   -157.72290039     59.83157349
Li      -49.80863190    155.28823853    297.22705078
Li      -20.63938713    384.27978516     25.47278214
Li     -395.58935547   -159.28656006     98.54367065
Li     -201.33204651    -37.49190903   -135.70147705
Li     -135.67764282    150.94602966     33.10806656
Li     -132.31332397    -89.27740479    -58.37481308
Li        5.83796597     94.15651703    118.52590179
Li       35.78357315    -57.49409866     21.22567177
Li     -202.60603333     97.52262878     23.74413109
Li      -45.45383453    -34.99803162    -71.59244537
Li     -102.32641602    -66.98987579    161.87493896
Li      107.21369934   -188.14114380   -107.00113678
Li      100.79147339    187.81483459    152.67082214
Li      -92.96573639   -124.11027527    187.31614685
Li     -106.51640320     -1.94411433     -3.24831057
Li       96.72770691    133.98030090   -186.28381348
Li      131.95722961   -128.86451721   -122.19982910
Li     -115.19068909    158.20423889    250.28790283
Li       -9.86570930   -126.77921295   -181.34098816
Li      -58.00836182   -344.90930176     93.57131958
Li      136.23045349    -13.08565712   -117.96286774
Li       49.52551651    -17.86277580    -66.94504547
Li        5.22958612    -47.03468704    -95.81156158
Li      126.99655151     82.48159790    -37.91889954
Li       -6.64756775   -196.87281799   -101.25323486
Li      -14.20860291    -92.54912567     14.90539265
Li     -222.70433044    192.96340942    -33.98554230
Li      109.42164612     13.84074593    114.68759918
Li      -88.61759949    378.94601440   -101.67184448
Li      -75.47183228   -116.39171600     51.67382050
Li      -88.70509338   -322.34020996    123.84500122
Li       40.69563675   -200.75177002   -240.87689209
Li       88.37869263     14.50067711    102.26998138
Li     -193.47869873    266.86874390    169.89151001
Li       11.19228745    121.20089722     72.69806671
Li      192.50325012     85.96875000    -54.73079681
Li     -112.79832458   -247.24993896    -82.61344910
Li      -93.08578491    -89.69151306      9.28053856
Li      -24.13429642    328.99301147     38.76177597
Li     -258.23898315   -225.90742493     47.37259293
Li      139.61546326    440.35626221    153.62500000
Li      279.43298340    282.17272949     36.69800568
Li      209.53529358    244.28874207     85.21168518
Li       23.52960968    204.41780090     21.49222755
Li     -358.91070557    205.99096680     83.11648560
Li       19.36680222     17.98228455    -33.19861603
Li      -41.58193207    111.16057587    339.32214355
Li     -140.39335632   -215.57096863    136.35292053
Li       79.74904633     63.91297531    114.56536102
Li      179.11213684    213.07374573     80.75771332
Li       15.22611618     99.87052917    -29.42277527
Li       30.92170715     -7.39051247    -82.00574493
Li       50.20132065     75.33374023    203.72914124
Li       75.66737366   -307.96130371   -165.05604553
Li     -196.50392151    -32.48067474     59.73023605
Li      -97.84836578     52.49945831   -105.08461761
Li      109.58049011    -64.13187408    343.85510254
Li       97.13657379    -47.93338776   -100.85963440
Li      179.12339783    -28.05348015    157.65277100
Li      100.78032684   -460.02749634    301.08981323
Li      117.21815491    197.38195801    -86.17369080
Li       55.76024246    -25.56356049      2.90085459
Li      -41.31629181    237.28213501     93.05581665
Li      -11.17459488    371.24520874   -134.60626221
Li      183.11221313    111.63019562   -156.07536316
Li     -162.56419373     -5.55724573    -16.80349541
Li       79.05503845    138.83901978    -33.61269760
Li      -71.25000763    169.16592407    -58.05056763
Li       76.98498535    544.94915771    201.55047607
Li     -266.23187256    153.89781189   -165.06407166
Li       58.70850372    -33.78976059   -316.64859009
Li      140.31018066    259.54409790   -194.40058899
Li       71.35485077     82.76905060    145.33523560
Li       45.31758118    174.39247131    297.07635498
Li     -111.31591797     36.48544693     77.16220856
Li      140.50755310    124.99948883    149.53294373
Li       70.22484589     39.05375290   -138.82731628
Li      -10.66106510   -186.19570923    267.66662598
Li       49.41569901   -151.44050598      0.35739881
Li      103.67406464     24.57601547     53.71421814
Li      179.02346802   -208.33161926   -308.73858643
Li       72.75327301     25.06985855     32.39542007
Li       93.42831421    144.11093140    220.96745300
Li      118.99694824     23.77043533    106.93714142
Li      153.69897461    276.54498291    174.34997559
Li      -36.60806656    174.75669861    119.15834808
Li       14.79676151    159.98205566    262.92843628
Li     -150.05578613     91.84342957    119.70164490
Li     -144.99659729   -116.55931854     51.34762955
Li      286.74972534    175.81916809    -33.50201416
Li      -84.16086578     -6.90043068     72.30934906
Li      -79.60710144    374.34323120     -8.29778385
Li       57.85069275    164.59971619     -7.52244186
Li      -97.26300812      1.77207267     -3.26204610
Li      101.20153046    136.06182861    297.14904785
Li       78.50002289   -271.08660889   -164.99353027
Li       -6.75422573    195.08282471   -185.58053589
Li        1.86934602   -102.26631927    -63.04061127
Li      -96.94151306   -329.37814331    132.02815247
Li      -88.92113495    163.62246704    -29.30363083
Li     -149.67750549    116.67062378    101.77152252
Li      114.63806152    164.87168884   -139.32318115
Li      209.03680420    274.15121460    -16.85136414
Li     -130.31829834    -93.57117462      2.63439679
Li       70.87711334     -0.27831003    225.32435608
Li      -19.12386703    370.34265137    161.37086487
Li      -92.92735291    516.57794189    131.91223145
Li      -15.62210274    186.23695374     68.69806671
Li     -147.84735107     95.85581207     -6.34222889
Li      139.87030029    108.60643005   -126.69865417
Li      -50.18398666   -212.08021545     51.45689392
Li      -54.10102081    -51.41369629   -296.74682617
Li     -110.36370850     -9.76328850     76.67826080
Li       23.21752357    128.15249634     34.98767853
Li       37.17409515     89.61828613    216.53073120
Li      218.57481384     62.99271774    186.93185425
Li       -8.29714584   -237.97593689    240.37878418
Li      -70.51421356     98.69137573     72.54694366
Li      174.36491394   -437.06628418    156.95841980
Li      248.48030090    338.07989502    157.48211670
Li     -122.46141052   -156.76803589   -251.76243591
Li       41.91415787    143.83737183     13.51378536
Li      120.83219910    -33.14610672    125.66618347
Li     -105.50294495    294.98678589    -92.59921265
Li       78.02542114    259.84066772    -31.22161102
Li     -187.99925232    139.82307434     34.25857925
Li       57.88427353    -16.48504639     64.30797577
Li       14.76679039    -46.00411606    186.98907471
Li       85.08479309     84.97594452    268.77203369
Li       41.21998978    -27.94074440   -113.77742004
Li      175.16055298     91.69229889     55.05523300
Li       -2.04583621     17.66233253    152.48510742
Li      120.67650604    155.89967346    219.14192200
Li       -2.08061957     59.33589935   -202.58340454
Li      -32.72789764    224.48992920    208.46449280
Li      263.12878418     -7.42212677    -14.30256176
Li      -75.50570679    158.03332520     51.63253784
Li      278.31951904    288.80694580      4.77072382
Li       14.05555916   -145.98625183    -25.52207756
Li      157.64427185     75.36648560    135.59254456
Li      -41.97242355    162.80139160     -3.49845386
Li      308.74536133    -21.78320885    114.84754944
Li      265.03814697    229.26371765    -50.08360291
Li       45.02590179     41.65479279     93.99981689
Li      174.77792358    405.69393921    -37.15400314
Li       49.16228485    190.58880615   -100.95462036
Li     -184.41444397     73.15666962   -156.73045349
Li      239.69262695    -65.88114929    385.81500244
Li     -126.52416992     -4.92388201    182.63415527
Li      -45.24489975    265.57070923    225.35868835
Li     -213.40345764    112.41333771   -198.84278870
Li      162.26208496   -292.05645752    114.99761200
Li     -153.27041626     97.38519287     76.58186340
Li       49.85906982    264.47238159    183.47155762
Li     -153.59298706     87.34624481    -15.81584358
Li     -140.39756775    -66.65078735    199.50674438
S        -0.46008736      1.67920125      1.02621400
P        -0.51672024      2.84302664      2.60577345
S         1.29952431      3.84879017      2.62447524
S        -2.27725816      3.89195275      2.93942308
S        -0.27782148      1.55461121      4.35974073
S        -0.26504508      1.18948066      9.53724957
P        -0.50223958      2.74769402     10.95405960
S         1.31470275      3.83760595     10.95333672
S        -2.16328740      3.79631543     10.68275166
S        -0.59686971      2.11053514     12.88912201
S        -0.06311709      1.49432886     21.37569618
S        -0.22339004      1.23894215     17.92251587
P        -0.31933337      2.66250706     19.64654732
S         1.29540002      3.97472072     19.60330963
S        -2.20636225      3.32975149     19.82531548
S        -2.19983649     12.44275284      2.51571774
S         0.16302356     10.74607468      0.96922475
P        -0.29936564     11.86776924      2.77219367
S        -0.07308014     10.64569092      4.52902031
S         1.46562386     13.30784225      2.73370266
S        -0.15758914     10.41353893     12.50961018
S        -0.10605151     10.73131084      9.24325562
P         0.04511832     11.80508041     11.08828545
S         1.83187270     12.80523586     11.10200119
S        -1.72964823     13.02226448     11.40558243
S        -0.01488363     10.51535702     21.17192078
S        -0.00263527     10.82272911     17.88401794
P        -0.14470482     11.80680370     19.62055016
S         1.10950398     13.35598660     19.86955070
S        -2.03301430     12.75984669     19.61133766
S        -0.13804436     19.31572151      4.58444929
S        -1.96930373     21.42976570      2.85383296
P        -0.21957691     20.54885483      2.98405218
S         0.11115453     19.66237068      1.14343202
S         1.26529300     22.11119843      3.03015399
S        -0.05445873     19.90457726     12.57044601
S        -0.42695916     20.36767197      9.09234238
P        -0.28927952     21.14422226     10.96030045
S         1.71116507     22.10610008     10.88041115
S        -2.04490662     22.25794411     11.06000900
S        -0.66258681     19.97102165     21.44878769
S        -0.30832860     20.16735268     18.06818390
P        -0.30456710     21.14391136     19.77814102
S         1.65299320     22.08579445     20.03556442
S        -1.70267177     22.56571579     19.62225342
S         8.37851429      2.01651955      4.69324064
S         8.44439888      1.36952090      1.32397115
P         8.23109627      2.76896572      2.74760699
S         9.93475246      4.00765371      2.53362751
S         6.46364164      3.78909016      2.60879946
S         8.22441292      1.87680471     12.85811138
S         7.70975351      2.34689641      9.46319962
P         8.43353844      3.05057740     11.24579334
S        10.42807293      3.44548607     11.04127502
S         7.30638742      4.77525520     11.71570492
S         8.71662426      1.93921781     21.59869385
S         6.41535759      3.77452612     19.71653748
P         8.35129166      2.80821204     19.67999458
S         8.28618336      1.47665644     18.02981567
S        10.27731609      3.81937790     19.39931870
S         6.82550144     13.61307621      2.54482603
S        10.46013260     13.21686840      2.49126029
P         8.44437981     12.37660217      2.63419986
S         8.06404305     11.00207710      1.19423163
S         8.55113125     11.30593872      4.32923079
S         6.69172001     12.53099442     11.11530495
S         8.43593788     10.53899193     12.78169155
S         8.59633636     10.39375591      9.31615067
P         8.52664948     11.44425201     11.09558773
S        10.26103115     12.65405083     11.20229816
S         6.60847664     12.50310326     19.20563698
S         8.68454742     10.14651299     20.71700859
S         8.40739250     10.74761200     17.23501587
P         8.54272270     11.58040810     19.16179657
S         9.85742950     13.10243416     19.21417809
S         8.43973637     20.41472054      0.78620243
S        10.59182739     22.16267395      2.63843870
S         7.20660019     22.46411133      2.79914737
P         8.75702381     21.21615410      2.62525749
S         8.44869614     19.93350983      4.25330210
S         6.81455040     21.96077347     11.59294987
S         8.96054554     19.57179832     12.77902603
S         8.50931168     19.76561356      9.21716022
P         8.68852043     20.76556015     11.14130688
S        10.05215454     22.23579788     11.07695103
S         6.31213522     21.82260895     19.62206268
S         8.41370106     19.86923981     21.77374458
S         8.21905518     19.32516098     18.32763481
P         8.35938931     20.66323280     19.84305382
S         9.76964855     22.22887802     19.86681747
S        15.22298908      3.76780915      2.47881961
S        16.77544212      1.77488625      4.57560825
S        16.83128548      1.76309061      0.72307026
P        16.95670891      2.77111506      2.60992169
S        18.52970886      4.01806211      2.63053942
S        19.07344818      4.12626648     11.40319729
S        15.60404968      4.56163263     11.38430882
S        16.97901726      1.92028689     12.64738274
S        17.26950645      2.55304456      9.18789482
P        17.16812897      3.29090023     11.22476864
S        19.05687332      3.79102659     19.86232376
S        15.46649075      3.87068081     19.72310638
S        17.11533928      2.13047266     21.82858658
S        17.10491562      1.09375191     18.55416298
P        17.30212784      2.75507069     19.82783127
S        18.95053673     12.49612331      1.97104609
S        15.53613853     13.26241970      2.64191890
S        17.26016808     10.98384666      4.15562820
S        16.50369263     11.17657566      0.58108950
P        17.06674576     11.96031284      2.38831830
S        15.57879734     13.37854099     10.85428810
S        17.19925499     10.80635357      9.35050678
S        16.45347023     10.86288738     12.56998158
S        18.86199188     12.65149307     11.37990570
P        17.00461006     11.98185635     11.00125599
S        18.80634499     13.03437614     19.56191444
S        15.32475567     12.82166004     19.68265343
S        17.45888329     10.72742367     21.25437927
S        17.32694244     10.70188236     17.84648323
P        17.12538719     11.80875492     19.59420013
S        18.80995369     22.00311661      2.88021779
S        15.28520203     21.92391968      2.86806560
S        17.07694435     19.52140999      4.41703081
S        17.15238953     19.75176239      0.90662915
P        17.03388214     20.89144135      2.64059925
S        17.24138069     19.84584045      9.34906483
S        16.96282578     19.74514198     12.65171242
S        15.31107521     22.04816055     11.00218296
S        18.70641899     22.39315987     10.96325874
P        17.11085320     21.07210732     11.03312397
S        18.80202866     21.96468544     19.43896294
S        15.60733604     22.22424316     19.24277878
S        17.09152412     19.90618896     21.27093697
S        16.89366341     19.38231659     17.95179939
P        17.05459213     20.89911652     19.45935631
S        10.59736252     -3.84243774      7.00725412
S         8.51810074     -1.84382164      5.20714951
S         7.38086414     -4.36126709      7.01966143
S         8.59881401     -1.64812315      8.64001751
P         8.80555820     -2.76613784      6.92237377
P         8.61659813     -3.34747696     15.38529491
S        10.33450222     -4.51338100     15.54069042
S         8.70803261     -2.54690313     13.57664585
S         6.75736475     -4.49262953     15.28116512
S         8.24084568     -2.05924606     17.06359673
P         8.12751675     -2.85767031     23.82129669
S         8.20317459     -1.69710755     22.03556633
S         6.30147839     -3.91692185     23.69885063
S         9.93761349     -3.94615221     23.84017944
S         8.15103245     -1.52936053     25.34039497
P         8.56308365      6.06177616      6.94283533
S        10.11707401      4.79482889      7.02141142
S         8.38594723      7.28519773      5.10703373
S         6.74353409      5.10012913      6.83863115
S         8.61336136      7.22350168      8.59024239
P         8.41961193      6.22961855     15.44105053
S         9.97825241      4.75642109     15.17119217
S         8.57571507      7.56317520     13.98724174
S         6.54358625      5.42187738     15.56020927
S         8.69545746      6.89020109     17.33256721
P         8.35836697      5.64350986     24.03128624
S         7.10654449      4.09395885     24.24111748
S        10.26947308      5.00009203     24.16482925
S         8.16670132      6.62672138     22.10153961
S         8.07538033      7.13758230     25.49729347
P         8.53586197     14.79092503      6.85198021
S        10.12438583     13.43142891      7.05667782
S         8.95992374     16.27312088      5.44077444
S         6.60656071     14.00764656      6.76789904
S         8.44734478     15.59285259      8.84145641
S         8.37912083     15.91899872     16.93239212
P         8.42093658     14.78337860     15.05253983
S        10.42663956     13.77631664     15.07487297
S         8.29096127     16.02734756     13.55013371
S         6.84752750     13.39784241     14.94180012
S         6.50042295     13.90882683     23.85784149
P         8.51363277     14.50633240     23.50346947
S         9.88562393     13.02135086     23.66767502
S         9.12633228     15.95975780     24.87722588
S         8.46897602     15.38537502     21.61893082
S        16.94088554     -1.75881600      8.82646656
P        17.20913315     -2.86044168      7.19268131
S        19.18133545     -3.69107962      7.05317783
S        17.01127625     -1.85296726      5.34602118
S        15.89944363     -4.50346994      7.18373203
S        15.17865467     -4.36312485     15.03849411
P        16.99670029     -3.54391813     15.16984940
S        16.61291695     -2.10994244     16.76118851
S        16.96906090     -2.35276580     13.54403877
S        18.48816681     -4.83767796     15.23808956
S        18.99407578     -4.25598860     24.15225983
P        17.23517799     -3.20329666     24.01099396
S        15.45900917     -4.30610085     23.67502403
S        17.27916336     -2.02656937     22.30839348
S        16.85335541     -2.20433116     25.83599091
S        16.85595703      6.86752462      8.43813229
P        16.91730881      5.98511076      6.61811972
S        18.67953682      4.90954685      6.65321732
S        16.92329597      7.31249285      5.01722288
S        14.95863056      5.08327198      6.45273685
S        17.52975082      6.63100624     17.47096252
P        17.37311935      5.84495449     15.56063938
S        18.53020096      4.19358110     15.55714321
S        18.00764084      7.02057219     13.90176296
S        15.33494186      5.45890999     15.20818996
S        15.40047264      5.02263165     24.07935143
S        17.13666153      6.85244179     25.94827652
P        17.27600861      5.88897657     24.14904213
S        19.10943222      4.89505911     24.30581093
S        17.29856491      7.00664759     22.32196045
S        17.41097450     15.71903801      4.31832790
S        17.17554665     16.11861992      7.72412491
P        16.99371910     14.71669197      6.17829657
S        15.01868248     14.13168621      6.30076790
S        18.60127068     13.46817589      6.32532883
S        18.63196945     13.73741150     15.49115276
S        15.31319523     14.04955864     15.62261486
P        17.11560249     15.14621639     15.45909977
S        17.51180267     16.31134605     16.96882629
S        17.23668861     16.27107811     13.63113403
S        18.89994431     14.08055115     24.07705307
S        16.90674782     16.20600700     25.33946991
P        17.09720612     15.01669025     23.83785057
S        17.40045547     16.23740387     22.24714279
S        15.59755516     13.60727310     23.53777504
S        24.03685379     -4.42227030      6.68950653
S        25.49892807     -1.86237061      8.41576004
P        25.76602936     -3.21827292      6.78727245
S        27.69376183     -4.12607861      6.95052052
S        25.69334412     -2.07315755      5.10149908
S        27.47329903     -4.47307730     15.29708195
S        24.05633163     -4.25283384     14.98455334
P        25.89488029     -3.24174428     15.28164577
S        25.91531944     -2.10386276     17.03649902
S        25.91426086     -1.98918760     13.63152695
S        27.54591942     -3.99388003     24.15468407
S        25.65321159     -1.88313127     25.77869034
P        25.67284203     -3.05078125     24.09214211
S        25.45285988     -2.14571071     22.24512672
S        24.08456802     -4.22606087     24.12708092
S        25.61989975      6.91816568      8.61928940
S        27.82141495      4.76777792      6.71750021
P        25.77418518      5.71604872      6.96390533
S        23.88283920      4.66198063      6.77289057
S        25.67658424      6.88990545      5.20871687
S        23.99854469      4.75188732     15.52046490
S        25.60756302      7.49154234     16.78378868
P        25.53881645      6.02011728     15.34608555
S        27.32764626      5.05038738     15.52601814
S        25.45889091      6.76398516     13.39220524
S        23.70364761      5.05011654     24.02881432
S        26.05216408      6.81590605     25.58378601
P        25.54067230      5.97235966     23.86805153
S        27.08678055      4.56196499     23.68469238
S        25.62215805      7.26878786     22.25420952
S        25.39871597     16.11355400      5.20282650
S        24.32364464     13.34570026      6.73030663
S        25.57243729     16.05342865      8.51922798
P        25.61303329     14.86241627      6.76898289
S        27.60217285     14.32345486      6.81135893
S        25.69015503     16.13641739     13.56563282
S        24.31937599     14.02727318     15.56964493
S        25.65759850     16.59372520     16.90745926
P        25.86186028     15.32006264     15.36760712
S        27.69351006     14.27433872     15.60314941
S        24.18628502     13.59341812     23.56357765
S        27.47128677     13.54405403     23.84203148
S        25.57516289     15.91160774     25.50020027
P        25.89299774     14.92859650     23.72811508
S        25.72166443     16.06380653     22.03255463
S         5.64744520     -0.38946497      2.46431756
S         4.26503420     -2.64770436      4.63371992
S         3.94614172     -3.07949376      1.07673836
S         2.45170593     -0.45911723      2.90791130
P         4.05974007     -1.73133194      2.76241565
S         5.52395201     -0.14439799     10.87536621
S         4.27196217     -2.68331146     12.84671211
S         4.37787819     -3.04429674      9.40019226
S         2.20810962     -1.17464995     10.94548512
P         4.04907179     -1.73313999     10.87063026
S         5.23711443      0.02155286     20.11798668
S         4.08358717     -3.04879141     21.25525284
S         4.02402163     -2.45036077     17.76696396
S         2.03666663     -0.47561097     19.74425507
P         3.88181925     -1.42893708     19.67422295
S         4.98471403      9.26970100      2.14193487
S         4.63721275      6.21523619      3.84862781
S         3.96136785      6.55126953      0.60514790
S         2.01458669      8.03525543      2.83797193
P         3.90729475      7.55428123      2.39899564
S         2.15549779      7.95261097     11.25062656
S         5.57170582      8.56314087     11.66396236
S         4.41206980      6.39938736      9.46870136
S         4.01803875      5.91524649     12.97949886
P         4.15288448      7.15444183     11.37861156
S         5.98383904      8.38514900     19.59740257
S         4.31953430      6.44178057     21.77846336
S         3.97311091      5.95537758     18.15951920
S         2.23811412      8.12289715     19.70132065
P         4.03914213      7.26278353     19.74133682
P         4.45307207     16.44675255      2.40344262
S         2.70856500     17.83415985      2.59290648
S         6.19340372     17.58391953      2.24408054
S         4.28788137     15.25673676      0.59042645
S         4.15438795     15.13933372      3.92867875
P         4.10460711     16.50226784     10.95134068
S         2.50551796     17.57385254     11.30007935
S         4.13602018     15.34121513     12.56349850
S         5.78691339     17.90838814     11.07099724
S         4.05975151     15.09633160      9.39959812
P         4.05885935     16.44216537     19.39142418
S         5.88012171     17.51213455     19.48146629
S         4.04770803     15.35506725     21.13180923
S         4.06745005     15.34204197     17.61312866
S         2.30097198     17.64050674     19.41761780
P        12.75379181     -1.80714059      2.47024989
S        14.33607292     -0.46052048      2.40495896
S        13.04725552     -2.84184074      4.23983574
S        12.82586384     -2.88694429      0.77856112
S        10.96596718     -0.70196396      2.53878641
P        12.89223766     -1.58961594     11.22733116
S        14.34874344     -0.15424022     11.18325233
S        13.05217648     -2.48234177     13.08518600
S        12.93931389     -2.99542212      9.70083046
S        11.05068588     -0.55711502     11.16950226
P        12.52239418     -1.88099980     19.44089699
S        14.45241451     -1.03820908     19.42781448
S        12.42429447     -3.17480612     21.12175560
S        12.41392803     -2.74493003     17.58275604
S        10.85955906     -0.57064545     19.68000412
P        12.60380459      7.61830091      2.48456216
S        12.49052048      6.50653315      4.31879473
S        11.12156391      8.78800678      2.30748415
S        12.44339752      6.24111366      0.92323208
S        14.52743816      8.42734241      2.45583773
P        12.96539783      7.45115232     11.18926716
S        12.46307850      6.26320982     12.82733917
S        11.80413437      9.05211163     11.02923298
S        12.69127750      6.53157377      9.30785179
S        14.99446106      7.84910822     11.14313030
P        12.95128155      7.33847427     19.31028175
S        14.80608845      8.31063652     19.64923859
S        12.31215954      6.50057125     21.11694908
S        12.95850754      6.05713940     17.82160187
S        11.58887386      8.83103657     18.91566277
P        12.67545128     16.27217102      2.43191218
S        14.19542217     17.76532173      2.54696727
S        12.75909710     15.53364468      4.22955322
S        13.01997852     15.18830109      0.90257186
S        10.87147236     17.34137726      2.27076054
S        11.11592007     17.11885643     11.11914062
P        13.01253128     16.17398453     11.09270573
S        14.67744541     17.34418297     11.14383125
S        12.88557625     14.95604324     12.84998989
S        12.89717102     14.81594849      9.51098156
S        12.54431343     15.08919144     18.01139259
S        14.43060970     17.08395767     19.96915627
P        12.56247997     16.07831001     19.76185799
S        12.58888531     14.90060043     21.57785606
S        11.08096218     17.49021149     19.81873512
S        21.31259537     -3.23384905      1.28475726
S        19.43086243     -1.09023833      3.01053238
P        21.49541283     -1.96946621      2.85184836
S        22.99989700     -0.61206907      2.76127696
S        21.48202515     -2.78456974      4.66036749
S        21.68919373     -2.10793424      9.33709717
S        19.20547485     -0.76679999     11.31052017
P        21.15611458     -1.32989097     11.16320324
S        22.33692741      0.25071087     11.12503719
S        21.37332344     -2.57830000     12.90089321
S        21.41297340     -2.96194458     17.75882339
S        21.31772423     -3.02165437     21.16984940
P        21.35296631     -1.88838792     19.51141930
S        19.53103638     -0.66119349     19.45330238
S        22.79530716     -0.53880346     19.52704430
S        23.16945457      8.58065701      2.79672241
S        21.79564285      6.16598463      1.11421382
P        21.55999184      7.38235378      2.62429309
S        19.68730927      8.40551472      2.37822127
S        21.19682884      6.37680387      4.45823717
S        21.18421745      6.65517759     13.08311558
S        19.64019585      8.58062267     11.16088772
S        23.00810623      8.68725872     11.44355869
P        21.42383957      7.50060797     11.13807583
S        21.44062042      6.47893906      9.39470196
S        21.68573380      6.16987228     21.62941170
S        21.42521477      5.96536636     18.02992630
S        20.07622337      8.52783680     19.67188072
P        21.68172073      7.24747562     19.74296188
S        23.40537453      8.37904930     19.42965317
S        21.18544388     15.38294792      4.19001341
S        21.11286736     15.60231113      0.64104885
S        20.23835945     18.05399704      2.55784369
P        21.50085449     16.42049789      2.45413423
S        23.39575768     17.30106926      2.54087281
S        22.94805717     17.86500359     10.98402023
S        21.81389618     14.91859436      9.62281322
S        21.70563507     15.32425213     12.91616917
P        21.49534607     16.23529243     11.12127113
S        19.72632599     17.29393005     11.07597923
S        21.30348015     15.04721832     21.37386513
S        19.86972237     17.58098602     19.98404312
S        23.30231094     17.02685165     19.71299362
P        21.48757744     16.34926987     19.71174622
S        21.18561745     15.46329594     17.82088280
S         3.83287120      2.11667109      8.47381020
S         2.28404284      0.23610622      6.53052711
S         5.73463440     -0.05352067      6.74470329
S         4.34434557      2.39438677      5.15324354
P         4.11461687      1.15112007      6.73667955
S         3.78418851      2.29080248     17.32340050
S         2.47766614      0.38053584     14.86260605
S         5.98178387      0.70583481     15.27417946
S         4.19731665      3.09107614     14.02123070
P         4.08630610      1.48346019     15.37106037
S         3.87401962      2.37494254     25.83326530
S         2.07594848      0.12075690     23.84415627
S         5.58108807      0.12650985     23.78818512
S         4.05895185      2.48512912     22.42738914
P         3.89214778      1.22339022     24.00284195
S         6.38399220      9.32375240      7.34579515
S         3.58676100     10.97816372      8.53614140
S         3.14673686      8.20328808      6.95430470
S         4.12268257     11.02209377      5.15311146
P         4.34003210      9.84057426      6.91517687
S         3.71999002     11.71263981     16.94564629
S         2.48739147      9.07292652     15.23951340
S         5.76553297      9.57895279     15.69734764
S         3.86376023     11.52891827     13.50980759
P         3.87583852     10.42203712     15.30260849
S         3.61610675     11.88150120     24.92879868
S         2.33299398      9.06069851     23.69577980
S         5.70645237      9.60927391     23.74626541
S         3.76049137     11.53698921     21.88384628
P         3.85221291     10.33398914     23.54630280
S         4.56576395     20.39707375      8.21596432
S         2.61551428     17.95828629      7.16963196
S         6.00546980     17.78203011      6.46526861
S         4.00501156     19.86464119      5.05139589
P         4.32571316     19.02577591      6.78455925
S         3.90681958     20.97304344     16.86587715
S         5.98853683     18.56411934     15.32546234
S         4.06561136     20.43461800     13.49710941
S         2.44758463     18.30564690     15.23954487
P         4.02305651     19.57283592     15.34872055
S         5.86806536     18.14186668     23.76185608
S         4.28118944     20.64006233     25.38064957
S         2.50612450     18.24154091     24.15485954
S         3.98120546     20.52080345     22.02962112
P         4.06218576     19.43659973     23.79030991
S        12.80172539      2.72250891      8.65862942
S        11.06023121      0.26689196      6.91347027
S        14.48987675      0.45742196      6.85001898
S        12.50386429      2.57731152      5.05719995
P        12.77708340      1.46648920      6.76477194
S        12.97456837      2.81741929     17.10683060
S        11.43144608      0.36899766     15.59624100
S        14.88260746      0.58452934     15.73143768
S        12.89620590      2.77136230     13.79742146
P        13.05540466      1.63104343     15.52849865
P        12.55600166      1.42314827     23.83180809
S        12.08643818      2.62224984     25.37907028
S        14.56719303      0.69602025     24.01811218
S        12.77650261      2.55105305     22.00949860
S        11.08647060     -0.20876820     23.75143623
S        13.00418663     11.50602627      4.99000168
P        12.80771732     10.58772945      6.77170277
S        12.92364597     11.55956459      8.56411648
S        11.16536713      9.35337734      6.72305965
S        14.62777615      9.46028137      6.79307652
S        12.64314365     11.43880749     13.68445873
P        13.00938511     10.24423885     15.30162239
S        12.92717171     11.12951946     17.01289177
S        11.47613239      8.73074245     15.25495911
S        15.02650642      9.47733307     15.43234730
S        14.29918194      8.43729782     24.05497551
P        12.89190960      9.99830055     23.76117897
S        12.62824059     11.36725521     25.25221252
S        13.01255703     11.05354404     21.98377419
S        10.99307156      9.10361958     23.89520645
S        12.34002113     20.16910362      5.26149225
P        12.62049198     19.11032867      7.02513027
S        14.22345543     17.95455360      6.61899042
S        12.74219894     20.21765327      8.76473713
S        11.06871605     17.76420784      7.39173031
S        12.62534714     20.64032173     13.92738628
P        12.87732887     19.27301979     15.36309910
S        11.09116077     18.11847878     15.39580441
S        14.55252171     17.99999046     15.21872234
S        12.93384933     20.10105896     17.29241371
S        13.02802658     20.95095634     22.36137772
P        13.12522221     19.61945343     23.78475952
S        11.53016472     18.33426285     23.66579628
S        15.02137661     18.71963501     24.04352570
S        12.85139179     20.35654449     25.73262215
S        21.15945625      1.84850109      4.53741837
P        21.26282120      1.39805901      6.59791374
S        23.12456512      0.57130569      6.76531363
S        21.14537048      2.82462454      7.92972755
S        19.68522835      0.05196831      7.15298939
S        21.62296867      2.49285579     13.81023502
P        21.57976532      1.15339112     15.20891476
S        21.63948441      2.03845787     17.07051849
S        19.67152786      0.06764004     15.50561619
S        23.25688171     -0.00873082     15.00714016
S        23.12589836      0.01354693     23.76200485
P        21.10448647      0.54580045     24.04992867
S        20.16730309     -1.08818150     24.44229507
S        21.19932175      1.83601534     25.68348122
S        20.66100121      1.52765608     22.14402580
S        21.55763245     11.22084522      8.58065987
S        21.62763596     11.60588360      5.33954096
P        21.42525482     10.31610107      6.84182358
S        19.50440979      9.57389545      6.68123674
S        22.96843147      9.02320671      6.82074308
S        23.19997787      9.58354664     15.52139473
S        21.22724724     11.63064480     13.60059547
P        21.53241348     10.68064213     15.39490318
S        21.66246223     11.90764713     17.11493874
S        19.56234360      9.75890064     15.75974846
S        22.82209587      9.22782421     24.27766609
S        21.69302559     11.25270081     21.84883499
P        21.34036064     10.67899895     23.83036041
S        21.31992722     12.03033447     25.36020088
S        19.51396751      9.51986599     23.72891617
S        23.13377380     18.40550232      6.89393950
S        21.18239212     20.41790581      5.47986317
P        21.27186394     19.17632484      7.03894758
S        21.10592461     20.23944092      8.97387791
S        19.74728012     17.64550209      6.93558216
S        23.02601051     18.22381401     15.28675842
S        21.56552124     20.84733009     13.55756760
P        21.47994041     19.60412788     15.13939762
S        21.78663254     20.69421577     17.01021004
S        19.59053230     18.78790092     15.27774715
S        19.53665161     18.83892059     23.79663277
S        22.69022560     17.78818512     23.41238213
S        21.73271751     20.58098602     22.15176773
P        21.57749748     19.41586304     23.85213661
S        21.89586449     20.64688492     25.53470039
