864

Li      239.14788818    -29.91061592   -195.33120728
Li     -144.66552734    -26.61293221     54.42245483
Li     -192.31048584     28.93033600    -34.90633774
Li      109.82238770    395.60995483    152.07006836
Li      192.65603638   -125.75695801   -225.60554504
Li       58.33202362     35.06451035     15.61841869
Li       92.87467194     16.82438850    232.45872498
Li      148.77182007    -27.25921440     83.20401001
Li      -49.96850204     22.29578018    -56.17250443
Li     -106.81575775     54.54685211    121.82071686
Li      -20.25586510     -8.16448689    -51.59930801
Li       10.48955822   -289.93014526    134.42695618
Li      227.25080872     42.07744598     41.20646286
Li      109.85710907    -73.11270142    202.26528931
Li      -37.70166397   -266.65148926    -90.08203888
Li      140.13578796   -106.46816254   -141.23515320
Li     -106.24732971   -232.86770630    130.15313721
Li       92.54946899    122.03916931     54.00960541
Li      -37.09992599    310.43563843    -38.69533539
Li     -131.76164246    -66.80773926   -289.11068726
Li     -123.82831573    132.68966675   -192.08283997
Li        2.14762783   -141.02549744    -72.73256683
Li      152.75323486     99.55618286   -136.80079651
Li       97.37345123     30.12136841    185.13931274
Li      139.58134460    126.32002258   -120.08113098
Li      -80.23117828   -249.08534241     15.30720139
Li       93.08798981    547.54187012    -18.42785645
Li        1.92477870     67.18315887    227.70649719
Li      -60.35833359   -179.73294067    154.72602844
Li      144.39131165     24.49235535    109.38691711
Li       67.72610474    149.53494263      8.15067482
Li      126.65380859     62.70648193    223.88912964
Li      -11.73089981    295.90686035    104.33702087
Li      196.37246704   -288.13067627     45.31934357
Li     -131.46583557    113.38823700    168.78955078
Li     -181.53657532    -52.83528900     10.48819923
Li      197.36524963   -273.17932129    251.32019043
Li      105.25177765   -129.10479736     45.59940338
Li      187.84173584     29.27749634    101.08924866
Li     -265.57955933   -171.28410339   -162.11087036
Li      -49.86190796    112.47921753    -38.85803604
Li       -6.49301243    167.67599487    283.04342651
Li      -79.59562683   -139.83738708    121.87632751
Li     -132.24694824   -275.79592896    134.84356689
Li      187.79095459     34.10381317    185.68028259
Li      -75.36992645    -81.01017761     74.88302612
Li      -62.53155518    -43.54541779     33.17578506
Li      -59.07064819    251.96957397     37.50914383
Li       75.83551025   -130.92364502   -179.43469238
Li       62.83979797   -270.30368042    143.27922058
Li       79.77398682    176.34123230    121.74220276
Li       15.24691868    -98.03308868   -390.97842407
Li       75.32764435     -2.55822897    -47.78583527
Li       23.90474319    168.05203247    338.31167603
Li      183.92509460     54.95342636    -10.13371563
Li     -222.77848816    345.73306274    -64.65894318
Li       70.84478760   -275.12490845    189.23382568
Li       31.41748047   -180.71580505   -115.43497467
Li      166.53402710   -168.10630798    207.23539734
Li      -36.36153030    176.37356567   -131.98277283
Li      166.24708557    -75.59092712    100.79085541
Li       53.17886353     92.45088959    -22.49868393
Li      196.43685913   -100.75657654     91.84445953
Li       48.98691177    -50.70652008    -64.38013458
Li      148.56848145   -224.94415283     -0.75359178
Li     -229.25103760    223.28207397     68.96125031
Li      -81.55562592     70.07124329     85.24182129
Li     -172.04783630   -105.71282959    231.09159851
Li      130.92562866    -59.07601166     -9.69232559
Li       67.99843597   -137.46804810    132.24353027
Li       -3.47420168    -47.75005341      0.96304584
Li     -222.54951477    -69.68030548     40.58825302
Li       40.62544250   -361.71234131    -39.03083038
Li       84.74582672   -172.36375427   -123.29363251
Li      -20.57355309   -134.57861328     79.69968414
Li      -79.84713745    -97.81677246    244.72337341
Li      -50.76121140    -87.55844116    -15.30161858
Li       23.71945572   -175.17813110    -21.86342239
Li      139.76777649   -257.36196899    202.42468262
Li       75.60359955    128.47125244     11.54446316
Li       31.76234436    122.02876282   -212.82562256
Li      -49.25235748   -313.38919067    -96.86446381
Li     -110.17955017    -38.18172073     24.72290039
Li      -32.76239777     57.16053009     24.29632187
Li      105.16206360    -27.32679176   -107.61078644
Li       92.01516724   -379.79849243   -157.85569763
Li     -245.04255676     54.82568741     11.51515675
Li       31.44919586   -122.87625885    257.89028931
Li      -89.23494720   -351.75173950     32.64309311
Li      -36.37262726     85.92622375    -73.33648682
Li       71.12826538   -163.17634583    125.54399109
Li      239.54951477   -172.66271973    270.48907471
Li       48.68191147    -72.57270813     62.01731491
Li       37.14982224     72.38362122    172.76847839
Li      -43.99501419   -154.85696411    107.15229034
Li        1.69985831    248.82066345    -47.21287155
Li       75.45862579     53.64496613   -196.15765381
Li      165.21388245    297.46606445     12.97706127
Li       88.10485840    530.43249512     91.75712585
Li       66.30887604   -256.46002197   -217.61700439
Li     -149.89672852    221.44662476    363.42321777
Li      243.37101746    312.33666992   -233.82438660
Li     -140.65464783    125.53642273    -43.83318710
Li      -17.58532143   -260.45266724    442.35000610
Li      118.82520294    100.87100983    354.85455322
Li      105.82077789    139.33755493     -1.31498408
Li      144.54742432    -92.56832886    -77.42228699
Li      231.16783142    121.34749603   -191.80203247
Li     -106.40800476    116.52643585    -36.16486740
Li       53.70820618   -246.11209106     61.85501480
Li       32.28473282    302.61907959    168.42213440
Li      -20.39933968    -19.93116379   -125.22379303
Li      217.88244629   -382.73599243    168.57893372
Li      125.51330566    -14.68621635    -36.49151230
Li      144.14175415     31.17448044     -4.97025824
Li      -62.95236206   -208.93336487    -13.85155201
Li        1.83642328     22.28546715    -38.61749268
Li     -248.41209412     75.90039825   -111.42280579
Li       75.31027222   -277.99795532    227.78826904
Li      139.08618164    177.57252502      6.78663826
Li     -287.96621704    -41.68125153    108.07777405
Li     -255.34300232    205.45285034     68.89242554
Li       45.39861679   -168.68310547     66.00963593
Li       77.35090637     53.25225830    404.22616577
Li       28.07855415     34.20888901    -93.61572266
Li       14.84408188     12.72284889   -103.04893494
Li       57.71351624     60.28617096     62.35928345
Li      109.54816437   -141.38282776    108.48754883
Li        0.42100701   -169.13056946    179.36489868
Li       18.48317909    116.19808960      3.71624851
Li     -126.78097534    208.34651184     28.59898376
Li     -119.13706207   -125.32710266   -128.02401733
Li      -84.86001587   -227.46192932   -115.16294098
Li     -170.65339661   -114.82534790   -145.11653137
Li      -49.43402863     24.57614899   -302.13433838
Li      -38.62437820    -39.14149475     43.71807098
Li      193.61151123   -256.06713867    -24.76589775
Li     -141.60659790     25.11878395     93.39909363
Li      -84.90663910   -157.12852478   -107.46528625
Li      205.77549744    120.00860596    -57.17638016
Li      -72.32940674    113.09442902   -225.34953308
Li       83.67916107    -41.04787827    -64.25887299
Li       53.55549622   -179.99467468   -234.26660156
Li       28.34772110     57.91296768    122.11713409
Li     -129.96032715   -115.71485138     -7.54232264
Li        2.49289441     73.01229858    164.25640869
Li       -4.84490967    -60.09994507     98.59577179
Li      266.00384521    267.51977539      3.55862808
Li       45.04929352     -0.25385657    393.16674805
Li      110.87843323    173.29963684   -161.47810364
Li     -230.97074890    100.04812622     16.13404274
Li      -19.92288208   -120.63919830     58.59351349
Li      -76.55580139     34.35414124     62.59903336
Li       35.69290543    204.10182190   -149.30293274
Li       19.45136452     57.46937561    -86.54978180
Li       27.09428787    -17.52905655    126.25807953
Li      -58.32301331   -113.95825958    105.84571838
Li     -123.47173309     21.98655510   -103.13563538
Li     -110.68984222    -41.32023239     -1.26953065
Li     -210.65205383   -274.76446533    -13.69386864
Li      247.55696106     -2.97020555    -26.21595764
Li     -231.99429321      0.34749824    359.47003174
Li      165.84207153    121.48632050     11.26957798
Li      -45.90733337      1.15364289    -60.45763779
Li     -221.83190918    139.15830994     81.54211426
Li     -110.93757629    309.47415161   -161.34477234
Li      373.21063232    194.51364136    143.03442383
Li      -11.75351524    129.80204773   -120.64536285
Li      -84.87920380     73.87976837   -242.87658691
Li     -148.75358582     59.56480026   -102.63941193
Li     -128.33216858    -73.31680298   -224.86454773
Li       87.07524872   -386.56484985     43.24073792
Li       75.27717590     48.87736130    -72.39067078
Li      173.03506470   -228.06515503     47.30300903
Li     -140.26722717   -293.68435669     49.74113083
Li      110.16538239    -33.71673203    266.03973389
Li       36.08731461   -155.01277161    -10.16976547
Li     -140.65087891     34.91902161    249.73541260
Li     -110.42910004      1.15864336    -48.07600784
Li      248.33583069    -25.63810349      2.57639885
Li       45.30979538    -11.89200783    -57.16925049
Li     -123.30458832   -190.37998962    164.64628601
Li      257.83511353   -118.71646881    133.42863464
Li       14.08414364   -235.57119751   -204.56718445
Li       83.32730865     93.58469391    150.98205566
Li      -10.90093136     20.21173477   -212.33105469
Li     -227.90759277     82.13622284    -43.35313034
Li      -17.71968460    382.18933105     69.32169342
Li     -119.57957458     98.94943237    506.96585083
Li     -106.79112244    295.27313232    -76.90985107
Li       19.05699730    -35.41476822     19.35756874
Li      304.67227173    363.25387573    -64.79400635
Li     -136.04809570     54.55785751   -111.34947968
Li     -235.52755737    146.74841309   -203.31237793
Li      217.71488953   -119.22686005     88.94331360
Li      -27.43156624   -185.22074890    325.36160278
Li      424.48880005     50.70869446    147.54267883
Li       28.44627571   -161.80160522   -322.84921265
Li       48.90441513     81.65850067    126.25115967
Li      131.19973755    -91.79867554     71.90271759
Li       85.08032227     11.46822262     26.08658981
Li       65.76894379     51.76760101    112.35300446
Li     -123.90422058   -122.60622406    224.15408325
Li      127.49555206    116.38814545    -77.92173767
Li       83.72074890    248.37571716     96.79687500
Li      157.12451172     64.80233002     87.82755280
Li      234.95759583     80.10617828    -18.34028435
Li      126.74958038    154.11898804     54.19716644
Li      -84.50611877   -173.58352661    105.17739105
Li       15.22371197    -13.58419895    -85.86931610
Li      -96.03279877    -28.65002823    -44.73033524
Li      209.66267395    -98.42525482    -86.18481445
Li      239.89118958   -278.10906982    -98.93512726
Li      -11.34461880    444.06048584     54.18953323
Li       77.87397766     97.94898224    140.84597778
Li      161.55792236    154.39099121   -145.40469360
Li      -63.46541977     -5.28787279     63.26578140
Li      -19.92313576   -214.04321289    113.46568298
Li     -269.74304199    -76.50170135   -111.24681091
Li      -14.42640972     45.09761810     66.90464783
Li      -67.01254272    105.86769104   -179.05738831
Li       14.71250629     45.25806808   -106.91374207
Li      -54.08214569   -266.64382935    -72.97075653
Li       -6.92465353     37.17104340    -26.23744392
Li      -93.09411621    187.21247864    -73.61973572
Li       79.46470642    166.93017578     32.79972458
Li      144.11288452    169.85362244      2.00427747
Li       28.16349792   -197.75563049     24.26596642
Li        2.18923545     31.31082153     92.03576660
Li      -50.49082565   -152.68130493    236.57206726
Li      212.85749817    253.42160034    122.12573242
Li      100.90817261      7.92671728    308.89154053
Li       10.94683743    -36.01557159    -72.89745331
Li     -195.68913269    -92.61804962     34.63865662
Li      -40.73870087    142.39697266   -413.59973145
Li       66.86289978   -127.95508575     32.37658691
Li       70.33087158    110.98818970    121.37921143
Li       45.18465042    -14.43102455   -310.23577881
Li      -41.44755936    138.76321411    224.46124268
Li       82.76008606     52.42134094   -177.64791870
Li       97.10305786    169.23033142    177.07092285
Li     -184.61492920     18.33914566    223.47286987
Li     -205.27140808    -74.07661438    -50.45614243
Li      123.37262726    -35.25054169     79.64736176
Li      -28.05228615    236.57279968    160.08255005
Li       36.52156067    404.11215210     33.31072617
Li      -58.25441742    121.91074371     83.74871063
Li     -148.94433594    -91.62177277     12.50436783
Li       15.11420250     44.27663040     66.38871765
Li     -289.99676514     60.46726608    -33.29684067
Li      296.62615967   -276.88763428     99.77547455
Li       58.53134918    242.80584717     48.71349335
Li       47.21834564    -51.30791092   -206.90893555
Li      -49.69242096    148.96582031    241.11163330
Li       51.27230072     80.30523682    -12.68276882
Li     -210.93783569     57.24733353   -146.02130127
Li      125.56793976    419.08898926     47.31189346
Li     -113.38815308    156.47927856    161.69450378
Li      -41.36883545   -107.03062439    100.82054901
Li      231.06962585    300.00564575   -136.72807312
Li     -139.45921326   -354.32373047    -62.30725861
Li       18.82428360      8.57612228   -170.79675293
Li     -136.75260925   -372.51724243    142.57759094
Li      234.84288025     95.25817871    -43.27653885
Li      -26.66946602    174.73483276     85.74871826
Li       97.84815979      6.24733829    237.72129822
Li     -111.00844574    212.76164246    177.14036560
Li       88.30984497    114.37776184   -115.81649780
Li       44.36607361    176.73234558    -89.97683716
Li      -32.71253586   -240.79618835    113.58972168
Li      123.05115509     74.48182678    -43.03232193
Li     -163.44853210     -3.63148451    194.71459961
Li      183.25085449   -199.51370239     82.94245148
Li     -127.69998169    259.94253540     -1.16321826
Li       28.09214020    -61.89789963    -56.06627274
Li      -67.78145599    131.84924316     62.25173569
Li      144.18243408    211.75779724     20.65765953
Li       29.33999062     79.31782532   -134.97436523
Li      141.84104919     92.56952667     22.02059364
Li      -26.28450584      1.52210486    -58.27297974
Li      238.49028015    -71.79368591     28.87192154
Li      -97.25837708     47.10923767    299.61532593
Li       32.02283096   -139.57427979   -335.89007568
Li       39.21899414    -95.94515991   -147.24491882
Li      -97.59547424    162.93367004    -81.52721405
Li      -41.87649155    168.85580444    130.19142151
Li      -68.34106445    210.81875610   -101.00044250
Li     -184.11900330     82.85558319    105.06153107
Li      230.85568237      8.77970123   -196.22216797
Li       15.01306534    109.64695740     24.56602478
Li       54.55003738   -146.68403625    188.50076294
Li        9.12292385    116.19696808    149.97489929
Li       79.34937286    258.20257568    219.23381042
Li      -32.87564087   -343.64443970     96.60079193
Li       38.81335831   -186.21672058   -189.35026550
Li       -6.50296450    -56.22644806    -22.57940102
Li      269.92984009   -178.06637573     32.64949036
Li       19.39377022    132.32369995    211.38211060
Li      -24.02875519     96.69422913     28.49549484
Li       83.41925812     39.17621231    261.64703369
Li      205.05867004    207.86598206     -0.96261871
Li      -67.85505676    -49.32279205   -297.73791504
Li       75.54047394    396.68316650    -13.81461143
Li      217.47036743   -161.60415649      7.69500732
Li      -86.50593567   -241.69566345   -168.27070618
Li       79.44533539    267.89212036   -357.21804810
Li       61.88550568    225.63081360    -64.35279846
Li      -46.08751297    -29.76699638    -86.05033112
Li     -162.48358154     -4.83267260   -106.88828278
Li        5.49469519    238.34968567    -10.36726093
Li     -218.39254761   -114.75943756    130.04057312
Li      -32.76162338   -149.69815063    181.09001160
Li      -41.55477524    199.17927551    147.14541626
Li      156.97531128     89.02845001    142.81777954
Li      -79.71514130    -40.41380692    147.69906616
Li     -179.67897034    -31.99514961     58.14545822
Li      200.27400208   -199.81498718    -69.23015594
Li       -3.18626595    159.95837402     -8.93227100
Li     -184.29054260    367.36230469    -76.75859070
Li        6.46687794     71.29538727    -30.28018570
Li      154.87715149    436.42471313    178.56898499
Li      243.63580322    189.50013733    223.81953430
Li       71.27957153    -56.12866592   -285.68145752
Li       48.71285248    -80.94048309    189.30598450
S         0.93643177      8.83776855      1.44546819
P        -0.85249269      7.79792595      1.27417958
S        -2.52958608      8.93647289      0.88535917
S        -0.22133967      6.73409319     -0.46648601
S        -0.94705504      6.56926250      2.95718861
S        -0.38012606      7.10844469      7.69211388
P        -0.43000248      8.15664482      9.51531982
S         1.44050348      8.74812794      9.66810417
S        -1.77045286      9.83881378      9.16595936
S        -1.18436456      7.13394451     10.94220734
S        -0.91355586      6.92931604     19.75361824
S        -1.03179359      7.10419416     16.18190956
P        -0.84995103      8.10962200     17.99157906
S         1.18177962      8.72509956     17.77006721
S        -2.26349163      9.52255344     18.06458092
S        -0.33014098     16.08185768      3.11878991
S        -0.75294757     16.13717079     -0.39802387
P        -0.29357412     17.14937210      1.36402583
S         1.64161289     17.88145065      1.06486022
S        -1.63591564     18.68536186      1.42190051
S        -1.86606205     17.84159470      9.48345661
S         1.62484789     17.97301865      9.34091377
P        -0.12138805     16.76154518      9.45075512
S        -0.39263070     15.54728985      7.82031488
S        -0.10579273     15.53981018     11.09104061
S        -0.23670188     15.53936577     19.69451141
S         0.03320124     15.81209183     16.31321907
P        -0.17425571     16.82043076     18.08186913
S         1.43354917     18.07809067     18.20233345
S        -1.99536121     17.93618774     18.10975266
S         1.41200805     27.52849197      0.76430005
S        -0.49959606     25.18588829     -0.65152293
P        -0.21036392     26.37684441      0.96315753
S        -2.04983068     27.49233246      1.04315209
S        -0.26107484     25.29451561      2.64876342
S        -0.84789008     24.79078865     11.02083492
S         1.30808187     26.59702492      9.28607082
P        -0.78164107     25.77308083      9.24688148
S        -1.98155999     27.31905174      9.26581383
S        -0.76884258     24.68604279      7.54689169
S        -0.24892113     25.29091835     19.69253540
S        -0.94860297     24.12811470     16.48050308
P        -0.64499629     25.69804382     17.72032738
S         1.04416800     26.77282333     17.31977272
S        -2.39031124     26.70066643     17.85370255
S         7.91335917      7.20665455      2.88711405
S         8.35567856      7.40482903     -0.45295802
P         8.00404644      8.64407063      1.33696151
S         9.49872780     10.10738087      1.43956220
S         6.16684628      9.32530594      1.02633941
S         8.47554016      6.80893278     10.89763165
S         8.70710659      7.05785990      7.66681194
P         8.38302708      8.08235550      9.39449215
S        10.07419872      9.50758553      9.56775093
S         6.44820833      8.85416794      9.41527748
S         8.78322220      6.52271986     19.74194908
S        10.08571053      8.85619926     17.57820511
P         8.47271061      7.57384491     17.89681625
S         6.67791748      8.49650002     17.90917206
S         8.29256058      6.45528221     16.19790077
S         8.56168079     15.85294724      2.90487480
S        10.30889320     18.17390633      1.07170177
P         8.56776142     17.08340454      1.26182795
S         6.86413574     18.19938278      1.38675272
S         8.49661541     15.96997547     -0.58043081
S         7.22924376     18.91977692      9.49560642
S         8.48283291     16.18017387     11.00660896
S         8.30064201     16.48737717      7.72824240
P         8.71729088     17.54265404      9.48103809
S        10.57616806     18.33772850      9.58933926
S         6.91755104     18.00419998     18.47528076
S         8.83035564     16.11931992     20.02855682
S         8.28197193     16.02240181     16.49009895
P         8.65088654     17.01414680     18.25269890
S        10.27962017     18.20022392     17.94783401
S         6.44005728     27.39523888      0.96946210
S         8.36932945     25.26660347      2.92220640
S         8.67797375     25.23337364     -0.57701528
P         8.30605316     26.33164406      1.23474121
S         9.88353157     27.59400177      1.37894535
S         8.08065510     24.75037766     11.37165737
S        10.22794628     27.32986259      9.73390484
S         8.34621906     24.86062241      8.25906372
P         8.45348930     26.29050827      9.72559261
S         6.61734152     27.41783333      9.81613064
S         6.53520775     27.47684860     17.91264534
S         8.01774216     25.25336647     19.71352005
S         8.22569180     25.17479897     16.41917801
P         8.19957924     26.41010094     18.05417633
S         9.82307529     27.69915771     18.34199524
S        15.55251884      9.09775162      0.88349152
S        16.83269310      6.49441147      2.28785205
S        17.00070763      6.88707924     -1.19172871
P        17.04490471      7.67358685      0.55540812
S        18.93649292      8.55365658      1.02700758
S        18.90881538      8.41023827      9.62832165
S        15.31231499      9.04119301      9.28961658
S        16.63484001      6.49762583     11.13306427
S        17.13448715      6.66192436      7.70622349
P        16.91955376      7.71457863      9.46987534
S        18.73049736      9.02994251     17.88396454
S        14.97253227      8.97183418     17.55782509
S        16.90120506      7.13436604     19.68584442
S        16.82441330      6.74456167     16.15404129
P        16.82009697      8.03836536     17.88947296
S        19.05436897     17.63293457      1.34434295
S        15.47310066     17.93358040      1.14049959
S        17.11574173     15.63797474      2.81431055
S        17.11230850     15.73274326     -0.70863152
P        17.09592247     16.74185181      1.00857091
S        18.92727852     17.87821007      9.52734089
S        15.45375061     18.11104393      9.60058975
S        16.76743126     15.76585960     11.21160030
S        17.04661942     15.89434242      7.61017466
P        17.03848839     16.89645195      9.45749378
S        15.15604210     17.59497070     17.81476593
S        17.22791290     15.32931805     19.61736488
S        19.04813385     17.14403343     17.70879936
S        17.00621605     15.38157558     16.05126762
P        16.92690468     16.42568588     17.80361748
S        15.08950043     26.64007950      1.03093374
S        17.02415085     24.79832077     -0.89558166
S        17.08037186     24.34136009      2.48204422
S        18.66402245     26.66711044      0.84562451
P        16.90105820     25.60505295      0.85550272
S        16.85330963     24.84464645     11.10504341
S        15.00622463     26.76589966      9.34769917
S        17.18809509     24.52808952      7.79935217
S        18.32627487     27.31020164      9.28551579
P        16.84686470     25.85802650      9.30247402
S        18.62332344     26.99838448     17.79272079
S        15.15028477     27.29813004     18.13768959
S        17.09304237     24.54224205     19.40202904
S        16.07301140     24.88167953     16.23525047
P        16.79137802     25.99481392     17.85114098
S         9.86310959      1.11928749      5.40385389
S         7.90014839      3.48434901      3.96852231
S         6.49800348      0.84700942      5.51181078
S         8.01391506      3.36161327      7.29985952
P         8.09770870      2.19878221      5.52487135
P         8.52556419      2.25047016     13.59011173
S        10.15104103      1.10428822     13.55392170
S         8.65917683      3.65333486     12.06163120
S         6.65363312      1.52756691     13.54252434
S         8.44815540      3.09954810     15.45144844
P         8.23730850      2.01492620     22.29183006
S         9.85659504      0.87935507     22.20985413
S         8.24006271      3.35145068     20.59015083
S         6.49911022      0.93358153     22.38510895
S         8.51684189      3.19920111     23.92890739
P         8.08215046     11.37359428      5.45724726
S         9.83908749     10.32457733      5.34720898
S         7.80873156     12.71695805      4.10459471
S         6.45863676     10.04400826      5.39675045
S         8.02672482     12.46949863      7.40540504
P         8.32250214     10.77201271     13.72706413
S         8.18440151     12.33971310     15.20620823
S         8.18208408     11.88830280     11.93148804
S        10.22618771     10.03288651     13.78946304
S         6.78230381      9.45359993     13.78314114
P         8.34883022     10.89375591     22.02001953
S         8.25683689     12.29865074     23.64275932
S        10.09632111      9.86686707     22.23271942
S         6.72032547      9.67213631     22.41603851
S         8.01390648     12.09024048     20.53008652
P         8.51826668     20.45950890      5.24606228
S        10.15117741     19.25901413      5.40893316
S         8.66730118     21.56603622      3.38513875
S         6.67165804     19.60104370      5.02235794
S         8.36089420     21.71677017      6.76572943
S         8.32010460     21.53934097     15.53536320
P         8.34715080     20.33704185     13.84573936
S        10.00255203     19.15206909     13.80170250
S         8.40526772     21.48030472     12.13093758
S         6.42581558     19.28112793     13.80367565
S         8.17022228     21.38556099     20.43618202
P         8.23463440     20.12278557     22.27305222
S         9.95783043     19.16129303     22.13339233
S         6.42277813     19.12732887     22.12844467
S         8.50290012     21.18232155     24.02801895
S        18.27980042      0.09609666      4.70840263
P        16.93654442      1.51466882      5.00731039
S        15.09648514      0.59653944      4.82810545
S        17.13946724      2.62379456      3.20189428
S        17.08331108      2.85107040      6.65362120
S        16.81740570      3.05339456     15.38801765
P        16.85995865      2.09737802     13.56572437
S        18.81580544      1.19373178     13.36656094
S        16.51250648      3.23539162     11.95473385
S        15.37303352      0.77126408     13.64316654
S        16.72259140      2.80886316     24.44721985
P        16.94873810      2.00463891     22.47515297
S        18.90791130      1.45345807     22.22317886
S        16.85464668      3.32315540     20.84029770
S        15.51762295      0.56829619     22.17476463
S        17.26275826     11.90651512      7.19818974
P        16.89499664     10.89315510      5.43539572
S        16.99175072     12.19321346      3.68982458
S        15.05202579     10.08326530      5.38707685
S        18.41647530      9.62583733      5.08627987
S        17.28648758     12.07793903     15.24856472
P        17.06893349     10.72976875     13.62366104
S        15.06014538     10.00718594     13.57101345
S        18.49631882      9.25963593     13.87324524
S        17.35385704     11.79058838     11.75589180
S        17.02640343     11.71887112     24.34418678
S        18.13528061      9.25918484     22.42199516
P        16.79930687     10.80259705     22.57712364
S        14.96918774      9.93521881     22.21169853
S        16.98788071     12.14523506     21.06811142
S        14.87207985     19.04895401      5.20911407
S        17.10201454     21.37470055      6.58635664
P        16.84604836     19.87220383      5.13769865
S        18.43036652     18.47775269      5.25438643
S        17.36528206     20.77092552      3.30620885
S        17.38155365     20.48784637     16.14375496
S        18.56381798     18.61135674     13.78782082
P        17.00706100     19.89531708     14.11171436
S        15.08170891     19.04481506     14.10847664
S        16.92369843     21.40187073     12.65120220
S        17.18818092     20.74489403     23.80587578
S        19.27807999     18.58473396     22.20516777
P        17.46728516     19.62502670     22.09833908
S        15.88573265     18.39641380     22.24889374
S        17.34736633     20.72821999     20.32900047
S        23.59683418      0.92981684      5.51699781
S        25.55489922      3.24364924      6.80375051
P        25.55541992      1.77057648      5.48969889
S        27.02540398      0.58622646      5.75515270
S        25.70769119      2.52113581      3.56012917
S        23.90596581      0.70473832     13.68787956
S        25.52040100      2.90721130     15.33696365
P        25.47699738      1.84401679     13.44116974
S        26.99182510      0.50449377     13.09167767
S        25.57531929      3.25560904     11.93277073
S        24.06313896      0.87404782     22.18437386
S        25.69753265      3.19100666     23.54442787
P        25.85316467      1.86917627     21.85249901
S        27.39815712      0.49760011     21.87526894
S        25.92979813      2.93275833     20.04649162
S        27.34128189     10.19907665      5.23107672
S        23.69791031     10.19073486      5.33086538
P        25.48843956     11.20640087      5.38047647
S        25.55015755     12.46951389      6.97074223
S        25.47783661     12.34181499      3.74141717
S        26.05050087     11.62807560     15.55026817
S        27.19045639      9.32944870     13.46710587
P        25.75423431     10.88469601     13.74578381
S        23.71515083     10.11579704     13.57284927
S        26.11370850     12.24745750     12.26229763
S        23.58551216     10.13836288     21.97833633
S        25.56888390     11.73229504     24.05277824
P        25.49718285     10.75314903     22.24265099
S        27.04631042      9.51651001     22.22393799
S        25.89499283     12.21403313     20.71795082
S        25.69789886     21.47115517      3.86050439
S        24.39167595     19.01945305      5.31899166
S        25.55994415     21.18150139      7.43430996
P        25.90693855     20.43365479      5.57227278
S        27.90676117     19.89887047      5.46509361
S        27.54205322     18.45248795     14.02317238
S        24.18708420     18.50094986     13.42750168
S        25.83759689     21.03273201     12.36725998
P        25.92145157     19.60274887     13.78205681
S        25.51992226     20.55512238     15.64050007
S        25.92264175     20.96475983     20.70892334
S        25.96773148     21.24042511     24.10115814
S        27.36680412     18.63028526     22.32631874
P        25.74633598     19.98575401     22.41410637
S        23.81313896     19.10046768     22.44206619
S         5.70919418      4.98717928      1.21308386
S         3.77143335      2.85161829      2.88603497
S         4.16268730      2.36551404     -0.35101765
S         2.16380572      5.02497053      1.11085045
P         3.90311718      3.78065634      1.02910519
S         5.79808044      4.66218615      9.78906727
S         3.91385698      2.25884151     11.07174873
S         3.95031786      2.93455577      7.71870565
S         2.28253508      5.07026386      9.74881268
P         3.88247347      3.77744627      9.74955654
S         5.63310623      4.30596828     18.20903778
S         3.73369360      1.93317032     19.55259132
S         4.10248613      2.87256169     16.08440590
S         2.04591131      4.50983524     18.11431503
P         3.83206868      3.22080731     18.09166527
S         5.67172480     13.39205647      0.95342290
S         3.63037276     11.68112946      2.95101190
S         3.35213542     11.19269753     -0.38389018
S         2.27965331     14.04863548      0.81792915
P         3.79377651     12.59199524      1.06425333
S         2.29489565     13.88459396      9.86046219
S         5.69230127     13.28393555      9.58118153
S         3.54609847     11.65853310      7.93865728
S         3.66482997     11.42243481     11.32946396
P         3.84391761     12.63533592      9.69260788
S         5.77747202     13.74149418     18.28247261
S         4.01665068     11.49016857     20.05070114
S         4.80997038     11.17552185     16.44690132
S         2.48271275     13.39725685     17.82326126
P         4.36435461     12.41036224     18.05628777
P         4.12425327     22.00606346      1.09638917
S         5.84880638     23.11967659      1.19014800
S         4.15672970     20.71573448      2.80439663
S         4.03352690     20.95117378     -0.62994540
S         2.28189492     23.17927170      1.29919827
P         3.86959720     21.75874710      9.64300919
S         2.44223619     23.11235809      9.70517254
S         5.98412609     22.37914467      9.56732845
S         3.75760031     20.46530342      8.13799095
S         3.44933057     20.75369263     11.44210911
P         4.18634987     21.69355392     17.95220947
S         5.90180111     22.88811874     17.56364059
S         4.33085155     21.17061615     19.94232941
S         4.22378969     20.14865112     16.65389061
S         2.37273240     22.86074829     17.78915596
P        12.44374084      3.44196987      1.29876041
S        10.88127041      4.73794842      1.34595025
S        12.70674896      2.15136409      2.80262136
S        14.32278347      4.73028946      1.00122678
S        12.46594524      2.20730782     -0.46281448
P        12.82458496      3.75006104      9.34222603
S        14.80929279      4.09853506      9.18600273
S        12.67521858      2.84105206     11.23647213
S        12.39805126      2.52428222      7.68626690
S        11.36503029      5.12985659      9.30989647
P        12.94087696      3.55607080     17.83335686
S        11.10572338      4.40553427     17.96587753
S        12.93933868      2.60282826     19.63082123
S        14.24096203      5.02831841     17.71923065
S        12.94166183      2.26378655     16.04639244
P        12.66320324     12.44284534      1.08129871
S        14.12379837     13.79906750      0.80857831
S        12.74511623     11.49931526      3.00397468
S        12.86000633     11.03898430     -0.34356049
S        10.73908424     13.33154106      1.01145518
P        12.41567612     12.77366352      9.41334057
S        10.65412617     13.73960781      9.17660046
S        12.64725780     11.88526535     11.13486385
S        13.81018066     14.33173275      9.17328548
S        13.02779675     11.58363819      7.69537020
P        12.90669632     12.32560539     18.25629425
S        14.97088146     13.07730389     18.33246422
S        12.54902363     10.86857605     19.60392189
S        12.90564060     11.66757202     16.22960854
S        11.33028030     13.59473991     18.41649437
P        12.76097965     21.27186394      0.72866148
S        12.66768837     20.01888466     -0.76641768
S        12.53608513     20.46360397      2.64717650
S        11.09482956     22.57236671      0.46959817
S        14.47514629     22.31601906      0.80042344
S        12.99169350     19.96114922      8.10348034
P        12.86269665     21.19989395      9.79505825
S        11.12171841     22.32123947      9.45771313
S        13.06164169     20.16734505     11.43750191
S        14.43299961     22.47047615      9.59449577
S        12.74517632     20.20756721     16.38161659
S        11.01996326     22.51102829     18.10416603
P        12.80754280     21.36133957     18.04657173
S        14.63414288     22.39607048     17.91104698
S        12.70931244     20.35021782     19.85571861
S        21.37284279      2.08941126     -0.70047736
S        21.31601715      2.37757325      2.67099380
P        21.31985283      3.30820847      0.85921896
S        19.69184303      4.47694969      0.76606274
S        23.29735374      4.32952642      0.80806714
S        21.20912170      1.58435082      7.92374325
S        19.30905914      4.15977812      9.31569958
P        21.04635811      3.02466345      9.39672184
S        22.65775299      4.44100332      9.30126667
S        21.11548233      2.10206437     11.31952953
S        21.40612411      2.14207792     16.18238831
S        19.56881523      4.25138569     17.84923172
P        21.22842598      3.08241916     18.08232307
S        22.85209084      4.31828403     18.13345337
S        21.06220818      1.69582689     19.59074974
S        21.16376114     11.02547169     -0.53098744
S        19.97348213     13.94781590      0.77764153
P        21.21133423     12.21514130      1.12803483
S        23.18280029     12.92029285      1.40610695
S        20.72766304     11.42843723      2.79290080
S        21.48902321     11.52762794     11.43751812
S        21.01456642     11.41241074      8.13357735
S        19.91465569     14.17340851      9.58120060
P        21.35857201     12.61595535      9.69514084
S        23.29951668     13.53308487      9.41731834
S        21.38973236     11.07731628     16.34019661
S        23.03593636     13.32526493     18.29335022
S        19.37240410     13.18387127     17.80536270
P        21.16482353     12.22975349     18.06215477
S        20.87516403     11.05393982     19.83733940
S        23.14238167     22.51277733      1.41042113
S        21.26856041     20.22232628     -0.32530862
S        21.38244438     20.43641090      3.14360213
P        21.35394669     21.35600853      1.32147861
S        19.59566879     22.51153755      1.51235449
S        21.50423622     19.60116005     10.70390987
S        23.27445793     22.20132637      9.92832375
S        21.64666939     20.33236885      7.61901331
P        21.51628876     21.14423752      9.48798561
S        19.48202705     22.04495239      9.43123150
S        19.84719086     22.75408936     17.82237434
S        21.47249985     20.15785027     16.46497345
S        23.32830238     22.21776962     17.74940681
P        21.48792267     21.47992325     18.08038712
S        21.17705154     20.45421028     19.71593857
S         2.10190892      5.80818272      5.63730383
S         5.83011389      5.91581821      5.33078194
S         4.04206753      8.18138123      6.79538393
S         3.63898969      7.60114527      3.40954900
P         3.96723199      6.83994341      5.26652956
S         3.83715439      7.90820789     15.34082699
S         1.78630710      5.88112211     13.71659660
S         5.15547180      5.30997324     13.60870266
S         3.97998881      7.46779346     11.82583618
P         3.67610288      6.73363829     13.70443058
S         3.74576521      7.91793013     23.91125107
S         1.98419154      5.25358152     22.32780838
S         5.16969633      5.21774340     22.48499680
S         3.71372890      7.47017145     20.30498123
P         3.72251678      6.62376785     22.26472282
S         4.15791273     16.72061539      7.31003857
S         2.12324691     14.84518337      5.36189365
S         5.18503189     13.79898930      5.78643274
S         4.31340551     16.66401291      4.04082632
P         3.97604418     15.54437733      5.64996338
S         3.85731244     16.73926735     15.72197628
S         2.22886515     14.79069901     13.70182610
S         5.72688246     14.67485142     13.95176697
S         4.32637978     17.07013893     12.15948868
P         4.00339508     15.77510357     13.82313824
S         4.11085320     16.80603218     23.89378929
S         2.19602871     14.73200321     22.34295273
S         5.67371082     14.62382221     22.52849770
S         4.19497252     16.74797630     20.46645164
P         3.98606324     15.69538784     22.22717476
S         4.00605631     25.62797356      7.36567163
S         2.17864943     23.65916061      5.41832447
S         6.03472376     23.72489548      5.73610353
S         4.17142439     25.80102921      3.95216489
P         4.06546402     24.69234085      5.55714369
S         4.15890074     26.22640038     15.46756744
S         1.63709688     24.40468407     13.82029819
S         4.88084078     23.29205513     13.70222378
S         3.93273520     25.95967865     11.95161152
P         3.59297562     24.94709778     13.75024700
S         4.23871660     26.18461418     23.39449120
S         2.26778364     23.58220863     22.03166771
S         5.70131683     23.58737946     22.54415894
S         3.95396090     25.72869301     20.21335030
P         3.96125841     24.68599510     21.96234894
S        12.29260731      7.78966093      3.15571904
S        10.91419697      5.85056257      5.32290411
S        12.64874935      8.36034298      6.33033514
S        14.47377872      6.05326033      5.01759815
P        12.59875965      6.95101929      4.96219730
S        14.38901234      5.34102154     13.85324764
S        12.35803509      7.49143314     15.52044868
S        10.79543495      5.40067720     13.71998787
S        12.39826965      7.60772276     12.01064777
P        12.58844185      6.58961105     13.76948833
P        12.43589687      6.88536644     22.23911476
S        14.23035049      5.83029222     22.42835808
S        12.02321625      8.21044827     23.65250015
S        10.63184834      5.50482321     22.33414268
S        12.49448109      7.74996424     20.45162201
S        12.55439758     16.32155037      3.14064503
P        12.63559055     15.74651337      5.05980492
S        12.27386570     17.21349716      6.49480009
S        11.43870449     14.13800621      5.55302811
S        14.52291870     14.95878124      5.24113941
S        12.79654503     16.33105850     12.32687664
P        12.90789127     14.88400555     13.82007313
S        12.80940247     15.82840252     15.85488129
S        11.00038910     13.74405670     13.59305573
S        14.71240711     14.10788059     13.73680115
S        12.93869972     16.29845047     20.60592842
P        12.81653309     15.30976105     22.35272217
S        14.82283974     14.75057888     22.37790108
S        12.61556625     16.67620277     23.83036804
S        11.53843689     13.69233799     22.65422058
S        12.36392975     25.66717148      3.61673689
P        12.57352543     24.61631966      5.46634245
S        12.83463192     25.95040894      6.87002850
S        11.10166645     23.14967155      5.64802742
S        14.36007690     23.46719360      5.39932775
S        14.38266563     24.14517975     12.92807007
P        12.42678356     24.67754555     13.50228596
S        12.38646603     25.72621346     15.37112331
S        11.78693676     26.07365036     12.13237095
S        11.20169353     23.15912056     13.78488350
S        14.46343708     23.79853058     22.05225182
P        12.71305084     24.93344116     22.10658836
S        10.83582211     23.64426041     22.28242874
S        12.69456959     25.96503830     23.84355545
S        12.39073467     25.74162102     20.33084679
S        20.95949364      7.05741501      3.72557878
P        21.18035698      6.25934362      5.61295986
S        21.10922813      7.76701880      7.00346994
S        19.51731682      5.08041859      5.74842358
S        23.00216675      5.22382927      5.72820854
S        20.97586632      7.42538977     11.90985584
P        21.16062927      6.34071302     13.70056534
S        21.20734787      7.48740053     15.44455910
S        19.47461891      5.14006615     13.74835300
S        23.14156914      5.40375137     13.84764004
S        19.35869217      5.31510210     22.29963684
P        21.24645042      6.25784111     21.92886925
S        21.40117645      7.59539557     23.58588409
S        22.99232483      5.11449432     21.98378181
S        20.94869804      7.33994198     20.16675568
S        23.08252525     14.86526585      5.83086348
S        21.56880760     16.50411034      3.33472586
P        21.38428688     15.96345234      5.36637688
S        21.16166878     17.48006058      6.69331741
S        19.43159294     14.88268661      5.24869204
S        23.41612434     14.34829235     13.71465683
S        21.38701630     16.61481094     11.87845993
P        21.70903969     15.30665874     13.54955769
S        21.62662125     16.30842590     15.43697739
S        20.06129456     14.03614330     13.68295193
S        23.36189461     13.96672916     22.75177956
S        21.56595802     16.10999680     20.50965691
P        21.70683098     15.24359226     22.28929138
S        21.64522362     16.54999733     23.85781670
S        20.02678871     13.90554237     22.34657860
S        22.94114876     23.71973801      5.12342024
S        21.57249069     26.03481102      3.75070262
P        21.29071617     24.80165482      5.39236641
S        21.33135796     25.60780716      7.26735115
S        19.51450729     23.81484032      5.32894087
S        21.99697495     22.70821953     13.51788139
S        20.71957970     25.26179504     12.04681873
P        20.61796570     24.29190254     13.86673069
S        21.40619469     25.47690010     15.21213245
S        18.76269341     23.62539864     14.15039539
S        22.79841232     22.95283890     22.46279144
S        21.39049530     25.59641838     20.73343086
S        19.43107605     23.44473267     22.29663086
P        21.26750183     24.44922066     22.41149902
S        21.43374634     25.28892326     24.26041985
