864

Li      153.37266541     90.66706085     51.64570999
Li       58.77690506    116.47999573    -20.00408173
Li      -54.32704544     74.08223724    196.37757874
Li      269.60192871   -217.75233459    114.02150726
Li      218.69505310     55.72659302     35.21145630
Li      -56.59768677     81.32689667   -492.40142822
Li      -18.88486290    189.60270691     68.85219574
Li      162.56477356    107.22705078    -45.46213531
Li       19.82719803     91.49620819    119.67594910
Li      180.07017517    322.06451416    -32.65282822
Li      192.25631714    197.58525085     78.22429657
Li     -156.70314026    -10.27446938     -3.44590306
Li     -343.32067871    162.95437622    -24.45740891
Li       54.57234192    -23.77299690    374.50103760
Li       45.37147522   -111.57756805    -32.81344986
Li      -32.83873367    373.16134644   -227.86299133
Li       41.15144730     19.02655029    200.29469299
Li     -109.23981476    -38.60668564    158.27886963
Li       63.59098816     42.67131424    128.43536377
Li      -15.02619934    371.16351318    -32.77529907
Li      201.39923096    301.48730469    272.93197632
Li      -19.65301514    112.29962921   -158.86863708
Li      -92.55786133    187.78981018     47.96722794
Li       50.13689041    -26.56967163     -2.95413518
Li     -135.98629761   -145.53541565    -23.79389381
Li      175.89523315    208.52970886    161.71632385
Li       32.94963074     97.89425659    103.27835846
Li       10.82027912    -28.01690483     55.85271072
Li     -122.82246399     25.46037865    230.55494690
Li      -44.92135620   -106.73237610   -125.93307495
Li       76.03932190    111.50749969    -32.40764618
Li     -139.97091675     26.73114395    238.91752625
Li      -29.69632721    262.69030762     75.71818542
Li       23.36218452    -13.66048431   -130.80744934
Li      -88.81762695    124.04774475     39.51096344
Li       -1.88954175   -455.70703125    -87.61558533
Li      -54.06344604     -6.85575914    192.08718872
Li       76.24421692    114.34921265     43.23641968
Li       62.88113022   -213.44743347     47.52699280
Li      304.85571289    -74.89505768     51.90896988
Li       32.49531174    173.28565979    -58.23026276
Li      127.41407776    -47.47828293   -350.10110474
Li      -18.85503960   -154.87409973     52.68677902
Li      235.61506653    -30.83724785     14.36536217
Li     -140.65463257     12.64534283      5.50469112
Li       70.88109589    110.51123047   -189.25346375
Li      134.56166077    127.47183990    100.95112610
Li       15.20917130     28.54562950     94.27447510
Li     -152.98805237    179.62408447    310.72760010
Li     -209.96093750   -508.55590820   -168.30026245
Li      -74.45635986    338.57775879    -46.40214539
Li      145.43490601    122.80316925    -49.92458344
Li       -5.44731045   -147.47071838     64.73031616
Li      119.04959869     42.31340408    -45.44969177
Li     -397.22610474   -117.71797180   -166.31375122
Li       72.44780731   -454.79565430   -185.46696472
Li      -44.01696396    105.47654724     94.42185974
Li      101.56516266    142.59765625    -79.19050598
Li      115.19856262    242.41867065     52.56190491
Li     -101.04683685   -268.62530518    -23.69405746
Li     -178.60121155    335.64877319    -83.25042725
Li      183.90908813   -100.38658142     22.53425789
Li      193.55877686   -195.47570801    -58.15146637
Li      136.40887451    -22.96936226    163.05174255
Li      348.59207153    -69.08769989    -62.58088303
Li      110.27234650    263.43331909   -146.75868225
Li     -291.15917969     -8.51201344    170.49296570
Li      -49.04881287    136.23593140    115.78681946
Li       41.58708954    -93.58499146    170.49864197
Li     -183.77819824   -189.17539978    158.44793701
Li      157.87933350    154.29119873    -53.33735657
Li      109.86429596   -128.73112488    192.16722107
Li      222.43792725    -45.01995468   -307.65191650
Li     -230.20332336    268.81723022      1.41178715
Li      153.70751953    -23.28214455     -3.06993651
Li      -10.40661812    383.61068726   -121.86038208
Li      110.54959869    382.05590820    -45.30790710
Li       11.25441647    -66.59745026   -337.99160767
Li       60.02893829   -348.68472290   -263.43896484
Li      -32.54493332   -190.14735413     70.02207947
Li     -213.71998596    231.47474670    -27.90901756
Li      143.42724609    -77.20996857     -5.41971254
Li     -396.69219971    -67.64192963    168.14793396
Li      -49.50817871    201.23779297   -117.36315155
Li      -96.42317200    -92.15306854    174.72457886
Li      109.81413269    -13.62339497   -232.34962463
Li       71.39253998    522.79724121     21.93561554
Li      -59.25346756     73.90686035    -20.28058052
Li      -57.70139313     51.90055466     39.36226273
Li      127.67910767     -5.76293516    -20.06802177
Li       41.66630554   -124.35371399     35.45799637
Li      353.07772827     46.94277573    -15.77793121
Li       69.79121399     71.67801666    325.59725952
Li      272.01315308    208.36131287    126.59368896
Li       37.38862228    151.24768066   -325.03628540
Li     -218.76905823   -161.37881470    243.29412842
Li       82.13846588    130.10928345   -165.93275452
Li      219.74879456   -192.62145996    -87.84464264
Li     -234.06901550    235.04139709    -21.82440758
Li      127.66879272     -0.47334895     13.79218960
Li       63.36974335   -174.55297852     65.02608490
Li      171.05635071   -208.99131775    263.93963623
Li      201.41766357   -429.33578491      5.40855026
Li      108.31193542   -177.12133789   -115.16683960
Li      132.02212524     -7.86785793    111.55561066
Li      127.32833099   -314.40811157   -223.33572388
Li       24.19926834    206.43232727     -7.31890774
Li     -126.68730164    -51.47733307    -45.46649170
Li      170.20872498    -47.49906158     31.34007835
Li        2.21611142     36.68850708   -172.53761292
Li     -278.71954346   -101.62966919     -2.63720655
Li      179.71104431    -71.51478577      9.27547264
Li     -118.82318115    119.76550293    187.96231079
Li     -144.65380859    430.01467896   -219.55528259
Li     -244.37869263    -62.74381638    141.77066040
Li       84.65314484    234.45272827    -57.71644974
Li     -243.76119995   -133.82287598    149.60188293
Li      -23.14208221     -0.51468873    -45.26996231
Li       93.04192352    283.59249878    174.87457275
Li       36.44681931     85.86954498    254.79421997
Li      -16.81449318   -118.14983368   -293.55343628
Li        4.71113634     85.42279816    -38.18011093
Li      -18.96959305    295.33865356   -308.55889893
Li       67.13534546    -31.18858528    280.96893311
Li       59.30452347   -115.91069031     -2.76167440
Li       -6.32897568    351.36859131     56.36191940
Li      179.83352661     14.64559269   -223.04591370
Li       66.29936218    181.16476440      6.56171274
Li      119.60825348    430.92886353    289.37338257
Li      -22.30835152     18.38602829    -34.75235748
Li      -24.86971283     17.54119682   -140.31558228
Li      136.27354431    175.05203247     56.28200150
Li      -15.04549789     73.44779205    -36.51826477
Li      373.49679565    246.36979675   -108.58672333
Li     -259.64056396    -18.46480942    257.50540161
Li       41.61885834    351.55908203    -37.08921051
Li      300.94088745    251.75103760      1.94820714
Li     -128.02484131    183.16290283    222.07675171
Li       70.81645203    445.45755005    463.47808838
Li      170.84542847   -259.33389282    192.01963806
Li      204.71466064    -69.51866150     27.65596008
Li     -101.30777740    152.44767761    128.91928101
Li      -49.35026932    114.66792297    -49.62438202
Li     -209.81979370   -165.32679749    285.11660767
Li       -1.21452796   -176.24996948    -35.54592514
Li       79.24661255   -136.92970276    -39.97665024
Li      205.50903320    217.38298035    348.54315186
Li      136.93780518   -202.75180054    -32.80236435
Li      -10.17883873    158.41186523    200.83085632
Li        6.37473631    124.64081573     13.87407112
Li     -126.91317749      6.88817787    145.09980774
Li       -5.41700602    292.40338135     47.76050186
Li      119.71144867    -15.82688904     43.62168121
Li       36.83829880    344.12609863   -146.91563416
Li      -88.84607697     36.10690689   -189.18194580
Li      -31.09669113   -228.26934814    -32.30332947
Li     -217.51119995    200.72668457     77.63894653
Li      -49.21998978    224.32397461   -342.15948486
Li      104.40860748     94.94747162    261.99258423
Li       53.87900543    156.06375122   -197.74795532
Li     -131.36212158   -124.01677704     64.37644958
Li      188.56677246    152.11540222    310.60101318
Li      -53.57601166    -87.76225281     26.92188072
Li      110.51350403   -188.96559143    136.64137268
Li      209.41764832    248.30882263   -137.58387756
Li      -14.38817501   -245.97859192     69.21071625
Li      -49.96931839    -75.97529602     99.28625488
Li       94.46447754     17.15285110      3.05266595
Li     -139.04090881    122.11651611   -322.71258545
Li     -239.12409973    -59.56047058    343.97250366
Li       50.08594894    -64.46796417    -11.70197964
Li      114.49570465     61.26066208     94.75106812
Li      334.60513306    422.55972290    -74.60530090
Li       62.60263824    123.28889465   -104.59441376
Li     -455.68563843   -123.81678009    433.97912598
Li       54.00727081    -85.26411438     31.23125458
Li      220.22734070   -104.38072968     37.34700394
Li       93.34151459    211.85108948    183.86408997
Li     -196.02384949   -170.99612427    -16.14035034
Li       80.06324005   -124.95528412   -163.48954773
Li      136.79151917    319.50408936    -87.17770386
Li        6.15337515     10.23644066    -75.55558014
Li       37.01111603     12.28711605    -45.44292068
Li      -96.72055054    319.46517944    -83.04801941
Li     -175.02555847   -315.39715576     14.88896465
Li      -60.95107651    112.58164215     -0.65593797
Li      116.23306274     40.03402328   -208.66261292
Li      -70.85428619     38.87586212    -66.07630920
Li       54.81723404     80.82274628     -7.41661978
Li      340.11608887     -3.26713967   -108.57507324
Li     -196.29882812   -118.34205627   -105.37198639
Li      -93.03222656    331.79803467     31.10698891
Li       46.06091690    220.15469360   -125.34843445
Li     -109.78260040    -37.26063538     -3.16784310
Li      -91.66188049    482.89685059     29.49937057
Li     -291.49285889     85.04540253     73.65531158
Li      -23.41830063    -11.43338394   -180.61749268
Li      153.51795959      3.05542040    -15.34341431
Li      -10.42892838   -371.63400269   -184.71003723
Li      243.48338318    173.89154053    149.88081360
Li      140.56788635    224.31588745     73.27816772
Li       55.84398270     48.93693924     21.20406723
Li      214.31680298     33.99488068   -286.66458130
Li      -10.88099861   -137.66030884    120.04964447
Li      206.14689636   -153.68014526     44.12168121
Li      119.64776611   -221.14114380    -36.03598022
Li      166.28149414    348.85391235     31.45095825
Li       58.41878510    -67.85213470      1.21374285
Li     -148.52621460   -130.93179321   -151.70062256
Li       -6.42121983     82.82308197      5.45537329
Li       36.97132111    -21.72086334   -264.88461304
Li      -62.19173431    195.78341675    -61.74855804
Li     -205.06312561   -242.34185791     -2.98582339
Li      -88.67470551    -32.33085632     69.52742004
Li      -15.00699043    194.66729736    -66.74381256
Li     -152.94740295    257.38265991    128.33236694
Li       46.17548370    -14.30364418     60.80364990
Li     -239.81939697   -195.01048279    -16.31404305
Li     -205.44218445     22.82304001    -27.43759155
Li      -80.19313049    138.67984009    -88.06798553
Li      115.14510345    -26.16204071     -2.52450323
Li     -300.51864624    209.88435364   -100.34780884
Li       84.84414673   -374.68759155      6.75897026
Li     -274.29223633   -100.66791534     60.87004089
Li       75.85855103    121.48160553    137.71253967
Li      -31.27463913     84.87856293     87.18847656
Li      174.85102844     62.68434143    -88.06809998
Li      153.23686218    157.31620789    149.52090454
Li      273.90652466   -418.92965698     86.42210388
Li     -136.26376343   -208.87744141    -20.37547684
Li       -6.35317755     24.50370407    149.84056091
Li      131.98342896    275.00820923    -15.32132053
Li      -31.99361801     -8.75730515    -11.87637234
Li       91.58541107    -54.17021942     32.47335052
Li      149.30020142   -250.13130188     69.40801239
Li     -199.79597473   -170.20907593     52.15349960
Li      220.45091248    -59.83177948   -166.05996704
Li       62.99771500   -107.04915619    179.23750305
Li     -201.17530823      3.76889706   -181.44712830
Li      -53.56209564      8.63716412   -164.79347229
Li     -131.38963318    166.65872192   -198.94245911
Li      -84.32265472    178.93583679    -91.97221375
Li       38.36281204    -49.86642838   -123.57471466
Li       15.76263714    -48.93322372   -185.72921753
Li     -270.36148071    217.34109497    -24.86887360
Li      -66.88494873    279.93557739     64.72094727
Li     -134.93487549     76.86088562    -99.12399292
Li      -83.57045746   -152.82641602     77.22425079
Li      -79.25177765    -10.67158318    187.66046143
Li       -1.63095808     29.87461090    103.36515045
Li      -93.53934479    267.25738525    -35.31629181
Li     -270.17877197    -11.61843491    -53.90298843
Li       90.86818695    -17.69616508   -364.59695435
Li       11.21018887    226.06796265    236.00816345
Li       60.48467255   -175.87792969     83.83180237
Li      175.53100586     27.42621040    -27.77045631
Li       -5.96715546     65.82920074    -87.90637970
Li      -75.43212891    162.18220520     -3.84034061
Li       27.84134674     89.25666809     10.40474033
Li      -32.70544815    133.53086853     86.29001617
Li     -101.74140167   -228.44526672   -236.18725586
Li      -51.02589417    140.96455383     58.88777924
Li      154.53501892   -193.75308228    167.47654724
Li      -58.47253036    -58.33677292     56.99404907
Li      158.60310364    -26.68465233   -279.89465332
Li      119.83689880    168.10235596   -321.17944336
Li       80.42416382      9.79699707   -176.76724243
Li       -2.58313107    290.08874512    311.28405762
Li      136.34599304      1.35215402    -61.94908142
Li       -5.88008881    199.86660767    -66.89076233
Li     -105.27085876    105.07974243   -168.62783813
Li        1.87056124   -250.64805603    -49.63671112
Li      -54.17373657     87.91209412     77.59165955
Li       -1.51862514     37.88817215    124.65380096
Li     -171.35462952   -368.92300415     95.00543976
Li       98.37660217    365.69335938    -32.04275131
Li        0.00007201     95.78525543    253.72819519
Li     -127.81523895    310.20422363    175.08364868
Li      -98.12821198    -65.95625305    -41.01879120
Li      209.31994629   -338.26666260    -87.18645477
Li      236.11216736     70.11141968   -193.82774353
Li     -112.39540863   -136.61270142   -174.35400391
Li      -48.45658875     54.87096786   -245.13531494
Li      -36.24846649   -157.58988953   -206.44334412
Li     -152.98057556     77.87667847   -143.64945984
Li      326.28720093   -116.69682312    -83.66281128
Li     -122.74330902   -125.67027283     48.48976898
Li      -96.42563629     77.24137115    102.01729584
Li       71.20618439    258.04818726    204.59410095
Li       19.52904892   -238.85212708    -61.83882523
Li     -243.59858704     74.45983887    204.82804871
Li       15.13740730    111.64668274   -354.73971558
Li     -226.41557312    387.30084229    213.76979065
Li      -25.22148323    -27.26778984   -250.89279175
Li      110.37568665     94.24405670   -239.91255188
Li      136.07215881   -334.08212280    -66.43594360
Li      -62.30851364     80.36647034   -130.02394104
Li      326.31845093     10.02062225     56.57139206
Li      327.32244873   -214.66104126    -15.58933640
Li      123.74348450    -71.16236877    -78.83595276
Li      286.89462280     20.42387772    192.36097717
Li     -194.91862488     63.71517944    152.98355103
Li      214.25332642    -57.45082092    -87.76880646
Li      -44.94006729     27.94650459   -282.65509033
Li     -240.03413391   -209.94618225     60.97106552
Li      106.95895386   -230.89549255    502.63299561
Li      140.53579712    192.28878784    132.93145752
Li      204.85823059     51.92873001    123.75420380
Li      179.77775574   -109.07537842     35.41907120
Li        7.20000744    348.74038696    158.45483398
Li     -238.92166138    190.43171692      9.05800629
Li      -96.62235260    266.00198364    -66.18755341
Li       12.01331806   -168.83283997    301.78729248
Li     -144.45735168     96.10418701    111.50395966
Li      -79.48492432    159.72869873   -202.15399170
Li       35.65859222    158.38122559    -77.51649475
Li       24.22761917      0.27347833   -101.07555389
Li      -98.75063324    -59.24506760    -97.80868530
Li     -182.59466553    155.98851013   -117.58551788
Li      -72.66167450    -99.49810028     59.03443527
Li       28.59008980   -346.05108643   -147.26821899
Li       32.61295700   -111.29289246      9.26936913
Li      114.85576630    110.66562653    268.67892456
Li     -183.50904846     66.72938538   -133.82699585
S         1.70193481      7.20466900      3.30472732
P         0.56944126      5.55159712      3.60095787
S        -1.41663778      6.32090855      3.40992641
S         0.56929523      4.25974798      2.04507113
S         1.02737284      4.66169357      5.53125000
S        -0.01060593      4.09925795     10.25182819
P         0.30357105      5.24685669     11.91817856
S        -0.16926304      3.93276310     13.48974609
S         2.31593847      5.83329868     12.11158562
S        -1.40545285      6.70449305     11.91075325
S         2.17554259      6.29653215     20.52175713
S         0.36050421      4.10007572     18.63107872
P         0.42139795      5.34665155     20.29087067
S        -1.38737595      6.44385672     20.17161751
S         0.43525809      4.15351152     22.06765175
S         2.31675887     15.13986588      3.53537560
S         0.08872089     13.15879631      1.75183392
P         0.46942985     14.22866535      3.44958544
S        -1.14658582     15.51576138      3.55825424
S         0.09591363     13.06407452      5.14998913
S         2.20003366     15.04249287     11.94105530
S         0.21257544     12.91781044     13.92419147
P         0.47992605     14.00164223     12.11529541
S         0.45406747     12.70100021     10.54417133
S        -1.12922144     15.18176651     11.78540707
S         1.69076431     15.66648388     20.58369637
S         0.78038329     12.87482643     19.24268532
P         0.21731457     14.18941784     20.64779282
S        -1.61464727     15.09568882     20.35153198
S         0.01529056     13.20157337     22.46386909
S         0.24110253     22.53407288      1.50822747
S         0.38762084     21.97207069      4.98863077
P         0.29246220     23.24229240      3.46655774
S        -1.21309137     24.70622253      3.44620895
S         2.17038298     24.54433060      3.56817365
S        -0.05337745     22.11243057     13.22049522
S         0.31056482     22.41278839      9.88140965
P         0.52751374     23.45044899     11.66586494
S         2.43468928     24.10502243     11.92114830
S        -0.94862968     24.94398308     11.77717972
S        -0.12211092     22.20456505     22.21583557
S         2.24210525     24.23967934     20.71118927
P         0.27783185     23.38785553     20.52028465
S        -1.11466670     24.77031898     20.33213615
S         0.46024489     22.47882271     18.66378021
S        10.63808632      5.83216953      3.32985067
S         8.75374794      3.72029185      1.96618128
P         8.81616497      4.89914465      3.51352262
S         7.11731911      6.21116495      3.50119424
S         8.87068081      4.17476177      5.54898882
S        10.81162548      5.93790007     11.73628139
S         9.27644062      3.93907332     14.02177334
P         9.28944492      4.62928867     12.17224121
S         9.09580803      3.25644064     10.69785118
S         7.52612448      5.97753716     12.01906013
S         8.78266525      3.37631273     18.91884995
S        10.50514126      5.74261522     20.46967316
P         8.78002071      4.52977610     20.48432159
S         8.86349773      3.68787241     22.38597679
S         7.05605221      5.62425661     20.54696274
S        10.71406746     15.02644157      3.47251463
S         8.63270760     13.02628708      1.68696821
P         8.92948341     13.96015835      3.52922559
S         7.14747524     14.92066288      3.49316072
S         8.90187073     12.67740917      5.23783350
S         8.98749733     13.01298618     13.24050140
S         7.04678154     15.23405075     11.76080513
S        10.38705063     15.40000820     11.95272732
P         8.83616734     14.20294762     11.80567551
S         9.05539989     13.18406677      9.90513325
S         7.67666960     15.48153687     20.15188217
S        11.00280094     15.42709732     20.42458344
S         8.92015457     13.20719719     22.29386902
P         9.19983578     14.19613838     20.49380112
S         9.15576839     13.20628643     18.67698097
S         9.02550125     21.86021805      5.17633677
S        10.59159374     24.11110878      3.65635896
S         9.15302372     21.96823883      1.53327835
P         8.98286533     22.97368431      3.33056140
S         7.24593782     24.13912010      3.34310317
S        10.86944962     24.26101685     11.53674984
S         8.99767780     22.19286346     13.78276062
S         7.57796955     24.51849747     11.79226017
P         9.09989166     23.24412727     11.89001846
S         9.03540611     21.70220184     10.66411114
S        11.11886024     23.74657440     20.33038521
S         8.70381546     22.08704376     22.20723724
S         7.84528971     24.60136986     20.18085670
P         9.20198536     23.06822395     20.38638687
S         9.06502914     22.05608940     18.59699821
S        19.33627892      6.03716660      3.41659355
S        17.89054680      3.58611798      5.22257614
S        15.96664619      5.81887436      3.71188736
P        17.70871735      4.78720045      3.57464767
S        17.64647675      3.59647846      1.89789867
S        19.61403656      6.24952936     12.12439156
S        15.89440060      6.21570969     11.73654556
S        17.41473389      4.21118546     13.66970730
S        17.93983841      4.22265863     10.13487148
P        17.75021744      5.21917915     11.96758842
S        19.48517609      5.38031721     20.29788017
S        16.20008659      6.23100519     20.31067848
S        17.42281532      3.86301351     22.27839279
S        17.38945961      3.51623487     18.66014099
P        17.51426315      4.73348331     20.27639961
S        17.46362305     12.49981308      1.70187700
S        15.48164463     15.12051868      3.02202678
S        18.67444229     15.56707191      2.98984385
S        17.32521820     13.38650513      4.99445581
P        17.22302628     14.18396473      3.16545367
S        17.76169205     12.78411579     13.60511971
S        17.49644852     12.77506638     10.24806690
S        19.44986534     14.96877861     11.77363873
S        16.20641518     15.38501358     11.93138313
P        17.70640182     13.91301918     11.88359737
S        15.99084091     15.42485142     20.39861298
S        17.81909943     12.89468193     18.66535568
S        17.41206360     12.93996048     22.18585396
S        19.27066612     15.31699181     20.57325172
P        17.60048676     14.13165188     20.38533592
S        15.61285210     24.11936569      3.70277905
S        17.26959419     21.69146729      1.84471893
S        17.68992996     21.94698906      5.27400589
S        19.06462479     24.25995636      3.17910719
P        17.33571243     23.01948547      3.47103572
S        19.60741043     23.86160088     11.82952690
S        16.25269508     24.58263397     11.95195961
S        17.38936424     21.86349869     13.79896641
S        17.30839348     21.82149696     10.35721397
P        17.59315872     22.97249222     12.15490437
S        17.49464798     22.32100868     18.79384422
S        15.78977299     24.20096207     20.67947006
S        19.30411720     24.48568916     20.33845329
S        17.84182358     22.34609413     22.20217514
P        17.54272270     23.36036682     20.56846237
S         8.00953484     -2.79415131      7.51501036
S        11.17649555     -2.03256655      7.55852795
S         9.02427292      0.28871742      6.05415201
S         9.08184433     -0.10045689      9.42913723
P         9.24590683     -1.04713404      7.59601402
P         9.34249020     -0.98985875     15.95744324
S         9.49415302      0.16517352     17.79849815
S        11.10083103     -2.14529562     15.93115044
S         7.59484863     -2.00102925     15.99033356
S         9.27672291      0.34715161     14.16940308
P         9.07872677     -1.06911492     24.97428322
S         9.04720497     -0.05020626     23.16306305
S        10.56177998     -2.47660613     25.13347816
S         8.72269630      0.14965062     26.60037041
S         7.31914997     -2.07338500     24.77929115
P         8.65575218      8.22145844      7.94034958
S        10.30079365      6.78922701      7.92648602
S         8.92752075      9.12371159      6.19490433
S         6.77110004      7.23419142      7.99589443
S         8.67381287      9.36840057      9.65860748
P         8.91263008      8.12091255     16.20004845
S         7.52479744      6.53176546     16.40123940
S         8.72302818      9.13435459     17.98029900
S        10.90213299      7.62147713     15.94675732
S         8.46337128      9.21927166     14.58441639
P         9.12546635      7.85545301     24.84340668
S         9.18977642      9.14648151     26.42392731
S         8.97854805      8.67717361     22.81574631
S        10.77184391      6.64680719     25.06750298
S         7.32279873      6.88157129     25.14637947
P         8.62470150     17.15526390      7.71594048
S        10.17246532     15.76177597      7.64845991
S         6.87880278     16.19328308      8.01873589
S         8.92450142     18.50958443      9.25547314
S         8.53606319     18.07903099      5.90450430
S         7.61875629     15.75033569     15.75330448
P         8.92111301     17.38045883     16.04830551
S         8.64281940     18.47798920     17.78329659
S         8.79832077     18.52081490     14.31700706
S        10.93242359     16.91837502     16.18559456
S         8.97813892     18.02758980     22.87145996
P         9.21899605     17.12474060     24.59938622
S        11.13472271     16.29152679     24.13052177
S         7.56211758     15.91884327     24.74352837
S         9.44376850     18.07008553     26.35488319
S        17.80807304      0.26480404      9.06930256
P        17.59436989     -0.96872264      7.60051394
S        19.25154114     -2.26457787      7.66792107
S        17.73284340     -0.09353090      5.66351128
S        15.47953224     -1.68725491      7.63664103
S        17.26432800      0.18653952     18.04794121
P        17.48992920     -0.59125763     16.12384796
S        17.29471207      0.56659555     14.43456268
S        15.88474274     -1.87124920     15.97977638
S        19.28218460     -1.58606517     16.34131241
S        15.94500923     -2.31757092     24.65218353
P        17.69263077     -1.15359056     24.70646667
S        17.43222046      0.21567528     26.26392174
S        17.67889786     -0.19639960     22.88736725
S        19.65946579     -1.77471781     24.92204094
S        17.47638321      9.32651806      9.57324219
P        17.70014763      8.41822052      7.66671228
S        19.58350372      7.68300486      7.64125299
S        17.54276085      9.69117069      5.95672178
S        16.23173332      7.06506300      7.69748926
S        15.53396893      7.19021416     16.58244324
P        17.48600769      7.99789381     16.32799530
S        17.50166512      9.15673733     14.57656765
S        19.11638641      6.81482172     16.16542244
S        17.73139572      8.98985386     18.06815720
S        17.66059875      8.60902977     26.35807037
S        19.16755867      6.02017879     24.29628181
P        17.72692108      7.29357147     24.55341911
S        15.94351768      6.16384983     24.80695724
S        17.84674454      8.51285458     23.07728577
S        17.95583153     18.00357628      9.27194118
S        17.00284958     17.90627480      6.07771063
P        17.24641418     16.73570251      7.64007998
S        18.87533951     15.45372868      7.51498222
S        15.35811710     15.65249825      7.93772125
S        17.55537987     17.93976974     17.87388420
S        19.71953011     16.14742279     16.02554131
P        17.76673126     16.99868584     16.03733826
S        16.35057831     15.46792984     15.89713383
S        17.52315521     18.31412506     14.48025227
S        17.56038475     18.32991791     26.29491997
S        19.13407898     15.83909130     24.70875359
P        17.48880196     16.99224854     24.57810211
S        15.51597214     16.11721230     24.95490265
S        17.55257607     18.06775665     22.85445404
S        24.78648949     -1.90602064      7.49767971
S        26.41676140      0.39348486      9.37861919
P        26.36142540     -0.68572527      7.69875622
S        28.15012550     -1.64211428      7.42389441
S        26.61793137      0.62791187      6.05057764
S        27.66866684     -2.19694304     16.24125671
S        26.48582649      0.33853957     17.92052460
P        26.19922066     -0.78112298     16.13043976
S        26.47168732      0.38315368     14.45183945
S        24.32342911     -1.64531529     16.07831383
S        26.46399117      0.58892941     26.21560669
S        27.93654823     -1.98360097     24.63652039
P        26.32264328     -0.77420181     24.59936905
S        24.39053726     -1.66448915     24.53828049
S        26.65429688      0.49402481     22.89763451
S        25.10247421      6.82211399      8.08140564
S        26.34510803      9.36708641      9.53383923
P        26.41506958      8.39697170      7.72824526
S        28.26108551      7.44019461      7.72607470
S        25.82486534      9.65384007      6.21276760
S        24.21067810      7.40158176     15.94248199
S        26.75513649      9.49377823     17.11673164
P        26.29338455      8.04923820     15.83256531
S        27.74237823      6.39545918     16.05341530
S        26.49165154      9.06337643     14.00943947
S        24.42289734      7.11020231     24.67132950
S        25.95936012      9.93852615     25.88203049
P        26.10796928      8.34962177     24.64639854
S        27.81282997      7.19776392     24.76168823
S        25.99009132      9.07863998     22.68161011
S        24.33270264     16.62870598      7.24436855
S        27.52475166     15.79598618      7.42437553
S        26.44951439     18.12760735      9.69625854
P        26.18777657     17.26898193      7.54966640
S        26.67324448     18.47709465      5.89811611
S        25.89177513     18.51654243     14.31044197
S        26.14032173     18.36486626     17.82649231
S        27.84368134     16.31277466     15.93786907
P        26.17555428     17.48691177     16.05342102
S        24.43141937     16.23071289     15.98068810
S        27.76109886     16.28538704     24.85324478
S        26.01095390     18.53903198     23.12087440
S        26.36500359     18.59996605     26.71497536
P        26.18131638     17.53401566     24.82238388
S        24.43734169     16.51721764     24.78466988
S         4.51647997     -0.39855123      1.52515113
S         2.57943320      1.48087430      3.71272469
S         5.84557724      2.21333003      3.40551043
S         4.90192604     -0.72548515      4.73421860
P         4.50695562      0.71912140      3.26365018
S         2.78895855      0.90857619     11.54347515
S         5.06708193     -0.70381969     13.63376045
S         5.88969851      1.91085935     11.76084709
S         5.06035328     -0.84530967     10.16129971
P         4.71198893      0.26526058     11.80403233
S         4.64709282     -0.17404445     22.50674820
S         5.08917284     -1.28319883     19.30230331
S         6.46533060      1.63717437     20.54473495
S         3.03004241      1.28994107     20.36718941
P         4.91317225      0.36479032     20.63006592
S         4.48720837      8.25216007      5.29735899
S         2.92972255     10.69570732      3.38330293
S         4.34347010      8.13211250      1.85943079
S         6.31350851     10.42506695      3.24411368
P         4.51017237      9.40862560      3.64817119
S         6.12834406     11.03558445     12.28670979
S         4.59307528      8.91690922     14.21840477
S         4.47480440      8.34084511     10.92385197
S         2.74068189     10.93483353     12.14855194
P         4.41080523      9.81499290     12.36609650
S         4.76012897      8.60591793     18.80683708
S         2.74914527     10.31412220     20.67111397
S         6.36248589     10.77982521     20.73682976
S         4.68808651      8.29487896     22.28466988
P         4.65232849      9.51654243     20.69356918
P         4.80449915     18.90444565      3.45755720
S         4.91262102     17.41640854      4.97138023
S         3.11106181     20.03719902      3.47593641
S         4.64433479     17.59618759      1.74715865
S         6.46954679     20.16009140      3.27496600
P         4.30635023     18.83378410     12.07018757
S         4.21583796     17.46631813     13.58208656
S         2.69516945     19.96570206     12.20799255
S         4.28629398     17.72993660     10.16671848
S         6.06830072     19.93363571     11.92006779
P         4.34824228     18.84820557     20.61099815
S         5.77200651     20.37494087     20.79837608
S         4.57482052     17.60624886     22.28376007
S         4.38357019     17.42753410     18.91805267
S         2.53817606     19.78634262     20.57949638
P        12.87270164      0.90842199      3.46642709
S        14.47460938      2.19753790      3.69256973
S        11.11160278      2.04759574      3.50610042
S        12.97799969     -0.50645185      4.87498236
S        12.93597221     -0.20577049      1.68070173
P        13.59504128      0.55157208     11.73253345
S        13.61816978     -0.57061827     13.49396896
S        13.52567768     -0.55943424     10.15987015
S        15.02815437      1.97451663     11.93852711
S        11.83112431      1.65437245     11.93474483
P        13.30470276      0.71653414     20.38203239
S        11.72225761      1.88493454     20.47274780
S        13.48031044     -0.44455272     18.74795341
S        13.21446133     -0.16951720     22.31778908
S        14.88308430      2.02758884     20.27638626
P        13.39440250      9.78863811      3.61635089
S        11.42378712     10.55625343      3.57155585
S        13.39527988      8.50087070      5.48259735
S        14.93390751     10.99592876      3.65687537
S        13.51545620      8.22354889      2.16928673
P        13.06201839      9.29005337     11.86203766
S        14.74843788     10.47919464     12.24147320
S        13.34760094      7.72023344     13.17218208
S        13.00445938      8.80167294      9.92138767
S        11.22429085     10.26633263     12.03753471
P        12.88210201      9.76611900     20.75996017
S        14.63806057     10.76445293     20.53705978
S        12.75502491      8.54311180     22.41200447
S        12.94233513      8.50440502     18.95532799
S        11.21033573     10.95212078     20.59472847
P        13.14417648     18.10804558      3.38860035
S        14.79283810     19.43880272      3.58531284
S        13.38762283     16.79981232      5.10280228
S        13.33378601     17.07179451      1.56145585
S        11.39939213     19.30747032      3.67154002
S        13.06035328     17.24580193     10.01440525
P        13.20456982     18.20185661     11.79273605
S        11.57489491     19.69023514     11.79235077
S        13.07771683     17.25910568     13.65221691
S        14.91920280     19.28100395     12.09473610
S        14.61929512     20.29425240     20.36590767
S        13.45666122     17.55280495     18.50188828
P        13.18164635     18.84472466     20.03523445
S        11.26836586     19.81107712     19.91988754
S        13.42415524     17.49914932     21.55456161
S        20.35940933      1.46468997      3.20413613
S        23.99108505      1.50898790      3.80638289
P        22.07527924      0.41590902      3.50483370
S        22.19573784     -0.75984913      1.83335483
S        21.66710091     -0.46007016      5.27397251
S        21.69310188     -1.14893150     10.33227825
S        19.90049362      1.42358708     11.71361351
P        21.53984833      0.11176021     11.88103962
S        23.41204262      1.06412542     11.74513817
S        21.56801605     -0.68436295     13.78234291
S        21.90998650     -0.34562817     22.02838135
S        20.12783432      1.93455029     20.74162102
P        21.77696037      0.88465583     20.43175316
S        21.63708305     -0.06214778     18.60715294
S        23.66402817      1.73571229     20.47603798
S        21.51302338      8.22782612      1.52173209
S        21.65467834      7.67901516      4.78884268
P        21.53716850      9.19354725      3.51800418
S        19.97919846     10.53947067      3.52117348
S        23.45970917      9.99404335      3.28773952
S        21.93638992      9.31695747     13.64775181
S        23.89620781     10.74654388     11.45003510
S        21.85750198      8.52024937     10.16034603
P        21.97936821      9.86894608     11.73108006
S        20.36047363     11.03954887     11.41308880
S        21.79704666      8.92019653     22.21327782
S        21.70751190      9.08297443     18.77868462
S        20.55817413     11.74226189     20.85476303
P        21.84005165     10.08402157     20.48820496
S        23.93232536     10.83240032     20.43784523
S        21.33238792     17.78107262      4.99927187
S        21.95523453     17.97407341      1.57552791
S        20.06418228     19.88990211      3.17710662
P        21.83028412     18.88007355      3.35737062
S        23.70042992     19.69206810      3.56934452
S        21.87138176     17.52792168     13.60655212
S        22.09182549     17.00203133     10.40226460
S        20.15640640     19.47105217     11.68663979
P        21.94041252     18.39368820     11.87635326
S        23.54030991     19.77264786     11.83035755
S        20.18218613     19.33400726     20.64274979
S        22.24424553     17.62147331     18.63707352
S        23.57431793     20.20999908     20.52874947
P        22.12098122     18.67210770     20.59544373
S        22.44204903     17.46897697     22.13992691
S         4.56018877      4.75286579      9.61080360
S         6.59054422      2.55027723      7.85079336
S         4.85951710      4.75340319      6.17075157
S         3.17491007      2.41178250      7.87950134
P         4.80708694      3.59603858      7.91306353
S         3.11557102      2.30141282     16.02933693
S         4.54507637      4.68821239     18.04827690
S         4.61370802      4.79233789     14.61862564
S         6.55207634      2.54886484     16.34082985
P         4.77773809      3.57585335     16.13480949
S         4.41527367      4.87793589     26.68119240
S         6.25213051      3.04304194     24.76064491
S         4.40134048      4.98633862     23.23190689
S         2.68392682      2.76991844     24.94227791
P         4.40253925      3.81565046     24.97507477
S         6.33872175     11.44741917      7.60511112
S         4.11045694     13.45498848      9.52869797
S         3.03692102     11.13076878      7.71730185
S         4.71221256     13.55221367      6.09483385
P         4.57283878     12.40453720      7.71072245
S         4.94021702     14.52616787     18.04518127
S         3.03079319     12.08392334     16.81436348
S         6.63589525     12.07777405     16.47149277
S         4.47062778     14.08389664     14.70159149
P         4.71636248     13.17467308     16.58426857
S         4.47300053     14.04972649     26.02272797
S         2.89602280     11.21262932     24.94126892
S         6.47751760     12.15446949     24.26664925
S         3.87615585     13.57503510     22.55191612
P         4.40883684     12.63638592     24.36957550
S         4.88068581     23.01272392      9.48522758
S         4.79959965     22.90941238      6.35759020
S         3.21945119     20.41906357      7.80519867
S         6.73075771     20.70661926      7.98629618
P         4.90858698     21.55272293      7.97556496
S         5.12980509     22.94604301     17.85889626
S         2.63379931     21.15452957     16.42401695
S         5.77447653     19.94249344     16.28184319
S         4.78311491     22.72271347     14.38740063
P         4.57632542     21.60985565     16.34696770
S         4.89503622     23.08901787     26.43720627
S         3.11534572     20.57539368     24.46565437
S         6.43122959     20.83182526     24.67021370
S         4.56880188     23.28849220     22.99316216
P         4.74952507     22.05922890     24.59802628
S        13.66964340      4.17650461      9.66300201
S        14.87106895      2.36835885      7.26157045
S        13.17762089      5.00340986      6.28796387
S        11.52376556      2.51300311      7.76995850
P        13.26042938      3.52892160      7.78748465
S        13.36016369      4.98369360     17.68213844
S        15.24880314      2.86389780     16.12626266
S        13.27724552      4.56450701     14.18569183
S        11.91475105      2.35711288     16.37808228
P        13.32394314      3.69806242     16.10940361
P        13.32209015      3.54843926     24.61864281
S        13.17316914      4.63331032     26.52452469
S        11.37915134      2.49824333     24.62096024
S        15.02600288      2.31166005     24.63099861
S        13.28170967      4.51527262     22.82883072
S        11.34580421     11.42657089      7.78808880
P        13.10000134     12.42576218      7.99518585
S        13.08838272     13.36313534      9.82076931
S        14.97713757     11.45720196      7.81310272
S        13.04914474     13.81110764      6.21429968
S        13.27041435     13.70155716     14.16523552
P        13.22357178     12.47284031     16.09203148
S        13.41591930     13.79024696     17.76735306
S        11.37465382     11.49325943     16.05865860
S        14.82224274     11.22005939     16.09380341
S        14.56296062     11.15212059     24.43293762
P        12.99187088     12.50204468     24.41195107
S        13.36085033     13.70964813     26.13971138
S        13.19637012     13.41048622     22.65060806
S        11.36518383     11.52104855     24.85829926
S        14.91770935     20.36469269      7.53923512
P        13.28976727     21.60407829      7.75314188
S        13.32437229     22.65223885      9.47658730
S        13.17028904     22.56997871      5.92627287
S        11.47545910     20.69824791      7.82101774
S        13.66600609     22.58465958     13.93160534
P        13.41056347     21.90753365     15.95777798
S        14.91998577     20.56347084     16.34025955
S        13.67849255     23.39715195     17.37738800
S        11.60912609     20.98849297     16.13085747
S        12.84150219     23.01931190     23.04877281
P        13.05149841     21.76200867     24.76521111
S        11.43977737     20.41332817     24.42970848
S        14.85580730     20.82245064     24.38693237
S        13.01131630     22.89013290     26.43566895
S        20.27042198      2.39794874      7.69571638
P        22.10548592      3.29486561      7.62984705
S        21.85725021      4.81735325      9.04994202
S        23.42549515      1.84598696      7.93670177
S        22.62165451      4.33493900      5.87701178
S        20.22052574      2.23597908     16.33805847
P        21.87402344      3.33395195     16.18288994
S        22.15142822      4.45704651     18.01091385
S        23.58908272      2.16104078     16.12067223
S        21.77872658      4.41595840     14.45812225
S        20.11827660      2.44111133     24.78916359
P        22.02499390      3.35118437     24.86379433
S        22.18548393      4.24992752     26.89909935
S        23.75390053      2.30763149     24.50024796
S        21.81399727      4.55900240     22.99065399
S        21.89977646     13.19267559      5.21835995
S        23.31088448     11.64022064      7.73671818
P        21.70868492     12.74874592      7.22480106
S        19.75621414     12.08951664      7.67438936
S        21.84197617     14.23861980      8.59445190
S        22.26843834     14.11197662     17.76247597
S        22.30043793     13.54902554     14.25615883
P        22.22136497     12.75772762     16.15142822
S        20.20505714     11.90449047     16.54660225
S        23.86105537     11.49859619     16.17626381
S        23.59168053     11.62200069     24.93091011
S        21.96825027     14.53596210     23.47413254
P        21.95154190     12.93492889     24.85620689
S        21.80319405     13.70343113     26.86526680
S        20.23351669     11.86076355     24.70158195
S        23.53629684     20.56521988      7.52073097
S        21.90155602     22.78576660      5.47503042
P        21.87932396     21.80795860      7.31175327
S        22.01990509     23.20298767      8.81473446
S        20.06674576     20.66823006      7.62640524
S        23.80965996     21.13183975     16.35845375
S        21.59346199     23.04786873     14.74890232
P        21.74605560     21.50355339     16.26186943
S        21.23131561     22.60694313     17.96522522
S        20.54595566     19.91329575     15.84906769
S        22.46797752     22.60344505     26.79171181
S        20.60154915     20.13509941     24.50453568
S        21.74565125     23.08281136     23.47915459
P        22.11431503     21.61527634     24.87886429
S        23.93804741     20.74345779     24.61182785
