864

Li      -10.98224640    -96.45561218     52.61381912
Li      254.73509216    226.87567139    104.14756012
Li     -148.51029968   -113.70947266    170.93473816
Li      -96.07290649    576.90515137     50.33344269
Li        9.19503689     28.30996513    122.32808685
Li     -200.59576416   -567.30194092    -35.94571686
Li      305.37246704     42.18659973    -15.51137447
Li     -200.60066223   -248.78036499    132.61314392
Li      -10.55955124   -128.82064819    141.85177612
Li      391.67947388    204.12141418     27.37994766
Li        6.70752192     22.00401878    -40.62721634
Li      -99.56141663    -33.37352753    339.14489746
Li      130.70906067   -199.73422241   -221.50021362
Li       -4.41687393   -380.11465454     71.07621002
Li      -32.09602356    -38.63169479    -36.52164078
Li      -32.75384140    184.19245911     94.83083344
Li      -62.74251556    260.03366089    153.67628479
Li     -101.56342316   -294.32452393    -65.99041748
Li      -36.36009216   -282.64764404    -19.56320381
Li       75.84407043     32.67258835     43.90275574
Li     -183.91954041   -279.54998779   -121.36386108
Li      223.01615906   -496.18576050    141.20838928
Li      305.60571289   -111.33623505     69.01776886
Li     -102.44346619   -311.80224609    386.37152100
Li      -65.25917053     89.20059204    -63.68930435
Li       15.53877831     39.73071671    -57.28687668
Li       36.67538452   -175.99017334    208.89459229
Li     -144.39987183    198.90264893   -257.30627441
Li       11.23811531     92.97871399   -154.13487244
Li       61.88771057   -109.57406616   -100.74424744
Li      -97.49475861    398.25601196     61.38576508
Li      -64.97676086    270.53097534     29.14393806
Li     -208.47007751   -154.77233887    176.55612183
Li      -58.29387283   -300.80441284     82.19484711
Li     -266.00057983    330.05126953    285.84356689
Li       24.04246521   -167.35441589    107.48160553
Li       10.81369591    341.07003784   -138.59565735
Li      191.89212036   -423.58737183     31.45019531
Li      198.28736877   -231.18334961   -301.45779419
Li     -144.71165466    211.76947021    343.82595825
Li     -258.19973755    -73.98715210    160.29714966
Li     -256.50445557    231.81597900   -155.59751892
Li       36.56740570   -391.49472046    128.21092224
Li      296.49996948      5.26016998    251.33920288
Li      244.74378967     -1.50560904    493.24096680
Li     -122.95937347     80.37444305    -62.49826813
Li       59.18416214   -336.24057007     15.47039223
Li      -27.27487564    114.51583862    -36.93305969
Li      116.72135925    249.49061584    101.75478363
Li      326.39273071    362.63812256    505.99465942
Li       11.59134293     63.34963226    222.18693542
Li     -191.37173462   -219.12673950   -270.61041260
Li      191.87052917     -7.60649395     69.76333618
Li       36.07616425    213.17749023    -49.16801453
Li      101.76367950   -491.79632568    -23.53515053
Li      233.03224182   -290.60861206    397.98159790
Li      111.11107635   -173.44682312   -246.78622437
Li     -226.20375061   -189.10449219    -66.48217010
Li      -11.26739693    218.41889954    314.61807251
Li      196.37551880    -34.61968994     69.29103851
Li     -104.99346924    259.49252319    -66.56135559
Li      -53.82231522   -170.39784241   -142.49351501
Li      339.40725708      9.76084995     -2.83992839
Li      -53.71512222   -126.06824493    -15.20869923
Li       28.12212181    -97.97431183    298.27178955
Li       94.66539764   -113.61445618    -73.29782867
Li     -125.94631195    129.86228943    125.37985992
Li      171.60671997   -200.52493286     49.12513733
Li      161.27168274    -93.71519470    365.93295288
Li      335.03189087    205.63880920     43.93027115
Li     -174.62500000    181.92893982     -2.83667016
Li     -135.72021484     62.62093353    188.60118103
Li       -6.91733265     -4.46636677   -215.24270630
Li      -84.06361389    133.60813904   -270.01748657
Li       -3.94193697   -259.56747437     24.92010307
Li      -66.52761078    259.04827881   -180.55862427
Li      114.74623871   -175.75097656     60.87525940
Li     -308.40008545   -111.52806854     81.94563293
Li     -192.24067688    -85.52806091    140.92048645
Li     -114.70701599    -33.03468323     60.80870438
Li       19.90372467    -16.92396927    124.50667572
Li       75.79796600   -159.62417603   -366.63351440
Li     -152.53802490    -15.14412689   -102.66477966
Li      -75.93337250     68.57920837     69.78283691
Li      -82.39203644    -33.61675644   -390.45883179
Li     -291.82043457   -110.69133759    -53.66428757
Li       88.65608215    -97.60824585    -49.08209229
Li      468.62750244   -206.69851685    179.38244629
Li      227.60890198   -304.72186279    508.98983765
Li       32.50772476    146.81492615   -100.92343903
Li     -261.18008423    393.10482788   -252.32318115
Li      235.89791870    142.93685913    -23.68459702
Li      191.58500671    507.97348022    192.34947205
Li     -365.80957031     39.66593552    -92.48706818
Li      355.35217285    367.05352783    -79.44653320
Li      161.74421692   -133.53562927    102.96077728
Li      264.63882446   -215.28562927     23.49963570
Li      -58.06264114   -384.96978760    162.77558899
Li     -239.08999634    -69.87857819    119.94712067
Li      149.37762451      8.78346348   -133.94132996
Li     -170.63456726    -14.79114914     -6.68245983
Li      -58.39593506    -46.79096985   -443.32229614
Li      247.71928406    204.11735535     86.45912170
Li       79.92097473   -284.39953613    340.42050171
Li        1.88800740   -360.24893188    107.40625000
Li      -87.85845184   -159.20158386     61.92835236
Li      -51.03916550    206.80873108    142.79273987
Li       22.40068436    277.66455078    -90.32076263
Li     -110.20423126    127.04833221    -66.44635773
Li      119.39686584   -163.36856079    -32.16657257
Li        6.65206480    362.48556519     18.79507828
Li       44.43340683   -104.49125671    419.03500366
Li      -15.00606060   -152.28770447     61.02839661
Li      128.63381958    249.05206299   -105.28775024
Li     -370.01626587    462.29251099      5.79837322
Li      -23.73231506   -145.16342163     -6.46575594
Li     -283.69601440     22.38704872   -243.90557861
Li      150.76876831   -132.21017456    440.30621338
Li      -85.16440582    278.69659424    -93.58641052
Li       10.80395031   -194.81175232    -79.07444000
Li      136.19584656     70.88747406   -205.06240845
Li      -18.27913094     85.74461365     44.24997711
Li      -93.34908295     19.25081444     10.32847977
Li     -166.49386597   -178.74002075    365.68524170
Li      261.73440552   -124.57508087    345.11502075
Li      -36.37192917    118.64769745    -62.23548889
Li     -180.10780334   -143.78630066   -117.17662048
Li      236.90538025    152.78541565    114.18386841
Li      157.67414856   -308.41140747    -23.85051155
Li     -173.13693237     66.52694702    -13.47822475
Li     -208.95144653    -16.80145454    335.84820557
Li     -386.55267334   -457.97970581     95.02794647
Li       69.05428314   -158.62957764    376.64572144
Li       94.41807556    -74.07424927   -186.25990295
Li        6.62285900     91.51285553   -257.00073242
Li      461.03994751   -375.65582275    243.29617310
Li      -23.43663597    190.92773438   -176.88206482
Li      233.23367310    238.05033875    -98.22093964
Li     -121.68702698     59.17045593     88.13685608
Li     -321.26080322    -65.38457489    193.81909180
Li       23.41271210   -135.24328613     36.00986099
Li      -74.88560486   -310.88803101    -87.46279907
Li       84.69604492    -83.22185516     23.46212578
Li      205.34231567     70.14649200    -10.78048229
Li      270.24942017    224.35810852    -23.78791237
Li      134.14392090   -482.62286377    174.35545349
Li      283.27490234   -130.06593323    438.12719727
Li       71.11935425    173.76739502    289.98245239
Li      442.96908569   -128.94104004     22.85212708
Li       75.15096283    269.36962891    -53.45917511
Li      -57.84102249   -126.83039856     55.65591812
Li     -161.60992432   -491.66809082    585.96575928
Li      119.29895020    -83.74507904      1.28774095
Li      -84.99154663   -218.52325439   -136.99884033
Li      -96.62113190   -122.27354431    149.80322266
Li      -24.22765160   -185.33253479     56.29475021
Li      309.15792847     22.87882233    -40.61565399
Li       66.66688538   -404.13787842    119.28125000
Li      -28.47362137    180.80300903    -28.30108070
Li     -275.93502808    215.21115112    -59.64752579
Li       32.10511398   -411.30599976    166.76687622
Li       80.19992828    486.24020386   -180.75000000
Li      -73.40226746    -90.66593170    182.44927979
Li       18.65748405   -121.83148956    -57.31724548
Li      111.87268829    387.91162109     42.02431870
Li      266.22726440    480.48693848   -223.05078125
Li     -209.14511108    218.64274597     48.14587021
Li      222.21530151   -257.67483521    404.01318359
Li     -244.50251770     32.83678055    -53.70499420
Li     -149.81884766     14.33299160    166.77288818
Li       23.81126404   -283.17581177     74.50841522
Li     -106.24965668     45.75417328    -23.86506462
Li       33.84511185    -49.68518066   -258.23260498
Li      131.52534485    154.33116150    327.38293457
Li       54.19146347    118.72025299    -40.51574326
Li     -118.28089905    135.11628723    395.41574097
Li       21.28636551   -171.96936035     54.15360641
Li      226.27348328    -80.80357361     77.45828247
Li      321.71902466    -73.89437866      6.08933544
Li      -40.47877884   -313.58184814   -213.73231506
Li     -105.43904114     53.03624725     14.37782478
Li     -217.57307434     76.21749115    183.48248291
Li      417.44833374    329.45553589    115.61029053
Li      272.08389282   -141.99346924    -59.90995789
Li      -32.26897049     65.96473694    294.37933350
Li      192.33943176    -47.51997375    167.37072754
Li      140.94865417   -160.79521179   -171.58581543
Li       42.50084686     28.65057755   -205.28175354
Li     -105.87216187    286.51199341   -248.43893433
Li      214.31701660   -261.25234985     82.03752136
Li       15.05117512    301.00961304    260.36056519
Li      140.50398254    -85.93055725     -6.76322699
Li      -97.16316223    158.19645691    103.91639709
Li     -127.82919312     -7.40063334    141.59359741
Li      170.74931335   -194.03163147   -286.85528564
Li      101.75116730      9.10574722    -48.84611511
Li     -120.78623199    339.22445679    -48.28840637
Li       84.83177948    -11.38251305    255.42710876
Li      360.88284302    280.81658936   -138.94897461
Li      170.93057251    -24.39715958    -87.45272064
Li     -278.93896484    366.22274780    -45.74048996
Li     -163.87374878    197.63053894   -304.93508911
Li      149.18310547   -541.10241699    -83.75153351
Li      -89.20174408   -418.95971680     -6.73917675
Li       23.88030815   -252.61878967     13.93400574
Li      283.03808594     -4.21330070    324.23083496
Li      -88.08914948   -360.31497192     77.69509888
Li       24.53450394     -1.68300498     82.40515900
Li       50.27970505    354.94644165     94.48940277
Li      -93.86631775      7.81488132    390.86419678
Li     -161.68559265    147.70985413    158.77781677
Li      -62.02022934   -218.26799011    193.29267883
Li       50.10505676    -14.84261513    196.49264526
Li      260.82437134     53.32131195     -8.86270428
Li       85.21154022    -43.85591125   -265.48156738
Li      -28.11076736   -241.79118347    407.57476807
Li      -90.28128815     86.65485382   -118.18577576
Li     -179.22288513     77.58726501   -163.96914673
Li       97.80360413   -467.31945801     82.06745148
Li      -14.51134491    -82.13050842   -539.85125732
Li     -121.80077362   -122.30995178   -158.34982300
Li       30.81687164   -398.66577148    267.70520020
Li     -323.20916748    207.26612854   -445.14788818
Li     -142.20472717     -5.05947447    178.34082031
Li     -222.37037659     47.25237656     82.44370270
Li      293.66781616   -192.04119873    -68.94876099
Li      166.19487000    112.42756653    103.28545380
Li       71.97773743   -189.93656921     38.66630554
Li     -191.34329224   -370.27267456    145.62962341
Li      274.42758179    216.92076111     97.95944214
Li       45.16041183     43.45271301     51.30840683
Li      -88.30457306     77.83026886    149.72967529
Li      -36.42115021   -285.11038208    293.81045532
Li       97.27463531     42.96902084     56.74530029
Li      119.82288361     71.26754761   -169.31846619
Li     -125.17765045   -135.44903564     35.97710419
Li       85.23925781    -77.39844513    -71.15011597
Li       48.22130585   -190.10226440    180.75190735
Li      187.92713928    127.14378357    -57.76879501
Li      149.51419067   -102.03562164    226.77008057
Li      135.64472961    -93.62285614   -184.99009705
Li      166.03486633     85.50097656      5.11233234
Li       24.21341133    182.28056335    -32.11936188
Li      218.06590271   -139.85755920   -396.94079590
Li      -25.78763390     16.59618378   -305.22296143
Li      -89.23306274   -343.66375732   -226.38058472
Li      -84.10897064    181.00785828    -54.43009567
Li     -126.86324310    325.13174438     -6.25390005
Li     -265.49584961     55.18261337    264.43167114
Li      118.23091888   -269.26480103    -49.48663712
Li     -179.29585266   -182.80941772    319.30590820
Li      145.43719482    330.10958862    129.32257080
Li      260.96469116   -386.67355347   -160.18846130
Li     -443.25503540     29.40426254    -19.69284248
Li      412.45394897    184.00747681    -78.40094757
Li       27.06795120   -324.64978027    -77.29808807
Li     -239.59700012     58.26535034    104.00357819
Li      158.68750000     81.12412262   -164.24290466
Li      376.37356567   -253.79980469    -73.15803528
Li      -66.11215210    -52.18802643    -27.74937057
Li      -98.14198303     29.80098343   -195.30592346
Li     -126.91999054    -30.31482506    281.23315430
Li       36.56795883     19.42766953    -75.01414490
Li      273.85595703   -258.92797852   -323.83163452
Li      -19.48986053    -99.92578888   -192.83850098
Li      137.02053833   -101.11538696    -18.45993233
Li     -528.94757080   -234.37854004     56.64079666
Li      201.83966064      2.74971008    175.57691956
Li     -123.55707550     63.42818832   -251.78993225
Li     -273.62200928    267.31777954    208.88954163
Li      534.13073730   -101.11415863    162.48226929
Li     -269.60690308   -291.91564941   -146.27189636
Li       28.35311127     83.50615692   -206.57508850
Li      -36.22051239     79.53562927   -121.26321411
Li      -23.99415970    101.48857117   -176.86309814
Li      110.29605103    100.79468536    179.49119568
Li      279.26867676      5.28637457    450.64907837
Li      -79.00433350    221.05709839   -167.80175781
Li       32.85555649   -429.27096558    205.12184143
Li       79.23194885    211.80766296    275.54562378
Li      -92.89708710    -28.81667328    150.42692566
Li       -0.44849735     80.02642059     -0.39196968
Li       62.35197449    124.14497375    -57.70428848
Li     -257.10760498   -193.96270752    -57.84880066
Li     -211.65623474   -172.44900513    316.97686768
Li     -256.23632812    162.57168579   -376.98364258
Li       75.98464966   -210.90524292    -49.93915176
Li     -183.88919067   -150.81359863    -86.40796661
Li      470.97723389    -20.96614075    107.59313965
Li      -66.78364563   -156.70161438    323.49902344
Li     -118.92874908   -458.84500122   -194.12301636
Li      161.65823364    243.28280640    257.85687256
Li      -45.07921600   -378.41668701   -287.12814331
Li      -27.48721886    -68.93662262   -104.65115356
Li      -28.55373001    -45.19087601   -132.78491211
Li     -222.10331726   -214.18530273    144.44216919
Li      291.25454712     32.66779709   -188.97282410
Li      114.96003723   -187.49032593    141.41790771
Li      195.99905396   -244.99430847    113.91180420
Li     -230.52645874    192.88125610    439.49383545
Li      139.96966553   -200.35717773   -349.67285156
Li       17.58968544    257.69869995    -13.93582916
Li      -75.23497772    278.41775513    247.32742310
Li       -6.33343315    -32.19010925     48.21292114
Li      -50.09085464   -272.64828491    -66.26850128
Li       58.79773712     78.96938324    348.88696289
Li     -192.84663391   -226.54615784     21.55731201
Li     -321.99685669   -358.93295288     99.36209106
Li      369.85491943     -2.14531112   -219.24841309
Li       45.22708893   -146.11370850     -7.16525078
Li       -0.11955451   -216.44175720    -17.14878082
Li      235.62133789   -158.81709290     53.00979614
Li       50.20863342   -191.04251099     68.66244507
Li     -200.56961060    182.24232483     90.71391296
Li      106.25608063     10.99919510    437.72924805
Li       82.91461182   -368.03823853    -85.43647003
Li     -381.49841309   -221.42828369   -333.93548584
Li      -65.43746185    -60.74800110     84.84037018
Li     -265.04098511   -236.81735229     27.68523216
Li      243.59211731    -89.88327789    531.38568115
Li     -162.25120544     13.98847389   -100.40274811
Li     -149.96516418     93.71178436    263.13803101
Li     -225.97406006    190.81034851    387.14736938
Li      126.75910950     50.72861099    294.16723633
S         0.70871037     12.73622894      1.68932641
P         0.34861755     13.30596066     -0.28259188
S        -1.53540397     13.99363518     -0.20768008
S         1.98424828     14.61355305     -0.47375804
S         0.58234668     11.92426968     -1.75741708
S         0.60864371     12.02652931      9.51254368
P         0.16396666     12.89999390      7.80185318
S         1.34418297     14.58638000      7.46703720
S         0.41045263     11.86616611      5.91850948
S        -1.68144381     13.55402565      7.55813265
S         0.35726431     12.11411476     18.03756905
S         1.82511222     14.76703835     16.34159660
P         0.26955825     13.33821201     16.39930534
S        -1.62879038     14.33164692     16.34777260
S         0.14259072     12.09107208     14.70266151
S         0.03818354     21.50440407     -2.32105041
S         1.61624670     23.74669075     -0.65909994
P        -0.08282167     22.60547256     -0.49192291
S         0.16484085     21.52441216      1.22467327
S        -1.73739874     23.70517921     -0.40380916
S        -1.50718760     23.57053185      7.74558830
S        -0.17387673     21.09314156      9.31693172
P         0.30249959     22.33913040      7.69921494
S         2.13830400     23.05834007      8.18239212
S         0.20136411     21.52527046      5.90457916
S         1.71740246     23.76471710     16.46409416
S        -1.73335159     23.86054230     16.37823677
P         0.04613892     22.74178886     16.45857811
S         0.00230182     21.91228676     18.66556549
S        -0.03583416     21.24883652     15.27102947
S         0.59044027     30.42989540     -2.83314610
S         0.28547746     29.79848480      0.38725016
P         0.72581697     31.44148445     -1.03370261
S        -0.88435441     32.69735336     -1.21219671
S         2.47417450     32.31392670     -0.72890604
S        -0.91589397     32.45087433      8.23986340
S         0.30331638     30.23269081      6.08165884
P         0.51389551     31.24488068      7.89437485
S         0.42815933     29.73626900      9.45801926
S         2.42217445     32.23410416      7.88791943
S        -1.28509033     32.83432770     16.22437668
S         0.29551807     30.27597618     18.02177048
P         0.27719223     31.59101105     16.41712952
S         2.04102778     32.62574387     16.46236038
S         0.26910728     30.51568794     14.49557400
S        10.74429131     13.89800072     -0.48292768
S         7.22634649     14.49354362     -0.89590621
P         8.83944607     13.26685619     -0.77232492
S         8.48504639     12.17300892      1.00970876
S         8.81387043     11.70449066     -2.13880563
S        10.01905727     14.65859509      7.75758648
S         8.86472988     12.26278400      5.84517431
P         8.53709316     13.13126945      7.81786108
S         6.70019054     13.94885254      7.61509514
S         8.65242481     11.60074615      9.18952942
S         6.61103392     14.12854481     16.40955353
S         8.52326584     11.87834740     18.06822395
P         8.51222324     13.18066502     16.58207321
S        10.31252670     14.15812492     16.54372406
S         8.78056240     12.21532440     14.76986980
S         8.73905754     20.64771652     -2.44449568
S         6.85477400     23.13262749     -0.96718824
P         8.37216949     21.97577477     -0.77903694
S        10.15955639     23.11727142     -0.70767212
S         8.42078114     20.99280357      1.08433437
S        10.21425438     23.29199219      7.85461140
S         8.78457928     21.00470161      9.81976891
S         6.82339144     23.06996536      8.04440594
P         8.74978828     22.05102539      7.87817144
S         8.57218075     20.71962929      6.40604973
S         7.16439962     23.36461449     16.22116470
S         9.16804695     21.18908501     17.46647263
S         8.58351231     21.22920036     14.25606823
P         8.96939087     22.44772530     15.83589363
S        10.60392570     23.55326462     15.51169395
S         9.33137131     30.40368271     -2.53391099
S        10.27779865     32.65119934     -0.38922647
S         6.81407690     32.09073257     -1.22796834
P         8.64287281     31.23302650     -0.82458693
S         8.51088333     30.08703423      0.88334656
S         8.33313942     30.80895615      9.78470516
S         6.75182581     32.46191788      7.48061514
S        10.09391117     32.97667313      7.99924469
P         8.56704712     31.74732971      8.07540607
S         9.03879833     30.05053902      6.69727278
S         7.15357733     32.36257935     16.41426468
S        10.67520237     32.20883179     16.34135246
S         8.86342812     29.78876686     17.68831825
P         8.95594025     31.30075073     16.11896896
S         8.90436172     30.68772697     14.22299480
S        18.70704269     14.63246059     -1.03048146
S        17.67415619     11.96202278      1.03793597
S        15.19343090     14.23154545     -0.64239645
P        17.22765160     13.12008572     -0.61752450
S        17.08099747     12.10110092     -2.27790284
S        17.22505379     12.03691483      9.53058052
S        16.84214211     12.01054096      6.07725239
S        19.06358528     14.11198616      7.40406799
S        15.52344227     14.44040298      7.89378357
P        17.24763298     13.22350311      7.75593233
S        17.66532516     11.87491703     18.28275871
S        17.35119820     12.05478287     14.67316628
S        19.03152084     14.43405056     16.70936584
S        15.61259937     13.99468613     16.78938103
P        17.58256531     13.07272625     16.60924721
S        18.75022697     23.61853218     -0.92782801
S        17.49181175     21.13433266     -2.24004436
S        15.42106915     23.18573570     -0.44114283
S        17.76305580     20.95132065      1.04572332
P        17.30306244     22.12666512     -0.57210445
S        19.49389267     23.25388145      7.93478870
S        17.83832359     21.13778877      5.98135328
S        15.94057369     23.22584343      7.43940592
S        17.32006836     20.97896194      9.48711681
P        17.65000153     22.20145416      7.74558163
S        16.80261230     21.05875397     17.63288307
S        17.18331528     21.54125595     14.03927898
S        18.90632439     23.33985138     16.20836258
S        15.59659576     23.62812996     16.14107132
P        17.06228828     22.27218246     15.97721577
S        17.68248177     30.68318367     -2.08758473
S        19.24497604     32.56821060      0.07346108
S        17.24490356     30.24156189      1.21324599
S        15.80677891     32.99029541     -0.06987790
P        17.39803314     31.54352951     -0.24116834
S        19.12459946     32.03476715      8.47858047
S        17.23957253     30.37918472      6.12641287
S        15.87595749     32.61814880      8.24611855
S        17.09091949     29.86337090      9.44208431
P        17.35183334     31.15890503      8.08047771
S        15.62494659     32.28480530     16.56244469
S        18.98133469     33.33844376     16.25785637
S        17.87662888     30.86304474     14.46055603
S        17.61976433     30.38049316     17.87380981
P        17.63846779     31.71198654     16.27824783
S         6.80643463      6.13757372      3.78693581
S        10.30726147      6.23845720      3.64242029
S         8.44056129      8.27356243      1.90537846
S         8.61930466      8.49586487      5.35616016
P         8.49681568      7.32625389      3.66241312
P         8.89325237      7.83818531     12.36072445
S         8.84005737      9.07847118     10.91208744
S         9.28023434      8.63236332     14.27768898
S         6.90196180      7.23019838     12.63025856
S        10.20100212      6.36025810     12.13796425
P         8.64776897      7.28410912     20.51665878
S         8.78280735      8.46371841     22.25659943
S         9.16004372      8.31578636     18.91250420
S         9.74325562      5.36971521     20.49942017
S         6.72641277      6.29879093     20.21719170
P         8.21547318     16.47761154      3.50320935
S         8.57247925     17.61006737      5.06338739
S         6.47075510     15.26621246      3.74137306
S         8.51043797     17.69910812      1.75917971
S         9.98447895     15.26541138      3.46662927
P         8.37538147     15.99666595     11.96941853
S         6.33692551     15.32306290     12.12351990
S         8.72444820     17.29373550     13.63973808
S         9.57789421     14.38250160     11.98577213
S         8.38125420     17.14531326     10.23714447
P         8.47284031     16.18862915     20.74716759
S         9.07787991     17.59364319     19.43407440
S         9.82321930     14.54296207     20.66235733
S         8.61342812     17.10333824     22.71949959
S         6.62843418     15.39548397     20.50583267
P         9.04751968     25.15280914      3.58400369
S         8.59956264     23.18875885      3.78279924
S         7.86273241     25.97173882      2.21143270
S         9.23212719     26.15897942      5.27512932
S        10.91014004     25.22398758      2.63819742
S         9.01801586     26.64949226     13.61018467
P         9.11902905     25.17758751     12.09735680
S        11.17639732     24.38548279     12.01287174
S         9.18566704     26.23911667     10.17111397
S         7.37488031     23.98377419     11.90573597
S         8.68092918     26.22923851     22.38038063
P         8.82367897     25.11499596     20.53262711
S         8.85206985     26.54373932     18.99812126
S         7.47274208     23.79315186     20.30950928
S        10.72832203     24.32670784     20.38346291
S        19.66957855      5.88509798      3.94316673
P        17.99006271      6.93810749      3.76908588
S        16.07557869      6.09267378      3.84959936
S        18.22397804      8.33662319      2.36097860
S        17.70071030      7.92005110      5.69878721
S        17.34808350      8.62901402     13.93554878
P        17.51591110      7.42446661     12.12045383
S        15.69254875      6.27932024     12.06434917
S        19.25407028      6.36316681     12.15416527
S        17.31142998      8.69390202     10.41030407
S        17.71519661      8.36066341     22.27113724
P        17.67464447      7.06814432     20.81295776
S        15.82349205      6.12277651     20.48238564
S        19.01463699      5.54888487     20.79541397
S        17.69001579      8.29829693     19.01364136
S        17.33368683     17.05627060      5.34361172
P        17.23274040     16.24930382      3.50828481
S        17.22772598     17.56086922      1.99580121
S        15.47540665     14.95966244      3.52636719
S        19.00085449     15.10288143      3.38944554
S        17.53388023     17.74230385     10.55497074
P        17.31091499     16.72374535     12.39804935
S        18.93456841     15.25861549     12.36835194
S        15.44767094     15.56593609     12.09995842
S        17.28296661     17.63776588     14.29877472
S        17.20870018     17.79947853     22.13305664
S        16.70207214     17.31183815     18.67819214
P        17.11060524     16.50425148     20.59641075
S        19.02811050     15.65297318     20.47497368
S        15.66897964     14.96720123     20.90298653
S        19.47767067     23.96574783      3.40067983
S        17.68775940     26.21569061      5.22788382
P        17.79299736     25.04937363      3.68280387
S        17.29671097     26.12026596      1.94341171
S        16.00166512     23.87981987      3.83331680
S        17.82521820     26.53581047     13.53866673
S        17.79675293     26.53255272     10.25331974
P        17.71367073     25.26901817     11.94464111
S        19.35486603     24.13695908     11.81794357
S        15.95792198     24.12824631     11.75987148
S        17.68762779     26.71236420     22.03458786
S        17.69396210     26.48853302     18.25884438
P        17.68995667     25.66172791     20.30121613
S        19.50540733     24.88731003     20.21809769
S        16.11378670     24.35229492     20.50055695
S        25.86624527      8.29703808      5.36571360
S        26.29675865      8.19458485      1.90298712
P        26.03082275      7.23807764      3.71425033
S        27.96212196      6.30820513      4.03621292
S        24.61922073      5.89920330      3.53349018
S        27.93713188      5.94294691     12.14328575
S        24.62947464      5.97496557     11.53452396
P        26.32891655      7.00911188     11.66850758
S        25.99736404      8.04145622     13.34521675
S        26.60785484      8.37997437     10.00450897
S        24.31446457      6.65842676     20.42650604
S        26.74567986      8.64379311     19.10416412
P        26.22281837      7.33685637     20.49394989
S        26.22439384      8.44736481     22.26810265
S        27.52508736      5.80205393     20.87329292
S        25.72144508     17.82396889      5.44866085
S        24.86497688     14.93249416      3.85612249
P        26.17387772     16.39305115      3.74906850
S        25.81758690     17.48211479      2.06765032
S        28.17652893     15.92181969      3.59131956
S        25.51619148     17.42889977     10.57023716
S        27.78870392     15.48136997     12.05722713
P        25.87367821     16.26213837     12.17625523
S        25.60360527     17.48296165     13.94036293
S        24.44492912     14.93657112     12.17196655
S        27.77996826     15.73536873     20.47917747
S        25.33291054     17.41026306     19.37075996
P        25.88802910     16.23331070     20.84841728
S        24.32882690     14.84427166     21.16506577
S        25.88709450     17.35090065     22.72328568
S        24.05665779     24.79920959      3.85913634
S        25.91721153     26.59749985      1.71487629
S        27.16845512     23.89014053      3.57940006
P        25.91136360     25.53364372      3.41373587
S        26.33039093     26.64156914      5.13213110
S        27.87967682     24.36051750     11.55071640
S        25.29121208     26.16656494     10.19806862
S        26.38594818     27.10519218     13.27381992
P        26.03540421     25.55594635     12.14383221
S        25.08160591     24.00563812     12.91872883
S        28.12423897     24.53480721     20.52696419
S        24.30782890     24.93154907     20.23518181
S        26.57210541     26.78623390     18.91701889
P        26.32288933     25.68377876     20.54163742
S        26.59173965     26.73925018     22.27913475
S         4.72031498      7.03359938      0.89901555
S         2.67148733      9.45693207     -0.46258283
S         4.00815392      7.87558842     -2.73939919
S         6.34027481      9.27463055     -0.74223298
P         4.39131308      8.44176865     -0.71071106
S         2.96474338     10.21589279      7.70306730
S         5.13044548      8.24533749      6.07393122
S         4.57470417      7.78550768      9.50876999
S         6.52955294     10.26834488      8.25120831
P         4.63762379      9.22384453      8.01807690
S         3.01320505      9.74781418     16.38549614
S         6.54261684      9.71762657     16.41645813
S         4.35603619      7.35289288     14.97502899
S         4.79365158      7.88263798     18.47402382
P         4.60949516      8.68811417     16.63333511
S         2.38709831     18.83431435     -0.74353731
S         5.71978474     19.35933495     -0.93725890
S         4.28516722     16.87609291     -2.70198178
S         4.68912458     16.68647385      0.62618279
P         4.26137018     17.95173264     -0.95878708
S         3.88478136     16.72445297      9.84832096
S         2.69337368     19.09999466      8.09662056
S         4.55325651     16.94065285      6.43589354
S         5.99266005     19.11892700      8.34397888
P         4.27144003     17.82155228      8.19718075
S         4.95691442     16.60026360     14.57262325
S         4.70576191     16.78305435     18.08342552
S         2.39029121     18.53621674     16.76405525
S         5.86261702     19.15420532     16.37581062
P         4.39497662     17.67533684     16.31611824
P         4.50530815     26.57884789     -0.03348571
S         4.08066607     26.18288040      1.85048664
S         6.38823128     27.28631592     -0.42976817
S         3.43024969     28.36647606     -0.79449153
S         4.31896734     24.96229172     -1.28341138
P         4.28675842     26.59776878      7.46233416
S         4.72618532     25.73504448      5.56162691
S         2.52227163     27.47696304      7.90657568
S         6.25085068     27.57837677      7.83463478
S         4.46404696     25.44115257      8.97750664
P         4.65414047     26.49810600     16.17344856
S         6.67007303     27.31158638     16.07051277
S         3.11109805     27.84152603     16.06503868
S         4.62839985     25.64205551     18.00592804
S         4.60977650     25.10582161     14.56117821
P        12.88790798      8.60754871     -0.51236236
S        13.21040821      7.76229143     -2.39799953
S        11.04481411      9.50494766     -0.41692412
S        14.39785576      9.97479153     -0.24777400
S        13.38032627      7.14742470      0.99274516
P        12.84311676      8.37900543      8.09265995
S        14.55757141      9.60705090      7.73530102
S        13.09381390      7.54440975      9.84443378
S        13.18881321      6.81458902      6.78644371
S        10.96204376      9.35657597      7.89453173
P        13.31656647      8.85320854     16.56936836
S        11.79786301     10.32555580     16.69169807
S        13.02935314      7.64025974     14.83493423
S        13.47418213      7.81614208     18.14072990
S        15.10510826      9.62045383     16.16239738
P        13.12640381     17.77093887     -0.89740402
S        12.92412186     16.50921249      0.71670163
S        11.83692360     19.46055222     -0.86342072
S        12.87541866     16.65223694     -2.75285435
S        14.93350506     18.89104462     -0.90630680
P        13.02179050     17.46330833      7.96413374
S        13.34063625     16.19431305      9.54048157
S        11.14146042     18.44255447      8.16134262
S        13.02621078     16.64380074      6.16461563
S        14.68746471     18.68889809      8.14583874
P        12.80357552     17.59033775     16.44866180
S        14.59286785     18.81542397     16.16533279
S        11.06010628     18.66557693     16.30375099
S        12.82015705     16.97349548     18.50622559
S        12.97988319     16.04960632     15.10960770
P        13.23360062     26.58271599     -0.82603014
S        13.48623276     25.39215469      0.78811336
S        14.49831009     28.36700821     -0.57796168
S        11.35841274     27.27237129     -0.73085344
S        13.55933285     25.72954750     -2.62138367
S        13.63231468     25.09947014      9.37605476
P        13.04911137     26.11326790      7.54618645
S        11.33796406     27.27217674      7.75116444
S        14.81922913     27.26527977      7.23707867
S        13.11919689     24.83257675      5.92974710
S        13.27217388     25.60795784     15.10320377
S        13.08543110     26.11457253     18.26684761
P        13.28293610     27.10561562     16.40660667
S        11.63423920     28.06285667     15.89404488
S        15.07931805     28.00422096     16.22287941
S        20.13176918     10.20147228      0.24250376
S        23.61676788      9.96863079     -0.61035556
P        21.63359451      8.97220516     -0.32800999
S        21.33117294      8.14480782     -2.14642525
S        22.22496605      7.55608320      0.95500153
S        21.58946609      7.86516333      6.18664932
S        23.36476707     10.07963276      8.08417320
P        21.61361694      8.97820091      7.91032600
S        21.48143768      7.38663149      9.50455093
S        19.90419579     10.21132565      8.10516930
S        23.79796219     10.00382233     16.70575142
S        22.31436539      7.85912371     14.90584850
P        22.15282822      8.88174248     16.52058411
S        20.17662811     10.09749508     16.36555862
S        21.59825134      7.69846821     17.99296951
S        19.56732750     18.90626907     -0.59009475
S        21.40593147     16.69991112      1.35680509
P        21.19368744     17.77063370     -0.49953282
S        22.82409668     19.02079582     -0.63918394
S        21.35151482     16.40902138     -2.12530375
S        19.79639435     18.82007980      7.68605518
S        23.03521729     19.51695442      8.08632374
S        21.74274826     16.82183647      9.56573677
P        21.55690002     18.08949280      7.92878628
S        21.88451958     16.99736595      6.22603655
S        21.69786072     16.59518051     18.04311943
S        19.70351410     18.60435295     16.23962593
S        23.12886620     19.15589142     16.39395142
P        21.60001945     17.77500153     16.53004837
S        21.84605598     16.96508789     14.65877438
S        20.35558510     28.64744186     -0.23603493
S        21.14443588     25.81479073     -1.88163006
S        23.46362495     27.31327438     -0.34594479
P        21.42365074     26.97040558     -0.33440962
S        21.51591110     25.70313644      1.19991684
S        21.88246536     25.82841301      6.61542892
S        23.34382629     28.45748901      8.45893764
S        20.06971931     28.49774170      8.01382160
P        21.68266106     27.20846558      8.19147110
S        21.56739044     26.23261833     10.01424313
S        20.34669304     28.44012070     15.73335171
S        21.57964516     25.64623833     14.45534039
S        23.77642441     28.03510666     15.84154034
P        21.78404808     27.06327438     15.83243656
S        21.66209984     26.29016495     17.76011848
S         6.44051886     11.39662170      3.45745373
S         3.90791178     12.98238087      4.53555298
S         3.50385642     10.03448296      3.09627271
S         4.37095261     12.78296757      1.24933791
P         4.42267418     11.80551052      3.07173920
S         4.33983898     12.81370544     10.41969109
S         3.40542102     10.18338966     12.31198215
S         4.13101482     12.85404778     13.98269081
S         6.38904905     10.95155907     12.27975845
P         4.52656651     11.84293365     12.19990921
S         6.62257004     11.53256416     20.67393875
S         3.20807719     10.76286983     20.67398071
S         4.15315962     13.29374027     19.09407043
S         4.58425236     12.91040230     22.57283401
P         4.50551796     12.19576359     20.70218277
S         4.22314405     21.62349892      1.96681285
S         4.26071405     21.91684532      5.45658398
S         5.83071089     19.68438721      3.92718101
S         2.51620436     19.62341690      3.54657960
P         4.23971319     20.87806129      3.79841828
S         4.07065582     22.02187347     10.73962212
S         2.64817572     19.13395691     12.37314510
S         4.05410242     21.40933418     14.10235214
S         6.21403837     19.94489479     12.21598434
P         4.34526587     20.70585823     12.31855869
S         6.28168774     20.18343353     20.30202103
S         4.56692553     22.37098694     18.44857979
S         4.47717094     22.63039589     21.94909477
S         2.90799308     20.11489677     20.37598038
P         4.61978579     21.27104187     20.27017593
S         6.42796373     28.50691986      3.58742595
S         4.66723251     31.14781380      2.09113836
S         4.79488802     30.86144066      5.72904444
S         2.90061116     29.08697510      3.50948215
P         4.82202053     29.82740784      3.76580381
S         6.43391228     28.39037323     11.97208309
S         4.51913834     30.82863045     10.09650135
S         5.00220251     30.63308716     13.63185215
S         2.89782643     28.78778648     11.97817516
P         4.60406256     29.70239067     11.93820095
S         4.48362970     30.71619225     22.14868164
S         6.16235542     28.19974709     20.58942795
S         5.29622316     30.61120224     18.56936646
S         2.88738656     28.85707855     20.09367943
P         4.82304239     29.54718781     20.30671501
S        12.73984241     12.73088837      2.35874510
S        12.09471226      9.45929623      3.42467475
S        12.29065704     12.09963989      5.65283871
S        15.14373779     10.84133148      3.76938701
P        13.04821587     11.34226608      3.83192778
S        11.60501099     10.54865265     12.76297760
S        14.95241737     11.00213432     12.08655834
S        13.08079338     13.28753662     13.57721615
S        12.80108166     12.48343182     10.21276855
P        13.07600594     11.81375313     12.23788452
P        13.04668808     11.66114330     20.98130989
S        14.93446255     10.85277748     20.56116104
S        12.94170094     12.39786339     22.83217049
S        11.26966381     10.66329288     20.50598335
S        12.94885063     13.27579975     19.76361275
S        12.91920090     22.32630730      2.39683819
P        13.04661274     20.88608360      3.67464590
S        11.62621689     19.47986031      3.54903078
S        14.99340534     20.07144356      3.60597086
S        13.15398502     21.34979439      5.78244829
S        13.10085392     21.67182350     13.78133106
P        13.21815395     20.25157166     12.31242752
S        14.85485744     19.20903587     11.77265453
S        11.58876133     18.90581894     12.63007069
S        12.76401329     21.25068283     10.55033016
S        14.68884087     19.84766960     20.88755608
P        13.10982990     21.02468109     20.59296036
S        13.28169823     22.48234177     21.97207832
S        13.08691311     21.72989464     18.50464439
S        11.21664047     20.34332275     20.73820114
S        14.39730740     28.41190147      3.70923376
P        12.87539101     30.00564575      3.94029641
S        11.05832195     29.41763306      3.68489051
S        13.04729366     30.96145439      5.78263092
S        13.17841434     31.45287132      2.40998960
S        13.03247070     30.14091873      9.53397560
P        13.07071590     29.77921486     11.67117405
S        14.99981594     28.66824532     11.89416218
S        13.22544479     31.31432152     13.00138474
S        11.23944283     28.82576752     12.10543919
S        13.05296612     31.07239532     22.23671722
P        13.19557571     29.83691216     20.50658226
S        11.63156891     28.49638748     20.83941269
S        12.76562214     30.95065308     18.84498596
S        14.94953156     28.77272034     20.17351723
S        21.78081703     13.28181267      1.91094315
P        21.42554665     12.19758415      3.56683993
S        19.88187981     10.96543884      3.89962816
S        23.37189484     11.02706814      3.22081971
S        21.59336090     13.26854324      5.18223286
S        23.67196846     10.94510174     11.79890060
P        21.70134163     11.73030567     12.28449345
S        21.67680550     12.69044971     14.00156879
S        21.42048836     12.99849224     10.64443302
S        19.98826599     10.61706352     12.40566254
S        21.53699303     13.23644161     19.21782112
P        21.81091118     11.87827969     20.66410065
S        20.49201965     10.17308140     20.43346977
S        23.72816849     11.29948902     20.46543503
S        21.61595154     12.79360008     22.52582741
S        20.05531693     19.77236557      3.55546427
S        23.39710045     19.65393639      3.34129930
P        21.65774345     20.97698021      3.50721931
S        21.99663353     22.36716652      5.04584312
S        21.78700638     22.14101791      1.70439422
S        21.47851372     21.79879951     13.91747665
S        21.87531090     22.65363121     10.58393383
P        22.07557678     21.14915276     12.10222149
S        20.65706062     19.86633110     11.73914814
S        24.01082420     20.29217720     12.34116459
S        19.64981842     20.40863609     20.94950485
S        23.25918579     20.34415245     20.87753487
P        21.52767754     21.23324013     20.50252151
S        21.61376381     22.78678894     22.01869965
S        21.47418213     21.87049866     18.51298904
S        21.77360153     31.13839340      5.41772842
S        21.97511101     31.38280106      2.05152678
P        21.80907059     30.07173729      3.56826568
S        20.15340614     28.94310760      3.50246477
S        23.52236366     28.83345032      3.36130643
S        22.24952126     30.99972153     10.25556660
S        22.31655312     32.06064224     13.43113518
P        22.08353043     30.30331039     12.13547516
S        23.37200737     28.71916962     12.62730026
S        20.16026306     29.74429512     12.33249855
S        23.40880966     28.81266212     20.44089127
S        21.98265648     31.36812973     18.99884415
S        20.21553421     28.93720627     20.51776505
P        21.90898705     30.06893730     20.57607841
S        22.07548523     31.27488136     22.45502281
