864

Li     -109.55079651   -120.24645996    -69.15772247
Li      274.13568115    287.43118286   -224.65377808
Li       10.51640034   -137.41236877   -331.27587891
Li      -67.98845673   -245.96531677    372.36572266
Li       -9.96971893    321.88687134    -66.40674591
Li     -110.49828339    -49.14406586     49.97335815
Li     -261.23507690   -217.14918518    164.63603210
Li      106.31621552   -257.29586792    -38.18995667
Li      313.33981323     42.10459137     75.35707092
Li     -233.56750488    -85.48329926   -431.00308228
Li      190.94239807    -59.54951859    122.27687073
Li       31.73911476   -304.33563232   -106.88739014
Li       79.68962860     52.22819138    -85.55373383
Li      -33.07659912     64.25478363      7.42779922
Li      -44.98788452   -110.31925964    144.05148315
Li       57.75847244    419.30691528   -127.53907776
Li     -219.72123718     50.80019760    -28.32096863
Li      113.81906891   -143.65556335     48.40082932
Li      109.91773224   -237.86239624    157.06364441
Li      -11.67162800   -281.29602051    118.66723633
Li      240.11529541     77.50997162   -140.94822693
Li        2.20573425     -9.62067223     25.62396240
Li      -19.22722626     40.46422577     28.58745384
Li      178.58335876    -83.76966858    334.45513916
Li      373.23684692    230.39921570      0.28485218
Li     -119.22267151    354.56219482    -85.50440979
Li       -4.27641439     45.39118576      1.44390714
Li     -214.66215515    134.74443054    -17.11283112
Li     -127.57543182    343.86886597   -313.11175537
Li     -144.94697571   -107.45726013     72.57019043
Li     -119.43409729     89.13067627    287.73706055
Li      -67.66020966    270.00134277    236.69546509
Li      192.57864380    253.10308838     28.70994949
Li       45.19007492     44.92424774     67.11476898
Li       96.66994476    167.60061646    397.96496582
Li      128.59172058    721.31396484    298.39865112
Li      131.37121582     -1.94178736   -127.40656281
Li      -88.63646698   -231.42395020     62.75463867
Li      -20.47584915    111.63412476    304.04553223
Li     -127.45023346     99.70508575    -67.74136353
Li      270.79617310     39.07675171   -293.09661865
Li      127.27171326    188.05520630    402.23721313
Li      230.82423401    217.76454163   -483.46499634
Li        6.23864222    218.26524353   -247.24440002
Li     -166.91253662    171.12428284    -85.23234558
Li     -222.76556396    -94.41021729    -46.83602524
Li     -132.09223938    429.97982788     25.21253014
Li      396.18896484    125.03110504   -343.48757935
Li       41.69862366    285.38037109   -296.87893677
Li       40.71276474   -172.77536011    -30.73425865
Li       10.68215656   -361.09146118     16.36829758
Li       49.30224991    231.29251099    -13.14482689
Li        4.77717400    541.05322266    266.78579712
Li      127.08102417   -159.68875122      8.03467464
Li      -71.49945068    -98.57533264    -97.80365753
Li      121.97517395     40.86254120      2.13285899
Li       84.36357880    326.52639771    -80.68544006
Li      -37.23736954    130.31959534    202.94194031
Li      179.20587158    321.38525391     16.33229256
Li      -13.53020191    181.49099731     35.04178619
Li      105.19779968   -354.23468018     54.41139984
Li      161.67411804   -174.95739746    744.74749756
Li       57.87995911    -53.51231384     62.13860321
Li      -17.51897430    -46.98851013   -278.08923340
Li       70.74171448   -149.51438904    367.37857056
Li      -24.26247406    225.63293457    -17.25403786
Li      281.45327759   -175.34161377    277.20077515
Li      105.28735352     60.20224380    -72.33522797
Li      231.58290100     62.11723709    -26.16141510
Li        2.34098339     17.45214653    266.06085205
Li      -71.56570435   -185.89732361    186.09284973
Li     -227.57870483    310.71026611    109.64342499
Li     -260.59820557    270.37533569    448.33361816
Li       -1.79386973   -104.40597534   -327.49023438
Li      -97.66553497    282.32495117   -114.85687256
Li      -28.22811508    207.11993408    164.57759094
Li      300.37423706    -61.35213089     33.10808563
Li      -84.22892761    143.80108643    202.93588257
Li     -114.86248016    169.73262024    360.19335938
Li      -53.08302307    122.52177429    204.25695801
Li      -59.61788940    417.80856323    140.16546631
Li     -186.07373047   -126.45106506     86.64509583
Li     -252.95817566    143.57929993     25.14758873
Li      105.59338379    517.51989746    321.56274414
Li      -32.80220795    320.83557129      0.02051540
Li     -107.97313690     82.29124451    323.39981079
Li      204.88227844     37.64422226    173.37687683
Li       66.78787231     94.78240204     67.59061432
Li     -274.90100098   -118.46296692   -114.79053497
Li     -158.36012268    228.22142029    228.31750488
Li       84.59407043     13.96639633   -369.41983032
Li      134.86497498    -51.49877167    194.80957031
Li       -9.80553150    127.69509888    -61.74098969
Li      -11.16180515   -360.49661255   -148.85478210
Li      337.11730957     19.93073082     88.91692352
Li      295.04867554    167.94259644     87.49310303
Li       57.76635361     96.47224426    176.91307068
Li      240.45475769    -53.37836838    446.09121704
Li      136.25639343    -71.27512360   -563.27996826
Li     -153.67422485   -353.69433594    109.67478180
Li      110.09803772    -20.47374535    122.74059296
Li     -283.55578613   -357.97674561   -301.36633301
Li      115.64659119    376.81472778    260.17596436
Li     -127.90029907   -157.97251892     34.08451080
Li      515.64166260    -99.34031677   -288.37069702
Li       10.05274487   -168.11633301     88.24761200
Li       10.66487312    445.53274536    135.06169128
Li       75.34242249    250.75706482    292.47387695
Li      -32.05905914    -30.12237358     40.99079895
Li      -62.02464676   -109.92560577    342.72317505
Li       60.45426941    276.04272461   -363.34295654
Li      180.55279541   -179.07011414    165.68365479
Li      165.23837280     98.17018127     24.75509834
Li       93.08366394    -25.68018150   -111.57929993
Li     -101.05870819    228.90623474     -4.22106123
Li     -188.85771179    279.08361816    206.85214233
Li      149.36775208    349.50976562   -275.23867798
Li       91.96862793   -178.18254089    250.14370728
Li       90.11481476    -44.52165222    120.61205292
Li     -167.13768005    225.09855652    406.60494995
Li       58.67672729   -236.72326660   -190.76904297
Li      239.51556396    375.06179810     67.85123444
Li       19.38035965   -390.95587158    -21.59551620
Li     -149.58732605    -39.50464630     41.48715591
Li      136.04606628   -332.83560181    266.69897461
Li       38.53200912    135.72257996   -244.20713806
Li       79.38007355    331.19000244    -29.80259895
Li      209.47222900   -106.31730652    -51.59823990
Li       97.26374817    158.98059082    -81.38924408
Li     -264.09866333   -259.28433228    208.74777222
Li       62.52122116    405.30444336    -72.91194153
Li       49.78839493     86.06499481    144.23289490
Li      -52.64449692     55.25188446    -20.16743279
Li      161.90190125   -257.57128906    -56.00879669
Li      -92.52053070    127.55728912    -30.79523087
Li     -196.23464966   -102.61391449    -70.45704651
Li      -47.93898010    171.51071167   -159.36547852
Li      195.68070984    238.22743225   -165.71276855
Li     -162.09901428    -83.83407593   -114.83254242
Li     -184.65812683    455.16302490     96.19996643
Li      219.98330688    344.14031982      1.73012578
Li      339.05514526    171.81938171     96.42085266
Li      -75.33280182   -167.56025696    262.56054688
Li      -75.63457489    394.88125610   -106.18320465
Li      -20.51907921   -102.89580536     40.39380646
Li      428.47564697    109.19091797   -227.39718628
Li      100.67037201    165.98457336   -267.88903809
Li       88.41089630    212.49067688    101.45273590
Li     -192.49212646     26.54797935      3.72468162
Li      -19.95645332    100.16107178   -161.08642578
Li      -33.23724365     61.67451859    473.78869629
Li      -11.15493488    334.08816528     37.93719482
Li       50.47845078     50.36161423    315.33538818
Li       49.37331009   -375.67721558    152.32649231
Li      -24.29165268   -109.25489807    -81.05763245
Li     -124.18421936     -2.75967264     -0.91771352
Li       87.77828217   -448.60961914   -517.22979736
Li      -41.18029404    168.59600830    355.59481812
Li       -1.88955128    110.45595551   -187.86877441
Li     -106.42233276    250.77711487    249.69654846
Li       32.96444702   -186.78833008   -123.58446503
Li       14.93140221    122.28179169    229.61734009
Li       21.26516151   -180.20648193   -150.81121826
Li       28.12865257    -96.29010773    109.81063843
Li       -0.21984522    237.08085632   -349.84365845
Li      486.28137207   -129.09945679    338.02746582
Li       10.40381336    230.09080505    122.35209656
Li     -188.55567932    535.51361084   -165.28352356
Li     -136.91688538    487.25509644     71.38245392
Li      360.16506958    -36.77959442     71.53610992
Li       23.41433525   -123.02449799    415.58236694
Li     -110.96680450    870.67462158   -306.15039062
Li       67.11054993    210.35231018     -4.65498638
Li      377.36846924   -439.93478394    550.61132812
Li      321.88842773     15.62506390    347.15481567
Li       15.65265560   -145.97956848    -17.46646118
Li      178.31057739    462.11102295    206.23410034
Li       80.06369781    536.70892334   -305.91632080
Li     -287.80871582    295.61627197     88.69342041
Li      -23.46509933   -380.09848022    -89.27848816
Li      -62.31550217    -79.88592529   -256.11016846
Li      -19.74155998    108.08652496    130.73143005
Li     -213.83181763   -171.90190125    -30.46598816
Li       32.18432999   -305.21679688   -144.52687073
Li      -83.70225525    192.96755981    261.98724365
Li      119.31043243    -83.05339813   -127.53023529
Li      179.71934509    -91.86276245    -25.95505714
Li        1.54111731    153.68388367   -131.73535156
Li     -179.41468811    232.37313843    108.81027222
Li     -270.12564087    228.32693481     25.04513550
Li       -7.44929028    424.16339111   -114.85543823
Li       40.60332489   -112.34988403   -249.75428772
Li      311.86337280    309.25650024    184.32504272
Li      -47.46541595   -668.55670166    -66.24005127
Li      294.96859741    -16.11106873   -250.03141785
Li      278.24160767    122.92791748     97.46068573
Li      196.28474426    255.42982483      7.35334682
Li     -308.76885986      5.90280008    343.87481689
Li      -85.16528320    200.85537720   -161.97663879
Li     -136.28343201    113.22586823     96.24555969
Li      320.73300171     73.77729034   -146.14874268
Li       67.42820740    553.85253906    131.10020447
Li      -88.43504333    246.10569763   -216.36192322
Li     -215.20475769    158.75146484   -160.29928589
Li      286.66281128    -92.50456238   -148.92291260
Li      -79.57913208    453.82376099   -205.04574585
Li     -171.31640625   -154.86160278    -29.98283958
Li      160.82987976    -65.53763580   -454.11206055
Li     -190.42709351    -26.29266930    209.36260986
Li     -220.31175232    123.67084503   -240.54435730
Li     -109.90295410    181.55622864      9.38136673
Li     -153.13984680   -105.75662231    -68.59548187
Li     -132.57145691    313.40835571    236.38262939
Li       63.26082993   -187.20640564   -267.51150513
Li      313.38305664    307.34152222     28.54489326
Li      126.44510651   -141.80625916    266.49356079
Li       93.17210388   -601.11315918    -56.22549057
Li      355.78170776   -208.98509216     63.32834244
Li      -92.34057617    545.53308105    364.09454346
Li      325.89822388    356.97720337    172.66014099
Li       96.78271484    171.09977722     45.24129486
Li       78.66883087     86.42992401    178.82255554
Li     -240.03712463   -175.61433411     91.85726166
Li      256.45828247     67.08046722     79.70742798
Li      386.52688599    292.18081665    -72.64765167
Li      -41.74576187     41.42073059     85.69768524
Li     -170.68017578   -303.56271362    144.15623474
Li     -118.82122803   -235.41525269   -254.40177917
Li      -93.09140778   -222.08946228      8.12502098
Li     -110.94935608    209.11685181    379.93954468
Li      136.39616394   -169.69032288     54.83427048
Li     -386.43225098    -78.70075226   -148.98805237
Li      -73.78322601   -211.31964111   -333.27352905
Li       75.79106903   -236.14280701   -352.45861816
Li      265.17041016   -232.38456726     92.60397339
Li      201.09492493    -27.88458061    152.28213501
Li     -141.06877136   -158.04335022    220.26638794
Li       49.58774567     13.52367020   -360.63674927
Li       15.35665035    358.00823975   -297.20312500
Li       88.22814941    -18.01003647    -85.17778015
Li       76.11393738   -100.56101227    -93.60995483
Li       90.92753601   -120.72595215    -27.49980736
Li     -106.74074554    222.69052124    310.81015015
Li      172.11813354     40.53540039     44.58313751
Li      117.37369537    -30.35035133   -444.02038574
Li     -232.69689941     35.33588409    219.58778381
Li      295.52218628    222.61555481   -239.26863098
Li     -127.96475983      8.43366623     25.05979729
Li      609.49438477    217.72543335   -439.47750854
Li      -98.19335938    295.09008789    412.49960327
Li       41.11218643   -158.15788269    -25.70161438
Li     -127.48384094    -14.72007179     29.24676704
Li      157.79249573   -784.34674072    241.49147034
Li      110.21806335    279.74285889   -364.40591431
Li     -473.85903931   -149.88418579    211.27093506
Li       70.46771240    146.70301819   -334.62826538
Li       18.80009079    427.37878418   -136.57279968
Li      -65.05197144    222.93542480    -27.91211700
Li      -62.61417007   -191.11701965    118.20629120
Li       77.78293610    257.94546509     10.53290462
Li      -28.55513000   -164.20512390    287.42175293
Li     -166.46302795    170.09072876   -157.52165222
Li        5.81892776    115.83765411   -119.59519196
Li      -19.83464050    -63.34199524    287.66003418
Li     -101.81594086    -60.38095093    -85.94087982
Li     -374.35952759    -35.98713684    305.24917603
Li      -41.68297958    -23.11407661   -132.30560303
Li       -6.38974953     28.25012779   -293.99072266
Li      157.74046326    -31.41140747   -318.79284668
Li     -274.51498413     17.99603844      3.22565150
Li        5.69740677   -114.77006531   -101.97310638
Li      -84.38784790    229.34301758    406.32748413
Li      -49.78211212    274.15756226   -258.77960205
Li       31.96567154    159.87432861    326.51907349
Li     -115.63742828     62.88960266    -93.47080231
Li      189.71736145    154.71359253    167.23269653
Li        1.93491018    120.21239471   -440.95901489
Li     -252.52941895     31.38834190   -191.72174072
Li       74.87728119    232.77626038    258.59915161
Li     -290.75119019     20.98016930    359.78094482
Li       52.14664841    211.89468384   -106.96995544
Li        1.72590768    282.50427246     -0.51918900
Li      -29.13044739    778.21575928    118.37088776
Li      -55.66997528    132.95982361   -104.14134216
Li       40.73385239   -218.32507324    -17.32850266
Li       15.01288795     31.20642662    -21.91828537
Li       97.08830261   -406.27072144    181.70620728
Li       79.53378296     59.46015167   -110.39552307
Li      -75.96195984    280.63586426   -140.19613647
Li       44.90558624    191.33370972    123.45777893
Li       79.92620087    132.39916992    148.84471130
Li      125.08149719     31.46671104     65.41442871
Li      113.83129120    408.23181152      4.63831663
Li     -105.54290771    202.10231018    194.03854370
Li     -244.58415222   -266.25567627     62.67131424
Li      -44.83746719    159.32292175   -201.88803101
Li      -84.62219238      1.57543576    143.51779175
Li     -153.63351440    236.27793884   -199.56230164
Li      -84.47365570    565.06445312     84.41622162
Li      -59.88761520    233.65751648   -102.09241486
Li      412.18853760   -144.70468140   -221.00559998
Li      192.25743103     83.81382751    203.16011047
Li     -240.63661194   -185.53356934   -115.43421936
Li     -438.93075562    150.91703796    270.34130859
Li       10.06578922    -83.16339874    198.82502747
Li       14.89855957    -54.09137344   -132.08515930
Li      -37.11999130    370.26007080    240.92999268
Li       19.41218376   -320.96090698   -200.54930115
Li      -60.20625687    345.32708740    336.18008423
Li      -68.61855316    -83.35628510    164.04536438
Li      187.54981995   -118.01418304    127.28544617
Li      -93.39244080     59.17823029   -353.46279907
Li     -146.80043030     91.66443634    344.76959229
Li      187.98377991    -26.82338524   -254.72010803
Li      108.03452301    488.19210815   -158.92938232
Li     -222.18061829    396.14541626    287.43630981
Li      244.37565613   -343.83859253   -115.43528748
Li       94.95388031   -193.92770386   -150.73988342
Li      212.22273254    370.20562744    -30.83263779
Li     -105.68949890    382.44250488    147.97285461
Li     -300.23431396   -276.64657593    359.37835693
Li     -158.50793457    151.19738770   -111.19715881
Li       58.99182510     24.35001945   -373.23510742
Li       62.47525024   -228.64186096    224.23130798
S         0.01907657      0.66381705     -0.31592572
P        -0.47431496      1.37757909      1.53967357
S        -0.57269454      0.12135242      3.03943348
S         0.89019036      2.96597743      2.08927298
S        -2.23159170      2.63225389      1.39025033
S        -1.42427182      3.08312845     10.05621052
P         0.25537655      1.92519486     10.24862194
S         0.32567981      0.96119583     12.01414108
S         0.47955787      0.75454462      8.47081947
S         2.01940489      2.98067355     10.14534092
S        -0.13007140      0.79125482     20.36443138
S        -1.74967301      2.62227154     18.30570030
P        -0.01010117      1.79577875     18.45053101
S         0.01856431      0.84562707     16.56766129
S         1.52010036      3.19431973     18.73003769
S         0.02982260      9.77657986      3.27290750
S        -2.06663585     11.93270111      1.41331542
P        -0.23810473     10.87980461      1.68374896
S        -0.15048933      9.73782539     -0.06219356
S         1.11397326     12.39639950      1.30724370
S        -0.11944926      8.94255829     11.29818058
S        -1.59065628     11.84652805     10.64315987
P        -0.10872766     10.61277485     10.09371662
S        -0.20402497      9.83029747      8.15495396
S         1.69158781     11.66977978     10.34789753
S        -0.15165177     10.11639881     16.88625336
S         1.90014839     11.29938602     19.12856483
P        -0.07982539     10.78922176     18.83269501
S        -0.52327877      9.20846176     20.01152992
S        -1.59387565     12.11894608     18.95988464
S         1.12170482     21.26210594      1.62004542
S        -0.00560967     18.48028374     -0.19977811
P        -0.14941378     19.84202003      1.51621866
S        -2.07554388     20.64419365      0.93923938
S        -0.19037734     18.84944916      3.42606497
S         1.86248755     19.93288231     10.18021774
S        -0.14247429     18.08049011     11.36356831
P        -0.04231485     19.44828987      9.85506630
S        -0.39049172     18.53854942      8.06180859
S        -1.46408081     20.84567070     10.48570251
S        -0.18607105     17.98021507     16.29524612
S        -1.87333477     20.44255829     17.98065376
P        -0.28852102     19.18325043     17.95482635
S         1.41610789     20.36289978     18.21119118
S        -0.51835239     17.83034134     19.56306076
S         9.26776505      0.60954154     -0.09501600
S         8.58303165      0.35890478      3.18224072
P         8.79663944      1.56378841      1.52327967
S         6.90574074      2.41912055      1.22072351
S        10.63119793      2.48058510      2.14344645
S         8.34083652      0.42168659     11.72437954
S         8.52097130      0.45503849      8.10259438
P         8.43256092      1.48954880      9.84570885
S        10.08613396      2.73396921     10.03009033
S         6.77587891      2.56855369     10.02403736
S         8.40157318      0.39693227     16.65117645
S         6.98153162      2.81642413     18.83992767
P         8.30087948      1.43633926     18.50272751
S        10.14004135      2.50878263     18.72167969
S         8.25140381     -0.12557533     19.89300537
S         8.46562099      9.05309200     -0.23674591
S         6.68426228     11.34858799      1.76917934
P         8.36270905     10.07463551      1.66283274
S        10.25052166     10.97729969      2.00553036
S         8.16817188      8.98941231      3.46788454
S         7.03868532     12.06367779     10.04061413
S        10.42312145     11.99616814     10.30690765
S         8.42260838      9.66838169     11.79472065
P         8.74520969     10.77811432     10.13253021
S         8.91388798      9.83344460      8.31315899
S         8.14158630      9.75478363     16.67239380
S        10.13800049     11.46795750     19.00346565
S         6.94050837     11.98162270     18.69399834
P         8.40933895     10.61544800     18.65612793
S         7.82105684      9.03458595     19.89408875
S         8.20253181     18.15719986      2.79134035
S         8.12026119     18.77288437     -0.38068816
S         7.10937405     21.12976837      1.83720767
P         8.56900597     19.85379410      1.39603698
S        10.52741051     20.69246292      1.42215323
S         8.44791889     18.42289352     11.91201401
S         7.17147017     20.80473137     10.51103973
S        10.57257652     20.50078392      9.97999668
P         8.70889759     19.64267540     10.14778042
S         8.27925110     18.89643097      8.23389626
S         6.67705393     20.34252167     18.44873619
S         8.43838692     18.37274170     20.56003571
S         8.37457657     17.63801193     17.31046104
P         8.47244358     19.24107933     18.72731590
S        10.21812439     20.33556557     18.44859695
S        17.06296921      0.56261319     -0.00145278
S        16.69212151      0.86020732      3.36896968
S        18.42771339      3.24994898      1.22623456
P        16.74838638      1.96686697      1.54211485
S        14.88439941      2.70359182      1.30039763
S        18.73992920      2.63606358      9.60305119
S        16.72280312      0.38578093      8.45057011
S        15.43724632      3.13998199      9.99131870
S        17.11615944      0.65083909     11.79941368
P        16.90169716      1.71596563      9.93395996
S        15.36693859      2.70210075     18.18582916
S        18.97537613      2.77061200     18.34423828
S        17.29773903      0.22943982     16.79579926
S        17.05592728      0.56931847     20.00139809
P        17.20828247      1.65567505     18.24284363
S        17.07196426      9.41452885      3.56674123
S        18.80096436     11.49498844      1.84116817
S        15.73663521     11.90888500      1.74799097
S        16.95400238      9.13633728      0.19951646
P        17.16724396     10.42167377      1.69886088
S        18.83393860     11.42720222      9.86013699
S        15.63241768     11.94904900      9.54689693
S        16.63217735      9.42194843     11.59016132
S        16.71148300      9.27536964      8.17615128
P        17.02684021     10.37470818      9.94163513
S        16.85291100      9.34648228     20.44298172
S        14.86399364     11.56616974     18.70828629
S        16.48677826      9.28471279     16.88327026
S        18.09601402     11.74303150     18.39433098
P        16.55092239     10.43901539     18.68760490
S        16.76989555     18.62854195      3.36854768
S        17.21629524     18.75697136      0.02731767
S        18.34958076     21.29920959      2.00116014
S        15.03504181     20.86795807      1.52286088
P        16.73840904     19.83830070      1.83761156
S        18.51780701     21.16831017     10.20387173
S        16.92611885     18.84449768      8.40031338
S        15.11666203     21.01591873     10.26152897
S        16.88633728     18.50466728     11.83827686
P        16.94331360     19.92750740     10.09396935
S        16.59271812     18.44891357     16.76985168
S        17.08152199     18.43569756     20.07830048
S        15.72149563     21.25099182     18.56414223
S        19.00268936     20.61627007     18.33199883
P        17.18733978     19.68998909     18.32612038
S         7.95565987     -3.11017823      4.13834190
S         8.97967911     -3.42308354      7.29870462
S         6.96025085     -5.72866869      5.97678518
S        10.48705387     -5.23317814      5.46522999
P         8.63277531     -4.34021711      5.59282923
P         8.37703896     -4.87176275     14.43093204
S         8.12819481     -3.68236828     16.21512985
S         8.62034321     -3.81134152     12.70021534
S        10.19756222     -5.80713177     14.49983406
S         6.68641567     -6.08995485     14.46158981
P         8.38878918     -4.24267101     23.08409691
S         8.41328430     -3.12004232     21.34334183
S         8.56848145     -3.17199469     24.91571808
S         6.47843790     -4.90318298     23.11158752
S        10.02511883     -5.54634047     22.84687996
P         8.52330971      4.79233885      6.01894236
S         8.44307232      5.66613102      3.98385644
S         6.70967722      3.59850574      5.83757639
S        10.08124638      3.66342902      6.25959110
S         8.37783813      6.56544876      6.92109251
P         8.03968048      4.38146591     14.22957993
S         8.16696358      5.30624008     15.99077892
S         6.25790787      3.42212129     14.11191940
S         8.25664043      5.78373814     12.71199226
S         9.71553612      3.13504243     14.10667419
P         8.55975914      4.14076042     22.86308479
S         8.47041130      5.43058491     21.25701523
S         7.28243828      2.60823631     22.77683449
S        10.50117207      3.39883304     22.84159851
S         8.17588902      5.26935053     24.48049927
P         8.37013054     13.58796787      5.92710590
S        10.23042393     12.75111485      5.94327545
S         8.27121162     14.87627602      4.22481871
S         6.81001043     12.36956406      5.54688597
S         8.12911034     14.44121647      7.74744368
S         6.66957426     12.68949795     13.92708969
P         8.53280830     13.60488605     14.36844826
S         8.42426682     14.60614204     16.31260109
S         8.90962219     14.92785931     12.81129932
S        10.06281567     12.40994358     14.43250465
S         8.10131073     14.45114613     25.03241158
P         8.30998707     13.17432022     23.30172920
S         8.67749023     14.32962227     21.51461220
S         6.37028360     12.56700420     22.80769157
S         9.99598312     11.97411060     23.69084358
S        17.19844246     -3.25938153      7.50816202
P        17.28194427     -4.53142166      5.90238190
S        15.70073700     -6.08585262      5.71202612
S        18.98933220     -5.71598387      5.83546209
S        17.20707893     -3.43308806      4.20078993
S        17.08535767     -2.83887815     15.86216068
P        17.02892494     -4.16713285     14.35021591
S        18.72944069     -5.30675936     14.19641972
S        16.87181664     -3.23602986     12.33953094
S        15.23248577     -5.25909853     14.41269016
S        18.83803368     -5.45176554     22.44643211
P        17.17073441     -4.38311243     22.60346794
S        17.13147545     -3.25641680     24.44389725
S        15.24763680     -5.34938145     22.63909340
S        17.27742577     -2.99782634     20.78638649
S        17.46205139      5.64020157      7.60687304
P        17.26830292      4.53062868      5.95709038
S        17.41900826      5.67272139      4.18743515
S        15.29201412      3.87185431      6.03747654
S        18.63237000      2.97740173      5.74803686
S        15.08583355      3.83038926     14.12104702
P        16.96720505      4.82672405     14.12212563
S        18.46986198      3.52432895     14.30715084
S        16.50935173      5.83603430     15.84880733
S        16.98006058      6.16336250     12.61109352
S        18.66045189      3.64179301     22.70428085
S        17.03076363      5.66977072     20.60437965
P        16.83590508      4.83838272     22.52773094
S        15.20354462      3.81201053     22.85944748
S        16.94647598      6.07903385     24.15553474
S        17.63101578     15.04314232      7.18610668
S        18.53675842     12.61934376      5.41402626
P        16.97647667     13.93365479      5.44302797
S        15.09433746     13.29211807      5.49291563
S        17.17342377     15.03431320      3.77845550
S        15.35289478     12.14898396     14.47792530
S        18.86720276     12.42018509     14.29879284
P        16.88940620     13.34936142     14.28086853
S        16.84267616     14.49088287     12.51805687
S        16.85679436     14.66161060     15.78314114
S        16.68255615     15.10281277     21.50259209
S        16.99237442     14.49006462     25.14871788
P        16.72536278     13.82379246     23.14041328
S        15.03703690     12.66105461     23.45475006
S        18.53792953     12.73809433     22.73013687
S        25.59687424     -3.57958388      4.04144955
S        25.49600220     -2.70116234      7.29170465
P        25.48434830     -4.29978085      5.97233009
S        23.79980469     -5.30785513      6.17577505
S        27.34669876     -5.25497150      6.13665676
S        25.82551193     -3.19947076     15.86495972
S        27.08166504     -5.33350897     13.63180637
P        25.54671669     -3.89746308     13.98144913
S        23.83024979     -4.72087526     13.98737240
S        25.73837852     -2.57682061     12.26639748
S        26.90456963     -5.69986582     22.63631058
S        23.56308937     -4.99724579     22.94681358
P        25.52302551     -4.28649855     23.07789803
S        25.67774200     -3.21981049     24.82879639
S        25.67660522     -3.02271199     21.52190971
S        25.46163559      5.99205780      4.54167080
S        25.18190575      5.21191072      7.95595169
P        25.69203377      4.67872763      6.16935873
S        24.39074898      3.14327788      5.89909792
S        27.72439194      4.14615345      6.06043625
S        25.68078423      5.99935961     15.98875523
S        23.78318405      3.81578565     14.34530067
P        25.80717850      4.77622604     14.43519974
S        25.73639870      5.88419390     12.74076176
S        27.54007339      3.70115304     14.53934002
S        27.57890129      3.93921304     23.06939697
S        25.34738541      5.85808992     24.66754532
P        25.45290756      4.58736420     23.08622360
S        25.25327110      5.58334064     21.32926369
S        24.41679192      2.94251370     23.45452309
S        25.39896202     14.78289318      8.11053944
S        27.37886238     12.86938667      6.13663483
S        25.24432373     15.58196640      5.16163349
P        25.54145241     13.89028835      6.33714056
S        23.85620880     12.69614792      6.24562120
S        27.02248383     12.54160404     13.79418564
S        23.68178558     12.63460064     13.77626038
S        25.37484741     15.15647984     12.71117592
P        25.43358421     13.67043304     14.09704304
S        25.31804848     14.55004692     15.85514259
S        23.64972878     12.78720570     23.15603638
S        25.73415947     14.83061886     21.22871017
S        27.29080772     12.87469387     23.29665756
P        25.46244240     13.90656853     23.08496666
S        25.71819305     15.08513165     24.63245773
S         3.89681363     -4.34201717      0.18701135
S         4.18088102     -4.44413376      3.71824789
S         1.98406136     -2.58809471      1.90208948
S         5.19396496     -1.84951770      1.57894933
P         3.76335669     -3.36037636      2.04786134
S         4.55470991     -4.25016117      8.31431103
S         4.29108906     -4.31611156     11.55398941
S         2.88658047     -1.79926372     10.25444317
S         5.98158360     -1.96910644     10.40489483
P         4.31756878     -3.11023021      9.95558739
S         3.57079768     -4.22521687     17.24265099
S         3.93605494     -4.24790049     20.40340233
S         2.47826004     -1.48507035     18.80806351
S         5.74069262     -2.00522804     18.98792648
P         3.92688537     -2.96177697     18.77316093
S         3.92205548      4.63372946     -0.05975306
S         2.10919881      6.86119604      1.75258160
S         5.68433952      7.18214798      1.92247391
S         3.89232230      4.66296434      3.30219936
P         4.15203762      5.79591894      1.64287686
S         4.30527687      5.42383575      8.25870228
S         2.37446260      7.22004938     10.26647949
S         5.95897388      7.59979343     10.36543560
S         4.31949043      4.91833448     11.65585899
P         4.13586473      6.36494589     10.18290329
S         5.49995613      7.03702927     18.76384354
S         4.25815773      4.67121458     20.56444550
S         4.10797596      4.60794497     17.10572052
S         2.21910429      6.79199266     18.93508148
P         3.90787792      5.67297935     18.85656548
P         3.92378902     14.45383167      1.48576844
S         3.85791016     13.40854359     -0.20744559
S         2.29974413     15.78810692      1.52054250
S         5.74563980     15.54663754      1.47323656
S         4.23758554     13.64499664      3.27948833
P         4.29938364     14.96794033      9.65625668
S         2.37205100     15.72169495      9.74843884
S         4.62801838     13.69179440     11.21053696
S         5.96635771     16.16069603      9.65145111
S         3.96388197     13.91172123      7.62171030
P         3.98727846     14.90733337     18.53013992
S         2.32146001     16.04819489     18.64377785
S         4.00970602     13.73646069     20.21129417
S         5.59950018     16.12049484     18.29226303
S         3.76024294     13.71254444     16.81509972
P        12.95777607     -2.70722222      1.65322828
S        12.76453590     -3.93102288     -0.09578859
S        12.53292847     -3.45286727      3.42493057
S        11.66254425     -1.16790318      1.23291206
S        14.94809628     -2.10848975      1.77444506
P        12.56180000     -3.26850891     10.16873360
S        10.71749401     -2.02209878      9.86245632
S        14.30629444     -2.07175803     10.13750744
S        12.80077362     -4.24147367      8.47567749
S        12.56289577     -4.55172682     11.77254105
P        12.72028542     -2.83927608     18.73612976
S        12.93709946     -3.72831130     16.92992783
S        12.39059734     -3.85235596     20.50163269
S        11.03936100     -1.65556681     18.56995201
S        14.49164963     -1.91050899     18.93249130
P        12.79071426      5.87033415      1.69152939
S        12.95963192      5.16241837      3.65528107
S        12.63400936      4.76914072      0.06070084
S        14.47495365      7.04733324      1.72078979
S        11.01653957      7.00886965      1.60829389
P        12.56821728      6.05868673     10.10701656
S        10.97727680      7.42510986     10.10492992
S        12.38686562      5.12700224     11.84811497
S        14.24008369      7.17014313     10.09332180
S        12.74125481      4.90508938      8.48297596
P        12.30116367      6.10104895     18.84638596
S        12.09518337      4.93506050     17.13600731
S        12.50001335      4.93017483     20.43681526
S        10.64348602      7.38306284     18.87881851
S        13.91196346      7.61422062     18.58998871
P        12.52096272     15.49288464      1.62119985
S        12.60735226     14.08050919      0.10148588
S        12.77944374     14.32158756      3.31945920
S        10.88591099     16.77586746      1.33764303
S        14.14874935     16.74293137      1.66262019
S        11.00389767     16.43829918     10.32695961
P        12.78062248     15.25605202     10.06402016
S        14.56467438     16.50819206     10.03297138
S        13.16397285     13.83905697     11.56546688
S        12.37885571     14.25844574      8.39435482
S        12.42635250     14.08992767     20.53405571
S        12.51562691     14.07754803     17.01117897
P        12.84047699     15.03830624     18.76236534
S        14.74739265     15.47657871     18.51265144
S        11.92189217     16.78634644     18.55577850
S        22.58747292     -1.75565684      1.60546625
S        19.30196190     -2.38319135      1.95990694
P        21.09540558     -3.03142953      1.70403183
S        21.86635590     -4.43181515      3.17197919
S        21.17078590     -3.89702559     -0.05068586
S        23.18562317     -1.77117646     10.40735626
S        21.24036217     -4.08189869     11.86487103
P        21.41648293     -2.91818738     10.08087540
S        21.44876480     -3.83442354      8.31856823
S        19.91358948     -1.35312092     10.00435448
S        21.81725121     -3.63306904     20.31692123
S        21.51273727     -4.33567524     16.96174812
P        21.51791954     -2.88803244     18.43575287
S        22.98131371     -1.46627736     18.22331619
S        19.82152557     -1.82023036     18.54428482
S        21.69629097      5.21360064      3.18453312
S        23.22158623      7.46812391      1.46788311
P        21.67522240      6.25815630      1.44522381
S        20.10510254      7.57130814      1.53848958
S        21.51052666      5.37529850     -0.35277128
S        21.23999405      5.13870621      8.22414875
S        19.77329063      7.53120661      9.88267708
S        21.42144203      4.99872303     11.86280441
P        21.41827011      6.18683672     10.08484077
S        23.06515503      7.35215807     10.00279999
S        21.33697701      4.07068729     16.82304764
S        19.78083611      6.73561621     17.93598557
S        21.52530098      4.76657152     20.14981270
P        21.53299713      5.66305542     18.26448822
S        23.29516411      6.78252602     18.13738823
S        19.79593086     16.68480110      1.32143152
S        20.83047295     13.89722633     -0.22249892
S        22.94537735     16.10798264      1.74272704
P        21.07016563     15.12279797      1.44997549
S        21.21745682     14.10772610      3.34122181
S        20.93115044     14.31538677     12.01081467
S        22.85676575     16.31774330      9.87105942
S        21.09949684     13.84159470      8.47118664
P        21.14595985     15.29156113     10.15245914
S        19.32400322     16.24060249     10.10388279
S        22.70336914     16.76748848     18.51525116
S        21.32092094     14.34485722     20.36476517
S        19.31283951     16.04449654     17.99085236
P        21.09786987     15.24994087     18.61162186
S        21.71832275     13.96828938     17.08673096
S         5.59176254     -0.94303107      5.89142323
S         3.99634910      0.98683208      4.01432657
S         3.84556603      0.98006314      7.80857134
S         2.36639643     -1.29737854      5.76807690
P         3.83887982      0.05377904      5.90265894
S         4.30590630      1.34984863     13.11317730
S         4.04372644      0.78512871     16.43237686
S         6.24821711     -1.16904092     14.31311703
S         3.07528973     -1.56778073     14.31707764
P         4.45414400      0.01711906     14.59041977
S         4.14324760      1.28729975     21.18657303
S         3.89935994      1.01569927     24.67564011
S         5.72361946     -1.05193532     23.05258560
S         2.32859039     -1.03796971     22.88655853
P         4.02702951      0.05443200     22.86272049
S         2.14871526      8.45056248      5.66823912
S         5.53020144      8.37790775      5.66311789
S         4.00950861     10.18363190      7.76650190
S         3.81792140     10.76978111      4.16269875
P         3.80438972      9.49563217      5.80047512
S         3.84027004     10.33228016     16.23866272
S         2.52073526      7.97450495     14.46821213
S         5.70087767      7.97589684     14.90894985
S         3.95159864     10.65207672     12.96893406
P         4.09690475      9.22993660     14.66139030
S         5.68679476      7.82834864     22.93099594
S         4.06936073      9.99023628     21.08694649
S         3.86904836     10.02979374     24.68021584
S         2.23267865      7.63329458     22.81268501
P         3.91138458      8.88952065     22.90846252
S         5.88329649     16.95940399      6.05592823
S         4.37889433     19.15689278      4.44551802
S         4.13222790     19.36553955      7.84189320
S         2.03786016     17.24164009      5.78256750
P         4.08547306     18.03054428      6.13109398
S         6.09625483     17.24577332     14.51395988
S         2.57935905     16.34350395     14.13816166
S         4.04820681     18.90963936     12.41171360
S         3.57369089     19.26789665     15.78351402
P         4.17156839     18.11386490     14.25875664
S         3.63031554     19.11029816     21.15327835
S         2.50293159     16.80994034     22.89521027
S         4.02093363     19.12979698     24.46524048
S         5.83991146     16.94245338     22.44231224
P         4.14652538     17.86987305     22.69916344
S        12.65892315      1.10396266      4.27244377
S        10.95768929     -1.00236499      5.77221823
S        12.95533848      0.80951136      7.76623201
S        14.36836624     -1.29151022      5.73658323
P        12.70142746     -0.12143468      5.85343361
S        12.77888298      1.36686158     15.49270153
S        12.63470364      0.80189645     12.21412563
S        11.79824829     -1.44613540     14.41584778
S        14.84301567     -0.76598716     14.28714752
P        13.06350136     -0.04330980     14.01257038
P        13.13094139      0.10686675     22.62008095
S        14.72392559     -1.15602803     22.62174034
S        11.35226345     -0.96454465     22.69505882
S        13.02310467      1.48733819     20.89858055
S        13.24205971      1.28984582     24.25375175
S        11.08885956      8.30336857      5.62658119
P        12.92657757      9.37056065      5.76041889
S        14.50094032      8.13344383      5.88275909
S        13.10910416     10.45129871      3.95700741
S        12.68805122     10.51356792      7.68364811
S        10.67052174      8.04174709     14.11631870
P        12.52550793      8.99311066     14.38261318
S        12.31413364     10.33688068     15.94580364
S        14.04781628      7.43524981     14.36070156
S        12.87973690      9.99082947     12.66801262
S        12.68844032     10.00394917     24.63178635
P        12.74955463      8.87617207     22.98552132
S        14.51466942      7.68673420     22.90846443
S        11.11300278      7.51530647     23.27743530
S        12.29090405     10.15303707     21.46815872
S        11.45592976     17.11851501      5.51015139
P        12.69132805     18.55388641      5.87239552
S        12.16922188     19.67132950      7.44160318
S        14.77034473     17.96128845      5.93529463
S        12.36341476     19.55355644      4.03468704
S        12.83929157     19.22954369     16.02916336
P        12.91040134     18.17363358     14.29493904
S        12.69863605     19.24336243     12.60671520
S        14.39646149     16.95074844     14.55393982
S        11.23535824     16.94262695     14.59179211
S        13.08617115     19.03386879     20.92910767
P        13.03881645     18.20652771     22.80619621
S        12.61147690     19.59225655     24.25342178
S        11.25752354     17.11994362     22.88280487
S        14.77814960     17.20951080     23.02836990
S        21.11979103      1.99804580      4.19197893
P        21.31355286      0.59486288      5.66412449
S        23.08384132     -0.38344416      5.24165440
S        21.71579552      1.27226377      7.61555529
S        19.62758636     -0.70911956      5.86356449
S        19.67299652     -1.00942600     14.27740192
P        21.38194847     -0.02546818     14.17858982
S        21.47807312      1.34507215     15.75952339
S        22.99620056     -1.33110976     14.23993778
S        21.68330765      1.14269495     12.56544590
S        21.73388863      0.94666433     20.82995415
P        21.49936295      0.16829573     22.64892578
S        19.73651123     -0.95142365     22.75567436
S        23.15525818     -0.87349749     23.25978470
S        21.14152336      1.45974529     24.25570107
S        22.22053719     10.47584248      3.92990160
S        21.52703094     10.59865761      7.40031528
P        21.80557251      9.29239655      5.82299519
S        23.44536591      8.11448288      6.05962610
S        20.03576469      8.30861759      5.77395248
S        20.65404510      9.83670521     15.98072052
S        20.42900276      9.60148335     12.56414413
P        21.05033875      8.78182888     14.31482601
S        20.02139091      7.09994698     14.28052711
S        23.07631493      8.52769566     14.22688007
S        21.16703987     10.81045532     21.22309494
S        23.03988457      8.43002987     22.53764725
P        21.07133865      9.35800552     22.51251793
S        19.54193306      8.07622051     22.40207100
S        20.90717697     10.02355480     24.48247910
S        22.00811005     16.61853600      6.22713232
S        18.94751549     17.57499695      5.62023354
P        20.87907600     18.23511314      5.73423481
S        21.84409523     18.94798851      4.03670359
S        21.27274704     19.42591476      7.39669800
S        21.23571205     18.67636490     12.01849651
S        21.07195091     19.52535248     15.40294266
P        21.01927757     17.97695541     13.97504711
S        22.83267593     17.09243584     14.32529068
S        19.26031494     16.74977112     14.34917927
S        21.12167549     19.67192650     24.54310989
S        19.61950684     17.02009201     22.77237129
S        21.15669632     19.46046829     21.19017982
P        21.12827492     18.30565071     22.96113205
S        22.88846588     17.31064796     22.97575951
