864

Li       74.59680176   -142.44189453    142.40786743
Li      104.73423004   -130.00221252     27.62634087
Li      -34.82419968      1.44552112    251.88583374
Li      -38.27305984    156.28994751     27.66979408
Li       36.10493469    172.36871338     24.58635330
Li      -12.14515114   -261.75454712   -133.13255310
Li       56.78198242    235.55049133     -7.11874199
Li      -29.27709770   -156.57643127     41.35146713
Li      144.10296631    -31.56501389    134.44763184
Li      165.23379517    248.67971802    -60.38619614
Li      -89.47482300     33.66113663     41.15928650
Li        1.62259388    -96.84175110    303.18948364
Li      169.23533630   -144.55160522   -116.38460541
Li      -52.45218277   -229.69897461     25.91506767
Li        1.09029734    214.98710632     11.41824436
Li       57.52311325   -193.86843872     27.59223175
Li      147.48461914     -5.58321762     32.78846359
Li       73.99652863    -24.69831276    -55.71141434
Li      -33.73876190    -70.31292725   -242.89288330
Li       34.66899109     53.51845169    -98.68821716
Li      -29.19581795   -136.47576904     -1.60768926
Li       78.68032074   -231.57662964     79.00453949
Li      195.50228882    -11.69497967    -13.90171623
Li      -38.58782959    -11.38955593    311.82025146
Li      133.33186340    -11.25629711    -38.76144028
Li       51.95868683     88.95730591   -158.92398071
Li      195.77252197     29.57526398    -47.49509811
Li       13.80189610    119.25936127   -145.68927002
Li       22.72515488     71.50482178   -102.95672607
Li       13.25364685    -64.72027588    -57.15676880
Li     -136.82839966    265.47491455     62.03297043
Li       -3.71295190     51.31618118    113.35614777
Li     -241.07585144    -80.31509399    248.19664001
Li      -52.70508575   -299.01004028    -11.00071144
Li      -28.66965103    193.18853760    209.85964966
Li      -18.90891457     83.45970154     82.67113495
Li       71.49127960    267.62359619     21.74798775
Li      168.69772339   -147.76989746   -180.71800232
Li      313.43246460    -21.40269852    -54.34378433
Li      -46.11746979     87.34806824    155.15103149
Li      -33.47633362    177.35414124    130.01322937
Li     -115.08169556     80.27391815   -115.68661499
Li       57.09344864   -135.55000305     62.55172348
Li       35.61991882    -25.97041321    126.39689636
Li       30.96626472   -137.19522095    286.89508057
Li     -128.09080505    139.16539001   -204.84478760
Li       10.25203323   -220.21002197   -154.89743042
Li      226.38681030   -138.09954834    158.58482361
Li      156.85928345    115.63137817   -217.27624512
Li      173.89349365    336.99740601     66.34432983
Li      -12.51947021   -108.62725067     24.27346420
Li       73.03502655   -189.63038635    102.55698395
Li       -3.33122039      5.66364336    138.52798462
Li       22.78333282     47.50737000     23.32168198
Li      294.42941284   -126.97815704    -31.82647896
Li       83.50919342   -179.25640869    362.82650757
Li      156.59510803   -195.99842834    -10.28785896
Li       38.69372559   -189.22596741   -312.20053101
Li       48.08692932    331.59677124    122.77518463
Li       51.06480408     37.10099030   -122.11692810
Li      -76.42340851   -114.48560333     -1.05028188
Li       33.47691345    -85.09551239   -185.48764038
Li      195.51551819     19.43745041    -27.19435883
Li      -55.81554794     -9.23145485    112.65618134
Li      -72.04113770   -136.37368774     -9.20730305
Li      104.98022461   -210.27838135    -10.15768337
Li      -29.26247787     53.54411316    134.37081909
Li      152.39775085    -20.22972488   -149.88786316
Li      135.43598938    -61.65684128    333.77124023
Li      239.62858582    -40.95001221    109.22615814
Li       56.54393768   -111.41059113     -4.60738182
Li     -197.32527161   -213.05703735     58.29344559
Li      -20.41931534    -51.87261963   -103.54393005
Li      -62.16474915    -76.10919189    161.87471008
Li     -111.39406586    228.54206848    105.20393372
Li     -154.85775757     73.30323792     57.43352509
Li      100.36590576   -132.90606689    -86.46234894
Li       -3.74221206    186.20712280     24.04223442
Li       -3.70270848    -64.27936554     15.86088848
Li       83.66617584     18.96633911    211.16528320
Li      168.64801025     66.96338654     24.23112869
Li       65.93502808    -41.56135559   -213.62196350
Li      -68.33470917   -158.10189819    -26.57622910
Li      -18.81807327    238.95037842      6.90423632
Li       44.17743683     47.12045670   -205.11836243
Li     -107.29298401   -162.69068909    163.40803528
Li       31.28814507   -344.82620239    -69.27748871
Li      450.62719727   -243.41154480    219.50184631
Li       43.99018860    -29.19064331    502.84863281
Li      -68.54502106    261.77505493    142.77520752
Li     -202.34861755    246.85206604   -188.11856079
Li      286.52020264     40.13878250    -64.27216339
Li      134.09841919    172.13150024     67.59335327
Li     -180.31179810     30.48134995    -18.67641449
Li      131.70639038    217.61952209    111.31990051
Li      108.56285858    -51.38882065    181.01574707
Li       65.27603149   -204.57785034     95.83345032
Li      -12.10998154   -385.48425293     11.33678055
Li       -9.49704933   -193.72593689    127.77964020
Li      119.53414154    -15.83342648    -97.34989929
Li       34.89204788     10.33810425     14.71205711
Li      -19.83882904    -69.94667053   -319.41802979
Li      227.56207275    139.06913757     10.14928436
Li      121.97321320   -242.44084167    210.42742920
Li      177.79972839   -223.38972473     27.54059410
Li      -93.60314178   -114.13043213    -18.36958313
Li     -111.16209412      1.81847239    130.89270020
Li       35.63573074    105.69722748   -183.03175354
Li      -14.43337250     63.92854691   -143.45764160
Li      -67.15591431    -47.65789413    -98.49436951
Li      -97.92568207    201.82901001     74.11788177
Li      -45.47229385   -181.95106506    222.99693298
Li      -53.45553970    -84.79355621    127.53652954
Li      303.59890747     18.56506920     58.97423935
Li     -258.60375977    360.54138184    -52.54580688
Li       61.34135818   -134.07017517     37.61877823
Li     -228.13522339    -95.49012756   -264.39932251
Li       62.16011810     61.44155121    218.34239197
Li     -155.12710571    238.47509766      2.17581344
Li      -25.51676559    -64.84098816   -137.61309814
Li       99.41877747    178.75219727    -72.95825195
Li      -59.53959274    115.40358734   -166.06369019
Li      -37.95277023    -29.10050201     32.22414017
Li      -41.88149261    -59.91230774    193.45584106
Li       40.28221130     29.27383423    139.55874634
Li       48.77124405    232.59860229    134.25109863
Li      -16.13098717    105.82067871   -162.40348816
Li       12.99071121     33.40338898    -89.65234375
Li       44.36326599     39.43162155    184.49760437
Li      -72.14022064     50.02949142     75.01593781
Li      -24.58664322     42.58454132    329.14306641
Li      -97.47870636   -209.06826782    201.14920044
Li      234.09294128     71.33921814    146.91165161
Li      117.79433441      4.91548538    -26.63981056
Li      184.23968506     45.96180344   -143.80703735
Li      278.09829712   -235.63334656     66.88533020
Li     -103.00185394     84.84625244   -137.09355164
Li      329.69036865     79.95053101     49.31018066
Li      -89.61959839     16.79364967    -73.59318542
Li     -124.10701752   -156.84223938    396.87078857
Li     -112.35283661   -146.01535034     62.38608170
Li      -51.26555634   -366.42901611     15.70716667
Li       30.06627083    -57.45778275   -113.79733276
Li      -59.35469437    106.71195984     88.28598785
Li      273.67147827     57.08998871     40.79121017
Li        9.89186192   -253.16030884     61.80459976
Li       35.47578812   -121.48205566     87.23031616
Li      121.57879639    -18.80057144      7.78302240
Li      282.07489014    -45.40730286   -115.91521454
Li      230.38859558     78.69138336     53.87686539
Li      186.40301514    169.11608887    113.47830200
Li     -233.05656433   -215.54707336    181.84028625
Li       37.54401779     69.32553864     13.45491314
Li       49.08802414    -34.43745804    107.05817413
Li     -107.40596771     38.94491959    121.62910461
Li       51.59202194   -166.76354980   -109.63214874
Li      112.69629669     50.30326080     76.95957947
Li       42.94329071   -374.49176025    230.14152527
Li       60.82259369    109.92845917     45.28106308
Li       38.55519485     75.95690155    -80.17783356
Li       22.31099319   -151.05798340    -14.55788898
Li       86.74124908    442.00567627     36.32438660
Li      -41.81590652    -50.06492615    -56.75315094
Li     -140.18649292    -12.97066593   -117.94705200
Li       53.05312729    431.33938599    -55.59190369
Li      260.97860718    136.25816345    -49.53332520
Li      -34.02831268     71.76320648      2.97642231
Li      121.99626923   -172.50466919    117.64223480
Li       39.76468277    117.95982361     53.58269882
Li     -145.94821167   -313.42004395     70.34564972
Li      -36.12016296   -142.68836975    -11.75202179
Li     -137.74635315   -121.19994354    -31.29936218
Li       23.08822250   -106.13217926   -124.40948486
Li        6.10069466     32.86017990     75.42211151
Li       36.77947617    -32.48465347    104.34494019
Li      -99.91672516    117.96563721    161.96932983
Li      100.82701874     -1.13825548     96.15839386
Li      104.90971375    -44.09757996    -39.58404160
Li      173.63597107    114.16713715    143.60983276
Li      -28.60184860    -69.94681549   -302.62216187
Li      -92.32690430    -89.74399567    229.19161987
Li       57.61259460    152.60287476    201.88674927
Li      269.35699463    193.42401123    232.26712036
Li        1.40734148    145.84869385    118.12258911
Li      -60.54238892   -109.84377289    105.15541077
Li        4.36887836    -38.45261765    223.71527100
Li      204.19392395      8.61776257   -119.52573395
Li        6.05786705     10.96416569    130.15380859
Li       -7.32671213    198.66918945    -56.29878616
Li      -25.02665520   -252.73040771   -124.56761932
Li       -4.02543449     53.42528534    142.82261658
Li      243.43157959    -14.55591202     57.97141647
Li     -172.74960327    -10.13405800     78.46037292
Li      -41.18386459      7.06819201     97.43284607
Li       27.64612198    -38.82402420   -174.91273499
Li      -29.14785957   -112.17807007     41.31156540
Li      -25.99697685    139.82534790   -108.55426025
Li      231.72334290   -215.00212097     74.44167328
Li      125.67584229    280.39361572    -82.12220764
Li       83.29579163     68.44886017      0.22029808
Li     -135.98991394     35.47943497     28.51382256
Li     -193.43061829    195.78625488   -225.70384216
Li      165.75746155   -339.65591431      2.35755825
Li      -49.68456650   -225.84690857    -85.12643433
Li     -245.41558838     40.72410583    -99.40357208
Li      135.92495728   -126.63821411    114.55704498
Li       48.51045227   -206.83013916     -8.83042049
Li      -46.63243484     38.46783066     96.56040955
Li       39.92133331    172.83761597     15.01137447
Li     -124.54902649     -3.66674614    194.05085754
Li       52.57528305    128.91137695    -81.08134460
Li      -76.15953064     51.78639984    104.52204895
Li      -50.58685684   -108.79510498     49.49682999
Li      199.64622498     86.37651062    -68.78034973
Li      122.32150269   -168.70144653     16.08923912
Li       65.62448883   -262.06402588    151.60040283
Li      -64.36833954    215.11735535      3.26592278
Li      199.86483765     58.88341141    -26.40924454
Li        5.96076155   -190.87458801    202.17179871
Li       96.45349884   -229.79437256   -294.19964600
Li       48.54472351    -96.06848145    -18.63352013
Li      113.03499603   -326.47485352    214.87069702
Li     -236.50187683    175.76008606   -162.37870789
Li        8.33587551     73.87174225     55.61813736
Li     -233.89225769    176.83967590    238.33833313
Li       62.99101257   -138.73367310    208.28819275
Li     -120.11891174     97.13858795    -78.78442383
Li      212.72319031   -165.93243408     36.06644058
Li     -123.91362762   -196.98368835     48.80878067
Li      260.34494019    109.04444122    198.28369141
Li      -59.72011185    -82.29608154    109.51319885
Li        5.30863190    -49.28024292     58.91006470
Li      197.02229309   -200.45100403    -77.42189026
Li       15.63811111     89.34062958    -79.62945557
Li       44.59082031     21.56147003     54.10459900
Li       42.71047592    -88.45616913    106.23818207
Li       51.53280258     31.52183723    -66.49458313
Li       48.99516296   -115.32434082    266.20614624
Li      191.12089539     38.05320358     37.56752777
Li       48.41827774   -115.37075043    147.40318298
Li       75.06536102   -200.45819092    -81.92182159
Li       52.60193253     41.17497253   -108.02062988
Li      204.25653076     78.03905487    -69.23672485
Li       71.63809967   -147.47979736   -207.64984131
Li      -24.32813263   -165.11460876   -188.44680786
Li      -59.33219147   -103.57652283    -98.40812683
Li      -48.60101318    330.57400513    106.60874176
Li     -137.63807678    167.84863281   -107.66812134
Li     -137.62420654     40.85851288    -26.60780144
Li      -90.07582092   -156.33995056     57.19232559
Li      -11.01700115   -109.37664032    168.47242737
Li       69.90603638    220.14259338     11.61189365
Li      135.26509094   -386.93124390   -107.00516510
Li     -214.00135803     44.06403351    126.40446472
Li      160.36547852    249.42196655     45.32224274
Li       96.04375458   -150.89494324    -82.02285004
Li     -102.57004547     10.83339691     96.67567444
Li      -16.67445374     61.90460587   -120.78558350
Li      340.11895752   -135.80001831    -32.49321365
Li      -90.17551422    153.82247925    -60.61286163
Li       96.25582123     29.16301727   -188.38037109
Li      -64.29569244   -143.71250916     58.07267380
Li       15.74537468    -39.33356094    -58.11194229
Li      268.73507690    -71.86186981   -226.38497925
Li      165.00462341    -22.50646782    -64.99786377
Li      110.16668701    -90.88221741   -115.82386017
Li     -236.53512573    -77.16236115    126.53260040
Li       26.83105278   -109.97260284    159.38725281
Li     -212.39277649     88.15410614    -20.14334297
Li      -24.88108253     34.14690018    -94.92942047
Li      108.52185059     53.92142868     53.14133835
Li      -83.05467987     38.29689407    -24.80089760
Li      178.52505493     92.31594849     -1.91893256
Li        6.02455711    122.64319611    -57.56977463
Li       21.97034073    262.56799316   -195.83067322
Li      143.64457703    -30.19219017    176.68995667
Li       86.87648010    -94.28964996    321.16207886
Li      -16.55080986    188.76403809   -272.65408325
Li        7.75334406    -87.97373962    140.31774902
Li       52.85013962    180.46394348     87.47539520
Li       -8.37373447   -136.79551697     15.12750816
Li      -63.47117233    -25.45525360    147.99943542
Li      225.55456543    281.64666748    -52.06212616
Li      -99.09726715     30.37367439    -39.60362625
Li     -146.58276367    -69.53853607     74.45600128
Li      -67.67107391    177.94349670   -402.62997437
Li     -119.73782349   -194.09463501     11.26195145
Li     -206.17860413     10.70090103   -120.50168610
Li      209.05332947    -12.01472473     57.59854126
Li      -88.65537262   -116.33165741    224.33432007
Li     -138.43814087    -32.07545471   -133.84130859
Li       92.20873260    119.06128693    138.43742371
Li      -47.13380051   -228.12661743   -247.73004150
Li       74.25181580    -39.35840607     37.26172638
Li       -7.58570528    -11.94540119    -18.43437195
Li     -214.40016174    -63.30535126     44.62163162
Li      139.60935974    100.40927124    -82.57145691
Li      106.28566742    -90.13999176    126.74551392
Li      127.48428345   -187.51892090    215.73973083
Li     -146.12628174     73.39135742    277.84890747
Li      182.65617371    -78.25630188   -293.76821899
Li     -184.86872864    258.50009155     23.77651787
Li      -15.08392239    245.29051208    314.12725830
Li      -75.96765900     49.32684708     58.10805893
Li      -20.35598373   -134.13609314     20.54505157
Li      -12.29199028    112.53050232    286.93728638
Li     -119.74004364   -255.76264954     70.75612640
Li      -55.41184235     23.07769012   -158.35484314
Li      102.89981079   -113.16585541    -91.06707001
Li      114.55000305    -44.32595825    144.38345337
Li      -50.32572937   -261.65567017      2.41089582
Li       70.00013733   -229.93029785    167.73544312
Li     -141.22280884   -167.38262939     16.08866692
Li     -132.22860718    116.11817169    125.72573090
Li       31.23163605     74.36488342    167.85751343
Li       82.57336426   -386.14605713    -39.79773712
Li     -193.72196960    -26.57225418    -94.07231903
Li     -195.06245422    -30.08499146   -113.69821167
Li     -176.57777405   -207.45654297    128.26420593
Li       76.70216370    172.72825623    217.31814575
Li      -37.21464920   -212.35760498    -31.67555428
Li       87.37142181    179.00112915     58.12432480
Li      -89.81532288    214.62167358     96.41874695
Li       31.93002892     44.09138870    218.81428528
S         0.75865984     12.24990559      0.60027146
P        -0.84582043     10.99313545      0.46219727
S        -2.73508763     11.88782597      0.39715308
S        -0.63378227      9.75486374     -1.14013767
S        -0.78140324     10.11532784      2.33476162
S        -1.30564880      9.98745346      7.52953196
P        -0.86654854     11.06881905      9.23318672
S        -2.11709547     12.65510082      9.08139992
S        -1.30774081      9.95147133     10.90471268
S         1.18564188     11.64090157      9.43634701
S        -2.77292728     11.96393967     17.95125961
S        -0.99440128      9.20597172     16.82615662
P        -1.03875160     10.73968983     18.23921776
S        -1.12068903      9.76440334     19.98093987
S         0.74086243     11.81966591     17.85987282
S         0.49386486     19.81134415      0.71083313
S        -2.70878577     18.80127335      1.67091501
P        -1.56096375     19.50875664      0.19645245
S        -1.34343326     18.37889290     -1.57784045
S        -2.19281507     21.47017860     -0.10094033
S        -1.23845911     18.46802902     10.70839500
S        -1.47322214     18.68073463      7.44834328
P        -1.19042075     19.77555656      9.13850403
S         0.75278735     20.55170059      8.98898411
S        -2.46463108     21.27357483      9.14132500
S        -1.20369816     18.54551315     15.71896744
S        -1.17705655     18.53344345     19.12619591
P        -1.06319356     19.57104874     17.42125130
S        -2.55863452     20.96879005     17.77892494
S         0.92098898     20.40064812     17.48744774
S        -3.07652903     29.36639595      0.31466639
S         0.42920309     29.61774063      0.66797590
P        -1.24356759     28.54065704      0.75028425
S        -1.17906523     27.11338615     -0.85699779
S        -1.29741275     27.51651573      2.61376238
S        -1.14556205     27.58273315     10.76037216
S        -2.21981835     30.48330498      9.68584061
P        -0.96105564     28.86225700      9.15610313
S        -0.99686289     27.97646332      7.19486713
S         0.94127578     29.79247284      9.22384644
S         0.55743331     29.15438080     17.60857201
S        -1.29836941     27.73833275     19.89625740
P        -1.28854370     28.57764053     18.08602715
S        -1.55090094     27.32855988     16.54745483
S        -2.84289765     30.06839943     17.85323524
S         5.80671453     11.99483109      0.52719033
S         7.34063673      9.85026932     -1.63541257
P         7.36274147     10.59933853      0.29513904
S         7.08735371      9.29787350      1.87133598
S         9.14936733     11.74199581      0.51259273
S         7.47421217      9.68375587     10.76920128
S         5.38231707     11.63686085      8.89349842
P         7.13955212     10.58180714      8.99988079
S         7.22995901      9.37814522      7.44106674
S         8.59067249     12.05924416      8.93119526
S         5.49152040     11.98015499     17.58782768
S         6.83013344      9.30865955     16.07713890
P         7.10835218     10.83077240     17.47550774
S         7.37739992     10.19498253     19.47277069
S         8.71261311     11.94079685     16.84187126
S         6.10772991     21.29323959      0.76474458
S         8.23024559     19.23334312      2.20371914
P         7.67618656     20.04339409      0.37979484
S         9.41042137     21.08951759     -0.15825631
S         7.35862112     18.66788483     -1.12318790
S         9.21905708     22.02742958      9.23641491
S         8.06820107     19.47960281     11.09216499
S         5.84389114     21.35465431      9.17249393
P         7.75403786     20.62250900      9.43807697
S         8.34740448     19.60309982      7.59303427
S         7.23949480     18.99329948     15.60160923
S         9.07740784     21.00715637     17.65934944
S         5.52515268     21.08263397     17.60619736
P         7.31460381     19.96800041     17.38884735
S         7.21594381     18.65196800     18.98418808
S         6.22031784     30.93863487      0.79762363
S         7.42672348     28.29564476     -0.86516279
S         9.58131027     30.13843346      0.79349399
P         7.63393116     29.42035866      0.92890948
S         7.10793686     28.01252365      2.50736308
S         7.39091825     27.84219360     11.40563107
S         5.63154459     30.21599007      9.13562870
S         9.06738472     30.07258797      9.50876522
P         7.31621599     29.02957535      9.45580196
S         7.34991074     27.62802124      8.04210472
S         7.07534075     28.23695755     15.61252594
S         5.65220070     30.31949615     17.78063774
S         6.95159435     27.58886147     19.05776596
P         7.16145515     29.04869270     17.53102493
S         9.32608509     29.59323883     17.70112610
S        15.92996120      9.86610031     -0.93594247
S        14.02092934     11.89843178      0.92169100
S        16.47532082     10.15482616      2.38181305
P        15.88745117     11.12509155      0.66523504
S        17.76226807     12.18772793      0.50964558
S        16.57589340     10.43456364      6.65746832
S        17.70438766     12.63576412      8.91451931
S        16.79960060      9.52877140     10.07946682
S        14.53902340     11.88195992      9.03239632
P        16.38233376     11.11878681      8.58711052
S        16.37408638      9.90787411     19.23891830
S        14.18554115     11.55648804     17.48524284
S        16.60079575     10.19829941     15.74735546
S        17.35867310     12.64657497     17.81647873
P        16.15730667     11.05535984     17.57659149
S        14.61955070     21.65027618      0.24992710
S        17.85903740     21.06088638      0.79043514
S        15.98762035     18.92195892     -1.00173104
S        15.64143181     19.11646080      2.33969164
P        16.09313965     20.16399384      0.57901096
S        16.02158546     18.74732971     10.86641216
S        16.05002975     18.82174492      7.78362417
S        16.46267319     22.04905891      9.33686352
S        13.63546658     20.61871529      9.43195152
P        15.57456398     20.03401756      9.38097095
S        17.64733124     20.09969139     18.17710876
S        15.92514801     18.31773186     15.87856579
S        14.52731228     20.99605751     17.56255913
S        15.52724648     17.90563774     19.02309227
P        15.81999969     19.37975693     17.65801048
S        14.83801365     30.80683517      1.16434550
S        16.01688194     28.04436302      2.62653041
S        18.18377686     30.28632545      1.07339919
S        15.87959766     27.95283127     -0.61109579
P        16.18959618     29.32417488      0.99879593
S        17.62975121     30.10491562      9.33403969
S        14.17039776     29.80929375      9.12602329
S        15.96653748     27.97187996     11.26374817
S        16.15886497     27.47716522      8.05202579
P        15.95063877     28.76726532      9.42244339
S        14.49866676     30.47241592     17.63431168
S        16.45634460     28.23825073     15.61272526
S        16.12169647     27.88641357     18.95733070
S        18.02966881     30.30091095     17.58520317
P        16.25872993     29.28409767     17.41901398
S         8.35370636      5.92374182      3.58349609
S         7.42479849      6.12290573      6.82129669
S         5.97832441      4.15819597      4.80253363
S         9.00275707      3.25757146      5.50342274
P         7.72584248      4.87601233      5.21947527
P         7.61212397      5.02793217     13.59468365
S         8.96656609      3.62174726     13.56046391
S         7.65303802      5.95730352     11.72702122
S         5.68259144      4.43241453     13.60045338
S         7.94593096      6.32877541     15.24946404
P         7.54818916      5.32425833     21.50405312
S         9.29196453      4.20959759     21.68643379
S         5.94600105      3.85322332     21.77809906
S         7.87927914      6.49540854     23.17066383
S         7.66626596      6.29938412     19.79803467
P         7.79245615     13.83163357      4.63571501
S         7.54117918     15.14846134      6.36494732
S         9.67175770     12.96012974      4.85273647
S         6.62634325     12.29991341      5.09444857
S         7.79016590     14.42651463      2.62850451
P         7.41791868     13.95590878     13.32394695
S         7.26780176     15.15374851     11.68724632
S         9.48680878     13.35124683     13.37725163
S         7.07442665     14.97697449     15.21590328
S         5.97586870     12.53667545     13.36225033
P         7.27200747     14.32428455     21.73353577
S         5.33635283     13.53397942     21.54707527
S         7.33246231     15.51525211     20.15898514
S         7.34224749     14.83667660     23.81405067
S         8.99683666     13.26987839     21.61456299
P         7.68528986     23.08944702      4.65805531
S         9.63475037     22.08685493      4.85151052
S         6.25839520     21.78797531      4.77547169
S         7.78219318     24.22328186      6.58717108
S         7.75340652     24.26589584      2.89917254
S         7.39480829     24.36523819     15.29508400
P         7.31579590     23.32078743     13.42974377
S         7.11840534     24.53687286     11.87714577
S         5.69945717     21.85767937     13.20831966
S         9.23650455     22.48799706     13.35714149
S         6.26975632     21.59074402     21.88757706
P         7.73172712     23.07943726     22.10466194
S         7.30979490     24.37412834     20.44578743
S         9.54635906     22.15990829     21.87572861
S         7.74267101     24.13438416     23.76278305
S        16.16623688      6.26783848      7.00777674
P        16.31081009      5.19780827      5.27251244
S        16.31791687      6.54452705      3.66119456
S        14.40961647      4.35005713      5.20124149
S        17.82353973      3.89363670      5.33440399
S        17.97704315      4.15598059     13.61709023
P        16.21103859      5.16735506     13.22902489
S        14.25611973      4.12606049     13.34704971
S        16.15212059      6.20836735     11.45385647
S        16.30535316      6.57714367     14.70537472
S        16.55803680      6.19927549     23.60318947
P        16.18964577      5.05298376     21.77531624
S        14.57852936      3.85939670     22.05691719
S        17.80030632      3.80465913     21.59278297
S        15.93406582      6.24399900     20.17668724
S        17.56518745     13.50534058      4.78304243
P        15.80531883     14.62559700      5.16167641
S        15.48133945     15.59200096      6.93634939
S        14.25565720     13.32578373      4.75671959
S        16.11127090     15.66891956      3.38178968
S        17.63607979     12.39810276     13.28749847
P        15.99715805     13.60843658     13.26606941
S        16.28734589     14.76396656     11.42681503
S        15.92585754     14.95277119     14.97785473
S        14.23478127     12.73338890     13.03962517
S        15.57673264     14.12143230     24.06254196
S        14.61623383     12.51618099     21.60674858
P        15.92779922     13.92833805     21.90330696
S        15.93748569     15.38799667     20.51659012
S        17.99513435     13.31285191     21.91470528
S        17.62890053     22.01784134      4.89405441
S        16.34514046     24.46073341      6.52191353
P        15.96480560     23.19250488      4.91713905
S        15.80101490     24.14825821      2.96197844
S        14.37298203     21.95514679      5.10562754
S        16.52939415     24.32706261     12.48526764
S        14.25214195     21.90500832     13.56375980
P        16.14175606     22.88676643     13.79574680
S        17.65072250     21.53397751     13.61345196
S        16.31893921     23.89801979     15.78980541
S        18.03004837     21.94358063     21.90820503
S        16.24498940     24.34232140     23.41622543
P        16.27280998     22.88874817     22.07876396
S        16.22018051     23.86992836     20.20433044
S        14.68841362     21.57016754     22.34813690
S        24.89191437      5.78444624      6.63750267
S        24.85815239      6.78655005      3.38916659
P        24.76839638      5.12603617      4.76586771
S        26.58072472      4.02485895      4.13796234
S        22.91551971      4.10034323      4.34400082
S        24.92752647      6.49558353     11.86673927
S        22.73890877      4.69769716     13.46571827
P        24.85119438      5.36385870     13.61003494
S        25.76461220      3.37522030     13.41703606
S        25.06547356      5.88877058     15.47728539
S        24.95781898      5.80696106     24.08522034
S        22.82447243      3.83307290     22.38932419
P        24.71536064      4.79689074     22.25110245
S        24.42226219      6.01985359     20.64972496
S        26.28399658      3.47314596     21.99417305
S        24.89648056     15.14483643      6.18480968
S        26.81728554     12.83611298      4.87642097
P        25.01976585     13.78604984      4.76019955
S        23.54524231     12.41299343      4.79546738
S        25.03044128     14.86971855      3.07227159
S        22.88170242     12.62812901     13.18693352
S        25.38659859     14.33998966     11.63324356
P        24.68577957     13.46932125     13.35648537
S        24.81209946     14.79089069     14.78286552
S        25.94897461     12.05643749     14.00841618
S        23.22563744     12.93027306     22.02359581
S        26.62429237     13.16140938     21.42531013
P        24.81272125     14.07067490     21.49307060
S        24.39188004     14.83074284     19.67354584
S        24.74563408     15.37313366     23.07067490
S        22.78689766     21.97064972      4.35302973
S        26.14528465     20.84895134      4.50108814
S        25.05707741     23.16123199      6.50086403
P        24.68933105     22.53443718      4.49776220
S        25.11866570     23.71925545      2.96488571
S        26.21521568     21.81447220     12.89625072
S        24.96310425     24.13007164     15.37118912
S        22.93469620     22.08942413     13.71404934
P        24.87506866     23.05230141     13.52981091
S        24.57036972     24.48119354     11.97967720
S        24.61154938     24.46607018     23.30009651
S        22.82726669     22.22107315     21.64335060
S        26.35291290     22.20777512     22.22489357
P        24.77106667     23.26403236     21.77053261
S        24.87475777     24.06022072     19.93830681
S         3.14662004      4.80982542      2.12232447
S         1.77677441      7.47322798      0.64958376
S         3.40985417      5.13252878     -1.28944314
S         5.19554234      7.06922197      0.60920960
P         3.43858004      6.07160854      0.51095074
S         3.01065564      4.88114357      7.60334110
S         1.40988755      7.74739552      9.15815163
S         4.93242788      7.00755835      9.16198635
S         2.82406569      5.22047901     11.00570011
P         2.88273573      6.29282475      9.19706917
S         2.32556653      5.21221161     19.05553627
S         4.91159344      7.00353765     17.74217415
S         1.80038118      7.98071194     17.16652489
S         2.95456386      5.14534283     15.91260719
P         3.01136398      6.43339729     17.52665901
S         1.20730615     16.44141388      0.78427017
S         4.65729380     16.76107025      0.51236516
S         3.25026488     14.24005413     -1.15634334
S         3.46568561     14.05994892      2.20723367
P         3.18790817     15.28804398      0.61025041
S         3.69100118     13.97214794      7.69676352
S         5.14712191     16.48034477      9.42047215
S         3.29078674     13.85318470     10.90334415
S         1.69460022     16.47068214      8.96784115
P         3.47956944     15.20738220      9.27800751
S         2.97790241     14.23366737     15.27794266
S         3.41013002     14.29633236     18.53199768
S         0.88672346     16.07179642     17.34917068
S         4.19299841     16.93266487     16.74160385
P         2.83659148     15.40767765     16.97756767
P         3.13417697     24.11399078      0.28290156
S         3.51203918     23.31987572     -1.50320196
S         5.05115414     24.92775154      0.62474871
S         3.16632390     22.88091850      1.86907518
S         1.41422832     25.30243111      0.39073506
P         3.07422733     24.61462402      9.19793224
S         4.28992844     26.35065842      9.47532654
S         1.16040015     25.38356781      8.99316502
S         3.28549957     23.40029716     11.04911995
S         3.72361565     23.70981789      7.65702724
P         2.90847826     24.12644577     17.57775116
S         3.04262686     23.06846809     15.83311176
S         4.81998587     25.19633293     17.71432495
S         2.48406410     23.06220245     19.21731377
S         1.64624441     25.55441093     17.17884254
P        11.91085243      6.56724215      0.60396272
S        10.27081871      7.82765579      0.73909986
S        11.87953568      4.95377207      2.22491813
S        13.64869499      7.48004627      0.77675754
S        11.75336933      5.80368328     -1.23466551
P        11.73513699      6.74486732      8.86353970
S        13.71291351      7.66912031      8.60612774
S        11.60293865      5.52922630     10.39107037
S        11.68932438      5.55258369      7.14088583
S        10.03606796      7.81857300      8.75898743
P        12.07913017      6.64934397     17.46841621
S        10.12640381      7.65810299     17.37821579
S        11.99012661      5.50107384     15.87831593
S        11.83349609      5.50729465     19.12910461
S        13.55389977      8.04193401     17.48201370
P        11.65644264     15.85305882      0.17051955
S        11.87588787     14.82772636      1.98855567
S        11.41620827     14.50522327     -1.16984773
S        13.40248585     16.88708687      0.10451654
S         9.93776417     16.87730408      0.09572953
P        11.83283997     15.45814991      9.39668655
S         9.86303139     16.24939728      9.46818161
S        12.10395241     14.14788055     10.95133686
S        13.44202614     16.70072937      8.89716721
S        11.60378838     14.30844593      7.64194870
P        11.78856945     15.09002876     17.45603371
S        12.13809872     14.56552315     19.36546135
S        13.48217487     16.09301758     16.98644447
S         9.94262600     16.05464745     17.26228142
S        11.66604519     13.52599907     16.01639748
P        11.95639992     24.61808968      0.64276969
S        12.35255814     23.45439720      2.46848869
S        11.77174568     23.09373283     -0.82091039
S        13.67650509     25.69145775      0.90516555
S        10.19900608     25.55898285      0.33231607
S        10.32747650     25.85993195      9.22855568
P        11.87351227     24.51028442      9.13037300
S        11.97607994     23.37058449      7.47548580
S        13.59736347     25.71264267      9.02981472
S        11.97360516     23.35992432     10.93669224
S        11.96014214     23.35486412     15.94748974
S        13.60838223     25.58543396     17.73102951
P        11.71619892     24.63283920     17.63386536
S        11.85508251     23.54129982     19.37130737
S         9.95948219     25.66490364     17.60778809
S        20.69581795      5.31868744     -0.51471198
S        20.60524750      5.93734646      2.72589660
P        20.35174561      6.88352728      0.81495661
S        18.50372124      7.70267296      0.93675601
S        21.90750122      8.15834236      0.56398869
S        20.15669632      5.72452641     10.68348312
S        20.71976662      4.61405993      7.63791943
P        20.94292068      6.29875803      8.85757256
S        22.86379814      6.89488411      9.31632328
S        20.00678062      7.87051916      7.97440052
S        20.20520782      5.77283096     15.80839825
S        18.58852196      7.56690407     18.10605049
P        20.32125473      6.56509781     17.78791046
S        22.03583527      7.67270041     17.83825684
S        20.32446480      5.23847389     19.24795341
S        20.49282646     14.56139183     -1.16194773
S        23.23703194     15.73415661      0.48045984
P        21.16949272     15.41207409      0.61366224
S        20.73151207     13.98944950      2.32372642
S        20.07516670     17.05897522      1.47673774
S        18.60634804     16.04645157      8.99540901
S        22.35041046     16.33012199      9.29088402
S        20.71404266     13.77325249     10.61124134
P        20.59533501     15.08130646      9.03271770
S        20.78545189     14.37585926      7.05297947
S        21.35192490     16.53724480     18.15642357
S        19.98964500     14.01119328     19.32998085
S        17.98139572     16.29073334     17.89124680
P        19.89316559     15.27870178     17.63176918
S        20.24693871     14.35711098     15.88735485
S        22.29214478     25.20310974      0.40505317
S        19.25520515     25.88900185      0.88518703
S        20.04590034     23.13150787     -1.02496827
P        20.42610168     24.23461723      0.65435976
S        20.79120636     22.98515511      2.23463249
S        19.47346115     26.60035515      9.63014221
S        19.59816742     23.55197716      7.63957024
S        22.40988350     24.88210487      9.01356697
P        20.21859360     24.54622078      9.37420464
S        20.09559441     23.29640198     11.05873203
S        22.15205574     25.06489754     17.62084389
S        20.18325233     23.27069664     15.65959930
S        19.75426102     23.16354752     18.97119141
P        20.19537735     24.53763390     17.48799133
S        18.78719711     25.97708893     17.57618904
S         1.20063448      8.56404686      4.64717436
S         3.64793420     10.28542233      3.31983185
S         4.38908911      7.22275257      4.61202717
S         3.56254029      9.93872738      6.47910452
P         3.15788889      8.91077232      4.68957806
S         4.70141029      7.86020231     13.70341396
S         3.57542610     10.21047783     11.70494938
S         3.33199239     10.71798992     15.00110722
S         1.40823531      8.55530548     13.73953629
P         3.27652073      9.37126064     13.52828503
S         3.21637821      9.95580673     19.73022652
S         4.56563902      7.52659369     21.42117691
S         1.39741850      8.00914955     21.40813637
S         3.71326828     10.24853802     22.79543686
P         3.11468148      8.91872501     21.46869278
S         3.55017567     19.47377014      3.09971356
S         2.09845591     17.04754639      5.05962086
S         3.33246589     19.78780174      6.54520369
S         5.46186447     17.66422653      4.81767273
P         3.54172182     18.42001152      4.86660767
S         1.78431392     16.88761711     13.15987778
S         2.77970147     19.56148148     11.52485371
S         5.17981768     18.01828957     13.45500660
S         2.67593241     19.71708679     14.70702648
P         3.13889337     18.47385025     13.25929642
S         4.99561882     17.83286476     21.55946159
S         1.49137533     17.11832237     22.10345459
S         2.68782616     19.35187149     20.06998253
S         3.05568886     19.99922943     23.44714546
P         2.90000701     18.50565529     21.83403969
S         4.48343849     25.96111870      4.67972469
S         3.24647570     28.49782753      2.97766042
S         3.12843227     28.66388702      6.50483751
S         1.28122270     26.40632057      4.60662508
P         3.10890675     27.42624664      4.82819366
S         1.27771139     26.38384628     13.41832733
S         3.00104141     28.55286789     11.94272423
S         4.68250370     26.13586807     13.66065979
S         3.02380419     28.48588181     15.24257088
P         3.09032273     27.48704338     13.62110519
S         1.94451761     26.16785240     22.14019966
S         5.08912373     26.41048431     21.65068626
S         3.12625694     28.46962357     23.65909576
S         3.17179060     28.65727806     20.07853508
P         3.41017294     27.49314880     21.89083672
S        11.90904999     10.83644199      3.16402459
S        11.57958603     10.43486500      6.66139174
S        13.38175678      8.38408089      4.74315548
S         9.88502407      8.77244282      4.53134537
P        11.69707680      9.65614414      4.77770901
S        11.49904633     10.97148991     14.72380257
S        11.94905376     10.50411415     11.48222446
S         9.87370586      8.69429493     13.07660294
S        13.25133228      8.30490780     13.72731876
P        11.76708221      9.69047070     13.20562458
P        11.56280518      9.97579098     21.61392403
S        13.05609798      8.60540390     21.71930313
S        11.58293343     11.00135040     19.85093498
S        11.50686169     11.09670544     23.39194107
S         9.85145473      8.92844963     21.59873390
S         9.98081684     17.43907928      4.60655308
P        11.65606022     18.49726105      4.50656319
S        11.96063137     20.05080414      5.87087297
S        13.19707775     17.23534775      4.89156055
S        11.55594063     19.43680954      2.60529971
S        13.42542648     16.93014717     13.52749729
P        11.69933510     18.08538246     13.45019054
S        10.12283134     16.89548874     13.28015804
S        11.46348476     18.96036911     15.31785011
S        11.52543449     19.35971642     11.92221832
S        13.77642918     17.29253578     21.54429626
P        11.87213516     18.55920410     21.56824875
S        10.06838989     17.39267921     21.39762497
S        11.83172417     19.58067513     23.33350945
S        12.08166504     19.55551338     19.87364388
S        13.61786747     26.98012543      4.97369194
P        11.83071041     27.88896370      5.24858665
S        10.24440575     26.47231293      4.96593285
S        11.83186913     28.85512924      7.09074831
S        12.08557415     29.36848640      3.77089047
S        11.79118156     28.47402191     11.83601475
P        12.14130020     27.41705704     13.70314789
S        13.83408928     26.09096527     13.53829002
S        12.03960991     28.76218224     15.24641132
S        10.42133331     26.13649940     13.61437511
S        11.98577118     29.06437874     20.43645477
P        11.69341278     27.72129250     21.97835541
S         9.95112896     26.68904495     21.38053513
S        13.53546238     26.63864708     21.88954735
S        11.71156979     28.63306999     23.74378967
S        20.78849983     11.32971191      6.39529467
P        20.65427017      9.93009853      4.95670843
S        22.31097221      8.67712593      4.80057716
S        19.06737328      8.68601799      5.28577995
S        20.51587105     11.20056725      3.17463088
S        18.87786674      8.36512852     13.77813721
P        20.59793854      9.36123180     13.77771187
S        20.47870255     10.58932877     15.40082073
S        22.57201958      8.55565548     13.97273445
S        20.55025291     10.24889088     11.75224972
S        22.33384705      8.80624104     21.99097633
P        20.59750557      9.91097069     22.09180641
S        20.31899643     10.49208641     20.14153290
S        19.01561356      8.58889198     22.48581886
S        20.50166130     11.21506310     23.42137527
S        21.74979782     17.68481636      5.14714813
S        18.27484703     17.35485840      5.62338591
P        19.84953117     18.66559029      5.42733955
S        19.26657867     19.50897598      3.64469218
S        20.06208229     20.08022308      6.97743416
S        20.69383049     19.01977539     15.44292355
S        21.94254684     16.79087448     13.54838467
P        20.45093346     18.09289360     13.58752060
S        20.44560432     19.46785355     12.05103016
S        18.65703011     17.12442970     13.56318855
S        19.99495506     19.67063522     20.52337265
S        21.63585854     17.00119400     21.54470253
P        20.14981651     18.18482208     21.96360970
S        18.47866058     17.21066093     22.34333801
S        20.62098885     18.94960594     23.87728882
S        20.80856323     28.64427185      3.41132331
S        21.12862968     28.52723694      6.90856171
P        20.65337372     27.55702972      5.19148493
S        21.79024124     25.98660088      5.10798502
S        18.73463440     26.72384834      5.09748316
S        21.47504425     29.10550499     11.88831806
S        18.73408508     27.27469063     13.12912846
P        20.67769814     27.83304596     13.28357983
S        20.71472359     28.52758408     15.21165085
S        22.12629509     26.29585075     13.19885540
S        20.93953896     28.13493538     23.20029831
S        21.21455765     25.25002098     21.62066841
S        17.99569893     26.79353905     21.58482552
P        20.21834373     27.03512192     21.62627029
S        20.83692169     27.71943283     19.78763008
