864

Li      -96.34614563    -87.83244324   -115.17227936
Li     -134.71479797     25.39082909    368.07617188
Li     -263.63998413    310.19561768    223.70796204
Li     -414.70407104   -191.28199768     33.52515793
Li       17.53088379    550.11083984    -94.00744629
Li      218.23843384   -297.97006226   -189.71495056
Li     -177.36830139     28.65304375    105.73616791
Li     -241.04690552     24.71759796     33.03286362
Li     -470.71725464   -124.33865356    295.94839478
Li       55.46224213   -143.69499207    134.69854736
Li      220.23153687    389.65460205    287.29107666
Li     -354.49609375     13.90511417   -209.37409973
Li     -294.15988159   -174.99249268     -4.19625330
Li     -181.82566833    136.14434814   -106.90166473
Li     -406.78033447   -154.28379822     76.03701019
Li      279.80496216    -56.31695557     -9.47532463
Li     -149.45468140   -175.43492126   -172.04685974
Li     -224.41761780    282.39224243    210.84780884
Li       25.51387405   -526.50738525     24.60419655
Li      147.29121399    -68.08190918   -194.90495300
Li     -168.08134460    162.25228882    169.57650757
Li     -464.51473999    287.58871460     43.45140457
Li       38.31263733     24.25185013    117.67604828
Li      193.78434753   -105.79123688    -59.70906448
Li      190.45947266    245.26501465    -18.63193130
Li      100.96526337   -163.91352844   -160.73175049
Li      150.28677368    455.84515381   -260.19528198
Li      191.00965881   -246.86801147     79.41736603
Li       37.95661926    142.52528381     28.75894356
Li       39.63933563    -10.24951839   -279.72085571
Li       95.08969116    443.87881470    405.99493408
Li     -363.55944824     33.34658051     46.77223587
Li     -406.13226318   -521.43017578    -85.65543365
Li      173.81599426     11.88331795    304.97186279
Li     -173.07044983    231.03097534    160.40081787
Li     -164.60316467    135.38377380     53.06411362
Li      -59.75685883   -167.74696350      0.83724499
Li       60.31897354    -36.43420792    -73.85063171
Li       92.32173157    -18.39830780     86.02396393
Li       12.57456398    175.50971985   -263.68438721
Li     -410.65542603     71.54668427    -99.08227539
Li      107.35027313     19.20603561   -153.87187195
Li      284.90438843   -105.23496246    189.84255981
Li     -143.21234131     -8.78340149     49.27237320
Li      120.69902802    151.91006470    -22.14011192
Li     -116.97473145    -68.37358856   -226.07449341
Li      177.13891602    207.36630249     -8.70349216
Li      -51.69680023    678.84698486     29.71504211
Li      -64.61359406    -73.26071930   -335.72531128
Li       13.33497429     62.80181503    169.54728699
Li      176.56390381   -306.44296265      3.60118866
Li      242.25570679   -410.15060425   -242.30551147
Li      167.20018005   -418.32131958   -110.98594666
Li      280.87924194   -347.54931641    114.34258270
Li      103.59441376   -197.68234253   -221.48501587
Li      -86.53556061   -516.99780273     37.33267975
Li      -98.92530823   -189.54045105    246.47711182
Li      -56.77409744    -95.19981384   -322.48236084
Li      -74.75777435   -411.75585938   -243.38999939
Li       64.65502167    -83.39684296    -89.92002869
Li      160.37423706    375.61401367   -128.45088196
Li     -297.77050781   -311.66882324    126.07348633
Li      185.62336731   -103.27747345    -38.59514618
Li     -251.25170898   -455.06036377    -39.09203339
Li      224.62788391    -53.67226791   -271.95379639
Li        4.26223803   -249.93251038    -85.21044159
Li     -242.23657227   -279.51904297   -153.57290649
Li     -121.36907959    137.84782410    168.77517700
Li      147.27848816   -232.81521606    143.14088440
Li     -233.74758911     16.97684479    147.00968933
Li      172.22419739    338.91140747    189.77932739
Li      142.27787781    150.62533569    393.99819946
Li      324.06274414     87.44076538    -13.14152145
Li       33.71829987    167.07835388    312.26483154
Li      302.79531860   -171.28547668    133.38047791
Li     -108.61184692    -46.60847855   -145.10530090
Li      168.49513245    106.95619202    159.90324402
Li      647.45373535     50.78414154    -98.12973785
Li      341.57696533    156.56904602     28.66272926
Li     -363.26916504   -160.80271912    228.14482117
Li       81.88141632    283.52734375     -5.22520971
Li      -38.98391724    223.31719971   -297.56161499
Li      -69.23836517   -299.97521973    219.43417358
Li       47.21016693     14.88287449   -267.40567017
Li      276.26791382    167.68486023   -377.95812988
Li      193.95082092    -44.04078293   -179.05567932
Li      -85.17955780    371.66790771    141.10061646
Li     -393.40093994     38.30344772    -64.23213196
Li      161.21902466    169.16328430    122.25417328
Li      -48.13438416    184.59417725    -31.17141151
Li     -125.47045898   -390.53836060    117.90009308
Li      -95.78056335   -312.28091431    240.90846252
Li      194.89506531    -24.98225784    -64.60653687
Li      109.11856842   -151.57185364    384.32507324
Li      263.64550781    227.57861328    -51.97982025
Li      354.04864502   -307.06552124    194.41929626
Li      232.35453796   -232.61004639    -42.55044937
Li      466.13110352    118.06791687    -98.40685272
Li      -86.11832428     62.04921341    368.16967773
Li      233.74916077    -88.83283234     97.14107513
Li     -289.46676636   -248.26179504    233.10874939
Li      186.74835205    116.51874542   -389.95346069
Li      306.62451172   -162.11370850    -94.78722382
Li     -142.35096741   -145.34313965   -116.39464569
Li      -95.74709320    -66.33541870     92.57834625
Li      231.61100769    -36.41374588    111.74586487
Li      -78.07044983    122.59712982    296.06829834
Li       73.88079071     39.09868240     76.49085236
Li      186.26356506    201.34541321    -68.54942322
Li       -0.38909340    264.08825684   -179.01376343
Li      286.81863403     -7.64660311    233.57025146
Li       55.49757385    232.96565247    100.71118164
Li     -105.68855286   -190.61349487    407.95376587
Li       85.58558655   -160.78813171    224.16841125
Li     -127.50386810   -231.28416443    246.47207642
Li      -56.13700485     27.65134430     74.98934937
Li      -81.12907410   -445.98336792    -55.44565201
Li        4.04000092     96.05743408    258.28125000
Li      238.23707581     10.79756546    296.02563477
Li      181.19401550    -40.86705017   -230.14770508
Li       26.88958359   -245.54409790     49.57374573
Li     -129.48852539    562.32598877    164.78103638
Li      107.41570282    -99.29091644     21.41407967
Li     -186.12815857   -225.37835693     75.20718384
Li     -233.20530701    139.20567322    147.35083008
Li      250.18611145    109.91939545    164.87609863
Li       69.67471313   -140.39466858     36.84180832
Li      133.68492126   -272.98916626     84.02544403
Li       86.08879852   -209.01106262    -22.03470612
Li       94.00813293   -383.63168335    131.78387451
Li       20.93893433    -41.64908981   -149.23080444
Li      146.93702698   -251.73619080     54.48085403
Li       21.66839409    106.86058807    249.35333252
Li     -226.61100769     80.62682343    179.57504272
Li      -62.18422318     35.74316406   -125.77492523
Li       -4.52636003     31.81206703     46.00752258
Li     -397.52053833   -195.53440857    -68.52662659
Li      343.83575439   -347.27890015    -86.90574646
Li     -133.38967896    -49.20770264   -102.70282745
Li     -191.29074097    382.58905029    126.91101837
Li      -97.63375092   -273.97717285     54.61125565
Li     -381.94076538    315.29727173    -42.58030701
Li      -92.03496552    -34.21516037    -89.24192810
Li     -270.65597534     46.76708221    104.17591858
Li     -251.16178894     18.09379387    194.64204407
Li       24.77050781   -167.43099976   -145.97796631
Li     -108.45015717    179.35356140   -221.54096985
Li      172.94819641    187.22073364    168.65066528
Li      319.10971069   -218.30485535   -259.42910767
Li      312.67630005    131.37048340     26.68893433
Li       94.35324860    -18.09347343     19.65745735
Li       50.87432861   -346.56506348    360.16113281
Li      107.61624908   -254.68136597    -17.90266037
Li     -177.35530090   -110.19388580   -101.98578644
Li       42.48914337    -65.84284210    100.89985657
Li      353.30361938    206.79330444     87.76396179
Li     -185.48025513    496.15267944     79.63679504
Li      158.33535767    272.37536621     64.79686737
Li     -207.73869324    -17.26118088     -9.34764481
Li      224.15484619     59.40913773    114.02503967
Li       60.17414093    185.82666016     46.28293610
Li       39.54047394   -359.52694702    274.87280273
Li     -121.11933899     85.54868317   -101.76215363
Li     -120.18715668     19.52461624    249.60400391
Li      215.96884155   -260.47406006   -334.59027100
Li      228.49232483   -405.82806396    325.51736450
Li       60.15336609      5.52479029   -106.14419556
Li       95.45098114      7.57734442   -110.18902588
Li     -100.35753632    221.97610474   -251.65341187
Li      125.60436249   -229.95881653    167.99176025
Li       52.52591324    134.11012268     42.10325241
Li       95.18836975     91.67082214    317.23831177
Li      414.09249878    234.30780029    -84.99182129
Li     -294.87988281    183.04379272     11.98477554
Li       87.48078156    251.02693176    245.52262878
Li      401.18942261   -104.38711548    147.10954285
Li       30.11016464   -274.15219116     41.75884247
Li        3.95027232   -198.27471924    -80.73789978
Li       67.15393066    -12.87002277    217.69192505
Li       26.17914772   -240.74543762    -42.45758057
Li      -21.90784073    -99.19939423   -190.97950745
Li      -12.43719292    -39.59381104   -145.20170593
Li      -68.44870758   -146.69293213    228.19638062
Li      267.75338745    130.73020935     75.25237274
Li     -150.47966003    192.70829773   -191.32521057
Li      138.03852844    179.66439819   -191.30282593
Li     -168.36094666     63.98006058    181.52253723
Li      -73.60286713     52.25211334    173.22119141
Li       64.56359863   -252.12988281   -162.20935059
Li      116.85810852     38.61296844   -132.27351379
Li     -388.54586792    196.86050415    -43.35189056
Li       12.91698265      3.24507976     24.88527489
Li     -307.54507446   -155.35284424    -43.00673294
Li      167.80661011     17.33668709    287.62802124
Li       43.30717468   -204.93484497     46.10056686
Li       74.57845306    628.96649170   -121.35222626
Li     -301.58316040    111.91329193    163.32666016
Li      295.33416748     64.83127594    -45.97216797
Li      105.83058929    -11.82984257    340.89929199
Li       78.40292358    -23.70357513    -98.52991486
Li       20.84477806    110.01273346    -35.03610229
Li     -131.54071045    -12.95359612   -121.73120117
Li      177.03132629     29.35720062    241.06137085
Li     -272.30493164    330.90319824     66.62628174
Li     -332.61096191     18.17411041     62.17949677
Li     -307.05865479   -267.94094849    253.75910950
Li       35.03206635     -7.81050920    126.17337036
Li     -234.57289124    114.48194885   -341.46182251
Li       25.95683479    -17.61294937   -131.51730347
Li      224.47505188   -272.30468750   -284.92486572
Li      115.97698212    -60.24294662     50.07622910
Li       94.80904388    158.78742981    148.38209534
Li       99.31159973    243.24304199    156.10313416
Li       54.02051544     -8.38731289     65.01499939
Li       34.35029984   -491.48797607   -195.55131531
Li       63.00294876    199.27577209     90.35730743
Li      -43.23102188    -71.42954254   -292.94085693
Li     -549.05206299   -196.99107361   -221.34867859
Li     -103.80896759   -149.93919373    283.06768799
Li     -150.86688232    140.77687073   -247.50735474
Li      -84.00487518    -12.87449265    -57.97364807
Li     -116.49073792     81.09490204    104.96230316
Li      205.91795349    -31.02177620   -265.63046265
Li     -118.08045197    106.30547333    335.39022827
Li      121.68269348   -215.42890930    -47.23493576
Li     -393.80502319    233.38381958    308.51641846
Li      -86.34670258   -107.09539032     -9.50561047
Li       33.45629501    -78.58771515    384.82080078
Li       56.40629196    395.23489380    122.65956116
Li      -43.42187881    388.57803345   -158.84962463
Li       57.41020966   -194.30305481    141.20031738
Li      207.93150330    -71.54796600    -38.05514145
Li      232.95631409     -4.28531027    228.17509460
Li     -130.43020630    240.69949341   -310.40191650
Li      284.26638794    -17.93713188   -117.57123566
Li     -120.63326263    242.24822998    101.15364838
Li      -77.67063904     49.02278137    321.56829834
Li      -39.64184189   -105.38374329    181.32810974
Li     -172.95991516   -277.40390015   -149.47215271
Li     -163.42124939   -129.26963806   -153.12528992
Li      206.91197205    287.91726685   -429.21224976
Li     -319.94635010   -254.66033936    237.18122864
Li      -34.61366653   -375.64392090    313.52072144
Li     -119.05805206    239.26414490     -6.57306671
Li     -212.63896179    118.86686707   -103.09586334
Li     -194.40965271    -59.79714203     29.67333221
Li     -290.42193604    -56.89836121    -52.08915329
Li      373.51837158    127.30612946    -95.97196198
Li     -126.60411072    -42.25286102   -191.83758545
Li     -177.40974426    219.49562073      7.98941708
Li       29.93636513    357.17483521    270.54534912
Li       94.51272583   -157.04617310   -258.89337158
Li      150.84231567    140.14460754   -160.90010071
Li     -218.68572998    207.17958069     68.93902588
Li      235.01252747    173.26437378    107.32734680
Li       77.72738647   -483.03555298    330.05493164
Li     -196.68196106     22.37889862    289.97781372
Li      220.32063293    138.40963745    -17.70740700
Li      207.24520874    -31.29409599     36.39767075
Li      289.39352417   -237.39521790   -127.86514282
Li      148.02000427    158.04368591   -160.43434143
Li     -238.51811218    139.86730957      8.46661663
Li       48.49340820   -190.23135376    213.17039490
Li      207.31933594   -407.18441772    -38.88256073
Li     -133.61691284     -6.55543852    -35.10354614
Li      -25.74390984    112.29917145     67.15453339
Li        9.19798660      7.00682068     83.42740631
Li      163.95957947   -651.46289062    -39.03130722
Li     -367.75836182     61.77820206   -131.89669800
Li     -148.17173767     36.05095673    -41.47694778
Li       47.28241730    455.58489990   -140.34060669
Li     -216.17105103    209.44293213   -208.43693542
Li      -67.89454651    256.68313599    304.92056274
Li     -255.73307800   -159.53198242   -361.49240112
Li      -56.37639999    -45.85409546    195.40943909
Li     -298.73220825   -210.50781250   -331.38827515
Li      176.90948486     18.53647804   -131.35311890
Li       30.18276215   -245.81610107    -64.20871735
Li     -342.07888794   -179.22090149    -94.10084534
Li      414.77618408    284.58352661     20.14772606
Li     -225.01576233    -13.46745872   -276.63653564
Li      151.75189209      2.13423753     79.93017578
Li      329.53683472     97.20092773     14.85751343
Li     -264.05612183    153.68872070     88.15650940
Li      173.17353821    172.73213196    438.47546387
Li      306.59494019     23.54276085   -144.83645630
Li     -190.05557251    -78.57859039     -4.69167614
Li     -212.02098083    -19.62318039     76.11721802
Li       42.68093109      4.32430792   -543.91064453
Li      427.80627441   -107.21434784     46.07074356
Li      -73.41676331    523.99975586     79.90899658
Li     -106.85531616   -221.61051941     73.70397949
Li     -449.40139771    -26.80186272     99.80059814
Li      -46.87677002    -12.75495720    -62.62120056
Li      165.73445129    118.06700134    149.83409119
Li      168.67468262    216.81980896    254.07841492
Li       81.30651855   -203.43920898    -75.76284790
Li      -90.64881897    204.90843201   -386.06311035
Li      -64.93586731   -220.03387451    -30.36420631
Li       25.20131302    149.76182556    191.11393738
Li      172.70233154    278.87976074    309.03286743
Li       99.87441254   -336.11065674   -153.12315369
Li     -213.09347534   -294.11831665   -328.56832886
Li      180.98263550    156.29748535    232.23468018
Li      194.68840027   -585.92517090    215.43115234
Li     -285.86010742    603.67407227    -89.73823547
Li      -34.50324249    -68.92035675    156.34992981
Li       14.74744701    -57.86039352    267.90524292
Li     -311.51089478    252.83767700    -76.50491333
Li     -139.13153076    -30.60124207   -102.84941101
Li     -146.87948608   -152.13192749    -59.95626831
Li     -147.88839722    210.37452698    440.77612305
Li      -91.80628967   -200.99470520    131.10269165
Li     -341.46743774    197.65003967    -13.67289639
Li     -479.34222412   -166.04104614    125.85136414
Li       32.42718506    -41.02098465   -256.74142456
Li     -311.33273315    136.22776794   -391.71740723
Li       26.81330109    -47.34678650    220.65301514
Li      107.77839661    130.83763123   -169.98454285
Li      239.38264465    190.61294556   -168.55802917
Li      449.25149536    -91.92411804    249.42221069
Li      168.97923279     -6.19141293    -93.32845306
Li        9.63151264   -406.19079590    124.93318176
Li     -104.11289215    178.08390808     84.22527313
S         1.92563069      8.79839039     -0.01035817
P         1.80364227     10.27449417      1.40431130
S         3.54092598     11.54945469      1.09400225
S        -0.08145697     11.17367554      1.46161342
S         2.09506392      9.48118687      3.31520367
S         1.67100883      8.53250027     11.22906971
P         1.90116858      9.88402843      9.73395729
S         3.87591624     10.60310268      9.97064209
S         1.70793796      9.10105896      7.84084606
S         0.37047282     11.08735371     10.20438099
S         0.72224301     10.92494965     17.81142807
S         2.47044373      8.52446365     16.52003479
P         2.26971817      9.75656509     18.21543312
S         2.08063626      8.78355408     19.99287987
S         3.97028661     11.19397545     18.20087242
S         0.42451712     20.36066055      1.23178458
S         1.93590617     17.84991837      2.96352625
P         1.94578731     18.82268524      1.18482566
S         3.80647850     19.52316666      1.10418916
S         1.78213155     17.70836639     -0.52166367
S         1.63294005     18.07668686      8.22479630
S         3.77561235     20.41286659      9.52000523
P         1.98407364     19.29777908      9.76953697
S         2.19459510     18.15194130     11.50010872
S         0.25132802     20.38578606      9.93633842
S         1.66216755     17.83740425     20.09076691
S         0.29337376     19.95804024     18.28364182
P         1.97559309     18.88024521     18.10778427
S         1.82438898     17.66769409     16.34012032
S         3.74703312     19.63919449     18.36603928
S         2.31427622     26.64517212      3.11574769
S         0.04042649     28.55506706      1.60242128
P         1.99878311     28.02741623      1.66315234
S         2.52995396     27.32708359     -0.20000504
S         3.16574717     29.64600563      2.00382900
S         3.89624524     29.61687660     10.26900673
S         0.41193044     28.89838600     10.40078735
P         2.36705112     28.17161560     10.09613609
S         2.33307552     26.87968063     11.68809032
S         2.54205418     27.37643433      8.18663979
S         3.79726887     29.47330856     17.97738266
S         2.13963509     26.69204521     19.46278954
P         2.09236741     28.22196960     18.05358696
S         2.27287054     27.49801826     16.13654709
S         0.30565554     29.33432579     18.05291557
S        10.76809120      8.89316273     -0.18894869
S        10.74040031      8.96442604      3.21015668
P        10.78148937     10.30833626      1.52905285
S         9.13058281     11.29504967      1.79296565
S        12.54862022     11.41002369      1.53329813
S         8.79262924     10.99032974     10.06839752
S        10.16571331      8.92140865      7.92843294
P        10.42623901      9.84151173      9.72390175
S        10.20807362      8.58495140     11.37188053
S        12.31045341     10.68928528      9.94827843
S        10.54782677      8.99703503     17.08723640
S         9.04960346     11.44920826     18.60925674
P        10.73604965     10.41645336     18.55035210
S        12.50270271     11.28034306     18.19841003
S        10.99020386      9.46015644     20.41630363
S        10.65175533     18.02667427      3.44394422
S        11.01039600     17.76374054      0.35300624
P        10.73647118     19.18437767      1.87860632
S        12.48954391     20.41770172      1.66972315
S         8.95802975     19.98503494      1.28323078
S        10.52248859     17.66278458     11.74140453
S        10.07375336     17.78207207      8.45654297
S         9.36562824     20.51278305     10.14710140
P        10.54410553     18.79098511     10.09648895
S        12.48766422     19.53633308      9.85925961
S         8.82678795     19.85840034     18.19370461
S        11.23451996     17.74380302     19.81407738
S        10.93838024     17.86698341     16.33742714
P        10.75760365     19.08938026     18.22957230
S        12.14610672     20.53930855     17.99895668
S        10.60527897     26.47669792      2.91062355
S        10.71843243     26.78296852     -0.51760775
S         9.15185261     29.07525063      1.33707190
P        10.68374348     27.90007401      1.33349466
S        12.52312279     28.76575279      1.33433700
S         8.60793686     28.41494942      9.88449955
S        10.65541553     26.55108261     11.62576580
S        10.58510685     26.51891899      7.99607134
P        10.39664459     27.51473045      9.72489452
S        11.66303921     29.20146751      9.81488991
S         8.68274689     28.76802254     18.28980637
S        11.12968445     26.69640732     16.89373016
S        12.20359898     29.28200340     18.77000618
P        10.48624516     27.81012154     18.47381020
S        10.53751373     26.74776268     20.18388367
S        17.02172279     10.57861805      1.69908142
S        20.21870232     11.46670246      1.32300127
S        19.31272125      8.54727745      3.36340404
P        18.93293762      9.70937443      1.66607022
S        19.39645004      8.60822010      0.09031802
S        19.30252266      9.21261024      7.86487246
S        19.40659142      9.05665207     11.18740463
S        17.23642731     10.97860336      9.65668011
S        20.55480385     11.76555824      9.77577591
P        19.15789986     10.30006409      9.60164928
S        18.20727921     11.60695934     18.53283882
S        21.32143974     11.01520729     18.15614128
S        19.11108780      9.50449657     16.03537941
S        19.23377991      8.29549503     19.26459122
P        19.50877190     10.05091572     18.04974556
S        20.79085541     19.79801559      1.26557386
S        18.99417305     17.51101685     -0.33493465
S        17.32331085     19.85553360      1.21605039
S        19.14225197     17.97858429      3.41888142
P        19.07684898     18.66960335      1.23602474
S        21.21537399     19.95326614     10.01716042
S        18.83917046     17.89355850     11.45979118
S        19.21775246     18.38981819      7.97057676
S        17.79529572     20.77848434      9.94045830
P        19.19075394     19.23020744      9.99116898
S        17.90171432     20.04919052     18.33742332
S        19.32355690     17.51258850     19.75487518
S        21.13642693     19.87508583     18.03322983
S        19.21886826     17.32294273     16.40320969
P        19.49469948     18.65112114     18.20276070
S        21.22285652     29.04152298      1.18853807
S        19.39560890     26.92012787     -0.37412536
S        17.76512337     29.57072067      1.45813322
S        19.33618164     27.04468536      2.89197922
P        19.31499863     28.11429405      1.18105698
S        19.62162399     26.94383240      8.36281109
S        17.62613106     29.45912933      9.25821400
S        21.02874565     29.35158157      9.97347355
S        18.87710190     27.30184364     11.72352028
P        19.18325043     28.31758118      9.89314270
S        17.63889694     29.74010277     18.18695831
S        21.08466339     29.10795212     17.97612381
S        19.10118866     26.91389084     16.50728226
S        19.16230774     27.26677704     19.94878960
P        19.24418068     28.38918495     18.12539673
S        10.58623981      4.87759686      7.27025557
S        10.38141155      5.06228065      3.99029803
S        12.07163048      2.44953084      5.42583704
S         8.55097961      2.94878531      5.63365221
P        10.47029686      3.79359341      5.46584129
P        10.55906200      3.48209143     14.05068874
S        12.36420345      2.47865510     13.94007874
S         9.07209587      2.29051399     13.80509472
S        10.47231770      4.39382744     15.86757946
S        10.74958992      4.98500109     12.50084114
P        10.85151577      4.06454372     22.78218651
S        10.61407375      4.95470667     24.66577530
S        12.46817589      2.82715869     22.78399467
S         8.91732883      3.01034999     22.81419754
S        10.82412052      5.44378233     21.20463371
P        10.83954430     13.16668892      5.61972857
S        10.59158993     14.34837723      3.70844460
S        12.36863899     11.73426819      5.74095297
S        10.96528339     14.41267681      7.24856520
S         8.90420818     12.30630684      5.53425217
P        10.29974079     12.72368813     13.97882366
S        10.40043640     13.94105339     12.37580872
S         8.56786060     11.62998104     14.03535652
S        11.86625290     11.48460388     13.96380234
S        10.56752205     13.78908730     15.69119930
P        10.64661312     13.50233173     22.56383705
S        12.21497631     12.08294678     22.62802505
S         8.91017437     12.39174080     22.96246147
S        11.01976395     14.63463306     24.20636749
S        10.61048412     14.54634666     20.80225754
P        10.70082664     21.76043892      6.24259424
S        10.34193897     22.64214134      4.27948380
S        12.36610317     20.55902100      6.04910135
S        10.97130871     23.16512871      7.71905422
S         8.99397278     20.73407364      6.23073149
S        12.88054657     21.45946312     14.31989670
P        10.91294098     21.98376465     14.04301548
S         9.75185966     20.19564438     13.84205437
S        11.11651039     23.12604904     12.33809471
S        10.44322872     22.91555405     15.86796856
S        10.85678864     23.13901901     20.88271904
P        10.75090122     21.84549141     22.48052216
S        10.86858463     23.22394753     24.18423080
S        12.22130013     20.38412476     22.50653267
S         8.87935829     21.03490639     22.42274475
S        19.16438103      5.68722534      7.25314379
P        19.30260086      4.23492622      5.47855186
S        19.33063698      5.41527462      3.82526016
S        17.48156929      3.20708036      5.50685501
S        21.05981827      3.12086987      6.08803511
S        21.01994514      3.47624493     14.07746220
P        19.27735138      4.48608303     14.03719330
S        17.66225624      3.05396605     13.64683247
S        19.16491699      5.67762995     12.33747673
S        19.10971069      5.37700176     15.79251289
S        21.30912781      3.06519175     22.49767494
P        19.54537582      3.86943197     22.80238724
S        19.78487206      5.01742029     24.58306694
S        18.08294678      2.38223100     23.01714134
S        19.11592102      4.82743549     21.03306389
S        19.28142548     14.53306293      3.97922540
P        19.43095779     13.53094578      5.80946112
S        17.65597534     12.45330143      6.00027370
S        19.10423279     14.70380497      7.43389940
S        21.19009590     12.53331184      5.91949463
S        17.53192711     12.20211792     13.73352909
P        19.15267372     13.33975983     14.11405277
S        18.95669365     14.86800480     12.84832001
S        21.06765556     12.39777279     14.19051552
S        19.12668419     13.90603161     16.13560867
S        18.49909401     14.16246319     24.36755753
S        18.38431549     11.18711185     22.74756813
P        19.55708504     12.94580364     22.84931183
S        19.25287056     13.80691242     20.94370079
S        21.36264801     12.27571392     22.88724327
S        19.34736633     23.35677910      3.87243390
S        17.70920753     20.95616341      5.45133686
P        19.43868065     22.07245636      5.37216330
S        21.41330528     20.93707466      5.20264149
S        19.21490288     22.81321335      7.28533220
S        17.13246346     20.94454002     13.96346951
S        20.31133461     20.24432373     14.06806278
P        18.99341774     21.87096405     14.03189945
S        19.61367989     23.20216179     12.53186035
S        19.12815285     23.31538010     15.47469807
S        18.01699448     20.41198540     22.39730644
S        19.47076416     23.16481018     21.02256203
P        19.52473068     21.72955894     22.64969254
S        19.34365654     22.85459328     24.36331749
S        21.24384499     20.73346138     22.63707733
S        28.22114182      4.83762789      7.79128265
S        29.76581192      3.32176137      5.50067759
P        27.75885773      3.96269226      5.82585049
S        26.31414604      2.66542721      5.83323193
S        27.41597176      5.38947201      4.36052084
S        27.42115021      5.29083729     12.46282482
S        26.01058388      2.91979623     14.02771759
P        27.64808655      4.19003057     14.13054085
S        29.57165527      3.16850758     14.04827499
S        27.73210526      5.50248909     15.70083618
S        29.40108490      2.56943011     22.52193069
S        26.23625755      2.54087543     22.36651611
P        27.77023125      3.88992810     22.44197845
S        27.98328781      5.21724987     24.12376976
S        27.98269653      5.29774809     20.93189621
S        26.05248451     12.24088860      5.75331068
S        27.85778046     14.63969612      7.47947264
P        27.95999908     13.55010319      5.65803003
S        29.57778931     12.43126774      5.57314587
S        27.83058929     14.82709599      4.18615913
S        26.43683052     11.59471226     14.46119785
S        28.08419418     14.41741943     15.63907528
P        28.01932907     12.99732685     14.09377384
S        29.74203300     11.91574383     14.08523369
S        27.71288681     13.98597050     12.43841362
S        28.34028816     13.74621201     20.67646980
S        26.33670044     11.63715935     22.29192734
P        27.89496422     12.74254227     22.41996956
S        29.74998283     11.58980656     22.46972847
S        27.77018929     14.02295017     24.20576668
S        27.76898003     23.34404373      7.18546104
S        29.34359550     20.98073387      5.72167635
S        27.74853134     23.21107483      3.73110628
P        27.83619881     22.26968384      5.44179106
S        25.94750977     20.73276329      5.53124285
S        28.14126205     22.85656357     15.94323540
S        27.68442154     23.46260262     12.51957035
S        26.35197639     20.82559013     14.25440884
P        27.86494255     22.12867546     14.09185505
S        29.67318916     21.01256371     13.66423607
S        29.59478188     21.11096764     22.39984131
S        27.98758698     23.34613991     24.16922760
S        26.05068016     21.21954155     22.62491035
P        27.91823006     22.25293350     22.31055450
S        28.24418449     23.28931046     20.67756653
S         4.68772125      6.53549290      1.39870632
S         6.26132727      3.98478961      0.04974058
S         5.66333723      4.12822199      3.28346133
S         8.16130161      6.16903543      1.48380899
P         6.34558249      5.31570148      1.65015256
S         6.47816038      4.36952543     11.79657745
S         4.82093620      6.64930010     10.11101913
S         6.07235718      3.70007920      8.40471077
S         8.14757442      6.02700138      9.54153061
P         6.27708054      5.23080921      9.89937115
S         8.25268078      6.27625132     18.60721970
S         6.67646217      3.80596948     16.55363464
S         4.66811514      6.04845238     18.29683876
S         6.51766062      3.96698713     20.12753677
P         6.64582539      4.93869495     18.25433540
S         6.25396156     13.65201283      3.19064879
S         7.87823248     15.90826702      1.18818557
S         4.27320814     15.60069561      1.46085167
S         5.94011116     13.72888565     -0.09325638
P         6.15293646     14.94428158      1.45853460
S         7.83978558     15.14107513     10.04685879
S         5.65081406     13.26382828     11.36453152
S         5.78540850     13.48111725      8.13883114
S         4.43152523     15.90321541      9.76323891
P         5.90739489     14.48714256      9.81859589
S         6.46161985     13.71177578     20.23851967
S         4.71475887     16.14746666     18.74531555
S         6.08967304     13.52536869     17.04545021
S         7.80166912     15.90850353     18.40670395
P         6.15214157     14.79490185     18.65972328
P         6.57003260     22.83820343      1.26352644
S         6.46194839     21.54301643     -0.39465147
S         6.29851198     22.19321442      3.23624682
S         5.30387306     24.41160583      1.28169966
S         8.50443172     23.53727722      1.14474308
P         6.15837049     23.74978638      9.97677231
S         6.65280390     22.99335289     11.99041271
S         6.26880074     22.42161179      8.47779179
S         7.42528105     25.19429588      9.61081409
S         4.30866337     24.44944191      9.93358326
P         6.14846897     23.81811142     18.53545570
S         5.81551552     22.50941849     20.20085907
S         6.04669428     22.88901901     16.75973320
S         8.09323597     24.37250900     18.44434738
S         4.58488703     25.24746323     18.41785049
P        14.76060772      5.50606775      1.21717107
S        14.90458202      4.47338772     -0.65612221
S        13.47698021      6.93728924      1.35501230
S        16.62887001      6.44019556      1.44241309
S        14.38056469      4.23911715      2.75986814
P        15.03272915      5.29828262      9.82716560
S        13.57288837      6.58200788     10.07612133
S        16.76596069      6.31779718      9.80394173
S        14.65054035      4.22951841      8.09672737
S        14.88442516      3.94823551     11.41880703
P        14.90686321      5.41482639     18.55376244
S        16.47281075      6.67084599     18.85984802
S        13.00330734      6.45453262     18.55636406
S        14.77176476      4.16958809     20.06321335
S        14.86309433      4.28249550     16.83443451
P        14.98014927     14.78202343      1.71452284
S        15.37938309     14.05636120      3.48784876
S        15.86689377     16.69910431      1.31792450
S        12.95089531     15.16164017      1.54555011
S        15.32817650     13.53749180      0.12939800
P        14.55275917     14.11858559     10.02760124
S        14.56791973     12.89997196      8.44700718
S        16.57478905     14.82374763     10.00961018
S        14.37766838     13.16190243     11.96878338
S        13.01995468     15.46751022      9.85424328
P        14.83968544     14.36654758     18.33579636
S        16.36104202     15.61443138     18.30278778
S        14.78474236     13.05239964     16.47241783
S        13.17998123     15.56208324     18.28791237
S        15.04456806     13.44584942     20.19376945
P        14.93881226     23.12068558      1.41833878
S        14.92911720     21.94004440     -0.25941971
S        16.57092094     24.37039185      1.15742123
S        15.33187199     22.07885933      3.15133524
S        13.00453758     24.21399879      1.15572464
S        15.70271683     23.11926270     11.60823536
P        15.14513016     24.02790642      9.74322414
S        16.77477074     25.28109932      9.51977348
S        15.17368603     22.46227455      8.37504387
S        13.20692539     24.85766411      9.47559643
S        13.43087292     24.89460564     18.37819099
S        16.95697403     24.55257225     18.61837578
P        15.06520367     23.58983994     18.24509430
S        15.13311195     22.55030632     16.52495766
S        14.84365368     22.40827179     20.05734444
S        23.95172119      4.02323532      3.23306489
S        24.90357018      6.59561062      1.54128146
P        23.67326355      4.97118044      1.58626807
S        21.83681297      6.07252598      1.72288668
S        23.57478714      3.65070367      0.08392105
S        21.70578957      6.69675732      9.59928703
S        23.72057343      4.76595497     11.57475948
P        23.45689011      5.66831779      9.65511513
S        25.23463821      6.77761984      9.67483139
S        23.33532906      4.15548658      8.27956009
S        24.03393364      4.78800869     16.76497841
S        21.78298569      6.34415150     18.59881020
P        23.92966270      5.73613739     18.57551765
S        25.02843857      7.33558273     18.65400696
S        23.95060730      4.53969479     20.30824280
S        22.30987358     15.85497570      1.55711937
S        23.42216492     13.07083607      2.87214947
P        23.59601021     14.33794689      1.34365499
S        25.55075645     15.13574886      1.46889448
S        23.26117134     14.01490688     -0.68024343
S        21.91024208     16.12184525     10.15868282
S        23.16768265     13.71331406     11.92024040
S        23.49670982     13.73947048      8.52803707
P        23.57790184     14.89576149     10.34025383
S        25.53689766     15.89254570     10.49784184
S        25.42732811     15.27995110     18.28927231
S        23.61037254     12.91516304     19.60558510
S        21.77585411     15.56574821     18.35237694
P        23.49351311     14.37636852     18.30570030
S        23.76434708     13.23550892     16.54245186
S        25.42486954     24.42992592      1.25276530
S        23.48101997     22.13737869      2.98369861
S        22.01124001     24.71724319      1.35612154
P        23.58840752     23.43294525      1.23809159
S        23.34297752     22.11027718     -0.29192305
S        21.34597588     24.72826385      9.91976261
S        23.48184967     22.62068939      8.55922985
S        24.76381874     25.30732536     10.08638287
P        23.18114281     23.91728401     10.23001289
S        23.65045547     22.69848824     11.89738369
S        23.75900650     22.07234764     16.34997559
S        21.73405647     24.22905731     17.88060188
S        23.63265228     22.03818512     19.52060890
P        23.48398018     23.23292923     17.94674683
S        25.00522041     24.61754417     18.08815384
S         7.69730520      7.08989429      5.47312164
S         6.38934851      9.38256359      3.81796360
S         6.60509443      9.68013668      7.30912209
S         4.29521608      7.58770657      5.73091125
P         6.17016125      8.48861790      5.74809933
S         6.45661211      9.47302723     12.65543175
S         8.42234039      7.10397434     14.55419540
S         4.92624617      7.29487514     14.73443890
S         6.75497580      9.54593945     16.06353951
P         6.76649237      8.37234688     14.47423553
S         6.68737173      9.42079544     21.04902649
S         4.89934731      7.32129431     22.75220680
S         6.35481119     10.06777382     24.15000916
S         8.26280308      7.54845381     23.16539383
P         6.59771109      8.52019310     22.87325478
S         5.84069347     19.04381752      7.01266813
S         6.52267790     18.89379120      3.79539704
S         4.20476770     16.53942871      5.28993273
S         7.54301500     16.45719719      5.94283152
P         6.09157848     17.71307373      5.55965471
S         6.58385563     18.44948006     12.37824535
S         7.05999279     15.90062809     14.45159149
S         4.03422737     16.76251030     13.80754280
S         5.94853640     18.63585281     15.61678219
P         5.97006035     17.50393867     13.97665024
S         6.56847000     18.54068565     20.85156631
S         7.74038553     15.79830837     22.79683304
S         4.39807415     17.07681274     22.62596321
S         6.87489557     18.78136253     24.23093224
P         6.44717932     17.49908257     22.75891495
S         6.45676613     27.79339409      3.79005551
S         8.06619072     25.65585709      5.65130329
S         4.84544849     25.51074028      5.62810993
S         6.11256409     28.27699471      6.99504852
P         6.32634735     26.82314682      5.63705921
S         6.11766958     27.58443642     12.20802307
S         4.61639404     25.46354866     14.36974621
S         6.50787354     27.41260147     15.88448715
S         8.02381229     25.45661354     13.76893997
P         6.31279945     26.45779610     13.99720955
S         6.15185833     27.45601654     21.10925674
S         8.13650131     24.88123703     22.60630608
S         4.81068182     25.42077446     23.11504173
S         7.09352016     27.40099716     24.28098869
P         6.63104248     26.21897697     22.85641098
S        12.92727661      7.75323534      5.54249668
S        16.39255905      6.44295835      5.79158974
S        15.24773312      9.05069828      7.37906265
S        15.38287926      9.31788158      4.08590078
P        14.94537449      8.02683544      5.66581106
S        15.49664211      8.99054432     12.13844490
S        14.88123798      9.95134258     15.17176819
S        16.48514557      6.95484018     14.31866741
S        13.12283993      7.31638718     14.20996952
P        15.01251602      8.38453770     14.00085640
P        14.85007477      8.65117741     22.49748802
S        16.52820396      7.59313583     22.27589417
S        12.93497562      7.80148554     22.84699440
S        14.76504135      9.95595932     21.00466347
S        14.84177876      9.78050327     24.21004868
S        13.35211086     16.60162354      5.98892212
P        15.12703514     17.73895264      6.09574080
S        15.08998203     19.24614906      4.75166035
S        15.34780979     18.36127853      8.02976322
S        16.89169884     16.53785515      5.85357428
S        14.77068806     18.46458054     15.86471081
P        14.66344833     17.43807220     14.11386681
S        16.50339127     16.42569733     13.83696365
S        13.30744267     15.91948318     14.48764229
S        14.33854485     18.50015450     12.36577606
S        13.19786549     16.35136795     22.85093689
P        14.79324913     17.58919144     22.60332680
S        16.72791100     16.86259460     22.65682411
S        14.76744652     18.54644203     20.74612999
S        14.54257965     18.78089523     24.28348923
S        15.47642708     27.94138718      3.73718882
P        15.48782730     26.65311050      5.34526253
S        13.96476078     25.07634926      5.04951334
S        17.42806244     25.84460068      5.61371803
S        14.72541714     27.51327324      6.96403217
S        14.85984135     27.19714928     12.23326874
P        15.04248714     26.46405602     14.19186974
S        13.09163284     25.76502609     14.32821369
S        16.59711266     25.15451241     14.13431835
S        15.24158192     27.96960831     15.47007179
S        13.11745071     25.70641136     22.71559715
P        15.13168049     26.59941673     22.66485405
S        15.38288021     27.56435394     24.57675362
S        16.73347282     25.41904068     22.70962334
S        15.34448242     27.78139687     21.04166412
S        23.00919724     10.02272797      4.03800154
P        23.53070831      8.99894142      5.68583059
S        25.45181274      8.17305374      5.43154716
S        23.22303581      9.82960796      7.51156616
S        22.35005569      7.17541075      5.41858912
S        22.25185585      6.89260292     14.17473793
P        23.44897652      8.60272217     13.96627998
S        25.55120277      8.05649090     14.05600262
S        23.03756332      9.43509388     12.01356697
S        23.37600899      9.73517227     15.63179111
S        21.44985390      7.42849207     23.10371780
P        23.10244942      8.75620556     22.97591019
S        24.94252968      7.51332092     22.99531174
S        23.01439667      9.81477356     21.10334015
S        23.07312202      9.55108070     24.79641151
S        23.47319603     18.38885498      7.38139725
S        23.55282021     18.66404152      3.77589393
P        23.64869881     17.42325211      5.47791862
S        21.98718834     16.00962067      5.35959101
S        25.37060356     16.18580818      5.63737679
S        21.88801765     16.19935226     14.11805439
S        23.52258110     18.46245003     15.78656769
P        23.79787636     17.34977341     14.05633259
S        23.65690041     18.58794975     12.43661308
S        25.42425537     16.28370094     14.28668022
S        21.74742508     16.65819168     22.55938721
S        25.08761215     15.77144814     22.36717224
P        23.78642273     17.38674927     22.50306511
S        23.94421196     17.97475433     24.46723557
S        24.13261986     18.89155006     21.19738388
S        22.03535461     25.24376869      5.59005547
S        25.42339134     25.31574249      5.66457844
P        23.76505470     26.32069397      5.97090292
S        23.80886269     27.33206558      7.85652113
S        23.72020531     27.68657303      4.47999811
S        22.34041023     24.61022377     14.40326691
S        23.46370697     27.63606834     15.83415127
P        23.43431473     26.30938911     14.27661991
S        22.74115562     27.42488670     12.63363361
S        25.54851723     25.59412193     14.04106617
S        23.24094391     27.38915062     20.70624542
S        22.07266998     25.07173538     22.61166763
S        25.51484299     25.19631386     21.96006393
P        23.74617386     26.28877068     22.34580421
S        23.87260437     27.36748886     24.13325500
