864

Li      -97.33771515   -197.89530945    -33.32849503
Li      -44.64135742      2.14808059    -12.67404842
Li     -104.59613800    144.56452942     84.29183197
Li     -130.85858154    -49.15953445    -33.95474625
Li        2.50711870    244.01039124    -28.92208862
Li      132.19543457   -176.28686523    -21.11830139
Li       93.39418793     10.35697079    182.60684204
Li        2.92373991    106.28948212    105.10550690
Li      -31.75429726    -54.97214127     38.44729233
Li       14.74698734      0.57563198    148.35052490
Li      153.51670837     65.67580414    113.67606354
Li     -109.76569366    -49.47597504    106.29251862
Li     -175.38671875   -140.79713440    -79.49591064
Li     -140.78254700     13.78608799     13.32765293
Li       -6.39443445    -83.79483032     46.68490219
Li      -93.26210022    219.53378296    -47.07867050
Li     -174.16557312    -86.67253876     12.96410465
Li     -131.73779297    167.10493469    114.93897247
Li       27.83578491    -64.45127869    -60.01580429
Li      223.42021179   -130.71673584     67.80062103
Li      -87.56031036    165.62391663     78.24179840
Li      -64.64979553    139.19377136   -120.40113068
Li      153.82331848      1.89199305      4.68961048
Li       69.00775146    120.04800415    -40.54908752
Li      -49.52570724    238.99786377     29.76778412
Li       45.50668716     95.13602448    -37.74687195
Li      148.89329529    134.81094360      8.27945995
Li       50.47444916   -223.84570312    -13.02661514
Li      -27.14091110     44.86540222    115.80818176
Li      -32.32392883    -72.25511932    -71.67498779
Li       28.83084679      6.00091553     60.04904938
Li     -114.83529663    179.73712158     60.00488281
Li       51.20460129   -308.58337402    -68.95513153
Li      102.29096985    -43.86410522     18.00552750
Li      -92.66196442   -174.41012573    -72.36693573
Li      -10.24343586    101.11289978    144.64665222
Li     -120.93451691     45.82970428    -93.34678650
Li       49.52547836     70.85184479    -65.98798370
Li       -3.53973246    -83.27767181     95.39746094
Li      175.75469971    110.07997894    -33.67784882
Li      -96.79541779     17.22665977    -53.14944839
Li      114.13486481    131.18762207    -41.86549759
Li       66.14379120     82.45333862    -84.57849121
Li        6.69820547     38.93334198      3.57003379
Li        2.08472872   -105.81844330    -67.01358032
Li      -31.29294205    206.14228821     28.72224617
Li      -77.07532501    116.31990814   -104.19256592
Li       88.97726440    393.90795898     -8.72579479
Li       93.46075439      0.84267527    -21.08485222
Li       88.20855713   -146.22767639    194.78935242
Li       48.54545975   -156.14624023     69.26924896
Li       49.33346176   -183.19323730   -106.45960999
Li       -4.01353931    -88.72493744    -35.58092499
Li      131.23588562    -96.95453644     87.04092407
Li       -1.64755940     35.48170090      0.18894535
Li      -61.63515472    -84.71656036      4.46156454
Li       18.92954636    105.01670074     76.04189301
Li       22.97734070    -74.15367126   -141.92164612
Li      -66.55301666    -34.32500839    -84.28952026
Li      -34.97430420    -33.76668549    -74.34039307
Li      -41.24594116     18.09651947    -28.77504539
Li      -27.54408455   -176.11724854    -29.26793480
Li       88.93149567    192.71279907     72.35558319
Li      119.19124603      8.73793030     46.84127808
Li       89.35177612     73.53053284    101.69229889
Li      181.15454102    -82.34663391     15.94845867
Li      -66.67601776    -51.45803833   -126.81143951
Li      -20.32000160    187.34165955    -38.42897797
Li      101.48420715    -68.80702209    208.53453064
Li      -71.01939392    106.11719513     59.08711243
Li       -3.75472140    -14.88211727     15.27409458
Li       68.05220795     32.41420364    106.45449066
Li      -45.19851685      8.90915585   -148.11689758
Li      118.93428802    -31.65380096     25.30757713
Li      180.02416992    -55.20364761     56.30263138
Li        3.14961600   -125.57905579    208.14431763
Li       67.15846252     38.78779221     97.20842743
Li      271.63546753     21.36363602      6.23207855
Li      166.55859375    240.32644653   -148.12147522
Li     -101.28079987     55.92979431     29.82663345
Li      -80.90369415    -59.53831482     24.02355957
Li       28.93939972    -23.21274376    -87.95534515
Li       41.44119644   -115.90696716    122.65490723
Li       28.76117516    267.85644531    -38.10862350
Li      -72.88005066      7.33745813   -251.98486328
Li       23.27655983    -32.75067520    -44.42539215
Li      -37.06280899     63.59671021    144.35722351
Li     -181.37521362     68.55272675   -124.95611572
Li       11.30061150    230.27714539      0.07755279
Li      -16.63397217    201.79450989     87.01521301
Li     -108.94207001   -214.36520386     32.36186600
Li     -123.29743195    -78.66471863     17.12630653
Li       84.21805573    222.73588562    -37.52896500
Li       28.46235085     40.47771072    135.54135132
Li      106.46941376    206.02633667     63.42464447
Li       -8.99826813    -24.72010040    -31.93605423
Li      140.37417603   -154.82878113    141.55995178
Li      109.84082794    174.55467224    -42.60851669
Li      -18.67787933    -22.57671547    153.16925049
Li       54.36269760     74.58744812     -8.73676968
Li     -101.29113770   -237.84243774    114.60234833
Li       51.05204010    107.94059753     22.85767555
Li      106.18824005   -108.98903656    140.22261047
Li      -31.77996254    -91.65632629    -38.67451477
Li      209.50114441    101.22114563    -93.23440552
Li       36.85772324     93.17619324    105.90332794
Li       97.67649078    160.60688782    -21.26138878
Li       41.63320541   -100.26296234    152.22048950
Li      140.74952698    -82.06278229     92.56637573
Li      -86.69505310      7.77766609     40.33303070
Li      232.13935852     78.02439117    186.34925842
Li       85.89238739    -15.39278603    198.18386841
Li     -101.05229187    -24.83053589    148.72557068
Li      114.38276672     36.12931824    186.75445557
Li       -9.93745804     -4.04844666    -28.99934769
Li      115.38964844   -183.68466187     26.06392097
Li      -50.50740433    -78.29400635    -99.80077362
Li      -60.16258240    -60.71738434    137.02409363
Li      243.89779663    -34.48497772    105.78962708
Li       54.15849304    118.69244385     -8.38472080
Li      -32.63485718   -112.40107727     63.84384918
Li       54.20377350    214.08204651     93.52097321
Li      -33.44453430    -24.47454453    112.58250427
Li        6.70470238   -223.40383911    -21.21316528
Li      -23.50163269     28.52592087    144.54342651
Li       57.31916809     35.07085419     68.50104523
Li       21.66926765   -191.74215698    -65.93830109
Li      126.09262085   -101.62175751    -22.46990013
Li       -0.98822820   -154.55888367    -36.60360336
Li       23.00739670    -53.21265411   -101.58422089
Li       60.93024445     83.65900421    -82.70069122
Li      -86.19470215     80.56089783     40.96419525
Li       41.15000916    -40.55893326    271.45184326
Li       -5.59913874   -143.96702576     84.81082153
Li     -118.62822723   -178.71102905    -88.94559479
Li      -22.79206085    104.01120758     -0.17380929
Li      -28.00572395     93.05418396     51.15598679
Li      163.72161865     34.84320450    124.59516907
Li      121.65994263    -21.21382904    -28.31844330
Li      -32.08724213    -15.28002548     71.82437897
Li       -6.32617569     60.54979324      0.08413785
Li     -200.90487671     82.00105286    -97.49014282
Li      158.19483948     26.27211761    -25.38733482
Li      -79.38072205    -49.84740067     25.62578773
Li       29.10438347      3.38598323     50.09806442
Li       41.01792908     31.74971199     -0.11496300
Li     -118.30553436    182.14932251    -63.37486649
Li       76.04238892    237.07752991    156.35433960
Li       98.16599274   -102.42479706    -67.16128540
Li       39.98413467    161.30528259     45.04228973
Li       62.83938980     53.79941559    -45.22438049
Li      162.34375000   -208.92030334    -16.73039436
Li       77.91787720   -176.73410034   -185.60842896
Li      -88.25751495   -144.95686340   -114.09978485
Li      109.91691589     -7.75242186     63.57942581
Li       46.25779724    149.48571777     25.58760262
Li      -80.01089478     16.20802689    170.39498901
Li      122.85799408    -31.39890862     93.99353790
Li       58.08374023   -221.99935913     92.63997650
Li       75.19613647    134.23898315     25.78624916
Li       13.73116398      7.09765720    -73.19511414
Li       80.01007080    -34.11733246    254.76261902
Li      -58.07634735     47.36778259     12.99192142
Li     -222.09768677   -137.08552551     60.32218170
Li       50.82405090   -194.24078369    -55.12779999
Li      -20.15185928     37.18888474     46.95483780
Li       -1.35499358     26.35987091     13.03242111
Li       80.51299286    127.19470215    -71.84935760
Li       75.72268677     85.58984375    -42.29759216
Li     -148.65377808     -1.66283476    -32.98669434
Li      169.91682434    100.65528107     30.12950516
Li      -25.25780487     44.06563568    125.29312134
Li       11.11719894     23.50361443    -89.07032776
Li       11.32179260    124.83164978    190.13380432
Li      -75.38964844    114.53720856     29.76860046
Li      147.20065308    108.28721619     99.92533875
Li      -18.56145287     -1.23921275   -101.84512329
Li     -110.57645416    -99.78640747     72.84070587
Li       -1.48412597    -58.66802216     42.58964157
Li       -8.25321293     -9.95295525    -96.16076660
Li      -40.29871750   -180.38218689   -182.25737000
Li      166.56182861    243.79244995    -29.38491249
Li      -44.75646591   -103.35626984    161.12773132
Li      155.20086670      2.49728870    -57.05642700
Li      112.27993011     -1.04440892     65.30540466
Li        7.00156975    205.16775513      4.82090092
Li     -105.57163239     37.81252289    123.02125549
Li      -10.48220158    -16.46363258     63.86297226
Li      123.67518616   -131.47619629    -29.19827843
Li      -88.68329620    -26.63775635    -67.71556854
Li      -15.15964031    124.58588409    -42.55623245
Li      -64.72052002    147.70346069     74.14884949
Li      -19.28985786    -38.86407471     -4.36532402
Li       23.21736526    -35.73778915     76.24564362
Li      -66.04788971     22.27274132     46.97853851
Li      -66.19569397    163.11383057   -139.87400818
Li     -126.52316284    124.16661072     46.10823822
Li        6.76448584    -33.61473846     84.97371674
Li     -114.52858734    -92.35599518    181.73194885
Li       63.54220581   -206.26289368    -59.19464111
Li       -9.99499130    108.95403290     13.02840424
Li       58.27300262    -26.18008232     71.74402618
Li       54.13405228    -85.81306458     72.64441681
Li       75.03257751    267.94998169    -71.96006775
Li     -157.22142029   -127.43669891    106.55549622
Li      -59.83120346   -127.98424530      7.30590677
Li       97.21479797     64.32797241     63.73198700
Li      188.30575562     18.20858383    -20.81021500
Li      -92.55330658    111.21770477     17.16288757
Li       33.93530655    -21.50961304     42.71118164
Li       71.74249268    205.50111389     -4.16776752
Li      197.00437927     10.62160873     50.97108078
Li      119.04631042   -119.34109497     42.92878342
Li       72.02521515    -16.97700882    127.10127258
Li      -70.85501099   -294.34088135   -258.06042480
Li      -48.00658798    204.08546448    144.22489929
Li     -140.93441772     99.72676849   -152.54278564
Li     -178.34828186    -48.27300262    173.83589172
Li       20.25547981    -35.08329010     50.78682327
Li      140.77311707     32.68611145    -20.83078194
Li     -123.26780701     13.10760307     -0.57845527
Li       92.51695251    -40.47520065     58.94594955
Li       32.60335159     42.69024658      9.21189690
Li     -131.54895020     -7.46111584    119.69978333
Li      106.70744324    -99.04853821    -12.32507038
Li     -177.88427734     46.23364258     72.46030426
Li       45.72121811    -87.60298920    -21.42028046
Li      -63.27407455   -158.99833679     90.41864014
Li      142.85968018    130.66302490    -10.47376728
Li      -66.58034515    111.91362000     13.15085602
Li      -23.06580353     88.17366028    -58.99167633
Li      -10.55483150    -60.59067154     88.72100830
Li      127.98191071     19.89636803      8.93191814
Li      -92.82332611    121.35580444   -271.50570679
Li      110.67934418    -15.28925705    -38.76922989
Li      -40.34520721     16.76936531    -30.99080086
Li     -178.75645447    182.28314209    114.30921173
Li       -6.14196968     13.00940514     84.94699097
Li       71.42481995    -92.95336914    -17.02481079
Li       67.05082703    103.00630188    -17.12019157
Li       84.54692078    117.49567413   -241.03927612
Li      -18.61349297    -98.10881805     50.75318146
Li        7.28610420     83.39882660     76.55516815
Li       20.11875725    -14.59909344    -45.11846924
Li      -19.35805511     42.61364365   -139.87709045
Li       71.90123749     42.69599915     42.31434631
Li     -114.32707977    -47.49525070    -12.94033146
Li      179.33148193    317.80450439    -80.51361084
Li       56.18191910     25.31879425    -82.13426208
Li      -67.03061676     15.78156376    -50.24744034
Li      153.11035156    136.36949158     -8.18890953
Li       67.44771576     49.94748688    -33.53141403
Li       88.98535156     36.73283768    -50.43468475
Li     -103.61646271     84.95945740    -14.65984249
Li      175.91574097    184.53248596    109.16742706
Li      140.79743958     -3.73805594    220.75163269
Li       34.80073166    -87.46115112    172.11979675
Li       19.45427322    -81.30869293     76.35860443
Li       56.97241974    103.28553009    -19.07268333
Li      -79.65313721   -147.49858093    -46.01072311
Li      106.20964050     13.29835129    -62.32891083
Li      -49.29929733   -200.36149597    110.87616730
Li        7.43557787    164.58854675     85.32970428
Li        2.58708405      6.23915434    -76.17143250
Li      -14.07308578    141.55578613    -54.85926819
Li       93.62342072    122.79367065   -152.47372437
Li       37.08829117     68.20496368     72.44212341
Li        8.71522617   -170.28227234     76.31391144
Li      -84.02700043    -69.86420441     68.64292145
Li      131.46739197   -125.27665710    153.26377869
Li       18.54874039     66.31037903   -175.02822876
Li     -156.85044861    -37.71102142     -4.08790779
Li      -40.58263397   -102.53250885    162.16749573
Li     -216.29225159     42.41853333    -36.38195419
Li       66.80972290    146.36900330    -67.43744659
Li      -62.60765839    -13.99816608    -97.34957886
Li       85.30445862     65.27959442     -8.39248848
Li       74.82894135   -103.84242249   -155.38571167
Li     -161.15637207     82.72805786    -54.93302917
Li       53.81055450    -16.96451569     46.55485153
Li        5.35770988    -50.21889496    -43.90745926
Li      -45.24492264    -39.61072540     -8.12661743
Li      111.68874359    -90.98847961     40.64574814
Li      -44.58375931    -22.00628090    -46.31757736
Li      -37.12445068     -2.64220762     59.91754532
Li       15.20389938   -185.68968201    -29.60014534
Li      -92.23819733     77.23835754     75.86867523
Li       28.28723335     67.74071503   -152.78842163
Li       28.52587509     23.47457695   -143.50178528
Li       98.03990936   -224.95030212    -29.16294479
Li      -18.68658638    -56.66113663     46.72765732
Li        2.52714562     70.76652527    -49.27470398
Li     -135.87925720    -99.48282623    -84.76090240
Li        6.53441286    130.78489685     25.06455040
Li      129.41926575    131.37745667    129.47856140
Li      144.90213013     78.56972504    -37.97618484
Li      158.23045349    -41.30874634   -130.74189758
Li       -2.25993061    131.36944580    -88.66484070
Li      -79.09240723   -212.11618042    -45.92671967
Li     -104.72498322    -66.78865814    -12.18711662
Li      -32.42219162    110.30548096    105.95467377
Li      -40.40877151    -20.41201591   -109.69567108
Li      -98.59150696   -189.17352295    -39.64344025
Li       97.68147278    114.81632996    -89.18682098
Li     -140.10215759   -319.26925659    238.05494690
Li        2.05464220     90.52775574    -16.71210098
Li      -31.86122894    -21.98426437    143.91001892
Li      -79.88411713   -149.73451233     34.19424820
Li     -108.99610138      9.92951012   -143.74923706
Li       63.00719452    -55.48702240    127.78237152
Li       -5.97198105   -214.09046936    -38.00528717
Li     -183.70948792    123.99922180    102.28239441
Li       32.13341141    -92.17740631      0.85848188
Li     -144.54579163    -79.02291107    -16.16489029
Li     -132.00672913    -26.29376411     59.78617477
Li      173.96221924     71.10241699   -128.48802185
Li      -84.28214264    208.85423279   -160.71911621
Li      -11.42265129   -191.87643433    102.59239197
Li       62.36122513     62.94061661    -96.42113495
Li       92.76948547    -38.24868393   -131.25041199
Li       67.43530273    -78.18614197     85.34863281
Li       45.38019943    -50.99348831   -101.23324585
Li       59.58784485    -84.41724396    -21.21165085
Li        2.47071028    -55.88300323    -68.34899902
S         0.46505222      6.93330956      0.89370453
P         0.33475074      8.08326149      2.64874744
S        -1.40666914      9.24110603      2.45818210
S         0.29791182      6.86047649      4.24710417
S         2.02104378      9.17033482      2.53637218
S         2.23898864      9.03551579     11.11626911
P         0.22517665      7.93622112     10.87808228
S        -1.37663591      9.08614826     10.88046455
S         0.63115281      7.13272905      9.19572830
S         0.07816575      6.56988716     12.35085869
S         0.27174252      7.44936180     17.46191978
S         1.11623013      7.96802282     20.67976952
P         0.06872650      8.63926315     19.08288383
S        -1.94769382      8.94204617     19.78916168
S         0.92492044     10.53309631     18.71541023
S         0.11878140     16.21929359      0.63568681
S         0.30676368     16.22193527      3.86917472
P         0.04378911     17.47020149      2.33173347
S        -1.83667874     18.27649879      2.38586354
S         1.72868252     18.66732216      2.35454941
S         0.49623021     16.68847275     12.94141102
S        -1.52457821     18.75385475     10.99166775
P         0.34968275     17.62621689     11.07320499
S         0.15762530     16.11929131      9.65975952
S         2.12095547     18.71082687     10.55600929
S         0.20498848     15.90731907     17.35061836
S        -1.26955569     17.84688950     19.38150215
P         0.54357910     17.01507759     19.00828743
S         2.21069455     18.20029640     18.37871361
S         0.75689507     15.85328007     20.81686592
S         0.10425586     24.75771141      0.50987464
S         1.72172678     27.56326675      1.92717540
P         0.13687538     26.13785362      2.03842425
S         0.57117057     25.01684952      3.86716914
S        -1.75656891     27.00481606      2.07894206
S         0.56435853     25.12555313      9.01854801
S        -1.01896310     27.78360939     10.84974194
P         0.52944303     26.39604950     10.80346203
S         2.23416638     27.48480034     10.72653198
S         0.58312517     25.23912621     12.52837658
S         1.52534413     27.93486786     19.53738213
S        -0.25691891     25.28576660     17.94561577
P        -0.18231720     26.48961639     19.51631355
S        -1.75386310     27.51330185     19.96496964
S         0.32239127     25.32462692     21.26637650
S         8.73140526      7.40319395      4.25921011
S         9.81873989      7.43213224      0.82807374
P         9.12982082      8.48767471      2.42722416
S        10.86032867      9.53231049      2.93845081
S         7.41336107      9.55697918      2.20179915
S         8.56498146      7.45159245     12.66770458
S        10.64423275      9.63935566     11.04210949
P         8.85996532      8.49594212     10.96822739
S         7.34546185      9.90233231     10.69420910
S         9.03476906      7.45989990      9.18888092
S         9.28450775      7.26226807     21.07189178
S        10.44131851      9.98752213     19.39192963
P         9.06329823      8.46580982     19.38246536
S         7.29642296      9.48015022     19.20472908
S         9.34840202      7.55143785     17.56830406
S         8.53190804     16.59178352      0.70480764
S         6.86112309     19.13244820      2.38861012
P         8.53866673     18.07332230      2.28051543
S        10.07087421     19.41699409      1.75531840
S         8.95181370     17.25313759      4.17238712
S         8.67866039     16.47181511      9.26906681
S        10.90171242     18.34959793     10.88254642
S         7.73000813     19.33918762     10.77882195
P         8.79950619     17.73012543     10.88982296
S         8.68431091     16.61934090     12.50895596
S         7.22895336     19.46282005     19.69571495
S         8.52126884     16.63679504     21.12543106
S         8.01301765     16.99322701     17.75793076
P         8.58260632     17.94340515     19.55175400
S        10.49176979     18.69171333     19.45071030
S         8.84914398     26.35543823      4.48463106
S        10.60695362     27.94485664      2.12406683
S         9.01130676     25.09226036      1.24310327
P         8.99451351     26.83301163      2.40622640
S         7.24678230     27.67692947      2.13668537
S         8.82402039     24.91446495      9.26166344
S         9.80559921     25.27298546     12.47375298
S        10.52826214     27.66692924     10.65991688
P         9.05821323     26.21957207     10.84745216
S         7.38910723     27.59102249     10.93798256
S         9.46849823     25.50653267     17.22801590
S         7.43262815     27.49917793     18.88219833
S         9.32076931     25.32215881     20.59896469
P         9.16534424     26.53027916     18.96787453
S        10.82624912     27.91442108     18.96281815
S        18.90713501      9.86962891      2.12885809
S        17.28821182      7.06024837      0.83251184
S        17.90085793      7.52308416      4.28294659
P        17.44810867      8.37236118      2.37481904
S        15.37356186      9.21297550      2.41179085
S        17.51927376      7.54034853     12.72640324
S        17.80866814      6.94630289      9.60539913
S        18.99514008      9.79655933     10.52875137
S        15.64900589      9.56746483     10.82190800
P        17.57559586      8.50632668     11.00118160
S        19.36900711      9.74745369     19.33844185
S        17.59001160      7.35120583     20.66653442
S        17.37853432      7.76343155     17.24842834
S        15.91267395     10.11114216     19.11318398
P        17.62852287      8.72199249     19.08974457
S        19.43237877     18.31008148      2.44963408
S        16.03264427     18.21480179      2.19782615
S        17.75832367     15.82389641      3.92462683
S        17.87665558     15.86637211      0.69631439
P        17.88975525     17.16444969      2.39472604
S        17.32912827     16.49657059      8.94023418
S        19.36553574     18.83571625     10.74428177
S        17.59474373     16.60112000     12.29741573
S        15.94507599     19.21376038     10.56403542
P        17.55567169     17.76074028     10.68763828
S        18.04417229     16.67051506     17.05369568
S        15.85666561     18.02066231     19.14710236
S        19.57466698     18.39643288     19.61566353
S        17.65670776     15.50869179     20.15766525
P        17.89712906     17.13370514     18.95183754
S        18.65092278     28.52108192      1.91377711
S        15.56357193     27.45617676      2.02583432
S        17.98966599     26.12413216      3.97042751
S        18.11633110     25.55123138      0.31230044
P        17.63158607     26.81040573      2.05724883
S        16.38565254     28.04098320     10.77101898
S        17.64792633     25.29254150      9.53114319
S        17.57118034     25.41432190     12.82455063
S        19.66650581     27.55408287     11.02985954
P        17.81378937     26.59735107     11.11042500
S        17.94329262     25.31597328     17.83932877
S        18.88354111     28.05348778     19.14127541
S        17.44669724     25.91341400     20.98040390
S        15.50146484     27.53301430     19.13659859
P        17.32318497     26.65367699     19.20835304
S         9.24517155      4.30369377      5.40934467
S        10.79378319      1.67304945      6.81514263
S         8.93359852      3.61760306      8.79672432
S         7.18564701      1.92344284      6.57263422
P         9.06534672      2.82855272      6.83094263
P         8.67843628      2.44832087     15.24134445
S         8.78689194      3.40495682     17.08963394
S        10.51216698      1.51939499     14.90688992
S         7.10885000      0.96849859     15.02637291
S         8.76396465      3.95794201     13.72745514
P         8.88283062      2.24142051     23.13030243
S         9.00606728      3.36670327     24.89683151
S        10.65247345      1.10713100     23.16685104
S         7.19069910      1.22183239     23.47323036
S         8.97138882      3.34043813     21.35167503
P         8.65179157     11.60338688      6.56586266
S         8.47399426     12.88035965      4.75736904
S         6.96356344     10.31015778      6.57537508
S        10.59193611     10.97331715      6.66433716
S         8.21918106     12.71783066      8.20129490
P         8.95311928     12.13163853     14.58963108
S         9.14463615     13.04243851     16.53612328
S         9.32245350     13.11799335     12.81488800
S        10.57467175     10.85642529     14.97899723
S         7.03800249     11.19601440     14.59590912
P         9.39394474     11.58954144     23.66396713
S         8.86111164     12.66439533     25.24920273
S         7.71931028     10.47292328     23.06013298
S         9.19644547     12.96812439     21.99160576
S        11.09753323     10.51751900     23.84025764
P         8.83382130     20.68453598      6.38677502
S         9.04752827     21.75321007      4.59978342
S         8.47952652     22.18490028      7.76381588
S         7.21151495     19.47213173      6.51824713
S        10.41278934     19.65150642      6.68911457
S        10.21998596     18.77044678     15.22553444
P         9.20258141     20.38342857     14.94878101
S         7.18397522     19.91898346     15.01428509
S         9.56830597     21.29799080     13.15406609
S         9.59730816     21.60189247     16.67719841
S        10.97073364     20.26856041     23.36912918
P         8.94085979     21.13438416     23.35008430
S         8.86098862     22.09053802     21.59284401
S         8.82340527     22.01226807     25.19388962
S         7.27614641     19.80998230     23.30677986
S        17.85560036      3.83956170      8.11855984
P        17.61296463      2.52256632      6.41984320
S        19.25296783      1.05002642      6.59593773
S        17.91252136      3.75081348      4.58050251
S        15.95416260      1.50889480      6.41969395
S        17.32349205      3.59581351     13.19009209
P        17.66303444      2.56282997     14.86793232
S        19.56586266      1.67542553     14.80599976
S        16.19091225      1.18917060     15.29701519
S        17.73092651      3.63531470     16.67679596
S        19.32730103      1.90825570     23.35606956
P        17.47804832      2.99221873     23.12828064
S        17.55920029      4.46889257     24.47657013
S        15.77595901      2.01133680     23.35280609
S        17.54595566      4.02651548     21.29306793
S        17.29613113     12.53619289      8.31255531
P        17.39302826     11.19219112      6.91197491
S        19.43445969     10.74177074      6.81960106
S        17.13368416     12.08104515      5.00331259
S        16.11466789      9.51064968      6.88892794
S        17.56186867     12.98819351     16.96531296
P        17.31806946     11.87627029     15.30168915
S        15.35588646     10.79623127     15.41756344
S        19.02777863     10.63784313     15.02430630
S        17.02378273     13.08693504     13.42423344
S        18.90967369     10.46342754     23.48460197
S        15.70373631     10.33962536     23.30012703
P        17.25163841     11.66162872     23.68497276
S        17.22657394     12.36427879     25.55594254
S        17.47033310     12.99794483     22.04492378
S        17.47199440     21.66467667      7.67262888
S        19.30809021     18.97252464      6.23429537
P        17.56178474     20.23012161      6.20355272
S        15.89246178     19.03686142      6.54547548
S        17.15049934     21.09265518      4.31860161
S        17.82592773     21.13254929     16.97584724
S        15.85639572     19.63177681     14.98867130
P        17.68457413     20.35530472     15.05936623
S        17.70043373     21.77988052     13.35024071
S        19.29711533     19.10321045     14.86804962
S        17.42138672     21.23211288     21.55064583
S        18.95182610     18.97962952     23.50290680
P        17.33837128     20.15622520     23.36219597
S        17.45181465     21.37280083     24.98094559
S        15.50093174     19.08728409     23.54026031
S        24.37378311      0.79576057      6.83777142
S        26.09955215      3.59994888      8.18182373
P        26.11949539      2.11754298      6.67778826
S        27.86280632      1.13501835      6.88699055
S        26.22695732      3.06685519      4.72692585
S        24.53858948      1.00637305     15.20583820
S        25.99736214      3.57407236     13.43847370
P        26.11825562      2.26479530     15.08913803
S        26.50409698      3.19751930     17.00189209
S        28.03407860      1.41763937     15.03782463
S        24.46144104      1.66485810     23.79763031
S        26.47225571      3.83221388     25.00627899
P        26.25132370      2.47613835     23.46362114
S        27.92637444      1.19630277     23.76005936
S        26.25029373      3.24148297     21.65968132
S        27.15328026      9.72925186      6.37270403
S        26.55157852     12.78282356      5.19757414
P        26.08280754     11.41235733      6.56049681
S        24.14826584     10.57160282      6.37125540
S        26.36909294     12.15085793      8.48414230
S        27.21294594     12.10109520     16.01756859
S        26.25769997     12.46953583     12.82637119
P        26.21340752     11.12934589     14.48754597
S        26.97320557      9.34676647     14.18639469
S        24.28709793     10.62394714     15.04294777
S        27.64420128      9.79269028     23.82174110
S        26.47262573     12.03952885     21.97656441
P        26.03671646     11.02007389     23.86546516
S        24.32542419     10.16616154     23.93908501
S        26.10347366     12.31746578     25.45145035
S        26.36147690     21.41543770      8.04383373
S        26.16157913     21.32689285      4.61183691
S        24.25923347     19.30547142      6.29374599
P        26.05531502     20.35703278      6.36909676
S        27.51088715     18.74197578      6.42056084
S        26.08395195     22.04447174     13.04461002
S        24.21693039     19.83694839     14.71051216
S        26.07169914     21.20227814     16.79705048
P        26.05770302     20.81881332     14.74660683
S        27.81909180     19.46454430     14.53924370
S        24.61724091     19.24399757     23.75713539
S        26.24662209     20.81483459     21.42937660
S        28.07063293     18.89802742     23.63154602
P        26.39433289     20.24239922     23.43599892
S        26.69689941     21.73979378     24.72668457
S         4.85650778      2.53279185      4.20565605
S         2.91109371      4.67474222      2.16770220
S         5.13101053      2.75650287      0.82520086
S         6.25350714      5.16018867      2.68393326
P         4.72873354      3.74573398      2.52590823
S         2.71788263      4.64033794     11.14106274
S         5.00142670      2.79704475     12.67271709
S         6.18699455      5.20728922     10.66107368
S         4.71913242      2.65225506      9.13135624
P         4.76333904      3.86200500     10.85042191
S         4.90976000      2.96807384     21.06386375
S         4.30231810      2.61353374     17.85739326
S         5.69965267      5.27492285     18.85907173
S         2.38522863      4.80646515     19.52381325
P         4.20462656      3.94098639     19.36992455
S         2.63390756     14.22266102      2.00901842
S         4.48281240     12.09621811      4.11417675
S         6.20930624     14.01908970      2.25469041
S         4.20994234     11.84830093      0.47832566
P         4.41998959     13.04654408      2.17601657
S         4.05148983     11.61549759      9.47376919
S         6.26716900     13.91927814     10.95484543
S         4.53688431     12.01949883     12.98572350
S         2.75700521     14.21238804     10.93809032
P         4.43157339     12.96716881     11.11146069
S         6.02522850     13.00265217     20.89338493
S         4.18088961     10.45840073     19.80569649
S         5.50845671     12.56920147     17.42397118
S         2.84248257     13.48480225     19.54204559
P         4.74483156     12.36861610     19.36249161
P         4.31701851     22.01929474      2.19334912
S         2.50562739     23.12731743      2.11166739
S         4.40447426     20.69231033      0.55874372
S         4.13519239     20.62337494      3.82817769
S         6.10312510     23.09010506      2.27520084
P         5.09143209     22.18832016     10.62669849
S         4.29142237     21.35944557     12.33012009
S         4.00212336     24.09925079     10.79276752
S         4.51407862     21.46337128      8.83005524
S         7.17347336     22.51874733     10.64940548
P         4.53420115     22.51646614     19.22852516
S         4.43224525     21.27535439     20.89868355
S         2.76937532     23.66516304     19.38850594
S         4.55732298     21.28654289     17.51158142
S         6.46266747     23.35012436     18.95026970
P        13.17808723      3.78632998      2.42708588
S        13.09029961      2.46095085      3.98782420
S        11.37335873      4.74102449      2.30233812
S        13.65130329      2.71726394      0.69141692
S        14.91819859      5.10882473      2.46825051
P        13.38153934      3.55746841     10.95893192
S        13.69708347      2.43771362     12.70424461
S        11.54462242      4.58292484     11.31345081
S        13.49943161      2.22725749      9.20355415
S        14.97412682      4.90150213     10.86052704
P        13.27432060      4.40789652     18.92401505
S        11.32745457      5.07619190     19.13576508
S        13.32222652      2.93493581     20.41200066
S        14.73569679      5.79110336     19.44576645
S        13.53346634      3.66899467     17.03614616
P        13.60830975     12.75612640      2.36842012
S        11.72839832     13.82877541      2.36907911
S        15.26745987     13.84654999      2.42532134
S        13.49324417     11.86840534      0.59167588
S        13.46023464     11.42234421      3.88359880
P        13.13107777     13.16428947     10.68579769
S        13.21156597     12.29103088      8.75756073
S        11.23242664     14.09443855     10.59685230
S        14.57781601     14.67177486     10.50789547
S        13.20774651     11.93662739     12.31930733
P        12.95148754     13.70047188     19.13584518
S        14.83102703     14.57520199     19.39536667
S        13.05281734     12.22860050     20.69701576
S        13.00345612     12.98038960     17.13908386
S        11.19290638     14.79988480     19.48290443
P        13.37732220     22.24899483      2.36402392
S        12.79786205     21.41001320      4.21018171
S        11.96824455     23.61333847      1.81329679
S        13.50557899     20.79370689      0.95525187
S        15.14403439     23.33992577      2.38238358
S        13.08221149     21.03780746     12.36197090
P        13.22864437     22.02049828     10.57522106
S        13.19080925     20.78994370      8.95852375
S        11.92341995     23.50274467     10.51224709
S        15.24892807     22.67139816     10.78644085
S        15.08683300     23.16748428     19.58084297
S        13.36078072     21.45494843     17.24149323
P        13.38385677     22.23411369     19.10354805
S        11.70388985     23.33766174     19.55436134
S        13.36180210     20.46546173     20.22910881
S        22.11289406      3.10423398      0.27869609
S        20.45192719      5.53954983      2.20735002
P        21.93960571      4.07069635      2.29363680
S        23.83447075      5.07624865      2.69667220
S        21.53004646      2.72867823      4.05345726
S        23.74510765      4.89675426     10.79926109
S        22.35039520      2.63875937     12.50753403
P        21.98892784      3.74126410     10.95848942
S        21.97335243      2.53092337      9.46853638
S        19.95852852      4.50869799     11.05850220
S        20.84309959      5.94270849     19.67282486
S        23.90207672      5.02054977     19.40309715
P        21.89818954      4.22472715     19.47751045
S        21.89283752      3.43604207     17.66339684
S        21.87804794      2.94867468     21.24732780
S        21.37418365     11.50747013      3.80448771
S        23.30223083     13.95401287      2.65497231
P        21.61635017     12.87909698      2.42697811
S        19.96506691     14.01253319      2.23066068
S        21.69441605     12.01631927      0.58194077
S        21.10283661     11.84687519     12.89765072
S        23.46127892     13.73937416     11.20374298
S        21.75561333     11.72724819      9.57026958
P        21.56911659     13.05980873     11.14846516
S        20.10845757     14.36396790     11.07850170
S        20.55741310     13.75236702     18.61081505
S        22.66782188     11.55349350     17.61896324
S        24.24578285     14.10465050     19.35427094
P        22.26565552     12.90843678     19.10176849
S        22.10921669     12.23264885     21.08247375
S        19.72106361     22.75442123      2.43098950
S        21.81029701     21.04079056      0.46232468
S        23.42307854     23.26462555      2.05536485
P        21.83247185     22.03085899      2.25773454
S        22.11487770     21.02002144      4.08496666
S        21.84300041     21.05356026     12.51195240
S        20.22447968     23.37933540     10.62648487
S        23.47238541     23.37620926     10.49820518
P        21.89578819     22.10459709     10.74827385
S        22.08557510     20.87775993      9.01642895
S        20.04907799     22.77019691     19.86753654
S        22.15466881     20.98297882     21.34747505
S        21.69534683     20.57703590     17.76494026
P        21.77456093     21.69971848     19.53871536
S        23.34825325     22.87934303     19.10506058
S         3.33545089      5.86748743      6.71730280
S         4.53212261      8.63074398      8.31916237
S         4.52550983      8.20322609      4.77138138
S         6.40771627      6.36214447      6.68057489
P         4.66961861      7.26701927      6.64903450
S         3.67630315      8.59457874     16.27186012
S         3.08870292      5.78897858     15.26714325
S         6.37216711      6.82262659     15.79978561
S         4.74818897      7.48976183     12.99837589
P         4.51584244      7.11051798     15.10605431
S         4.58145094      8.24294281     22.22181892
S         4.48343897      8.02187634     25.50191879
S         6.72874069      5.94319868     23.60998154
S         3.49655676      5.41662550     23.46279335
P         4.85176754      6.95408964     23.77980995
S         4.72977066     17.17720032      8.45537567
S         2.36020184     15.28147984      6.89493895
S         5.81769037     14.46439552      6.84661674
S         4.65791321     16.61268234      4.69408560
P         4.39206934     16.05271339      6.77026701
S         6.60360146     15.45063019     14.99263000
S         4.58861303     17.92572021     16.32039261
S         3.26429534     15.36636448     15.14488506
S         4.90971708     17.10754967     12.89686012
P         4.91359282     16.59613991     14.86173439
S         6.20916080     14.99571228     23.81183052
S         4.91619873     16.98556137     21.71344376
S         4.23400354     17.38492966     24.96496010
S         2.80599904     14.75554562     23.18613052
P         4.42353964     15.90131569     23.49459648
S         6.41580153     23.78064537      6.09863520
S         5.02048063     26.29403687      7.75783634
S         2.97300053     23.84655952      6.04736185
S         4.59054565     26.16233444      4.41961288
P         4.79017067     25.18624306      6.15137577
S         3.26334095     23.35566139     15.18033791
S         4.72403622     26.35721970     13.76047039
S         6.67675686     24.06713104     14.60404015
S         4.77666569     25.77499962     16.87070465
P         4.82400036     24.78066635     15.20287895
S         2.93742919     24.24366570     23.46742630
S         4.74097490     26.41441154     25.12195969
S         4.90815067     26.22904968     21.73324394
S         6.62084198     24.04432297     23.56394005
P         4.77013350     25.09569359     23.46792221
S        11.62935448      5.30286407      6.82080841
S        15.07300186      6.17331553      6.79226160
S        12.97611332      7.75474262      8.63650131
S        12.88208771      7.78604174      5.22348356
P        13.21061611      6.75850439      6.84958887
S        15.37724400      6.30204105     14.94305992
S        13.15519619      8.08133793     13.30733109
S        12.82381916      8.34317684     16.50376701
S        12.06754398      5.44438887     15.22595882
P        13.37007618      6.94874525     14.94738007
P        13.35205269      6.95728111     23.69200516
S        11.78753662      5.65481853     23.76988602
S        15.23996449      5.98955345     23.52217293
S        13.69197273      7.92423916     25.64518929
S        13.16920567      7.96221018     21.91553497
S        11.35269928     14.88974953      6.14599991
P        12.98091507     16.21410370      6.24815416
S        12.83872032     17.37895584      7.89751816
S        14.89399529     15.19822121      6.38180113
S        13.19181347     17.15474510      4.45891571
S        13.24614334     17.58710480     17.02609253
P        13.16940498     16.38033867     15.28836155
S        14.92168808     15.01774883     15.22952843
S        11.43873024     15.39963913     15.00452614
S        13.24642658     17.37804985     13.50329494
S        10.93964863     14.92052841     23.86582565
P        12.82151508     15.81735229     23.67568779
S        12.90182209     17.08842278     25.36777496
S        14.40575886     14.62923336     23.46663857
S        13.06805515     17.09958267     21.99450111
S        13.35622120     26.02770615      5.30756664
P        13.36790371     24.86975670      6.94257212
S        13.49713612     26.09019089      8.68962002
S        11.50870228     23.83239746      6.86124706
S        15.15456390     23.70064354      6.95802259
S        13.66413021     26.05934906     13.54911900
P        13.44319248     25.00670624     15.15773392
S        11.47247505     24.16254807     14.79069233
S        15.04778576     23.67846107     15.13366604
S        13.20642185     26.09172821     16.89428902
S        13.09426403     26.21085739     21.68036270
P        13.05442142     25.32258034     23.63570404
S        13.29873466     26.65847588     25.04957008
S        11.04060173     24.45934868     23.31450081
S        14.35226250     23.69814682     23.51729012
S        23.77172661      5.70842791      6.88725519
P        22.16536713      6.66837406      6.84870720
S        20.56713295      5.36575174      6.86413956
S        22.07936859      7.81506300      8.56772232
S        21.99525833      8.15377045      5.23034716
S        20.82209587      5.22994471     14.39798069
P        21.98459244      6.96637630     14.90695000
S        23.92605400      6.36495256     15.14633083
S        21.68265915      8.27932167     13.36353970
S        21.38453293      7.76425791     16.67720222
S        20.48639297      6.02922106     23.19249916
P        21.92303848      7.54996729     23.32115173
S        22.04278946      8.35749054     25.29012871
S        23.84104347      6.67069006     22.96673012
S        21.58542061      8.95580292     22.00729752
S        20.28980064     14.45821095      6.78208876
S        23.90166473     14.52654171      7.11541796
P        22.12178993     15.52324009      7.13718843
S        21.68667984     16.70773506      8.68749428
S        22.22049141     16.62811852      5.51964235
S        20.06519890     15.44392300     14.59885597
S        23.36500168     14.81653214     15.15683651
P        21.94351578     16.27666664     14.79456425
S        21.87237167     17.35659981     16.75098610
S        22.40695381     17.27751923     13.08416939
S        21.85611916     17.01277924     25.29935265
S        20.14302254     15.08349037     23.69655418
P        21.98483467     15.92677116     23.63153076
S        23.58492088     14.70450497     23.66446495
S        22.24214554     17.17330933     21.91848946
S        21.85677528     26.24521828      7.93710566
S        19.80769348     24.05728531      6.55859089
P        21.57672310     25.06546974      6.34207439
S        23.31261063     23.74553108      6.49096537
S        21.94629669     25.90311241      4.47493458
S        20.50449753     23.55633354     14.98180962
S        23.91980362     24.00433731     15.29274273
P        22.06628227     24.89117813     15.31373119
S        21.33043289     26.12053680     16.90994644
S        22.18674088     26.14456177     13.53686237
S        23.60606003     24.43222618     23.42307472
S        21.74994278     26.67020607     24.67642021
S        21.41366196     26.35089684     21.64833260
P        21.71910858     25.19089699     23.22370338
S        20.37440872     23.72453690     23.24209595
