864

Li      -74.87521362   -168.91331482    337.76980591
Li        7.16516924    169.13520813   -112.04730225
Li     -191.88325500     44.06034470    101.28269958
Li      -18.38053322    239.50625610    150.04092407
Li     -186.55462646    -92.46570587     58.03496170
Li      168.89614868    211.63276672    572.23260498
Li     -216.70545959   -556.54101562     73.35509491
Li      128.68150330    159.42425537    260.48760986
Li     -191.23664856     -4.26209736    -82.41116333
Li     -408.56661987   -170.49951172    -68.00756073
Li      366.15615845     82.01753998    488.54025269
Li     -244.81315613    384.73440552   -445.35916138
Li     -385.22647095    -85.40388489     78.57901764
Li       68.50201416    256.07254028    388.50280762
Li      167.86228943    224.22050476    180.82791138
Li      336.09686279    -96.95458221   -298.62039185
Li      155.39091492    366.93765259    223.01318359
Li       98.75970459   -171.53898621   -132.94514465
Li      -43.58507919   -187.18695068   -108.67716217
Li       67.73873138    351.10317993   -150.64704895
Li     -173.79420471   -266.15130615    -27.45348358
Li       82.25004578   -140.36677551   -140.70242310
Li      -47.83922195   -204.20289612    198.35856628
Li      132.42831421    114.27096558   -590.93725586
Li      146.11180115   -227.57397461    358.51684570
Li     -428.40502930    -10.38427639    439.86260986
Li      150.55360413   -585.84381104   -416.91906738
Li       37.79244232   -198.60147095    121.32392883
Li     -117.29969788     32.00944901   -107.55203247
Li      172.66290283   -180.14578247    -27.60793686
Li      249.83918762    112.48372650    244.25601196
Li      -97.70818329   -674.73510742    -72.24905396
Li     -291.80126953     54.31806564    -97.41580963
Li       34.79446030    126.79026031     44.92997742
Li      276.26818848   -259.24493408    553.02935791
Li      232.45587158     20.18940926   -489.32778931
Li     -217.14263916     32.14834976     79.15554047
Li      -70.01574707     95.11724091   -417.32415771
Li     -133.38847351   -190.74925232    338.57284546
Li       46.93894577   -520.02697754    218.57359314
Li        3.18890333     77.49746704     -5.48287153
Li     -113.03175354    267.48068237     91.00757599
Li     -272.50048828   -393.13790894    -82.21907806
Li      -95.91729736     12.54082966     61.28216553
Li     -116.56030273     71.17873383    -91.21529388
Li      -57.45760345    304.45437622    316.16964722
Li      -74.65870667     90.08839417   -310.35830688
Li     -306.93243408     -7.74296999    -14.38449097
Li      140.68194580   -349.62280273    280.67514038
Li      103.42768860    292.39343262    -68.18180084
Li     -216.73361206   -101.90942383     74.43392181
Li      -17.50086594   -179.81031799   -298.83212280
Li     -170.30024719   -344.38946533    175.15557861
Li     -216.83465576   -281.42904663    392.43713379
Li      -52.93069077    258.14929199    333.44137573
Li      193.57586670    184.21107483     74.57008362
Li     -283.60836792   -322.98745728   -236.98643494
Li      163.45021057    249.40014648    159.02790833
Li      150.80551147     43.37029648     86.83413696
Li       20.76373100    384.91107178     91.69525146
Li     -260.59506226     53.21155548    176.17915344
Li     -147.94125366    623.14013672     44.52202988
Li     -190.26454163     59.41811371    145.95462036
Li     -113.15086365    111.10987854   -345.94100952
Li      247.57110596    209.06762695   -220.08068848
Li      393.34463501     19.69766998   -111.77494812
Li      203.40245056   -213.08604431     89.07802582
Li      198.55305481    129.35165405    -94.99041748
Li      -59.46612930    192.93882751    151.99699402
Li     -389.69168091    115.55358124    171.45378113
Li       37.99549866   -182.51290894   -218.16416931
Li      323.19442749    227.29524231    -48.16543961
Li     -250.60728455   -163.24095154     88.43168640
Li      120.46137238   -161.93734741     78.93281555
Li      -36.30577850     62.45704651    186.33680725
Li      115.34596252   -197.87277222    260.66339111
Li      110.49486542     15.85910225    179.98449707
Li      239.10124207    211.82351685   -147.70213318
Li      120.15225220    106.15210724    235.61451721
Li      206.20243835    417.49060059     27.96646309
Li       -4.97055626    237.41453552     53.39529800
Li      258.64047241    -66.61856842    163.47871399
Li     -143.34965515    258.13928223    291.70895386
Li       31.06230164    170.47708130   -135.07229614
Li      -46.81708908   -155.62275696   -195.23468018
Li       42.10656357   -285.02630615    358.99948120
Li     -124.59445190   -207.02365112    184.80644226
Li     -104.61663818    362.57064819    175.39308167
Li      -91.62864685     83.02832794   -234.88153076
Li      -74.20656586    365.87606812    -95.21456146
Li      163.31671143     66.33685303    329.06527710
Li      215.83862305    263.85433960    -53.21459961
Li     -109.04969788   -167.98262024   -170.33866882
Li      272.05752563    228.57946777    176.65397644
Li      -37.44927979   -127.90529633     93.30606079
Li     -191.14404297    -10.00070763    261.14859009
Li     -291.54415894   -410.35302734    198.08326721
Li      272.11050415    -73.95503998    261.51977539
Li     -316.46359253    171.33348083   -563.43597412
Li        7.75357389   -234.78715515    -14.69606400
Li       40.01156616    142.98303223     75.79161072
Li      -26.64029694   -397.69357300   -621.06115723
Li     -257.18643188    277.37991333   -146.25103760
Li     -172.96900940     23.09029961   -299.15484619
Li      275.49508667    -54.00993347    226.68453979
Li      257.69268799    227.50906372    247.65519714
Li      -31.07166481    138.18147278   -201.74816895
Li       93.96559906    -13.36697865    -64.11775208
Li      267.10794067    320.84112549   -241.38128662
Li      -66.22111511    221.06320190    -65.92162323
Li     -280.23995972     78.35636902      6.61578560
Li      102.45645905    171.04769897   -177.29110718
Li     -104.80062866   -326.96438599     40.92773438
Li     -307.78771973    158.52943420    -36.04360962
Li      -13.29560852   -393.82922363    540.41705322
Li     -310.20272827    206.54864502   -181.95951843
Li     -149.98295593   -348.40267944    -55.16419220
Li      453.07186890    295.68005371    264.90328979
Li     -203.91104126   -300.26052856    239.36709595
Li     -156.81484985    604.03778076    163.24601746
Li     -334.12927246    162.98907471   -379.38720703
Li      -82.94911194    359.82339478     19.08353424
Li      193.06553650    237.32537842    112.40924072
Li      314.28689575   -295.23825073     83.47074127
Li       55.59238434     53.81975555    124.71218109
Li     -276.71475220    344.77297974   -116.30713654
Li     -381.53414917     -4.64046907    197.32176208
Li      321.19665527    211.39389038    195.23153687
Li      258.04364014    220.33493042    350.43704224
Li      128.93270874    244.42477417    121.27225494
Li      -34.48756027    225.70243835    386.79373169
Li     -286.16345215    165.61509705    357.54495239
Li      -65.79643250    133.64865112    141.97781372
Li      -39.95100784   -293.50228882    252.49974060
Li      -14.12688160    478.50735474     74.56147003
Li     -104.14972687     44.48841476    -47.84357452
Li      233.08441162   -112.07312012    252.84643555
Li      182.92465210    -45.08376694    -20.93060875
Li     -419.10412598   -245.94131470    271.61627197
Li      222.84141541    233.63066101     -7.68699503
Li      -48.36099243     14.82217312    142.41441345
Li     -522.32702637   -249.07897949   -199.38578796
Li       11.23285866    -10.94549942     28.00666618
Li       12.59413815     73.40360260    472.90020752
Li     -165.06823730   -116.19116974    299.57339478
Li     -108.45316315    -73.67044067   -212.61154175
Li        7.78580856    161.20239258    303.30227661
Li       83.64311981   -373.13092041    128.59834290
Li       12.87905216   -692.61322021   -175.16923523
Li      161.98892212    119.03396606    294.76669312
Li      -26.72905159   -118.20446014   -171.47244263
Li       -1.02652109    498.70748901    113.07798004
Li      301.38449097    265.11499023    112.19281769
Li        3.67620182   -388.75720215   -154.92247009
Li       -5.43264437   -258.78713989    -40.11974716
Li      163.31808472   -120.21904755     10.78382015
Li     -467.66690063    262.97302246   -243.29174805
Li     -360.61380005    234.94483948    293.57205200
Li     -260.89169312     23.28899956   -112.16187286
Li      105.39206696    120.29550171   -449.03042603
Li        7.36293077    312.41589355   -197.18672180
Li      370.57586670    -55.47319031    116.53529358
Li      246.08058167   -273.00155640     75.16148376
Li      271.64443970      3.85275292   -198.79600525
Li      122.30797577    126.02636719     13.34285164
Li      -56.74377823   -124.29503632     32.64497757
Li      147.06185913    -63.61990356   -511.41958618
Li        3.11935997   -103.56829071   -370.73651123
Li       25.72812653    182.92239380    -23.12577438
Li      180.46797180     -4.06398201    300.17300415
Li      124.76744080    131.31515503    354.28924561
Li     -178.29397583    407.58096313    218.44464111
Li       50.97748184    298.08407593   -379.43591309
Li       78.81131744    -54.32567978    164.86436462
Li      266.79431152    -43.56448364   -430.05523682
Li       51.68876648    440.25695801    124.91411591
Li     -412.09646606    229.28953552    -84.77119446
Li      -65.54842377   -182.02427673    299.62234497
Li       19.87342644    -57.16882324    384.40133667
Li      288.99774170    206.29238892    108.53501892
Li     -504.22558594    102.37313080   -130.61752319
Li      171.64738464     91.43887329    138.08634949
Li       46.76905823   -121.18340302    320.34805298
Li     -328.93334961    -44.66192245   -184.19479370
Li      303.98834229   -154.69065857    268.09158325
Li      315.48904419     19.31598854   -175.82785034
Li      371.39993286    164.14965820   -408.93203735
Li     -176.56410217   -272.94702148   -262.34255981
Li      -56.74397278     72.86666107     49.29038239
Li      272.20983887    231.30444336    327.40988159
Li     -145.13359070    -41.60494232    211.56509399
Li      121.34131622    177.51582336   -314.51361084
Li      -82.36046600   -242.53137207   -188.64553833
Li      -13.83654499   -173.96905518   -340.73205566
Li     -286.62533569     84.04395294    290.82891846
Li      306.33383179    119.63087463     27.64562225
Li     -112.71977234    406.67318726    -13.80225277
Li      111.48297882    219.84712219    -10.43333721
Li     -277.80874634     98.87431335     40.61322021
Li     -342.07086182   -195.30831909   -387.34423828
Li     -299.48284912    336.42770386   -286.17620850
Li      270.81103516    -54.52918625     57.26924515
Li      232.28045654     -1.37000024   -143.22105408
Li     -108.57006836   -119.46152496   -302.71783447
Li       58.83827591   -116.48149872      2.50387836
Li       16.42494965    189.87077332    167.18397522
Li      297.03945923   -187.52058411    210.51112366
Li     -129.14259338    -79.50907898     49.01044846
Li      137.42913818   -248.69277954    155.03309631
Li      -43.90290833   -169.26564026    -10.14820862
Li       -4.18157625    -13.70613098    259.27819824
Li       90.38852692   -275.57272339    -48.05911636
Li     -459.35983276    432.23101807   -278.15847778
Li     -264.18673706    -25.54439735   -107.83847046
Li       94.64976501    174.37799072    218.70114136
Li      -30.63294411   -106.25214386    175.63294983
Li       -1.22442353    -75.90023804   -468.11477661
Li     -134.68531799   -184.84347534    430.06387329
Li     -282.14578247    199.24795532   -192.00303650
Li     -156.07336426    233.41816711    126.11849213
Li      134.16836548   -221.28947449     99.56319427
Li      255.29629517    134.54158020    102.39903259
Li      202.11387634    -51.48007202   -142.24821472
Li      275.78747559   -383.74383545    -26.90870094
Li      -69.94902802    624.33581543     32.22901154
Li       23.90238953   -285.85003662     21.84077263
Li      -13.76381207    145.72348022   -375.02108765
Li      -16.69397354    -21.05810547   -251.97792053
Li     -360.43029785   -450.30029297      2.41416216
Li     -257.06790161      0.17457744    198.97729492
Li      141.72543335   -382.12857056    247.46258545
Li      202.40626526     38.48336792   -362.61468506
Li     -191.45269775   -278.52276611    231.90461731
Li      103.58113861    -52.92414474    311.33023071
Li     -133.85002136   -143.34698486    137.84927368
Li     -177.40849304    422.79074097   -230.76455688
Li      159.99259949   -323.84494019   -184.33277893
Li     -169.21986389    480.74038696    485.56347656
Li     -441.26669312   -231.76568604     -1.07271266
Li      107.69666290   -231.06259155    164.11906433
Li      366.64312744     64.09824371    481.22857666
Li     -100.51602173    392.67721558    151.42149353
Li      136.14312744   -326.33602905    619.90521240
Li     -381.85031128   -134.60095215    -73.36463165
Li       72.15357971   -326.87789917    302.88812256
Li     -216.57756042    -98.10324097    180.73020935
Li      -68.96757507   -229.33917236    -81.68010712
Li      431.16845703   -270.33935547     82.82126617
Li     -192.04373169    221.05253601   -180.36677551
Li      -26.95870018    -73.52870178   -502.23855591
Li      302.93203735    311.10479736    203.88304138
Li      191.38885498   -122.52960968    102.41851044
Li       44.59046555     75.39517212    -84.65016174
Li     -182.81883240    -79.68589783    193.03866577
Li     -464.27334595     71.93545532    131.66853333
Li      474.77670288    139.33206177    212.82183838
Li      236.99855042   -197.12854004     69.95365906
Li     -195.73704529    111.91818237    116.77281189
Li      111.59407043     51.11672974   -116.40047455
Li     -286.39044189   -228.73103333    193.12426758
Li       99.76526642     62.19525909    -26.39988899
Li       21.34165001     35.30756378    -68.80261230
Li       87.70691681   -630.61755371   -303.62854004
Li       56.53931046   -118.34957886     18.76445580
Li      323.42138672    -97.45281219    697.72613525
Li     -171.26713562     92.96683502    142.69676208
Li       93.82685852   -217.61773682     69.76366425
Li      331.38699341    189.42420959    293.86270142
Li      133.59265137    222.28358459    192.70509338
Li      150.13861084     35.39864349    333.33663940
Li      344.86605835    115.34326935     44.72066879
Li      189.14566040    121.27285767    -31.37627411
Li      302.25814819   -346.54119873    112.24009705
Li     -127.10617828   -222.70805359    228.21867371
Li       47.06909943    -76.19701385    184.40347290
Li     -350.51763916   -677.57458496   -442.88360596
Li     -151.76356506   -146.32968140    -66.35623169
Li      155.07057190    399.51843262    -52.92442322
Li       90.20403290    272.44406128   -128.86529541
Li      176.50041199    336.75637817    125.76271820
Li       37.95734024      9.37545776    243.48141479
Li       -5.40748262     14.97901058    -82.22411346
Li       64.06359100   -222.33972168   -184.41600037
Li      116.05761719   -285.30291748   -239.14938354
Li      -29.69348335    -68.54771423     38.18608475
Li      -56.24678421   -197.49485779      6.71360493
Li     -286.13522339   -149.96217346   -163.31701660
Li      -27.69499016    369.53176880   -193.90910339
Li     -108.29418945    154.42428589    -10.10463428
Li     -101.05390930     32.96757126   -226.19433594
Li       50.61621094    152.37855530   -210.55758667
Li      163.56500244   -145.45965576   -145.82942200
Li      103.04551697   -186.47167969   -144.89685059
Li      150.27188110   -283.37472534    -52.09179306
Li       46.30982208    -21.56037712    205.68449402
Li     -165.39540100    697.80822754    193.07090759
Li      -80.58206940   -242.07704163    -46.39394760
Li       89.76516724   -190.80006409     53.16851044
Li       25.62957573     20.31826591   -340.76043701
Li       -9.20477104   -316.07614136     45.21044159
Li       -9.28182220    165.46652222   -260.49484253
Li      301.80072021   -294.32159424    -44.63026810
Li     -122.19248962   -319.47000122     87.31358337
Li      604.52154541    -99.62934113   -129.82234192
Li     -332.07592773    305.78262329    126.06925964
Li       81.47582245    274.57815552   -128.35166931
Li      184.77313232    -79.78516388    315.77569580
Li      108.12109375    339.77755737     28.13021088
Li     -156.08737183   -302.48797607   -150.41683960
Li       98.20798492   -370.96435547   -141.10484314
Li      425.10305786    322.68835449     97.67299652
Li      158.24113464   -262.27374268   -188.78581238
Li      329.54553223    234.79608154    207.97583008
Li     -164.24208069   -274.78314209     10.81158161
Li      -65.36554718    212.88548279    158.60392761
Li       24.35570526    -75.61914062    -22.98267555
Li     -189.87690735   -332.10980225    102.69757080
Li      118.02510071   -462.80786133     59.24862289
Li     -246.56263733   -405.75549316    112.68774414
Li      215.36491394    233.15304565   -102.97718811
Li      331.65798950    376.86032104     61.82380676
Li       25.83200455   -709.30187988    214.44017029
Li     -315.78771973    598.41082764   -222.19416809
Li       63.44827271     60.48258591    -86.86362457
S        -0.49186528     10.10615158      0.26364172
P         1.34675467      8.89833260     -0.02039701
S         2.70349097     10.45789719      0.17456247
S         0.92455614      7.81491709      1.61373937
S         1.72033834      8.17990208     -1.80903065
S         3.35492444     10.05264282      8.89683533
P         1.52763844      9.12360096      8.62243938
S         1.19050014      7.75998688     10.09974194
S        -0.11355473     10.30869865      8.70242882
S         1.41061723      8.15852165      6.70862675
S        -0.13325459     10.12168884     17.10109329
S         1.22624230      7.58905649     15.55116749
P         1.47720337      8.78550148     17.17092133
S         1.43774390      7.80910015     18.97850037
S         3.36421561      9.60057449     17.01041031
S         1.88011956     16.85680771      2.25415468
S         1.93849182     16.40209579     -0.90801412
P         1.72709227     17.91931343      0.47707909
S         3.20879054     19.29733467      0.03842226
S        -0.40491194     18.49136925      0.41720140
S         3.22311306     18.96114349      8.83414268
S         1.49357927     16.53058434      7.24702835
P         1.45740831     17.88681030      8.77853489
S        -0.53656507     18.79412651      8.67583561
S         1.33816195     16.60544968     10.34091568
S         2.90456390     18.72599602     17.36905289
S         1.26556170     16.31034279     18.89989090
P         1.12869704     17.53095627     17.30928802
S         1.00156140     16.80306244     15.34569836
S        -0.57067966     18.56292534     17.32236671
S         3.02691674     27.96970177     -0.00494123
S         1.13146305     25.50226784     -1.57458031
P         1.30005956     26.87137794      0.11766682
S        -0.66084450     27.79371071     -0.02555733
S         1.20838642     25.91494370      1.99424374
S         1.03130972     26.03724480      6.52127647
S        -0.50144327     28.36285400      8.47411633
P         1.31945109     27.18744469      8.15231800
S         3.15541744     28.24701309      8.24020672
S         1.25952256     26.05901146      9.90947151
S         1.44187057     25.73838425     15.82577610
S         1.13529754     26.13118172     19.22722816
P         1.19668210     27.03062439     17.47229195
S        -0.46404666     28.31469345     17.17316818
S         2.97109842     28.12006378     17.15404320
S        12.44852352      9.66786671      0.26053053
S         9.67977333      7.77842569     -1.35439193
P        10.36666679      9.04594517      0.28529826
S         8.93846416     10.54317665      0.45226151
S        10.24742699      8.28608131      2.45919251
S        10.08490849      8.59039402     10.74980259
S         8.38866806     10.67126369      8.72666740
P        10.22505474      9.31553459      8.74990845
S        10.59514809      8.22012901      7.03539610
S        11.75067329     10.86727810      8.63742638
S        10.17478180      7.98939848     15.21810246
S        11.79414368     10.33794594     16.85835075
P        10.11518955      9.21263790     16.84803391
S        10.05533218      8.30004120     18.84998131
S         8.50594234     10.62545109     16.75526619
S         9.65039635     17.48690033     -1.62711740
S        11.44104671     19.47699928      0.28249988
P         9.55185509     18.32867050      0.12795235
S         9.24995613     16.71470070      1.46345818
S         8.04231262     19.64685822      0.07137238
S         9.98610306     16.13875198      7.50072241
S         8.56822205     19.15665245      8.37249088
S        10.13931751     16.95082855     10.70075226
P        10.04318333     17.71803856      8.88784599
S        11.75169182     18.92200279      8.69419193
S        11.34398842     19.53855133     17.20130157
S        10.02903748     17.29767036     15.02346611
S        10.46838379     16.90213585     18.59492111
P         9.92842007     18.07151604     16.90143776
S         8.01251793     19.05724716     17.24507332
S         8.02351761     27.42732620      0.01573252
S         9.59755325     25.33744049      1.82949460
S         9.99636459     25.77859879     -1.90790844
P         9.74593067     26.56223297      0.15349591
S        11.36603165     28.04874420      0.37246990
S         9.82775784     26.00724602      7.37612820
S        11.43419838     28.58178711      9.13927841
S         8.05196476     28.25435448      8.97320652
P         9.88701248     27.23250008      9.09767723
S        10.10712242     25.62499046     10.59133434
S        10.10236645     26.40548134     15.09315395
S         9.81651402     25.93807793     18.26917648
S        11.40014935     28.66817665     16.92261314
P         9.89040565     27.43637085     16.81290436
S         8.05769730     28.29417419     16.79234886
S        18.75225067      8.14229965     -1.86518574
S        17.38821030     10.11991119      0.34839770
S        18.77915382      7.37083626      1.55130601
P        18.94968605      8.93939877      0.06003946
S        20.78587723      9.74226952      0.30785096
S        18.63302231      7.44061375      7.38208389
S        18.90651321      7.41440201     10.60822964
S        16.99670601      9.84818935      8.87061691
S        20.44509506      9.95276928      8.80758572
P        18.82321739      8.72423172      8.83496761
S        18.58097649      7.26716805     15.80004406
S        18.54334068      7.73840141     19.21916580
S        16.88675880      9.96019840     17.37186241
S        20.32110786      9.87193871     17.25162315
P        18.57444000      8.75720406     17.32758713
S        16.67155075     18.62779427      1.10420501
S        18.71452522     16.52295494     -0.87372822
S        18.83825684     16.08924484      2.15957093
S        20.34099388     18.71661377      0.68635583
P        18.69121933     17.49309540      0.84299242
S        20.06102371     19.77867699      8.73955536
S        16.94936562     18.83381271      8.43000698
S        19.10739708     17.39686394     10.32561874
S        19.06121063     17.27109337      6.85745621
P        18.87440681     18.21303177      8.53892136
S        18.40963173     17.15522766     19.18357658
S        20.49594307     19.40444756     17.28783989
S        16.99779129     19.41602707     17.05640221
S        19.16430473     16.58590317     16.12141418
P        18.66626930     18.06860542     17.40168571
S        20.24130058     28.14727402      0.27596495
S        18.39467239     25.53470421     -0.84828788
S        16.96829414     28.41253853     -0.16342923
S        18.15079498     26.35767937      2.45597053
P        18.51269150     27.10700798      0.39353502
S        18.60510063     25.71808815      6.80622053
S        20.31508827     27.98725891      8.74820232
S        18.68717384     25.56954002     10.26556492
S        16.66215897     27.65498924      8.78989410
P        18.64494705     26.70008850      8.57653141
S        18.52300835     25.71365356     18.82958412
S        18.28255463     25.57469177     15.43038750
S        20.33430290     27.65028000     17.10406303
S        16.90703201     28.12029266     16.95324707
P        18.39677811     26.81279564     17.15363312
S         8.00849915      1.51963210      4.92458487
S        11.64270306      1.41652560      4.71909332
S        10.04572296      3.99844885      3.26853704
S         9.61385059      3.63892460      6.70119143
P         9.86903191      2.67424393      4.75365925
P         9.72909641      3.39245701     12.91994190
S         9.77849865      4.73034191     11.43853378
S        11.68454647      2.63487625     12.87929249
S         9.55743313      4.34707594     14.77077579
S         8.07621861      2.24757886     12.69957542
P        10.00146389      3.29792047     21.65709114
S         9.99512100      4.61333942     20.16507339
S         9.67498016      4.21093512     23.57067108
S         8.54999065      1.88113594     21.32707596
S        11.90362263      2.55604792     21.60372925
P        10.09104919     12.60929108      4.51637888
S        10.26788139     13.57093811      2.79147005
S         8.39587879     11.38701725      4.37864113
S        11.97356033     11.81161785      4.70230103
S         9.82078552     13.71276474      6.29108858
P         9.91002941     12.46192265     12.75037861
S        10.04982185     13.54882336     11.09433270
S         8.35101891     11.17233658     13.05868912
S        11.62111855     11.27244663     13.16855049
S         9.93851280     13.76684570     14.45124817
P        10.41590500     11.87784481     21.54279327
S        10.49654293     12.93199253     19.68799210
S         8.48526096     11.00023556     21.36947632
S        11.75695801     10.40935040     21.28213501
S        10.88896179     13.03427601     23.13118362
P         9.88277626     20.84728432      4.39068937
S        10.70828915     18.95087051      4.08104086
S         7.77573013     20.59747696      4.22929764
S        10.64248371     21.43726349      6.35329008
S        10.21794224     22.29078293      2.92283797
S         9.94928169     22.24899292     11.37908745
P         9.98179150     21.05836868     13.16051769
S        11.59317875     19.83219910     13.01585770
S         8.23465061     19.74002075     13.04286575
S         9.80551720     22.32699776     14.77805042
S        11.84837437     20.52958870     21.36574554
P         9.91105652     21.25399780     20.99384689
S         8.13894367     20.19087410     20.81945419
S         9.70149040     22.65167618     19.50953484
S         9.84020042     22.26343536     22.82582664
S        18.87799835      3.99720812      2.61597967
P        19.04638481      3.22354317      4.50188255
S        17.23804474      2.05225825      4.63868141
S        19.12571144      4.32594633      6.22297478
S        20.79220009      1.94362140      4.30846357
S        18.91947937      4.12256145     10.97268486
P        18.73346329      2.82430339     12.67929554
S        16.79184151      1.81259251     12.65034103
S        18.85758781      4.06999111     14.41857529
S        20.54090500      1.59500194     12.49210644
S        16.36918068      2.14768004     21.45618248
P        18.43851471      2.63364196     21.42816544
S        19.88116837      1.28117251     21.38309860
S        18.92293167      4.17377234     22.99256325
S        18.62637520      3.81447792     19.58225441
S        19.47963333     12.57542419      5.99257994
P        18.77113342     11.59015179      4.42023563
S        16.77072716     11.15707779      4.91772747
S        19.74962044      9.99589920      4.35207033
S        18.84344482     12.53437328      2.60789466
S        18.86319351     12.75507164     14.95231438
P        18.66316986     11.95407581     13.12265301
S        20.45606804     11.02404308     12.74465561
S        18.20192719     13.06534004     11.51876640
S        17.23270035     10.49378204     13.21740055
S        18.84460068     13.27291203     19.91108322
S        20.63634682     10.74592972     21.43003082
P        19.17453957     12.17366886     21.56402779
S        18.73611641     13.15031052     23.51640129
S        16.93501282     11.41458607     21.34787369
S        18.80789757     22.47227669      5.95178509
S        17.07711983     19.65726662      4.85544872
P        18.74453735     20.89179802      4.58721542
S        18.78054428     21.70294571      2.65971565
S        20.28657913     19.51036644      4.62420702
S        18.62653732     21.81324577     14.69916534
S        20.47760391     19.74936104     13.15376854
P        18.73596764     20.91363525     12.81646824
S        17.05569077     19.81338501     12.58727741
S        18.93051338     22.20457077     11.26227379
S        20.32489586     20.12985229     21.67837334
S        16.95988655     19.89235878     22.10720825
P        18.62173462     21.04103661     21.58121109
S        18.62529564     22.79378128     22.59865379
S        18.51078606     21.76098824     19.55759430
S        26.72353363      3.75873590      5.77381420
S        26.76585007      4.36624622      2.47799516
P        27.09499931      3.04201245      4.01677275
S        29.01641273      2.29554868      3.71127486
S        25.49871063      1.79233134      3.57206631
S        25.55581284      1.68881297     12.94687653
S        28.68810463      1.57213604     12.93891716
P        27.22201157      3.05835152     13.22449970
S        27.03796768      4.14576483     11.58564281
S        26.96789169      4.01025724     14.88984966
S        29.51493073      2.11361527     21.49462891
S        26.26698112      1.42836893     21.44027901
P        27.63903999      3.09890819     21.36818504
S        27.32587433      4.16475105     23.05242348
S        27.14131355      4.07263660     19.68313789
S        27.12697029     13.39963150      6.06769466
S        29.10281754     11.04571629      4.58925152
P        27.41160583     12.20349312      4.29482126
S        25.78853035     10.95009995      4.37045860
S        27.83597374     13.18287849      2.63523173
S        29.37748528     10.94461155     13.10786152
S        25.93255615     10.98925686     13.27940845
P        27.63700676     12.16048813     13.07844257
S        27.58088493     13.32328701     14.65944099
S        27.48881721     13.12574482     11.28374004
S        27.09913445     13.39585209     22.76202011
S        27.58098412     13.13254356     19.59265518
P        27.24605370     11.92103100     21.18490982
S        29.05887413     10.96875381     21.23510361
S        25.44217110     11.01946926     20.95018578
S        26.32627106     18.95827103      4.72036076
S        27.44243050     21.50001526      2.22456026
S        29.51502228     20.14702034      4.59910250
P        27.53392601     20.72077751      4.31980324
S        27.06142998     22.13918304      5.64962149
S        29.21553993     20.12494659     13.26293659
S        27.36338615     21.64107323     10.98637581
S        26.85414505     22.30567169     14.61139011
P        27.07287025     20.83857727     12.89772987
S        26.00768089     19.16800308     13.09279537
S        26.07844353     19.14592171     21.23762512
S        29.34924507     19.63890266     21.35110092
S        27.22193909     21.60126305     22.96682930
P        27.61490059     20.60042572     21.28633690
S        27.14603806     21.68097878     19.60339355
S         6.72968674      3.05871844      1.63045764
S         7.41067028      6.17844868     -0.11711550
S         4.32770300      5.40765476      0.19739772
S         6.41575861      3.19180679     -1.61063659
P         6.18183422      4.21430302      0.08601765
S         5.40359879      3.59209132     10.48697948
S         5.42019510      3.29726791      6.95232248
S         6.67704391      5.63337088      8.71126652
S         3.28767037      5.46096897      8.52771568
P         5.10758257      4.26795149      8.64353180
S         3.82316232      5.73039055     17.40126991
S         5.32201624      3.03293896     15.80502987
S         6.00972128      3.51256180     18.95896149
S         7.36806059      5.64849615     17.31343842
P         5.67089653      4.51084042     17.27739906
S         6.04208183     12.27968597      2.14927220
S         5.66152191     11.67968845     -1.39695632
S         7.56113768     14.01461315     -0.10951617
S         4.15140581     14.40436649      0.32915208
P         5.70714855     13.07830334      0.33031061
S         7.41671562     14.80482388      8.80606174
S         5.67780876     12.41355324      7.07009315
S         3.94240141     14.68134403      8.56917763
S         5.71285391     12.63758945     10.44405460
P         5.76849461     13.51801777      8.67542076
S         4.07221937     14.49657345     17.82713509
S         5.74804354     11.82535076     18.67643929
S         7.47512293     14.26527882     17.20712662
S         5.29826307     12.66462421     15.35945225
P         5.65763617     13.29956627     17.21480560
P         5.61841345     22.28046608     -0.14336054
S         3.82225728     23.46490288     -0.13821216
S         5.63441992     21.20229149      1.69034100
S         7.21148300     23.58508682     -0.44057778
S         5.56609583     21.02507210     -1.75503552
P         5.70520592     23.00954056      8.90919685
S         6.27531052     21.85000038     10.71508694
S         3.76970220     23.83751678      8.93317127
S         5.78458118     21.61254501      7.23523712
S         7.21474981     24.27382278      8.76977730
P         5.32213974     22.68465233     17.07269287
S         6.77281570     24.14194107     17.01226616
S         5.64375353     21.49880600     15.35325813
S         3.60741353     23.73633385     16.89240074
S         5.42546177     21.62201691     18.85489845
P        13.95074654      4.56798172      0.76997292
S        13.95423698      3.30499864     -0.84721148
S        15.71522903      5.60762787      0.40601620
S        14.26803684      3.78757739      2.51476264
S        12.30321312      5.71935272      0.63575590
P        14.02194786      4.58904266      8.66460896
S        12.17353821      5.55658722      8.67324734
S        14.30233765      3.28549528      6.95568943
S        14.24865723      3.39206076     10.57743835
S        15.70999622      5.64416933      8.46920586
P        14.08785248      4.53214216     16.80817032
S        14.07411671      3.50397897     18.63859749
S        14.02111721      3.16337109     15.34182453
S        15.70491123      5.67328310     16.87069893
S        12.37953568      5.78993368     16.97629356
P        14.67192459     13.44246960      0.35448742
S        16.21932602     14.79447651      0.57070196
S        12.70674229     14.15245724      0.42104477
S        14.69911861     12.01183891      2.04721498
S        14.92789936     12.39103317     -1.45591974
P        14.46603680     13.90598392      9.17270565
S        12.46728897     14.48903751      8.92354202
S        14.33259201     12.60373878     10.91798878
S        15.98558712     15.23697090      9.52345371
S        14.70286083     12.73084450      7.62535000
P        14.26649857     12.96734333     17.09440231
S        15.82461739     14.14611053     17.63752174
S        14.31506729     11.47924423     18.63992882
S        14.61008263     12.03057003     15.36436367
S        12.70141220     14.44993114     17.28764534
P        14.24491692     22.31319237      0.67834139
S        14.46706486     21.03553200     -0.83418840
S        14.17482853     21.16147232      2.33563328
S        12.76546574     23.70741463      0.64521313
S        16.09752083     23.13085556      0.77648371
S        13.78460407     21.08660126     10.18671513
P        14.33161449     22.23637581      8.52203178
S        12.92339611     23.63726997      8.11075878
S        16.22280693     22.90795517      8.75805473
S        14.23993587     20.98390579      6.88060713
S        14.39345169     21.43232155     18.28925705
S        14.48245430     21.94613647     14.71463585
P        14.25923443     22.69803429     16.70165253
S        15.83660793     23.96357536     16.83945656
S        12.11430740     23.31457329     16.61746788
S        23.13937378      2.79066753     -1.02807617
S        21.31495094      5.82795429     -0.10662991
P        22.90563202      4.44583893      0.01592266
S        24.54674721      5.88999367     -0.49674571
S        22.70886040      4.02430010      1.93780398
S        22.59013748      3.34580588      9.84247875
S        24.55218887      5.72579145      8.65543079
P        22.90992546      4.73824596      8.24775314
S        21.16931152      5.91297483      8.54114342
S        22.85095978      3.87521720      6.36344433
S        23.16475105      2.19286489     18.39926529
S        21.28793907      5.20770884     17.93144608
P        22.87057686      3.99103689     17.26296043
S        22.94741440      3.76327252     15.09354305
S        24.65664101      4.83923864     17.39212799
S        21.53472328     14.69716549      0.85416698
S        22.94905281     12.47049713     -1.54725337
P        22.89365196     13.39362240      0.37815732
S        23.12424278     12.25243473      2.15444732
S        24.87053299     14.26740742      0.43309882
S        22.96398544     11.70319271     10.32484818
S        22.82398987     12.74824810      6.74292469
S        21.41604996     14.39888954      8.95519733
P        23.05843544     13.25166702      8.67077923
S        24.67731285     14.57363224      8.82884121
S        24.67360687     14.15174961     17.24305534
S        23.01538658     11.94321632     15.72933960
S        22.74851990     12.43143368     19.17758369
P        22.81136703     13.26413441     17.35573196
S        21.17542267     14.26348877     17.52190971
S        21.07542038     23.66833305      0.88435823
S        24.42349625     24.19954872      0.45804062
S        23.19883728     21.45849991      2.12224007
P        22.98819351     22.86750603      0.40799284
S        23.13259888     22.01787949     -1.32711935
S        24.94530678     23.38608170      8.72767162
S        21.64703178     23.82273293      8.87656212
S        22.97671509     21.58699799      7.16168976
P        23.19648552     22.43495369      9.08952427
S        23.07162666     21.75160980     10.94786739
S        22.87193108     21.39031982     15.73618221
S        24.53066826     23.86360359     17.33034706
S        21.25652885     23.43855476     17.78095055
P        23.01182938     22.35081100     17.48241043
S        23.29998398     21.49862480     19.14072990
S         7.47272015      5.80402708      4.26272011
S         4.07230520      6.56975603      4.56070852
S         6.02292061      8.81800270      3.14750648
S         6.29442072      8.03519630      6.63671827
P         6.00044250      7.28408527      4.60123491
S         5.84752798      8.35398579     14.93209076
S         5.54724169      8.52046108     11.36616516
S         3.19275594      7.00926638     12.90637493
S         6.33560658      5.68332243     13.05953312
P         5.26485729      7.30421734     13.05738640
S         5.87514591      8.63785172     19.80493355
S         4.31081533      6.33347893     21.66680145
S         5.80902100      9.12187958     23.07061386
S         7.72360992      6.81399202     21.62892342
P         5.94477081      7.61771393     21.55632401
S         5.53403902     17.56721687      2.70657802
S         5.67865992     17.94128036      6.07250166
S         7.70904875     15.65357780      4.61482334
S         4.23594427     15.26386929      4.68180466
P         5.81447172     16.64154243      4.54278803
S         7.41290140     15.38984585     13.27503872
S         5.14529467     17.46703911     14.81734943
S         3.96680403     15.39704609     12.60985374
S         5.95047235     17.63301659     11.32492065
P         5.56708384     16.47942734     13.07190800
S         4.48950815     15.30878067     21.34239578
S         6.52884912     17.59628487     20.16589737
S         7.72126961     14.92029476     21.96044922
S         6.10117960     17.47799110     23.36611557
P         6.17101717     16.39098740     21.71507454
S         5.37168169     26.65698624      2.66399860
S         5.03265285     26.37744331      5.95607424
S         7.33555651     24.30796814      4.18243647
S         4.15146065     23.75480461      4.43858147
P         5.51130629     25.22092628      4.29043198
S         5.36175680     27.23979378     11.20942497
S         3.92350984     24.40304756     12.77504253
S         5.33863926     26.93022919     14.57259750
S         7.17587233     24.87430763     12.71078777
P         5.34596968     25.87528229     12.94413948
S         3.69372940     24.53898621     21.61586952
S         7.19445038     24.29508400     21.11502647
S         5.86975050     26.70953751     22.69883728
S         5.30610991     26.56857872     19.45088196
P         5.49831200     25.53736115     21.16186142
S        14.64697361      8.96798515      6.25318861
S        14.34096622      8.71351814      3.08735657
S        12.78117561      6.39744091      5.06791544
S        16.07245636      6.52336979      4.68366146
P        14.44591808      7.57713175      4.77632999
S        16.16514015      6.82470894     12.75486374
S        14.11938763      8.76616192     11.21460819
S        14.46144295      8.61752224     14.64734077
S        12.92851734      6.26971006     12.67403030
P        14.48396587      7.66410065     12.98996258
P        14.53922367      7.32251549     21.44891357
S        12.49202538      6.70879459     21.86111259
S        14.78134823      8.60219669     23.03592300
S        14.64814186      8.24210548     19.49182129
S        15.80245590      5.75690174     21.53219414
S        13.01312447     15.17279530      4.50974655
P        14.33200932     16.71026993      4.25804710
S        14.43973064     17.56178474      2.45916843
S        13.95427608     17.99186325      5.81933260
S        16.26667023     16.06420708      4.65144682
S        14.57778263     18.01637077     11.80952644
P        14.64448071     16.78171158     13.46484947
S        14.46537590     17.91315079     15.22473049
S        13.15917492     15.30818272     13.41939259
S        16.51725769     16.05099869     13.24937153
S        14.59706116     17.66381454     19.60187912
P        14.37640190     16.63955879     21.28728294
S        14.70357037     17.85897827     22.97996902
S        12.25960159     16.42742729     21.36323738
S        14.97977448     14.71081924     21.08397293
S        15.47624779     24.01688766      3.96021819
P        14.21636009     25.50862694      4.29082108
S        14.40284443     26.87038422      2.77009392
S        12.31581688     24.92635536      4.42142200
S        14.57454395     26.37774086      6.19862080
S        16.29677010     24.76531601     12.96268177
P        14.30781746     25.35515213     12.64235115
S        14.50277710     26.11224556     10.78146458
S        12.78376770     24.02827263     12.71596813
S        14.18864250     26.84909248     13.96728516
S        12.68368816     23.74670982     21.25031853
P        14.02773571     25.45747566     21.31250381
S        16.03028679     24.73961258     21.14388657
S        13.46876621     26.65238953     19.60437584
S        14.09485245     26.58162689     23.22144890
S        22.85922813      9.29585171      5.82133913
P        23.04534721      7.67235899      4.28486395
S        22.95049667      8.61281300      2.45184779
S        24.96927452      6.86606264      4.45506954
S        21.35972786      6.49429607      4.37633085
S        24.40576172      5.65581942     12.65898132
P        22.84385490      7.03686666     12.93900299
S        21.01651764      6.26487684     13.09697914
S        23.02761650      8.26340485     14.66580963
S        22.84460640      8.40040016     11.25779343
S        22.98831367      8.82476616     22.48671150
P        23.06171989      7.40585041     21.10128403
S        23.12777901      8.38188839     19.21428871
S        24.64132881      6.02414131     21.03467941
S        21.27211952      6.29864645     21.19100380
S        24.75931740     15.56304073      4.68675041
S        21.12516403     15.61175346      4.69368458
P        23.07945824     16.53904724      4.53706264
S        22.90507317     17.62569618      2.82953811
S        22.98999786     17.59966278      6.43285942
S        22.91550446     17.45088387     11.29409122
S        23.16580963     17.56142998     14.73593044
P        22.91888046     16.36194992     13.06965351
S        24.15781212     14.67543793     13.13180447
S        20.96543121     15.32489109     12.91580296
S        22.95026016     17.45291328     19.89295769
S        24.73067665     15.21481228     21.69981766
P        23.07425117     16.66503716     21.86666679
S        21.32884979     15.61196899     22.17946243
S        23.63186455     17.68326378     23.60062408
S        23.42464256     27.31023598      5.97308254
S        21.31421089     24.88299561      4.92427063
P        22.95882797     25.91308022      4.28893137
S        24.65959549     24.67078972      4.04160595
S        22.76402855     26.96994591      2.60780764
S        23.25414467     26.66246605     11.27627373
S        21.32353210     24.44923019     13.04897976
P        23.06906700     25.56913185     12.93219090
S        22.78826714     26.68538857     14.53129959
S        24.97012901     24.60363197     13.09708023
S        21.49389267     23.92061806     21.45803642
S        22.49550438     26.77861595     22.75617409
S        24.65722466     24.79256630     21.59586143
P        22.79566574     25.48579788     21.24371147
S        22.55672455     26.82677841     19.44983292
