864

Li       92.29019928    428.80413818   -131.05020142
Li       20.56023407    -79.89659882    285.69192505
Li      238.63821411   -471.47839355   -139.34800720
Li     -199.82220459   -137.92369080   -120.05896759
Li      -59.10594559    339.42041016   -262.21463013
Li      203.42504883   -103.81008148   -117.57730103
Li      178.15802002    180.87783813    -13.09879589
Li       96.04268646     58.26766586    -63.36106110
Li     -316.01306152     52.78602219    -72.44490051
Li      100.88017273    -41.35890198    -17.01994133
Li     -168.07884216   -549.47229004    -63.58203125
Li     -249.74639893    104.24030304    305.77041626
Li      -64.45195770    141.26930237    203.99362183
Li      125.78487396     79.71311951    111.17665863
Li      455.06207275    513.22662354    327.48605347
Li     -173.65779114    136.06135559     95.43341827
Li        5.20048571   -208.01213074   -202.53742981
Li      132.46771240   -589.51782227   -125.37529755
Li      342.11288452   -152.10581970    233.50047302
Li      108.24002075     89.57023621   -368.87939453
Li     -180.48060608    -21.76828003     28.40172386
Li      113.30511475    -48.43081665     51.52000809
Li       78.73905182    186.05783081     12.37247658
Li      260.12985229   -108.10056305   -134.95324707
Li       78.50038147     78.43607330   -161.38442993
Li     -249.94384766   -219.48614502    -59.75547791
Li      156.20143127   -464.75689697    174.50054932
Li      199.48959351   -228.23806763   -359.58450317
Li      122.20206451    275.69015503    330.81484985
Li      329.43258667    342.69299316    -63.17673111
Li        0.61430877    147.45272827    208.05479431
Li      252.94976807    152.90844727   -142.37052917
Li     -131.70335388    451.65127563   -278.86178589
Li     -315.26931763   -495.56231689    -69.37581635
Li      113.29953003    -80.44247437     34.44230652
Li     -370.13659668    -46.10744095   -135.74214172
Li       90.90627289     63.02136230   -304.98159790
Li      437.48297119     31.33985138   -308.99768066
Li      156.56611633     88.60558319   -181.52233887
Li      117.54518127    258.15982056    105.87591553
Li      363.53863525    -71.88436127   -245.24725342
Li     -179.10801697     22.92136955    121.17754364
Li       55.74323273    110.30686951    457.10214233
Li      582.74414062    -27.66693497    -37.48744965
Li     -578.06890869    332.63552856    339.00262451
Li      130.13121033    127.42527008    263.76306152
Li      -49.59666061   -265.80981445     95.51937103
Li     -118.01691437    -39.97051620    214.64677429
Li     -128.86444092    230.57397461   -228.89880371
Li      324.38165283    427.74707031   -325.85717773
Li     -103.16801453   -425.14364624   -109.84601593
Li      433.10150146     63.32975769   -203.78352356
Li      -38.33814621    105.09008026    342.67510986
Li     -235.57814026     42.11425400    293.89935303
Li      -16.06837845    321.85467529    -67.23548126
Li       74.83736420   -304.42843628   -190.38395691
Li      -24.56831741    764.69396973   -369.70559692
Li       56.70234299    204.28466797   -191.17073059
Li      134.71903992   -299.27020264    364.76535034
Li      182.33395386   -148.66954041   -241.36395264
Li      -38.09392166    267.62716675    -33.42906570
Li       91.25634003    289.00805664    199.93635559
Li      467.66268921   -271.71658325    135.45616150
Li     -202.34121704   -121.16606140    -98.80424500
Li     -252.40660095    250.82624817     -0.85158616
Li      376.25225830   -123.86068726    -42.69338989
Li      -33.31808472    358.84747314   -156.36929321
Li     -274.16171265    375.96310425   -352.76580811
Li      165.25965881   -533.41040039      8.38767052
Li      -38.97533798     71.50393677   -300.63012695
Li     -168.19114685   -265.54992676    -92.13936615
Li      162.65768433    169.40727234     40.87722778
Li      -20.44146919   -216.85546875    356.69763184
Li      122.22813416   -301.87847900   -385.26480103
Li       69.78903961   -205.06622314     85.14636993
Li      -11.97033787    149.08186340    -88.96728516
Li      -29.37548447   -176.32707214   -325.95071411
Li      320.08483887   -126.29967499    127.84397125
Li      143.11351013     77.37921143     51.31610107
Li      372.21813965    -14.55374241   -130.98443604
Li      258.51705933    169.88380432    228.13662720
Li     -379.52005005    -89.27062988   -101.22224426
Li       25.72269440    172.59617615    173.20448303
Li       79.88816833   -257.95336914    250.01403809
Li       83.12867737   -488.58392334    -54.85837936
Li     -215.16357422     20.16532898     38.97006607
Li     -189.48004150    135.44166565   -211.70077515
Li        4.33716726    411.60852051    -74.98996735
Li     -245.53942871     44.26323318   -236.78753662
Li      273.27673340     36.52833176   -199.12356567
Li     -106.12455750   -111.08091736    285.46798706
Li      368.66137695    623.02026367     17.07813835
Li     -125.17340088     -6.62119436    513.33831787
Li     -371.40179443    -27.50773239   -101.10155487
Li     -114.21818542     84.71568298    333.81964111
Li     -135.72837830    -58.30174637   -141.09790039
Li      476.90536499     54.62673187   -233.09069824
Li       30.93548965    271.53768921   -301.20999146
Li      -68.06700134    129.11180115     67.54268646
Li     -206.64227295     94.85540771   -169.17070007
Li      296.87005615   -350.12414551   -111.32293701
Li     -353.27401733    411.87414551    288.53439331
Li     -177.40264893     98.28640747    144.41030884
Li      190.80987549     98.16088867   -402.51574707
Li      -29.99784279    825.37243652   -508.54260254
Li      -25.69212341   -503.10784912   -135.25065613
Li      325.03237915     62.83528519    470.51913452
Li      113.69702911      2.16018605   -147.09622192
Li      234.65518188    156.15185547    -88.26203156
Li      302.68838501   -326.52127075      5.11425638
Li      121.49085236   -224.89216614   -185.85385132
Li      130.17581177      4.39480257      0.39166120
Li     -263.12234497   -201.60566711     -0.12063576
Li       26.88038063   -173.20721436   -130.83081055
Li      203.43339539   -559.08209229     64.72575378
Li      -20.71581459    -90.16339111    -66.51342010
Li      205.48698425   -252.48916626    452.49514771
Li      -57.46572113   -173.23320007   -107.68926239
Li     -106.87301636    261.15261841   -144.38908386
Li     -217.90974426    -20.76626015   -128.57315063
Li     -103.97699738    220.58786011    263.15484619
Li      -96.96966553    390.60073853     36.94821930
Li      248.92117310     73.45079803   -158.45736694
Li      104.88685608    340.59725952     78.92552185
Li      139.46151733   -226.61573792     47.14209747
Li       -3.92422104   -212.41931152   -108.88331604
Li        0.85841990    -51.55605698    208.31956482
Li      -11.91815567   -116.64838409    187.80340576
Li      190.48573303    298.99807739     12.80063629
Li     -112.33460236    247.87619019   -321.81338501
Li       56.67567444   -223.78024292     -3.89112139
Li      274.73010254   -124.88181305   -150.47920227
Li      -94.75656128   -190.70634460   -224.46691895
Li      123.75550079   -176.16098022   -252.74386597
Li      -43.68919754    223.36038208   -196.59503174
Li      274.70758057    316.68975830     77.22577667
Li      301.39849854    212.90187073   -197.17152405
Li       -4.09259558   -188.46609497   -194.68138123
Li      264.69073486    280.71212769     -7.90341568
Li     -120.63634491    214.91601562   -181.60609436
Li     -108.09397125    266.91864014    120.53026581
Li     -279.27478027   -123.03371429    178.46444702
Li      389.20373535     27.57860374   -152.07960510
Li     -180.33505249    384.35363770    275.86486816
Li     -134.19183350    -52.18461227   -102.04791260
Li      100.67801666     91.79909515    188.11436462
Li      454.58636475    515.13610840    195.85122681
Li     -150.08657837   -121.71788025   -169.86804199
Li      225.34086609   -186.10548401   -135.41456604
Li     -178.23191833    -16.52324677     -1.44769645
Li     -600.30938721    194.80816650    153.44599915
Li      238.19787598    129.92396545    127.19712830
Li       -4.53517580   -517.40405273    -54.77302551
Li       18.52389908     47.84421921     55.91659927
Li     -555.75036621    188.44387817   -143.97113037
Li      -98.80260468    493.08853149   -114.66915894
Li      407.63842773    291.06228638    -54.21922302
Li      -89.85222626   -202.95439148     21.45274925
Li       93.52104950    117.13847351     42.55652618
Li      277.64407349   -248.71003723     93.45953369
Li     -152.21768188    255.52308655    396.94836426
Li     -216.91397095   -183.12664795    142.08554077
Li       11.75785255   -468.36538696     48.94884872
Li      -24.96135139    218.47535706    -88.40251160
Li       26.87570190     20.12686539    -19.98297882
Li      -76.86010742   -196.60177612   -232.69076538
Li        5.00968456   -138.31623840     76.94520569
Li      -42.22139740     34.80175018    140.04457092
Li       39.46796036    125.85921478     89.40217590
Li     -170.75805664    258.95568848    146.40971375
Li      204.14198303    519.10986328   -164.98638916
Li       31.57261467   -262.35839844   -220.37628174
Li     -193.16244507   -323.70022583   -165.48316956
Li      138.77609253    292.92135620    377.48632812
Li     -237.49130249   -131.36326599    614.47412109
Li      281.10028076   -354.79479980     25.60088348
Li        9.08435726     -8.37169266     35.65833282
Li      -22.43185616     11.95478535    160.32809448
Li     -258.68621826    318.52246094   -237.34910583
Li       69.58481598    149.69369507     13.09003925
Li     -124.74913025    104.99834442    275.76599121
Li       18.00154114    -70.27793884     13.36459160
Li      121.88058472    352.84207153    -37.71539688
Li      233.92819214    238.24732971    -51.17705917
Li     -249.88821411   -156.32846069    275.86914062
Li      -64.27307129    110.36413574   -271.17916870
Li       95.49777222    184.93920898    136.33059692
Li      -34.26381683    -17.98307228   -326.34344482
Li      186.57388306     60.23127365     59.94505310
Li      151.26184082   -317.63150024   -304.70510864
Li     -262.93350220   -417.32467651    -58.87054825
Li      204.97438049    -79.86967468    104.55439758
Li     -146.47317505    220.34989929    -62.43410873
Li      174.03894043    156.70014954   -177.67926025
Li      -64.69579315    157.15669250    -16.93349648
Li      174.06933594   -103.69193268   -122.90202332
Li       -3.55903792   -115.60826111    144.08943176
Li     -149.82485962   -159.47653198   -283.43292236
Li      190.06846619   -261.76812744    -47.17888260
Li      -53.00505829    133.34106445   -204.94984436
Li      -35.96828079   -141.43611145    154.74382019
Li       31.21264076    132.84773254   -164.99934387
Li     -218.90640259    -50.66969299    301.23434448
Li     -150.26968384    141.99443054      4.93070555
Li      208.18988037     17.04275131    -84.76049805
Li      177.59275818     37.89505005   -173.26937866
Li     -383.94915771   -220.32524109    334.99954224
Li      -68.18539429    237.55152893     58.42603683
Li      -38.23517609     40.40689468   -186.25405884
Li       22.85847664    349.90765381    295.68341064
Li     -176.82142639   -187.99589539    337.95382690
Li      -24.61211777    152.79029846   -597.22808838
Li       74.30908966      7.34034157    338.97036743
Li     -210.69068909    135.94862366    195.47503662
Li      198.53755188     63.52625656    365.45156860
Li       65.23279572    -49.28111267    -46.46774673
Li      411.37814331    -73.23938751    199.91893005
Li      311.51977539   -237.52491760   -190.05993652
Li      130.30352783    212.27581787    212.32035828
Li     -154.43229675     71.01544952    415.49255371
Li       46.18276978    436.23410034    142.67309570
Li     -548.23138428    316.89627075   -301.33761597
Li     -198.89755249    269.64093018     25.40663338
Li      -20.89547539    -37.45819092    174.39491272
Li      256.83218384   -107.45011902    300.25531006
Li     -241.16604614     91.10153961    122.77805328
Li      212.64622498    154.48986816    -49.85073471
Li     -102.98648834      1.02803910    122.91132355
Li       48.98480225   -257.97616577   -233.10791016
Li      -90.20112610   -120.96234894    432.93615723
Li      -40.47703552   -138.74513245   -209.01589966
Li       78.56732178   -291.88363647   -220.54208374
Li      225.47499084    725.35894775   -144.37322998
Li      -46.78505707   -338.64431763    224.84167480
Li       34.76269913   -115.92238617    283.92419434
Li      361.19473267    319.86273193   -124.94490051
Li       -8.47679424    298.60922241     60.07918167
Li      -46.58055496    314.14660645    254.37980652
Li       65.42506409     96.89285278    -16.61953545
Li     -120.15529633    -88.27945709    114.90670013
Li       43.77244949   -108.55088806    275.71563721
Li      108.72019196    -34.00583649   -444.71447754
Li      182.08717346    253.31657410   -279.10263062
Li      254.59965515   -151.56390381    531.01629639
Li      -33.52262878   -193.39710999   -148.33389282
Li      325.19879150   -102.55091095    398.96365356
Li      130.03738403   -246.57862854    -62.54098129
Li      177.87406921    366.33718872     94.00360107
Li      422.06579590    -50.80063248    163.55459595
Li       91.21249390    -45.73465729     34.08879852
Li      200.49604797   -540.24182129     47.21361160
Li      150.80259705     65.35200500    185.68334961
Li       70.41210175    228.09074402     67.33878326
Li       69.05595398   -200.32476807    -92.99459839
Li     -306.39376831    330.23458862    271.85751343
Li       31.27197647   -180.36927795   -258.69436646
Li      117.56247711   -103.87174225    -37.74803925
Li        5.00606012     47.82876205   -424.34371948
Li      -51.23186111    417.48025513    190.65847778
Li      -68.60951233    203.39804077   -173.89060974
Li     -149.92440796    125.55261993   -173.07238770
Li      233.07952881   -135.71389771    181.89332581
Li      178.57516479    -99.70670319     -7.98900080
Li       -3.46702814   -352.61300659     64.13634491
Li       95.65430450   -149.80584717     -3.89567304
Li      -34.23181534    124.49858856    -34.05758286
Li      212.76885986   -400.93942261     -4.08553410
Li      217.80505371   -239.01379395     54.82435989
Li     -219.96583557    263.94381714     92.55640411
Li     -154.04307556     -9.50094032    433.08660889
Li       53.21899796    132.28985596    -75.35849762
Li     -152.49488831    -79.21884155     39.89966965
Li      -12.52105713   -382.57800293    233.80491638
Li      270.47299194     38.60707092    157.49044800
Li     -275.94509888     57.01642609   -381.49441528
Li       13.67676353   -535.06463623    -29.86620331
Li      165.65202332   -151.17778015    318.72894287
Li       60.98387909   -391.86465454     25.29395294
Li     -247.00531006     56.71695709   -382.82089233
Li      191.01600647    283.38223267   -381.58322144
Li      -12.34018612    516.11346436    356.60769653
Li     -196.18632507    385.41339111   -108.42300415
Li     -366.76766968    360.00466919    513.61761475
Li      142.49147034    363.45654297    -60.57715225
Li     -302.06805420    470.09078979     93.66246033
Li      -63.73574829   -243.55706787      4.43795490
Li     -409.36029053     27.68165588    165.16047668
Li        9.85355949     71.31929016     42.81855774
Li     -184.92485046   -331.64303589     98.35468292
Li       15.41821194    459.16857910    522.90399170
Li     -146.41236877   -391.55627441   -190.01255798
Li      165.16276550   -176.52180481    161.44732666
Li      -16.41381073    131.67382812    -37.81226730
Li      100.74156189    293.21075439    289.14450073
Li     -244.02261353    359.19125366    667.69848633
Li      315.53228760   -311.63772583    145.03341675
Li     -173.09043884     66.37003326    -58.98406982
Li      -13.32450771    -97.45499420     23.29375458
Li      384.67709351    150.48634338     11.84819126
Li      268.14593506   -104.36753845     17.89264679
Li      307.76919556     16.15808105    174.69935608
Li      144.26280212   -243.28048706    173.35398865
Li       30.65625763   -112.17088318   -295.67056274
Li      303.09045410     16.47489929     51.09251785
Li      230.12797546     34.12812805   -267.15206909
Li      -59.97293091    -14.13131142    -25.66692734
Li      198.71586609    555.99926758    538.84191895
Li      309.96533203     97.03063202    -19.33148193
Li      177.39999390    182.62947083    101.95845032
Li     -348.79611206    -43.55365753   -234.05455017
Li      173.36697388   -173.74803162    157.44807434
Li     -226.96453857    561.21289062    146.74006653
Li       26.44902611   -186.58872986    118.61895752
Li      198.78868103   -247.35821533   -154.00556946
Li       59.07849884     14.91154957   -264.32617188
Li     -227.57286072     21.34941483    -33.76780319
Li      169.66903687   -160.17601013    -33.35688400
Li     -180.34027100    -45.98038864    284.45611572
Li      230.94084167      5.93898344     91.76473999
Li     -587.18908691   -255.01083374    212.06526184
Li      -68.73394012    -44.83216095   -131.38107300
Li     -433.72335815   -187.45950317     27.63206482
Li      -27.23979378     55.01884460     11.73571491
Li       78.72253418    295.55905151    130.85168457
S        -1.50194228      5.10630035      0.58951306
P        -1.57062018      6.05082178      2.49770188
S        -1.46964169      4.76403570      3.97651243
S         0.13494584      7.32541084      2.30804586
S        -3.23855233      7.01175308      2.46523643
S        -1.34115410      5.31065559     12.09910583
P        -1.29640281      6.75537491     10.63506508
S         0.54407316      7.28654575     10.47726631
S        -1.71155679      5.58683157      9.02568913
S        -2.70820022      8.14981556     10.60335159
S        -2.61832523      7.67031527     19.46121025
S         0.59123307      7.33920336     19.44576836
P        -1.27453065      6.29288006     19.70886040
S        -1.58861268      4.95721197     18.14562035
S        -0.91862118      5.63111639     21.54593468
S        -1.21367729     14.26477051      4.12925768
S        -3.55511928     16.39621925      2.54892659
P        -1.69395506     15.60006332      2.53535700
S        -1.46392536     14.63093853      0.76002920
S        -0.29612726     16.98317146      2.58817458
S         0.44354963     16.37475777     10.98135281
S        -1.31446493     14.91665745      8.58710003
P        -1.43145919     15.64913273     10.53329277
S        -3.32126951     16.58819199     10.58901405
S        -1.50517237     14.05083752     11.78308582
S        -1.01385927     14.67667389     21.22821808
S        -1.32063878     14.70218945     17.66960716
P        -1.11861384     15.73526573     19.38396072
S         0.40383178     17.02775955     19.53275871
S        -3.01628399     16.62012100     19.67424774
S         0.09656004     25.43114662      2.14498067
S        -2.89333653     26.15694809      2.89221406
P        -1.72010767     24.52695847      2.27068639
S        -1.76983929     23.18557739      3.89314270
S        -1.96528411     23.69106865      0.49640465
S        -1.42363250     23.40583992     13.04855442
S        -2.70279813     26.16503334     11.28564548
P        -1.23096073     24.64060593     11.33735275
S        -1.10565519     23.87425804      9.29802227
S         0.52596962     25.49987030     11.40707016
S         0.23781279     25.94621086     19.78671265
S        -3.22950268     25.64062309     19.35647202
P        -1.35496020     24.58331871     19.56437492
S        -1.69206631     23.48660660     21.35694504
S        -1.25669885     23.51680946     17.75483131
S         5.33628988      7.39801979      2.57440877
S         7.06725025      4.90337992      0.71631151
P         7.14071465      6.40461636      2.37579131
S         7.14726686      5.23047400      4.10497379
S         8.84419441      7.35198355      2.29324126
S         5.67486525      7.64375305     10.54330444
S         7.62468863      5.36442327      9.07849789
P         7.48744774      6.69806719     10.61271000
S         7.50811052      5.57372093     12.33154869
S         8.89972782      8.11943913     10.79485703
S         8.89565754      7.73431063     19.45384407
S         7.47190285      5.33675718     21.07188988
P         7.18566370      6.63920450     19.46730042
S         7.01990318      5.51159811     17.71203423
S         5.26057863      7.57247877     19.75947189
S         8.77647495     17.34735489      2.21602416
S         5.34387636     16.80630875      2.10802341
P         7.24435472     15.99504471      2.44732356
S         7.44626284     15.33422852      4.50450611
S         7.17149019     14.37003994      1.15059853
S         5.54631805     16.45900917     11.16275120
S         7.42455864     14.29782295     12.67934036
S         7.71438837     14.56924629      9.01178551
P         7.30291748     15.26151276     10.86214161
S         8.95868492     16.56950378     11.13316345
S         7.17143965     14.26963520     17.48672104
S         7.24523354     13.83737850     20.79268074
S         8.77804470     16.51975441     19.59020424
P         7.28872776     15.07285690     19.33586311
S         5.36226034     16.07391739     19.44479179
S         5.42379189     25.61367416      2.45829344
S         7.26679468     23.59530640      0.76248699
S         8.90386581     26.29464340      2.12204528
P         7.46336269     24.92713356      2.41960335
S         7.43347263     24.02152061      4.11970329
S         7.10543060     23.66286659      8.97138309
S         7.21380854     23.33622932     12.36115837
S         9.00424194     25.92185783     10.75308132
P         7.32722521     24.73162460     10.89258003
S         5.49413538     25.96467209     10.88448906
S         6.07834864     25.94009018     19.57888031
S         9.23269844     25.51496315     19.38207054
S         7.39159727     23.37306976     21.10865974
P         7.43716192     24.44949532     19.38538361
S         7.31005335     23.83053398     17.49690056
S        15.89921665      5.57079935      4.12021446
S        17.56613350      8.20784092      2.34840965
S        15.83193970      5.53385401      0.70152354
P        15.94843960      6.96809578      2.27300048
S        14.32005501      8.22168159      2.39255047
S        15.79363441      5.59771109      9.22206116
S        17.78838348      7.61786938     10.80298710
S        16.12912560      5.29693270     12.46296692
S        14.03286457      7.66230392     10.73037052
P        16.17307472      6.54992008     10.91177368
S        16.95795631      6.04040956     17.30123520
S        16.45996094      5.29815054     20.82878304
S        14.87643909      7.93948174     19.17992783
S        18.26673698      7.87035894     19.58205986
P        16.58530807      6.78373766     19.31988335
S        13.69980812     16.56243134      2.42594838
S        16.08895111     14.36434364      1.31884539
S        15.93340397     14.83209133      4.66856718
S        16.84625244     17.29710579      2.67163062
P        15.58755207     15.78924847      2.73334265
S        15.78685474     15.15729141     12.90890312
S        13.85474873     16.66209412     10.71274662
S        16.13090897     14.70563889      9.28228188
S        16.86548233     17.57416344     10.98578835
P        15.72991753     15.98889160     10.89061546
S        17.52814484     16.93384361     19.49866295
S        16.32787132     14.27835274     17.85422707
S        14.02734947     16.27501678     19.69820404
S        16.34268761     14.62301636     21.37999725
P        15.91424274     15.60172081     19.48518562
S        15.86764717     23.57174301      0.81328166
S        17.22957993     25.86696053      2.98449540
S        15.31635571     23.21517754      4.17194653
S        13.87475586     25.78850555      2.39673185
P        15.51197910     24.67626762      2.65486860
S        15.79201126     22.92510223     12.82626247
S        14.14106941     25.75447083     11.47832489
S        15.76924610     23.48890686      9.47866821
S        17.47454643     25.59546280     11.30097866
P        15.77462101     24.46655464     11.36012268
S        14.66497517     25.81141472     19.95698547
S        16.25503731     23.78511047     17.59072495
S        16.24461746     23.04144096     21.04464722
S        18.13628960     25.18343353     19.72074890
P        16.23195457     24.35371780     19.56266403
S         7.18152475      2.10611105      8.04537678
S         9.29104519     -0.08037048      6.84294224
S         5.75238371     -0.20753053      6.27394867
S         7.88483429      1.86381459      4.75894642
P         7.52315855      0.92794627      6.47989321
P         7.41791677      0.48908326     15.26383495
S         7.15616894      2.01859593     13.78418732
S         7.13181782      1.47769427     17.06896782
S         5.87683296     -0.88956106     14.80724239
S         9.15990829     -0.21400663     15.08243752
P         7.33087873      0.69834358     23.70716095
S         7.05109882      2.16758609     25.28921700
S         9.22285652     -0.17263754     23.55697441
S         5.70489264     -0.59313840     23.88096809
S         7.33748531      1.57269585     21.89607239
P         7.66490316     10.01153564      6.35314417
S         6.31046581      8.62613678      6.24141073
S         9.34793854      8.80389309      6.03665304
S         7.44583702     11.52686024      4.80532598
S         7.66141701     10.67865658      8.18528843
P         7.41019583      9.50687027     14.95205879
S         9.10312366      8.35125542     14.90185452
S         7.53375912     11.11046314     13.49984932
S         5.76723289      8.38684940     14.72231865
S         7.47914362     10.11778355     17.00800133
P         6.95397139      9.53760815     23.58066750
S         7.38223219     10.72310257     22.02302742
S         6.85317612     10.38206768     25.54789734
S         5.19122839      8.32848644     23.71309853
S         8.62934589      8.44769001     23.50247383
P         7.13686848     19.05141258      7.09999990
S         5.15295315     18.60317612      6.73628569
S         8.64346695     17.69902802      6.90019989
S         7.73638248     20.64887428      5.90174961
S         6.94490290     19.70870781      9.07851505
S         5.74940109     16.80797195     15.62126255
P         7.13686466     18.26679802     15.47340870
S         8.92372227     17.16987801     15.26522732
S         7.20531607     19.17334747     17.23738861
S         7.04072332     19.69949150     13.94163990
S         7.09537125     19.55554962     21.80382538
P         7.05499411     18.71851921     23.68772507
S         6.93970823     19.95380402     25.41405487
S         8.76776886     17.70629311     24.03524780
S         5.44079733     17.67483521     24.01441383
S        13.42999840     -0.03517798      6.66870928
P        15.36886978      0.55776316      6.81201124
S        16.66428375     -0.96316129      7.07059860
S        15.83841515      1.79940879      8.42335415
S        16.22552299      1.22006774      5.06103468
S        14.14981651     -0.23443729     15.47891903
P        15.99297047      0.72738469     15.47959423
S        17.49949455     -0.76454270     15.20879269
S        16.16788101      1.57134056     17.38091850
S        16.14135742      2.15626454     14.01979160
S        13.95323277     -0.31563383     23.22772980
P        15.82900810      0.73875564     23.59368515
S        15.75810432      1.22960925     25.67423058
S        16.38418579      2.19093108     22.31345940
S        17.50404549     -0.55924410     23.56712723
S        15.97372341     10.92807770      8.23218155
P        15.97791100      9.59800625      6.59350824
S        17.36714172      8.16869354      6.64820910
S        15.95777988     10.88763618      4.78254080
S        14.00539875      8.83902454      6.50307178
S        16.15745163     10.93711662     16.78112984
P        15.99697495      9.81534958     14.97915840
S        15.66619110     10.92893887     13.52100945
S        14.62425327      8.27849007     14.93080139
S        17.89754868      9.07533455     14.76165485
S        17.00859833      8.20266151     23.01535034
S        15.90297031     10.93326569     21.75343704
P        15.73199177      9.71243763     23.33415604
S        13.87014771      8.63400841     23.17548180
S        15.92090416     10.84486961     25.15706635
S        15.65160656     19.99819374      8.70720291
S        17.34160614     17.88137817      6.82051229
P        15.49147987     18.88135529      6.84980679
S        13.90413857     17.73786736      7.16520357
S        15.43384552     20.21719742      5.22017813
S        15.73470688     20.05279350     16.87169456
S        17.85593414     17.78787613     15.35147285
P        15.89783669     18.58935928     15.19058037
S        14.45223808     17.24020958     15.25810337
S        15.76508522     19.59455681     13.51976681
S        17.68740654     17.75243187     23.51713943
S        16.33281136     19.86723328     25.41863060
P        15.93133354     18.65265083     23.75652313
S        15.28943539     19.63366699     21.98158455
S        14.37763786     17.41230202     24.33964729
S        22.28513145     -0.05196195      6.33701611
S        25.50064278     -1.15361428      6.35946131
P        24.41717529      0.54045850      6.56351900
S        24.72885513      1.74212849      5.07908344
S        24.55806541      1.46289957      8.53676796
S        23.14421844     -0.65090191     15.43908405
S        26.64843750     -0.54976034     15.19923115
P        24.86676216      0.47591677     15.43185329
S        24.73270798      1.72621775     13.88037777
S        24.81871414      1.68657374     17.06603432
S        22.89896011     -0.92270708     23.34465599
S        24.56699371      1.86532259     22.24318504
P        24.42722511      0.45443693     23.63110352
S        23.97662544      1.12452602     25.61433220
S        26.18903732     -0.71017253     23.69680023
S        22.27998161      9.01379967      6.61013889
S        24.24792290     10.73456955      4.76013565
P        24.42179489      9.86393070      6.64246273
S        24.37346840     10.87329960      8.54874611
S        25.95019341      8.55651379      6.80327559
S        23.14933014      8.18267536     14.70083427
S        23.99162292     10.88607693     12.97538280
P        24.68499184      9.65632343     14.57348919
S        24.71317101     10.48023033     16.42257118
S        26.63278198      8.90445042     14.31821251
S        23.74022293     10.52395344     22.06820679
S        26.29458618      9.00300980     23.55607414
P        24.29395485      9.65661526     23.80671692
S        24.35516357     10.91695786     25.39246941
S        23.15129662      8.10172176     24.17172050
S        24.55008698     19.95414925      4.83171940
S        26.75373268     17.56583023      6.07774687
S        23.04236984     17.18639946      5.87939787
P        24.76464081     18.46751022      6.11878920
S        24.58583832     19.31262398      8.07785511
S        22.42974281     16.92841530     14.44248867
S        24.62381363     19.25458527     12.99866867
S        25.86866570     16.37352562     14.83589077
P        24.32839775     17.87969208     14.70036507
S        24.26383972     18.92468834     16.46219254
S        26.65802574     17.66482353     23.77124596
S        24.39826775     19.67729378     25.43835831
S        22.99881554     17.26528549     23.93153000
P        24.79872704     18.41824913     23.84745979
S        24.54000854     19.52769852     22.15583229
S         2.35603333      0.66529059      4.19255781
S         1.23824990      3.07548189      2.45366192
S         2.51503563      0.26387861      0.60113031
S         4.65793896      2.11267304      2.33143067
P         2.63184309      1.53907931      2.35295439
S         3.01886439      0.81256872      8.91906834
S         1.14317572      2.60890055     10.97340202
S         4.58229733      3.14516258     10.53072834
S         3.04825068      0.78640401     12.43282223
P         2.99941564      1.94800472     10.58220768
S         2.95884585      0.48418486     20.75225830
S         3.07120800      1.29325867     17.45554924
S         4.18973351      3.59901714     19.88000107
S         1.08380854      2.87571049     19.52056122
P         2.92853546      2.03283906     19.40823936
S         2.83044934      9.96960068      3.93408704
S         2.77844644      9.87865829      0.66513765
S         4.90299702     11.93838501      2.39722490
S         1.37792492     12.45332813      2.37178421
P         2.91037536     11.20614338      2.32377338
S         2.94334221     10.03459358      9.02023983
S         4.83558893     12.46476841     10.68393707
S         2.77835035     10.35716820     12.31972694
S         1.30464137     12.53482342     10.82326889
P         3.04503918     11.44854259     10.71601391
S         4.11629534     12.18652344     19.91614723
S         0.83228940     11.89131260     19.77903938
S         2.73638391      9.51326752     21.18326950
S         2.79163599      9.96299839     17.92882919
P         2.53767967     10.87953758     19.69716072
P         2.89848399     20.67507553      2.23754501
S         2.80923462     19.28939438      3.68338776
S         1.16867411     21.96905899      2.37550473
S         2.94455743     19.74372292      0.41237003
S         4.54012156     21.78343010      2.38868284
P         2.81814766     19.91752815     11.07920551
S         3.14772367     18.67487335     12.68279362
S         1.06602180     20.91954041     11.24212551
S         2.82047606     18.67012405      9.49192619
S         4.38666058     21.36809540     10.83195782
P         2.79741716     20.02020836     19.01019287
S         2.92056656     19.29372597     17.04237747
S         4.35143518     21.48401260     19.20413399
S         3.35803890     18.71368599     20.72746086
S         0.85482329     21.02271080     19.30627441
P        11.50480747      2.72323036      2.33650756
S        13.27858734      3.76269054      1.94702160
S         9.78315067      3.98046374      2.23031759
S        11.71871853      2.02883601      4.18534327
S        11.36250973      1.25506067      0.96809959
P        11.51077843      2.25701928     11.35272121
S        13.25621891      3.19898891     10.76991272
S        11.65264511      0.54498601     10.30137348
S         9.95372200      3.18889189     10.42349148
S        11.40778923      2.10981798     13.34602451
P        12.10074234      2.77958179     19.70888901
S        12.49252415      1.75748837     21.41653252
S        13.64703274      4.23635674     19.53850937
S        10.42696476      3.75056267     20.09229660
S        12.07185936      1.49802446     18.26519394
P        11.45043564     11.21182537      1.77319217
S        13.36399937     11.88424492      1.75516391
S        10.12716866     12.73508453      1.96157861
S        11.17766571      9.83687115      3.34544706
S        11.21022320     10.23194790      0.04241803
P        11.65433407     11.32508183     10.86289692
S        13.34304619     12.60682869     10.57847023
S        11.74852562     10.22422409      9.26062679
S         9.84754086     12.24537849     11.10036278
S        11.95777130     10.32526779     12.64507389
P        11.55072117     11.43500996     19.28560638
S        13.13523197     12.71008968     19.26932335
S         9.65909576     12.43120766     19.51072884
S        11.64927864     10.08271313     20.78897667
S        11.31212711     10.37907696     17.45621681
P        11.59561348     20.11147690      2.36202335
S         9.76181126     21.09199905      2.09494805
S        11.94407272     18.89638329      0.74066943
S        11.45035934     19.32926559      4.29423809
S        13.09196949     21.46252251      2.70037556
S        13.42063713     21.36653519     10.59477139
P        11.62080765     20.68818474     10.56351089
S         9.92886257     21.80508232     11.00079060
S        11.26623535     19.50444794      8.99171829
S        11.57869148     19.11536407     12.23083591
S        11.68735218     19.08997726     21.26354218
S        11.72058773     18.88478851     17.73307800
P        11.90956020     20.11346626     19.48884773
S        13.60146236     21.24745560     19.34179306
S        10.39879036     21.46795082     19.29425049
S        21.51585579      3.00661230      2.30913877
S        19.61978912      0.61450297      0.85029399
P        19.68174362      1.81288111      2.51824975
S        18.04021454      3.13189244      2.36104941
S        19.63842964      0.60979325      4.16323614
S        22.15777588      2.62018847     10.55050850
S        20.24677467      1.37600172     13.02732849
P        20.27783012      1.99814498     11.11157703
S        20.07812309      0.59898049      9.58008766
S        19.21545219      3.80916524     11.01796436
S        19.08821869      3.31159115     19.43222237
S        20.14851379      0.49264166     21.13534546
P        20.37051010      1.87068355     19.44051552
S        21.97903252      2.91117024     19.83566093
S        20.21882057      0.65514398     17.63809395
S        20.36707878      9.65692139      1.02198708
S        19.91224861     10.25000572      4.24316883
P        20.12390709     11.10639191      2.54229546
S        18.22672844     11.91525364      2.02906823
S        21.78181458     12.34574890      2.34956455
S        21.35159874     12.58168411     10.50752449
S        19.54553986     10.21379185      9.24494648
S        20.53819466      9.91887379     12.21993446
P        19.82086754     11.25351620     10.98014545
S        17.95543671     12.20903206     11.27538872
S        19.42008591     12.35357666     19.40248108
S        20.70422935      9.66884995     20.79999733
S        20.62002945     10.00280190     17.25728035
P        20.86225891     10.89636135     19.06762695
S        22.70375443     11.79764175     19.11131287
S        18.34753227     21.38222313      2.83879876
S        19.61611557     18.67058372      0.94691056
S        21.59584808     20.85597420      2.40846467
P        19.82393265     19.71380424      2.71114635
S        19.95090675     18.73691177      4.47193432
S        20.32916451     19.26173592      8.82460690
S        20.25096321     18.59745407     12.27756500
S        21.71859741     21.44582367     10.99895668
P        20.23810196     20.08920479     10.73282242
S        18.42729759     21.02918625     10.88764954
S        18.84375000     20.74414444     19.70415688
S        22.28846169     20.62406731     19.32599640
S        20.55420494     18.17189789     21.15846252
P        20.53880501     19.52793503     19.46099854
S        20.31072807     18.50930977     17.63517952
S         2.84939289      6.81387329      7.87125826
S         4.51497126      4.26594496      6.15337420
S         2.81902742      6.25618649      4.33398819
S         1.13602579      4.28636074      6.81883574
P         2.85219169      5.52713442      6.44597626
S         2.89181852      6.21384430     13.19518852
S         4.82229614      4.05541277     15.06775093
S         1.46946633      3.81772637     14.58678436
S         2.24221826      5.95293617     16.72933197
P         2.92453218      5.17017603     15.02685547
S         1.69598818      3.28757691     23.73263359
S         4.88215971      3.92395949     24.04474640
S         2.67853808      6.09716845     25.51541138
S         3.04346704      6.14591217     22.36268234
P         3.00499034      4.88954782     23.81237411
S         3.47429347     15.48180389      7.74277973
S         1.58768594     13.04612446      6.79303932
S         5.04052973     13.03602123      6.24455738
S         2.95857739     15.01784897      4.43830395
P         3.27317357     14.16598606      6.26590204
S         3.07861495     15.45061302     13.80958939
S         2.36131454     15.15584755     17.17900467
S         4.46639299     13.20513344     15.40651417
S         1.26528943     12.89329243     15.15915012
P         2.69422007     14.12730217     15.44700718
S         4.88366747     12.94273186     23.67126083
S         1.63060820     12.43848610     23.33123779
S         2.84526205     15.34204006     22.23139763
S         2.76199412     14.92256260     25.53835487
P         2.98450494     13.94887352     23.77529716
S         2.54745197     24.04882812      8.65116405
S         4.42296886     22.41683197      6.53535938
S         2.92235756     24.45629120      4.86556721
S         1.04792500     22.31845284      6.34514523
P         2.71896815     23.33138275      6.63797092
S         4.68176651     21.90695572     15.17913246
S         1.05430114     21.76205444     15.32791328
S         2.71711326     23.59666443     13.54677105
S         2.76931381     24.06587029     17.23521805
P         2.88157415     22.79661179     15.53089046
S         1.23503101     21.98153496     23.26787186
S         3.01242852     23.97762489     24.83000755
S         2.88406682     24.27403450     21.54428291
S         4.76460743     21.96041679     23.24537468
P         3.09016180     23.07216644     23.13747215
S        11.45031929      6.95879841      8.16619778
S        12.25785732      6.70859575      4.92683506
S         9.91842270      4.65648222      6.27970266
S        13.45098782      4.38474607      6.99716425
P        11.73486137      5.66198874      6.57598972
S        13.42115974      4.15169287     15.79482555
S        11.56818295      6.84821701     16.94517326
S         9.97307873      4.30941963     15.90283012
S        11.65896797      6.04298162     13.56986141
P        11.73461246      5.46782494     15.55025291
P        11.55185223      5.38861752     23.45771027
S        10.12927628      3.97752666     23.73332214
S        11.43772030      6.83287764     25.14063072
S        11.61249447      6.60101843     21.87089157
S        13.49789143      4.51142025     23.71096230
S         9.81075954     12.87175083      6.54991150
P        11.27804756     14.13504601      6.57046700
S        11.23481274     15.06252384      4.68096781
S        11.20763206     15.26293755      8.34275055
S        12.86402702     12.85768127      6.18687391
S        13.31649399     12.97308159     14.96904755
P        11.75453663     14.40173149     15.28599358
S        11.86085415     15.51549053     13.63184834
S         9.82301712     13.49334526     15.29547405
S        11.97032738     15.25477409     17.15438843
S        11.58455467     15.75536346     25.39665794
P        11.58797741     14.62935734     23.67808342
S        11.69388771     15.45087242     21.83076096
S        13.32260323     13.45628262     23.96748734
S         9.85795307     13.27600193     23.73815155
S         9.39859104     22.91234016      6.70293808
P        11.20945263     24.15444565      6.75521612
S        11.26890182     25.36284637      5.00497246
S        11.65682602     24.89080238      8.52208519
S        12.86463451     22.73680115      6.54628277
S        13.17367840     22.11661720     15.55186462
P        11.61921597     23.41846466     15.36690331
S        11.69983101     25.04450417     16.93413162
S        11.71567822     24.31661797     13.51239967
S         9.87332726     22.25721550     15.23854542
S         9.85761642     21.96310997     23.93245125
P        11.58959961     23.26785660     23.82947540
S        13.28950405     22.01517296     23.56828117
S        11.46288681     24.66215324     22.32715034
S        11.56116009     24.27917480     25.72458649
S        22.07943916      3.57535577      6.60936642
P        20.36796570      4.69383287      6.93421125
S        20.39169884      5.91261196      8.48091888
S        20.31907272      5.85580873      5.19923544
S        18.57671738      3.75290370      6.67367268
S        21.01383591      6.39621782     16.63337135
P        20.86581039      5.08101225     15.04830837
S        21.01214218      5.83339357     13.09028053
S        22.50031662      3.82777238     15.39085293
S        18.97624779      4.16080952     15.12660122
S        18.94036674      4.30958128     23.40821457
P        20.77476883      5.34142447     23.59267426
S        20.40270042      6.31583977     25.32736778
S        22.15138435      3.88415813     23.78671837
S        21.01747513      6.07162189     21.70462418
S        20.15720177     15.03928566      4.66969681
S        19.59040833     15.76028252      8.00092602
P        19.88659477     14.34492683      6.61353445
S        21.69355965     13.13649940      6.71886110
S        18.19575500     13.10230160      6.68893290
S        21.94420242     13.13709354     15.02020550
S        18.45688820     13.01819706     15.34966278
P        20.26082993     14.00082016     15.16808605
S        19.91783905     15.01769733     13.36401463
S        20.27718544     15.13066483     16.88251305
S        19.35990524     12.50436020     23.23213387
S        20.29143906     15.41987705     21.99860382
P        20.55326843     14.14666080     23.49878502
S        22.52054214     13.52718735     23.46771240
S        19.68184280     14.99734879     25.17874527
S        18.38482857     22.21684456      6.80817080
S        19.96688271     24.64173317      5.51169014
P        20.23472214     23.48546791      7.10619831
S        21.95350075     22.43855476      7.12219095
S        20.18783951     24.57531929      8.96852493
S        20.85715485     24.19861794     13.45175076
S        22.31712914     21.86257172     15.19608498
P        20.64314270     22.90771484     15.11721802
S        19.17744827     21.63950348     15.32756519
S        20.66628265     24.22355270     16.59824371
S        20.48309708     22.57367706     21.37812805
S        18.42685318     21.59604263     23.57579422
S        21.85868454     21.92464447     24.32370567
P        20.19274139     22.51311874     23.43111420
S        19.91997337     24.44866562     24.16308022
