864

Li       43.85243988    317.75115967    106.64617157
Li       69.34212494     -0.93264633    -27.74393082
Li       12.55366516   -165.78358459     61.29424667
Li      -33.76168442   -168.21734619    111.55844879
Li      103.53517151     44.89410400    119.70110321
Li      216.10160828    110.09125519    -14.97931194
Li      139.11851501   -183.90010071      3.03035545
Li        8.87259960    -30.44517708    -46.21577835
Li       17.79914284     32.45955276    -40.63514709
Li      109.05657959      1.12254930    -82.77509308
Li     -107.89205170    249.41929626     14.07768154
Li     -115.33671570     -7.61444092     70.00658417
Li     -132.36169434    -13.47966957    -19.54063606
Li      106.81492615     86.28786469     27.22905540
Li       94.86007690     55.92234802     38.93835449
Li     -138.44757080    104.10117340    124.04985046
Li      108.35837555    186.26651001     27.18859291
Li       17.75370789    147.97740173   -231.11732483
Li        0.27459279     18.22314835    -66.12348938
Li      -51.48483276    -72.91585541   -180.64682007
Li      171.49748230   -128.23965454    -94.69932556
Li       26.50903702     95.94067383    -15.34744644
Li        4.89891052    158.38725281   -116.99407959
Li       66.38457489     38.17296219     37.26861954
Li       63.80484772    -18.39142036     82.04020691
Li      104.37654114    -45.70706558     57.04101181
Li      -17.07427597    -43.16403198    163.19720459
Li       65.02700043    227.37847900    115.95080566
Li       56.35485840   -189.10699463    -11.47270584
Li      216.11076355    228.04179382     47.26745605
Li       22.03283691     18.12329292     77.69882202
Li       26.61273575    202.48664856    -83.37957001
Li       25.72396088   -164.43417358    -78.45691681
Li       86.88079834    177.22259521    111.26619720
Li      -33.68616867   -103.98228455   -113.17337036
Li      -94.46642303    179.53021240    175.35609436
Li       39.76951599     56.40341949    -74.30398560
Li       31.55050659    -73.93486786    -75.18730927
Li       30.64771843    -48.07157135    -96.12915802
Li     -159.43426514   -227.31442261    -96.35176849
Li      184.18994141     39.17001343     76.15327454
Li     -138.19906616    277.01605225     -2.69584799
Li       -9.07511520   -149.41540527   -112.85906219
Li       13.18381691     74.62638855    -19.45155907
Li        0.87751549   -141.91630554    119.71460724
Li      109.97688293     91.50704956     88.03460693
Li     -177.83509827     89.74142456     -7.20596457
Li       25.92800903    423.44119263    -35.83394623
Li      -34.01713562   -235.39097595    137.79750061
Li      134.16494751     36.38744736    -10.82730293
Li       13.49821949    110.62720490    -62.34653091
Li     -102.76834106   -141.60763550    -49.78855133
Li     -136.78628540    -50.33551788    145.86006165
Li       15.89081573     71.31180573    -18.86176491
Li      133.16780090     12.30203533     85.91256714
Li     -188.17167664     60.31471252    -98.95084381
Li      -88.55917358     61.10031128   -111.45871735
Li       48.11261368     -5.46691418     26.50806808
Li      146.49423218     23.01173401    -24.24448013
Li      -73.07666779    -93.65460205     98.79912567
Li      -73.65458679   -130.81506348    -91.60065460
Li       86.79494476    -18.23263359     44.05944061
Li      125.32772064    -20.60153389     -6.60109425
Li       60.41497040   -107.11403656    -62.67873764
Li      122.22048187    -99.27236176    -45.36671829
Li       16.92644119     67.43718719    145.88594055
Li       83.09245300     62.84902954    111.35086823
Li      156.27049255   -248.21139526     18.47820473
Li      -24.29205513   -129.86886597    -62.76549530
Li      126.70180511     55.18760300    -28.72373962
Li       48.50055695   -243.19470215    -96.31816101
Li      105.61928558    178.03195190    -30.77753830
Li        0.77827245     23.57045555    106.95050812
Li        4.44805193    -14.76171207    184.07444763
Li       -8.82407284    -28.89553833    -41.38721466
Li      -77.76804352      3.96426320    -62.00413895
Li      -64.85915375     67.19417572    -57.85580444
Li       24.33651924   -160.85005188     36.98651505
Li        7.00048208    -52.40685654    -98.07580566
Li      -20.91256142     46.19587326    -87.96239471
Li       43.74716187     43.48094559      0.76802117
Li      112.05175018    -63.55173111     31.40353394
Li      134.86477661     -1.25952923    -24.95913315
Li      -37.71440887     75.63893890   -142.06919861
Li       73.85643768    178.16018677     44.65858459
Li      162.32115173   -107.54379272    -29.57521057
Li      173.48353577     43.36136246    116.67750549
Li        3.57919908     18.19261360    -79.17601776
Li      105.63099670    142.85208130   -174.80842590
Li      -31.99697304   -193.08032227      2.94072986
Li       65.57820892   -164.58345032   -119.77474976
Li        3.06273270    232.31652832     11.69521236
Li       25.60945129    -54.21070862     56.34605789
Li      -60.36706161      6.69017410    -75.09082031
Li       48.39514542   -167.11953735     35.50178528
Li      117.20092773     50.22788620    132.44517517
Li      -52.18860245    142.57005310    143.23655701
Li        4.79955578    151.77615356    231.02944946
Li      121.23457336    -53.31594849     95.30554199
Li      139.44027710      8.46238041     61.01478195
Li      165.19892883   -193.62736511   -112.93295288
Li      -55.44573593    146.30194092     56.25920486
Li      -56.34453583    187.26763916     97.80647278
Li     -173.15994263   -162.23643494      1.84907591
Li       -3.33190084     32.02591705     99.28304291
Li      138.48286438    292.16787720    150.13859558
Li      166.55560303    119.83834076     -0.74852979
Li      103.72902679   -114.94743347    132.15689087
Li      -61.92510605     94.95722198      8.49462891
Li      186.48515320      4.79768324    -11.11985970
Li      -38.45724487    113.51828766     27.17119408
Li        6.77228355     44.41727066    -86.12158203
Li       86.76773071    -33.36820221   -201.92999268
Li      -12.31804848    -73.30173492   -168.15644836
Li      -37.75914383     94.52761078    -78.99534607
Li      -46.51385880     55.76674652     86.99354553
Li       -6.68904352      1.38252318    143.34413147
Li     -107.02805328     91.95870972   -116.49399567
Li      -16.92905998    134.75904846    111.67778778
Li       98.70375824     38.81613159    160.34719849
Li      198.36259460    137.04209900    112.08742523
Li       90.74417877    179.21423340     -6.30324364
Li      107.92504883     -3.30537677     18.06307030
Li      -38.50358200    232.73986816   -201.86907959
Li     -222.56535339     20.15125275     -9.21795464
Li      -31.40126610   -110.49124146    -39.21428299
Li      -85.60020447    256.69818115   -176.60905457
Li      104.57157898    180.62832642    153.46066284
Li       43.69880676     17.15849304    -66.83891296
Li       99.53955078    108.72184753     -7.02259874
Li      -38.47466278     71.97920990    -11.53597260
Li      182.71589661    -57.10027695     78.06008148
Li      195.17877197     26.05521965   -100.10876465
Li     -112.41981506    136.43583679    -23.60561562
Li      130.49417114    -79.07018280    -79.12544250
Li      -21.75537300    -31.40045357     -2.89106917
Li      -69.23351288    -84.90025330     22.82068062
Li       99.76689148    192.55581665    102.66970825
Li      159.98182678     32.14796829    -54.03289795
Li       -7.98115015     66.62817383     81.69599915
Li     -103.10578918     85.54726410      5.85469103
Li     -202.53518677    269.51742554    -10.94990349
Li      -93.06018066    -66.11897278    232.66612244
Li     -154.10305786    109.01940918    -40.88705444
Li      108.23500824    -68.64487457   -138.13761902
Li      199.32510376     60.01712418      5.75967121
Li      252.05244446    -92.83849335    106.15966034
Li      121.40299988    -72.15443420    -78.77708435
Li      108.17427063    221.30616760    120.67382050
Li       -7.51660442    -78.71154785    -18.01258850
Li     -102.06176758    -99.91757965     61.47078705
Li       73.83013916   -213.15980530     56.84550476
Li      -38.84127808   -139.76469421   -235.38444519
Li       90.48126221   -115.23687744   -103.93591309
Li      138.34663391     89.49053192    -95.66990662
Li       78.55253601   -212.59497070     70.06329346
Li     -135.45527649    -86.82004547    -52.17765427
Li      112.20380402    202.32904053    145.33226013
Li     -155.62878418    142.99130249   -152.38879395
Li      154.01841736   -146.62142944    177.18359375
Li      142.89360046   -130.26185608     95.24852753
Li      133.06964111    -24.32232475     24.57662392
Li     -320.91851807    173.36830139    -30.14307022
Li       38.61134338   -109.03022003     94.46405029
Li     -172.57455444    203.77774048    179.90003967
Li       21.86431122    -69.80500793     68.73303223
Li      -39.18703842     22.69969749    103.36302948
Li       94.31755066     18.89547348   -104.97826385
Li      147.68786621     76.42886353   -121.15756989
Li       -1.66571283    -17.98722267   -159.56761169
Li      220.66178894    -12.46434212   -113.16436768
Li       27.05386162    -39.74126816     27.51515198
Li      -39.10027313     81.27954102     74.02824402
Li       69.08068848    -32.60492706    -61.44859695
Li       90.88160706    -75.78482819    157.02433777
Li       86.74670410   -277.63403320     56.79715729
Li       22.92099380   -124.87691498     46.22374344
Li       -4.45242500    201.52206421      0.32804886
Li     -142.29264832   -150.09881592   -273.52035522
Li       12.59880638    250.41639709     13.87917614
Li      152.18411255   -326.88040161    -49.91730499
Li       21.76347542     74.85994720    107.74862671
Li     -247.17501831   -187.29238892    -34.54850388
Li        1.91138947    -28.43687820     71.66217804
Li       35.42019272    -90.30062103    -66.39794922
Li      130.09870911      4.50284624     60.59777832
Li       30.49562454     47.36009979     50.89855194
Li       48.01083755   -143.82281494     -6.95523262
Li      -77.56936646    106.68943787    161.62632751
Li      118.08998871     36.55944061   -108.88461304
Li      151.83369446    137.05967712    -15.23021603
Li       31.89217377     -7.50788927    -30.41589928
Li       61.05951309    -15.32595539   -137.91323853
Li      212.66867065    -96.72026062     73.12621307
Li       60.36631393     83.39710236     -7.67506456
Li       69.63304901     28.98240280    -54.15758133
Li      262.69372559    -29.51812744    -96.84018707
Li      113.18319702    -26.96697998    -53.51162720
Li      -89.87583160     93.27799988   -227.56307983
Li      -34.15360260     43.04067612     94.46034241
Li      -69.07984924     19.78320122    141.01141357
Li       70.17598724    -39.87247467    -90.58430481
Li       13.81097889    124.97971344    -15.35293770
Li     -134.53826904     99.47147369    -53.07538223
Li      -38.66602707    105.77858734    141.44924927
Li      -64.24897003    -79.63000488     -6.10897589
Li       21.10860252      9.02915668     48.60768127
Li     -228.51408386   -242.42335510    -99.62189484
Li       43.64404678    101.31993103     77.62173462
Li      -64.75734711    -79.16800690     48.32219696
Li       82.68617249     26.74012756   -120.66686249
Li       99.88845062    115.32166290      1.74614048
Li      117.44985199    -87.56513977     14.47234440
Li      -81.55213928     35.05950546   -316.17532349
Li      128.18128967     19.56203651     20.99213219
Li       29.89279556     76.14325714    184.53263855
Li      -39.36284637    148.70874023     85.54820251
Li       82.80716705   -261.62329102    -70.76187134
Li     -141.93876648     70.95256042   -147.01492310
Li     -119.05870056    122.47149658     72.76557922
Li       -0.04137022     80.61624146    -11.19007397
Li       48.28766251   -101.40494537    -19.34772873
Li      -29.41550064     49.02560806    141.68833923
Li       35.02585220     15.66953754    -32.93620682
Li       -7.84520197     -7.56329918   -113.88182831
Li      -51.28570175     82.22666168     51.94126511
Li        9.36592197    114.06878662     -6.88144779
Li      164.07533264      7.23953676    153.12013245
Li       55.93215179    -54.22240067    -28.11372185
Li        9.31996632   -294.76510620    -78.68958282
Li     -129.91322327    -22.97983742    179.84817505
Li       31.76881981     -8.12499523     35.85395813
Li       17.46489525    -56.47455978    171.01823425
Li      163.70906067    225.50697327    -36.39282990
Li      -20.55566216   -170.85443115    -73.74564362
Li      107.77917480    -14.75988483    144.83827209
Li       34.83727646    -62.76826859    -32.05157089
Li      204.41893005     80.54751587    -42.32781601
Li       18.21951294     63.80961609   -125.48165894
Li     -159.45594788     57.60765076    -58.35797882
Li       58.14033890     10.30431080    -82.39031219
Li      178.17883301   -121.16627502    -48.45431519
Li       81.52203369    117.15428162    123.64805603
Li       99.53643036     56.34104538    -87.75077820
Li      -24.76450157    -70.07521820     32.87049866
Li      138.46260071    -29.09872818    117.85401154
Li      -55.76682281     68.37782288   -104.55635071
Li      156.05654907    -34.19803619   -163.99931335
Li        4.39426565    232.24211121    208.45477295
Li      182.10835266    158.22346497      9.97018337
Li      103.60325623     37.91132355     53.27273560
Li       78.39247894     28.27404594   -159.27386475
Li      112.41616058   -113.14641571     43.77513504
Li       91.16796875    114.31808472   -104.25099945
Li       52.46990585     -3.34773254     88.89343262
Li       82.15237427   -254.53900146    -32.61703491
Li     -124.45348358   -146.50019836    136.38378906
Li      -12.72677231   -103.73938751   -168.61524963
Li       52.92365646    156.63987732     48.08722305
Li      137.91648865    224.99452209    -27.91720390
Li       25.73278046     99.56471252    -96.10713959
Li      173.65162659   -178.51080322   -142.92858887
Li       -3.36018634    -11.29529095    117.25933075
Li      -64.09377289   -236.01058960    102.85029602
Li       24.79665375    270.55654907    119.74040222
Li     -238.44627380   -171.48956299    -66.25643158
Li      113.62065887   -295.42315674     25.79990578
Li      -69.08009338    -48.90166092    111.67325592
Li       48.73518753     91.62834930   -201.33056641
Li     -197.78475952   -150.89419556    -95.16629028
Li     -133.01428223   -204.25741577    -36.44298553
Li      -47.38302994     -5.14243460    -87.81545258
Li       65.66278839     73.53083038    103.77056885
Li      -42.36104202    232.49407959    165.88385010
Li      246.40025330    -17.98922920    149.57710266
Li      -53.14009476   -116.02471924   -140.92430115
Li      -45.26522064     -2.98589587   -144.99685669
Li       14.23574543    -43.25424194    -97.42327118
Li       81.29595184     56.39361572    143.25366211
Li      -25.48419571   -125.49139404     90.41233063
Li      -81.24230957     22.05490303    -53.46036148
Li       69.68627930     69.67179871     22.81216049
Li     -120.48107147    104.85899353   -125.40734100
Li      177.15863037    -57.30276871     30.49050331
Li      -33.79665375    -78.02223969     77.70483398
Li        4.98943329    119.06926727    179.72042847
Li       92.63768768    179.47109985   -109.97858429
Li       87.32148743    166.95423889     14.31612873
Li        0.48418796   -254.90527344   -130.03181458
Li      103.98189545   -211.62945557    -79.09219360
Li      -51.49730301    177.18673706     31.25203896
Li      143.68115234    321.57250977    -79.19177246
Li      -48.15905380     47.80955505    -59.41604996
Li      -29.78863716     35.34954834    -40.46927261
Li       99.64136505     77.06746674    -57.64769745
Li        0.67030853     39.28074265    -53.15417862
Li      -66.13352966   -105.81474304     58.47821808
Li       30.14195442     57.08972931     57.27710342
Li       64.86537170    261.64443970     99.46549988
Li       51.12191391    -19.47725868     84.87220001
Li      -45.18823242   -203.10092163     50.08375549
Li      -34.86827087   -109.80456543    -44.29821396
Li      -55.74789810    203.96928406    -66.22734833
Li        9.33734417    160.00158691    147.43434143
Li      -48.15200043    208.23332214    -95.96211243
Li       45.07803345    -43.14030838     66.20500946
Li      251.03927612     34.82994843    140.76150513
Li       61.27790833   -162.96992493   -121.34931183
Li       -5.27352333    -22.97056198    136.63233948
Li      112.70279694      3.67876816      5.52169943
Li      104.58438873   -122.16224670     65.17019653
Li      -90.40690613      2.67077422    -45.40420151
Li      101.02890015     17.00024605     60.14331818
Li       -8.31419659     82.36358643    -20.48322296
Li     -185.36959839    106.80477142    -36.07830429
Li       35.10260010    145.99597168   -125.44465637
Li       44.07637405    117.49612427    -58.58392334
Li      164.94268799     48.75440979    212.63330078
Li      -31.49071884    109.22778320     -0.95377576
Li       13.02609539      0.73918003    -91.68445587
Li      173.76689148     21.71362877     94.30598450
Li      -17.05173683     -9.27460575     77.72205353
Li       73.62667847    263.23822021     64.70324707
Li       69.46964264   -137.90501404    -61.49781799
S         0.08189154      8.73967075      3.38530540
P        -1.35602021      7.36454868      3.68901229
S        -0.94958985      6.66244364      5.47974730
S        -3.25647306      8.09769249      3.60532141
S        -1.26221573      6.26091146      1.94083381
S         0.42350367      8.67736721     12.42389870
P        -1.34658110      7.49924278     12.29893494
S        -3.04003406      8.75029755     12.09812164
S        -1.34575152      6.46508026     10.60122204
S        -1.92608416      6.42757988     14.10119915
S        -3.63349724      8.19461155     20.27614021
S        -1.68508983      6.78260899     22.58635712
P        -1.62618506      7.37697744     20.47510910
S        -0.29293334      8.93013859     20.41797256
S        -1.30869651      5.91730022     18.87453842
S         0.32170960     17.74019432      3.48777819
S        -3.07415891     17.57187271      3.30223274
P        -1.32190585     16.57241058      3.40001655
S        -1.68991315     15.74099636      5.34605503
S        -1.08689988     15.49087048      1.64961994
S        -3.40295839     18.11865807     11.88043785
S        -1.68458855     15.53803444     13.76442814
P        -1.59422433     16.82760811     12.22045803
S         0.24646421     17.90721703     12.37624264
S        -1.38629162     15.46751022     10.43791771
S        -3.38757706     17.66494179     20.81653786
S        -1.51052094     15.28716850     22.16487694
P        -1.74120593     16.40482712     20.44071770
S         0.32557991     17.48631096     20.30796623
S        -1.67773640     15.09301090     19.04489899
S        -1.58239889     24.81574821      5.47248220
S        -1.43442523     23.81796455      1.83453691
P        -1.62817466     25.26757812      3.42881060
S         0.10288417     26.44889259      3.08429432
S        -3.33255315     26.37060356      3.28076649
S        -1.37957025     24.57889366     13.41084385
S        -1.74813199     24.77716255      9.95822906
P        -1.67716634     25.70835495     11.78627110
S        -0.16164392     27.23990440     11.88948250
S        -3.46239829     26.94605827     11.91329765
S        -3.59273744     26.26830482     20.29793739
S        -1.60290182     23.97115326     18.72392464
P        -1.75504529     25.10768127     20.41537666
S        -1.98981988     24.42142677     22.29653931
S        -0.22367668     26.58151436     20.52224731
S         7.43619347      6.01374435      2.20159745
S         7.25781679      6.17474794      5.33686161
P         6.98013973      7.34126425      3.67602777
S         5.27542543      8.58785439      3.38159919
S         8.78306770      8.64886665      3.72902751
S         4.96982574      8.34593010     12.72397327
S         6.31025553      6.50830460     10.22106552
P         6.67484331      7.34762383     11.98329067
S         7.57991409      6.29147911     13.52458954
S         8.03879070      8.99624634     11.47975349
S         8.37590981      8.35137177     20.59746933
S         4.99431467      8.50020695     20.21076775
P         6.65940952      7.25847626     20.40352058
S         6.40004253      6.33287382     22.44357300
S         6.93990946      6.05209589     18.94209099
S         6.87088156     15.60408020      1.84124362
S         8.21720886     18.33411598      3.53584886
P         6.97124577     16.71648979      3.70734906
S         7.64932299     15.61951160      5.35964870
S         4.99217701     17.18687630      3.92623448
S         7.24359989     15.36643124     10.09937286
S         8.82963467     17.52902794     12.23639774
S         5.54784679     17.32428932     11.92117310
P         7.26032209     16.29567909     11.92773533
S         7.14732027     14.88838768     13.33544064
S         7.07126856     15.10481358     22.08082390
S         8.55241203     17.52395630     20.66957092
S         6.83226061     15.56702614     18.58655167
P         6.87225628     16.44096375     20.58965111
S         5.00549841     17.29531097     20.58422470
S         6.89604998     24.34532356      2.11761546
S         8.67756367     26.35559654      3.92603183
S         5.25118923     26.91828156      3.67444563
P         6.80730486     25.58003998      3.73399591
S         6.20013475     24.47693062      5.54671621
S         8.71043396     26.97338867     12.06265640
S         7.26317406     24.26435852     10.42360878
S         7.17735386     24.43407822     13.80636597
P         7.16288042     25.47796059     12.12656212
S         5.37221956     26.51204300     12.22527218
S         6.65072203     23.24931908     21.37607002
S         4.96806622     26.38710976     20.59648705
S         8.08371925     26.50215721     20.85967064
P         6.61064911     25.05963326     20.29592514
S         7.16660070     24.62636185     18.50111771
S        15.08785725      6.34658051      1.86030173
S        13.80343533      8.72387981      3.70239782
S        15.35236835      6.35605097      5.32097769
P        15.52822018      7.52644014      3.62927938
S        17.43473053      8.34921741      3.63049912
S        13.33242893      8.09419346     12.38568401
S        15.92810631      6.20545149     13.64191151
S        16.53953934      9.45640278     12.29309845
S        15.69941330      7.18175030     10.17738628
P        15.40968132      7.64384842     12.24784756
S        17.26449013      8.55998325     20.73795128
S        15.46241188      6.64173269     22.53396797
S        15.62575626      6.06478691     19.17560387
S        14.09952831      8.59484863     20.45930290
P        15.62529278      7.28808260     20.63212967
S        13.80024433     17.26139832      3.14683723
S        16.19573593     15.40587234      4.84300280
S        17.12404633     18.02753258      2.97443175
S        15.85827923     15.18667221      1.64115095
P        15.66408730     16.46616936      3.10053658
S        17.78900528     17.21530342     12.32751942
S        15.66783524     15.09108543     13.62971973
S        16.18711090     15.20868587     10.26014614
S        14.35159492     17.49079895     11.71035385
P        15.95793629     16.37407875     12.19529152
S        15.17437077     14.91988659     18.92291451
S        15.32525635     15.42409229     22.52285576
S        14.33363438     17.93230629     20.80351639
S        17.51478195     16.81559181     20.63619804
P        15.62042427     16.27273750     20.78048515
S        15.25171089     24.60124207      5.51776505
S        17.35326004     26.00173950      3.71615672
S        14.32026005     27.44401550      3.80005336
S        14.82830429     24.15505219      2.04548836
P        15.35021400     25.72402573      3.69717646
S        13.29494572     26.40370178     12.50105667
S        15.44873524     24.52378654     13.86504650
S        16.73933792     26.82426834     11.61319256
S        15.03832054     24.09067154     10.50172424
P        15.04948139     25.53037453     11.94523048
S        14.07460213     27.64944267     21.04456520
S        15.20682621     25.05326843     19.08074760
S        15.22091007     25.07818794     22.73743057
S        17.22932434     26.51342773     20.81839561
P        15.27690887     26.02482033     20.86221123
S         6.88860798      2.31873703      6.10884857
S         7.79885674     -0.22060904      7.90002728
S         7.11735725      2.83753681      9.36635971
S         4.77160978      1.13646555      8.20310497
P         6.75601959      1.50750995      7.98192215
P         6.53745604      1.24545276     15.83799744
S         6.39463377      2.63425636     17.47149086
S         4.93956947      0.00538393     16.09190941
S         6.31257010      2.49216533     14.10879612
S         8.40913582      0.55307704     15.93582058
P         6.97295237      1.34988666     24.85525322
S         7.28375816      2.41878295     23.23921394
S         7.92015743     -0.34212869     24.91225433
S         7.11511421      2.50621653     26.48496056
S         4.89125204      0.90172964     24.72341919
P         7.18859673     10.52408791      7.39566135
S         6.91726255     11.75498772      5.84052706
S         7.15828085     11.87806892      8.89190578
S         5.90858555      8.90325832      7.35429001
S         9.14077759      9.80191898      7.57034826
P         6.70553541     10.44431400     16.40467453
S         8.73739338      9.96315098     16.51676178
S         5.60863733      8.73627186     16.57148933
S         6.23945379     11.78160858     17.96407127
S         6.45045805     11.47275162     14.59053040
P         7.31514740     10.51028347     24.98798752
S         9.13947296      9.58911991     24.92350006
S         6.97402859     11.75400162     23.40888977
S         5.70608711      9.17787933     24.97005844
S         7.05041695     11.62044525     26.64221001
P         6.14848709     19.96231651      7.75091410
S         4.74940395     18.41972542      8.29414177
S         6.55541182     21.42421341      9.14016438
S         8.33720589     19.02273178      7.97903013
S         6.10675526     20.74666595      5.90010023
S         6.41915846     21.03500557     14.65909100
P         6.60580587     19.81922340     16.24221802
S         4.89249420     18.58869171     16.35426903
S         6.75782061     20.90744591     18.05033112
S         8.45385647     18.99798965     15.90623951
S         5.24964714     17.76783943     24.59160614
P         6.78283882     19.08431816     24.54769897
S         6.70721102     20.15498161     26.45845985
S         6.66472101     20.41610909     22.83442688
S         8.65101337     18.44824600     24.44185638
S        15.04669762      2.55625796      9.48253536
P        15.19763851      1.68719172      7.48420429
S        16.98703957      0.50686985      7.80979872
S        15.98196220      2.86430097      5.88122654
S        13.58514690      0.70248121      6.83895445
S        15.75792599      2.85546255     18.40809631
P        15.53973103      1.85772872     16.51390648
S        15.62433624      2.68337035     14.64252472
S        13.69135284      0.84880668     16.71676636
S        17.19742966      0.45913264     16.54357338
S        13.66457653      0.86078143     25.06095123
P        15.48765469      1.58683205     24.70457077
S        15.52572441      2.51275134     22.95437813
S        17.06183434      0.08685150     25.06418228
S        15.92313957      2.76944828     26.34658241
S        13.90589142      9.28052998      7.52857685
P        15.53853512     10.43381882      7.77606630
S        15.59540272     11.43952179      9.49813080
S        15.62809467     11.78250694      6.04569960
S        17.38239670      9.31438065      7.81025410
S        14.15104008      9.13933659     16.15868759
P        15.52775383     10.65987587     15.92895985
S        15.56754112     11.53661060     17.79282379
S        15.01112747     11.86074543     14.33249664
S        17.33745956      9.79640484     15.60481453
S        15.91801071     11.29373932     23.36963463
S        15.91018105     11.12363434     26.95844841
P        15.62306786     10.23672962     25.13821602
S        13.62174129      9.67771435     24.84346008
S        16.97249413      8.73575497     25.17459679
S        17.58687401     18.47289848      7.38224030
S        15.62746048     21.24984360      6.42566061
P        15.69545650     19.70598602      7.78122091
S        14.13326931     18.44938278      7.26189041
S        16.06958199     20.39333916      9.76433086
S        13.95422077     18.62987709     16.87018585
S        15.84482861     19.77570343     14.29453468
P        15.86486149     19.21992111     16.30382729
S        16.01858139     21.05741692     17.16343307
S        17.32887268     17.77816772     16.33867073
S        15.59760666     20.88410759     26.39692879
S        13.61857700     18.92503738     24.80834961
P        15.44285393     19.76553535     24.48468971
S        15.56291962     20.99110985     22.82107735
S        16.98762321     18.15168571     24.51985931
S        24.33257294      2.63454866      5.68707371
S        24.44392204      3.05268431      9.31116295
P        24.25583649      1.91614044      7.55410862
S        22.25366402      1.23602045      7.55481958
S        25.80046844      0.52077234      7.70561504
S        22.39090538      0.38521916     15.97096539
S        25.79361725      0.42249784     16.28698158
P        24.01773071      1.65102971     16.30103302
S        23.84253311      3.04549694     14.82213306
S        24.17264748      2.15949631     18.24070930
S        26.10462570      0.63271558     24.35066223
S        24.07792664      2.60836935     26.36949348
P        24.36768723      1.76076210     24.48952866
S        24.45243645      2.87096453     22.84776306
S        22.61218262      0.52251518     24.35091019
S        23.44731331     11.98488712      9.08503246
S        22.68747711      8.97679043      7.69342184
P        24.17827034     10.59657955      7.75918007
S        24.42230415     11.42313099      5.93433046
S        25.98760223      9.65148354      8.09995270
S        24.78900528     11.83334923     14.62781429
S        22.58993912      9.75821114     16.16014099
P        24.43361664     10.61119366     16.34273148
S        26.09024429      9.19305992     16.60838127
S        24.38370895     11.82420349     17.97820282
S        24.01230431     11.70536995     26.63121223
S        23.69732666     11.68307972     23.31392860
P        23.89706612     10.69630909     24.85150337
S        25.69435310      9.73449039     24.95109177
S        22.36507416      9.29976940     25.19764709
S        24.20821762     21.33885765      6.44474268
S        23.97227859     21.27209663      9.65382290
S        25.23271942     18.68088531      8.03896618
P        23.75969887     20.15191078      7.98679876
S        21.93879318     19.20607758      7.87454462
S        26.25824356     19.00519180     16.21073914
S        23.26786232     17.99370384     16.67374420
S        24.02942848     20.49581337     14.29149532
P        24.32983971     19.70990944     16.14144897
S        23.88318634     20.73398781     17.87114716
S        24.68031311     20.04391289     26.47021484
S        24.11599731     20.52917862     23.13763809
S        22.64967155     17.85388374     24.59616089
P        24.34760284     19.09985161     24.65546608
S        26.00012589     17.86949921     24.37479973
S         1.32685113      4.66570807      3.73754191
S         4.59812212      3.93146729      3.83812261
S         2.48622990      1.76564205      2.07907009
S         2.23753929      1.93056679      5.39086580
P         2.66835928      3.04457712      3.80928731
S         0.24442051      4.00491428     12.08592606
S         3.12555957      2.69527698     10.27469063
S         2.33509922      1.57157993     13.31683922
S         3.56966329      4.80899096     12.44014263
P         2.24168897      3.22051454     12.00770187
S         5.05339575      2.98942661     20.82393074
S         2.63003898      2.61415792     18.62982750
S         2.08171630      4.21418571     21.47964287
S         2.11185408      1.00615633     21.43603897
P         3.06604815      2.62221217     20.69703102
S         2.66123271     10.74039841      5.51489830
S         0.42994785     12.55381489      3.94280505
S         2.51023316     10.58422375      2.04898310
S         4.06578159     12.98015213      3.68451238
P         2.19232154     11.74996185      3.84299040
S         2.97602415     10.79390621     14.05209732
S         1.09960783     12.93508816     12.07853317
S         3.10688567     10.46096706     10.72176456
S         4.38415051     13.26948738     11.78933907
P         3.02677417     11.84259224     12.28686428
S         2.86249995     10.90550613     22.30117035
S         2.70427966     10.96683216     18.90312004
S         4.61079025     13.24288845     20.46437073
S         1.01871204     13.28011131     20.74887466
P         2.82564640     12.22718048     20.58044052
P         2.47796345     21.23998260      3.60038924
S         0.70326823     22.25915527      3.33428526
S         2.20129395     20.14011574      5.38089991
S         4.12513638     22.54145241      3.78344798
S         3.05131602     19.85241699      2.10645151
P         2.58254504     21.12413216     11.81938267
S         2.95951533     19.74217224     13.42120647
S         3.30411482     22.92542076     12.09248161
S         0.46322528     21.26968002     11.68240929
S         3.34171200     20.27183151     10.07368565
P         2.52245331     21.45312500     20.30168915
S         0.42023310     21.66870499     20.25442696
S         2.91373873     20.01600456     18.81746101
S         2.94084001     20.55343437     22.05621910
S         3.27571940     23.41594124     20.36787415
P        10.96237755      2.29505730      3.29894400
S        10.86129665      1.76979935      5.32585287
S        11.18477917      1.20724380      1.55078578
S        12.78181553      3.36630249      3.48887086
S         9.37096405      3.61879826      3.08613634
P        10.89579678      2.98605084     11.68873692
S        12.15182972      4.65265322     11.70204544
S        11.01753616      1.66884077     10.07494831
S         8.82233524      3.77966738     11.92987251
S        11.30165577      1.88502192     13.49279118
P        10.97201729      2.74002242     20.46991730
S        12.62557220      4.01975393     20.66021729
S         9.19058228      3.70061326     20.16699982
S        10.83100986      1.78171337     22.33048630
S        11.18260002      1.64040983     18.75795174
P        11.47711658     12.11211491      3.69025135
S        13.23312664     13.27728844      3.43836474
S         9.59123707     13.04753208      3.86634851
S        11.94964409     11.07332230      5.34026480
S        11.31109238     11.00453854      2.02717781
P        11.59099007     12.04887295     11.97925854
S         9.74052715     13.02395248     11.76339531
S        13.17975616     13.34892845     11.66423416
S        11.49653816     10.47105789     10.48963547
S        11.37773132     11.70574570     13.97783279
P        11.01101017     11.61747551     20.40571976
S        10.89175415     10.49411297     22.18688774
S        12.59910202     13.08271599     20.70785904
S         9.14376450     12.87199593     20.27542496
S        10.91153240     10.86334705     18.52356148
P        10.94240475     20.62827301      3.66998124
S         9.00354767     21.44785881      3.68625212
S        10.95913696     19.38174820      5.19576979
S        12.57494354     21.70763588      3.62919593
S        11.00264740     19.96958923      1.73166704
S        12.54259968     22.47167206     12.44098949
P        11.25912571     21.00233269     12.15113068
S        11.54682159     19.45047379     13.60464001
S         9.36602116     21.58450890     12.66417217
S        11.25510216     20.36349297     10.30515099
S        10.88504028     19.65973091     18.76264954
S        10.66765690     19.60480881     22.34293365
P        10.89022446     20.68582726     20.56931305
S         9.26871014     21.96502304     20.50660324
S        12.79307842     21.52106285     20.73525620
S        19.91129494      1.49540305      2.34302735
S        20.98880768      4.77505159      3.55832386
P        19.59246635      3.39505839      3.66015244
S        19.83702278      2.27748346      5.31627274
S        17.81288719      4.41339779      3.50486636
S        21.23819923      3.81961989     12.13281345
S        17.68651581      3.47603917     11.82625389
P        19.64894104      2.52364278     11.90785694
S        19.69141388      0.81605506     13.09821224
S        19.79278946      1.50608313     10.05207920
S        19.84314537      2.09196687     18.86765289
S        18.56644630      3.89201498     21.07350540
P        20.27822495      2.92253494     20.75867462
S        22.04624557      4.01086283     20.90304184
S        20.48339081      1.39561248     22.16462898
S        20.00988579     11.14725780      2.12047648
S        20.00678062     10.91647816      5.52775717
P        20.15142250     12.20048618      3.90193415
S        18.74201584     13.54931355      3.50973630
S        22.18696785     12.62516212      4.04486609
S        21.84914589     12.71843052     12.11768818
S        18.31910896     12.40673065     12.48488808
S        20.18510437     10.69628048      9.97809696
P        20.10541534     11.48886490     12.01223850
S        20.25291443      9.79462624     13.36795235
S        18.05700302     13.39695549     21.12485695
S        21.53250885     12.86267185     20.45913506
S        19.24340820     10.62806892     22.43389320
P        19.63433647     12.03697300     20.64017677
S        19.27097702     10.63011360     19.24056816
S        21.58848953     22.49749374      3.20992184
S        20.44337463     19.84625244      1.50811839
S        20.04048538     19.67588425      4.96303606
P        20.07946205     20.81657982      3.22383738
S        18.23278999     21.76571465      3.31450415
S        19.79130936     20.78797913     14.21793747
S        18.01768112     22.90480232     12.35622120
S        21.30105972     22.76391220     12.03162861
P        19.70222282     21.59970856     12.32211018
S        19.39018059     20.15242004     10.70794392
S        19.25992012     19.84795570     22.39800072
S        21.75953293     22.09341049     20.62645531
S        19.68753052     19.93723488     18.92215157
P        19.87373352     21.10187721     20.61453819
S        18.41743088     22.61923218     20.40059662
S         2.60005307      7.23648834      5.53447151
S         3.90579748      4.85879469      7.52037716
S         0.52092206      5.66584349      7.72501230
S         3.02842760      7.68083382      8.89058113
P         2.51165938      6.29906511      7.45220995
S         2.33409572      6.45114756     18.62269211
S         3.91923380      4.56821394     16.53532410
S         2.23813820      7.50780821     15.23072052
S         0.75148135      4.74497843     16.38318825
P         2.36992335      5.94617033     16.68717957
S         2.40980697      7.28376770     26.31035995
S         0.65738255      4.97714758     24.83408546
S         4.13393497      5.06551313     24.72531891
S         2.18250990      7.09175825     22.88997078
P         2.52292824      6.19878912     24.77297592
S         1.49890614     13.66710758      7.94577980
S         4.59690428     14.67006397      7.34456396
S         2.51818562     16.12502861      9.66975784
S         1.88233292     16.17063141      6.20371866
P         2.71790218     15.16754246      7.72791576
S         2.19516540     15.45653629     14.34485531
S         2.15671754     15.93719292     17.67559814
S         4.68954802     14.34324360     16.32728958
S         1.69769478     12.86697865     16.22373199
P         2.68012023     14.63943291     16.09352684
S         2.78749776     16.14031219     26.49866867
S         0.77758479     13.98724651     24.87832451
S         4.31933641     13.78191471     24.72961617
S         2.67907619     16.01484299     23.09779167
P         2.64117432     15.04882431     24.89109993
S         4.23868990     23.41134834      8.16799736
S         2.22410274     25.14176369     10.24884892
S         0.95936936     23.23253441      7.84370089
S         2.35132337     25.81668472      6.75272083
P         2.57839060     24.40119743      8.29983807
S         2.49071980     25.18304825     17.51712608
S         4.24453068     22.90017319     16.03128242
S         2.14597988     25.16264534     14.26927567
S         0.84843379     22.55477905     15.96309757
P         2.33429575     23.87981796     16.01363373
S         3.05575728     25.30013847     26.70206451
S         4.54964876     23.28056526     24.91544342
S         2.54251814     25.23137665     23.20533562
S         1.00528944     23.12426758     24.90968895
P         2.65931106     24.17204475     24.87834358
S         9.89292526      4.18222904      7.68131828
S        11.10328960      6.51895571      5.24147892
S        13.22043800      4.67806911      7.17910528
S        11.41427040      7.25074863      8.59669018
P        11.31852627      5.72608566      7.15692949
S        13.28322601      5.28270102     16.48079491
S        10.81524658      7.14775229     14.74987411
S        10.86889172      7.19193220     18.03020287
S        10.16209030      4.34689236     16.44576073
P        11.33070660      6.17023897     16.37966537
P        10.96663952      6.02379894     24.88288498
S        11.39236641      7.42664480     23.33083534
S         9.08879948      5.36541653     24.56748581
S        11.31248474      6.39008760     26.83020401
S        12.44114590      4.54993248     24.76719666
S        10.59538841     13.54462433      8.05948067
P        11.60878658     15.25761414      7.86861134
S        11.22864914     16.40729904      9.35358810
S        13.56867504     14.62937546      7.86060429
S        11.18266392     16.21362877      6.27607775
S        11.49307156     16.29236603     14.47441483
P        11.26645088     15.20102406     16.24091339
S        11.06320286     16.71591568     17.76981735
S         9.65749741     13.87021637     16.21812630
S        13.10053921     14.26131725     16.65537262
S         9.57070827     13.17908287     24.82074738
P        11.09851360     14.49455070     24.97415733
S        10.84203434     15.81046486     26.70811081
S        12.77939606     13.16511345     25.20996094
S        11.03956699     15.70746803     23.28804207
S        12.47374821     22.56740761      7.43672514
P        11.13007164     24.00197220      7.07589197
S         9.06968117     23.38556480      7.47927761
S        11.35764885     25.51364708      8.50192738
S        11.09203815     24.84557533      5.34572744
S        11.23944473     24.45759583     18.40304184
P        11.32361794     23.62985420     16.62813187
S         9.43215942     22.54730034     16.30502701
S        11.25695324     25.10366631     15.15251446
S        12.65949154     22.13011169     16.53975677
S         9.20118237     22.76407623     25.11878586
P        10.98888493     23.67597771     24.86084938
S        11.31887245     24.69146156     26.58036804
S        12.70533848     22.59326744     24.68873024
S        10.66459274     25.11259842     23.27973747
S        21.67980194      5.33318520      7.94774151
P        19.74506378      6.18152094      8.13964272
S        20.15342331      7.77880859      6.85629177
S        18.12202263      5.00676346      8.15806961
S        19.67302322      6.77833509     10.12437916
S        19.03965378      6.83352709     18.13245964
P        19.59740067      5.84278917     16.39470291
S        18.26039314      4.41221142     16.34315491
S        19.87251091      6.78661966     14.37767029
S        21.80262184      5.05850220     16.63339043
S        19.73099709      7.61916447     26.46284294
P        19.89797401      6.13665962     24.82522964
S        19.56926155      7.21056318     23.12860870
S        21.65763855      5.22816229     24.96899986
S        18.20736885      4.84055614     24.84870148
S        20.30091858     15.92276382      9.85493660
S        19.92684937     16.50628853      6.73308182
P        20.11053467     14.90383053      8.09227180
S        18.65093803     13.48522949      8.51224327
S        21.80829620     13.93844128      7.72384548
S        21.28921318     12.80727386     16.30734062
S        19.69877434     15.36644554     18.15415573
P        19.98742676     14.56461239     16.39248466
S        18.03129387     13.64159393     16.46611595
S        20.41152191     15.80817223     14.78731346
S        22.10383606     13.93189621     24.89311600
S        20.06086159     16.31016541     26.35446930
P        20.26300430     14.86577702     24.70167351
S        18.47015762     13.82052326     24.78390694
S        20.04719734     15.74175549     22.75532150
S        21.41972733     23.08340263      7.70769262
S        19.89610100     25.81038284      9.35868740
P        19.86372948     24.58130074      7.75090265
S        18.02691841     23.63115120      7.79791164
S        19.77459335     25.44141960      5.81511641
S        19.68519402     25.47533035     14.75504017
S        20.00238037     25.44415283     18.10096359
P        19.96869850     24.26257896     16.46271324
S        21.57258034     23.04205513     16.24946404
S        18.02808571     23.41421318     16.46396828
S        18.43573761     23.18798256     24.90103340
S        19.90360260     25.55009270     23.15034103
S        20.33546066     25.55914497     26.57267761
P        20.05325317     24.60113907     24.81092644
S        21.91273117     23.20771980     24.81981659
