864

Li       24.18315506     18.77278519     25.58958817
Li      -13.61043930    -69.83835602    -10.59991837
Li      -47.51245499    -37.03893661     10.39436626
Li       41.27555466     66.71281433    109.45761108
Li       27.88974380     16.35928535    109.39611816
Li       39.64103317     78.71244812     52.34860611
Li       15.52626514     15.92720890    -17.54604340
Li       15.29271507    -74.14753723     13.22277451
Li       32.26773071    -21.67014122    -25.64496803
Li       24.01479912     12.31460571     80.17535400
Li       28.72091293    -49.57079315     71.48436737
Li      -23.41084480    -21.87339783    -25.40571785
Li       11.26208210    -73.14095306     71.94563293
Li       41.56553268     10.07025814    -13.66751957
Li       45.56469345     34.45358276     55.50238800
Li       37.29916382     74.77803802    -38.47158051
Li       40.89413834      8.67340279     25.12448883
Li       41.15459442      3.21172333     33.70870209
Li        7.27707195    -35.57018661     42.61982727
Li      -10.63800430     21.03425789     -9.11665440
Li       45.78034592     43.51654053     50.43849182
Li       -1.88940728    -18.73144722      8.35017204
Li        2.40265036    -19.26315880     21.06200600
Li       11.90855026    -23.94895363    -12.39630413
Li      -11.00897598    -51.41347504    -26.18893433
Li       76.50437164    108.80217743     29.54625702
Li        2.63868213     17.97690964   -106.22645569
Li       49.79615402     -5.89989233    -55.10889435
Li      -10.75020599    -57.30461884     17.02188492
Li      -18.89367104    -74.30191040     67.00190735
Li       47.99121475     42.16268539     43.79037857
Li      -14.85271549     31.85101318     34.31086349
Li       85.03889465     79.31534576    140.37123108
Li        6.90461826    -13.75285244    -64.01296234
Li       -1.34936976    -29.28219032    -12.47598743
Li       41.78923798     91.26724243     42.24523926
Li       -6.46776867     65.00930786     -4.69506264
Li      -10.36875916    -62.78136444     -0.13909391
Li       62.89170456     23.08378601    -16.98286438
Li       -1.71655130    -92.79156494    -21.18307114
Li      -66.47042084    -24.76448250    -20.73663712
Li       -2.18346167     65.80374146     58.77985001
Li       15.09009361     60.72620773    -33.49758148
Li       -1.90804255     83.97857666     33.66328430
Li       32.22883606     12.51933193     -8.74446392
Li        6.88226128     99.84735107    -17.00685501
Li       37.03549576    -46.33811188     58.63223267
Li       28.13227463     91.57048798    -13.23847198
Li       54.95372772     18.07485580     -8.68581295
Li       21.77602005     35.00733566    -40.15427017
Li       36.48157120    -28.49363518      7.84343004
Li       24.00647163      2.98716593      4.45991373
Li       19.74755859    -26.01620674     59.75443649
Li      -39.95985031     59.59495926     29.14039230
Li      -30.36660767    -25.33671379    107.72869873
Li      -19.02835083      9.50062752    -42.37884140
Li       -5.81112719    -21.81683350     17.54995728
Li      -31.71024895     32.96201324     63.80247498
Li       20.91394043    -75.42511749     27.06546783
Li      -69.86855316    -18.27175140     46.72013092
Li        2.65450859     74.05648804      3.83676314
Li       54.04659653     48.72301483     42.26856613
Li       -3.46824455     65.61653137     -2.68619418
Li       96.75646210    -64.52008057    -34.91751862
Li      -27.05248260    -67.93621063    -29.99718666
Li       -6.78501797      7.44431782     41.41534805
Li      -92.12313843    -38.99921036     19.80649567
Li       62.71280289     80.20822144     16.31658936
Li       32.07554245     21.54325294    -21.14310265
Li       58.10637665     23.45646286     33.90467453
Li      -14.64103889     25.99848366    -46.92550278
Li        7.07048845     -8.38962269     20.30770683
Li      -13.84936714    -58.15538406     12.23773861
Li      -27.33921432    -90.16529083    -21.71938896
Li       41.25605011    -44.27808762     71.59638214
Li      -14.96546841    -46.74682617     -0.30958733
Li       11.00242329     47.17483139     17.22143936
Li       -1.87458467     15.68621254    -12.58619785
Li       32.86424255     63.58135986      0.23190895
Li       34.20363617     19.12166977     11.16966915
Li       76.12918091     79.13284302     46.29217911
Li       53.88699341     51.78267670     57.52401352
Li       71.42823029     83.38841248     -8.65189171
Li      -88.98947906   -114.45081329     47.27228165
Li      -90.08253479     48.01726532      6.14520025
Li       80.27845764     29.12365341     -4.55375004
Li       75.92692566     36.92723083     20.14035225
Li      -10.75388908     67.10742188    -59.95927048
Li       41.60837555     13.05315495     71.64019012
Li      -49.50807571    136.65867615      8.60121059
Li       36.48104095     62.34130096    -38.23278809
Li        6.80296326      3.26583219     80.59761047
Li      -40.50599289    -16.29221916     54.97612762
Li       58.37201309     39.39571762     24.49334526
Li        7.02335024     70.17195129     54.90031815
Li      -32.08407593     47.10036850     68.14115906
Li       67.03917694     54.75473404     42.85491562
Li      -27.23569298      6.75295401     13.39562416
Li      106.34148407     69.41042328    -90.04325867
Li       23.56330490   -121.12664795     -0.16159393
Li      -44.32514191      0.42378512    -21.73250580
Li       19.42171478    -89.17224121     25.31309700
Li        7.00243139     45.55503082    -21.57314682
Li       -9.99409485   -119.49568939     55.16672134
Li       16.12819481    -86.18048859     29.06237602
Li       36.80322647     25.52159882     72.30678558
Li       -6.26399612     -4.40812016     25.22218704
Li       49.90476990    -44.36846542     76.11872864
Li        6.96564388     24.89986801    -21.27119637
Li       28.72827339     11.96138954    -29.28898430
Li      -10.15810013      6.95773172    -80.23754883
Li      -96.96070862    -51.30198288    -42.90135574
Li      -32.04460907     14.13244534     -4.84073496
Li      -62.47954178    -14.06110001     63.13599014
Li       -2.37415457    -12.74511242     85.03623199
Li        6.55644751     39.14524460    -21.62813568
Li      -36.52719498    -23.48579597     92.84715271
Li       46.06380081     13.72562027    -21.86297417
Li      -44.82072067   -105.00035858     38.20894241
Li      -14.81266880      5.42542362   -109.94597626
Li       71.11837769     53.13305664     -9.02252579
Li       -1.70643556     27.86992645     97.14382172
Li      -32.17991638      2.00473833     -4.72767544
Li       28.38658142    -28.43331528     50.47912598
Li      -76.17534637     13.36242294    -59.73518372
Li       15.36190319     54.28503418     25.61917877
Li      -27.33876228    -14.32546139     37.80626297
Li       28.80103493     50.12464905    -21.73323441
Li       58.43516159      2.73442793     66.92730713
Li      -15.55272961     -4.92805815      3.80319500
Li       24.54983711     36.91628647     12.05067062
Li       78.97821808     91.98466492     44.23609924
Li       41.72351074    127.54524994    -12.93886757
Li       54.74813080     53.76646805     29.22165680
Li       36.95957565     89.00386047    -21.36568642
Li        6.38130379     -0.76707226    -30.02693558
Li      -14.08354378     -9.16007710     24.91028404
Li       58.61030579    -21.29798889     59.87888718
Li       36.56655502      1.69174695     25.59097672
Li       19.79153061    119.31322479    -20.60397530
Li      -31.72961426    -36.95646286     38.10185242
Li      -18.61563492      0.79660523     37.53120804
Li        8.81145477     67.32646942     52.64469910
Li        7.14073849      6.72881413    114.71453857
Li       49.58446503     48.42908859    -51.54274750
Li       26.05734062    -11.14401531     14.54080963
Li       45.22972107     52.55187988      8.21049213
Li       80.15549469     25.68649292     46.48181915
Li      -12.97410774    -12.15704060     60.61782455
Li       38.25066376     60.56492996     61.76717758
Li       15.36545658     75.96903992    -12.68269062
Li       49.65036392     24.89908981    -76.06325531
Li       -6.28434372     95.32827759      8.35072994
Li      -47.87469864    -22.35483932     12.30834961
Li       28.16991043     19.23653603     26.20263481
Li       28.18863487     20.86956787     46.27218246
Li       36.72301102     40.44208145    -34.30123520
Li       11.10874557     77.28556061     50.51442719
Li      -47.22681427    -18.31354904     69.66120148
Li       60.45727158      1.20574915     44.46373367
Li       41.06180573      5.93639994     85.21450043
Li       11.15619564     32.19881439     -4.66529131
Li        2.36218309    -13.03639698     76.60358429
Li      -10.17843246     15.46412086    -51.63374329
Li      -49.04568481    -31.88886642     34.49382401
Li       37.58218765     54.17123795     12.34230328
Li      -53.23738480    -56.95466614      4.66311598
Li      -28.08095932     32.99378586     42.90700531
Li        1.08189845     33.82765198      7.07967186
Li       54.60181046    -18.90639114    105.41129303
Li      -53.24272919     63.53459930     54.48249435
Li       58.32705688    111.27098846     24.76823616
Li       55.14430237     58.98715973     54.48855209
Li       -1.81029022    -59.99883270      3.88039041
Li       -6.91548395     10.35998058      0.63203269
Li       -2.03332329    -23.55902100     38.20435715
Li       19.25105858     40.21877289     16.25245094
Li      -29.69522667     29.38681221     48.35993195
Li      -40.47139359     28.52731323    -16.93273163
Li       -6.74476528    107.44580078     -4.03619337
Li       19.80860901     11.03252411    -68.67502594
Li        5.77879238    -66.16150665     26.12944221
Li      -27.55191231     59.62183762     20.66550064
Li       54.59408569    100.92326355     38.23662949
Li       -6.47743607     30.92155457    -21.42028046
Li       15.80234432    -56.52790451     13.06010818
Li      -10.82183266     70.09652710     17.21664619
Li       -6.35160494    -10.46810150      4.60071468
Li       53.82351303      1.40994692     62.37231445
Li       59.18227386    103.61396027     37.62754440
Li       11.18644714     38.34881210     24.99561691
Li      -70.68530273   -135.59933472   -118.79524231
Li       28.84176254     36.67035675    -17.10408783
Li       97.14511108     34.30380249      8.18051052
Li       32.40587616     84.41359711     20.91614532
Li       41.34151459    105.37545776     45.88940430
Li      -27.32106781     22.38545990    -17.17831230
Li       50.21757507     33.79473495     54.56131363
Li       30.35556602     -3.49722505     69.41276550
Li       10.90943432     14.46700478      0.09737466
Li       14.93379211     50.98706818     84.57439423
Li       25.19633293     -7.47588539     69.66692352
Li        2.81854177     14.54534149     71.51446533
Li       20.35564423    -27.20539856      0.01270146
Li       19.65785599     37.42251968     88.12476349
Li       -2.62239432      8.72973824     67.58512115
Li      -23.61262894     34.99166489     24.41250801
Li       -1.22195446     28.16684151     87.95755005
Li      -15.49985790    -13.84845734     62.99890137
Li       58.34667587     23.67202950    101.95402527
Li       41.01516724     -5.62790537    -26.01088905
Li      -32.50545120    113.03836060      8.55768299
Li       57.80515289     -6.32424688    -26.62984276
Li      -22.83229065     29.07248497     30.93338585
Li       93.63995361    -76.94380188    -21.44455719
Li       -6.77244949     34.29236603     24.66196632
Li      -53.77890778    -32.96507263   -110.78677368
Li       41.78629303     46.56064606      8.20253181
Li       -1.99461174    -75.94021606     33.83591080
Li       54.59503937    -24.75545692     16.34844971
Li       37.71010971     72.53057098      4.22476101
Li      -70.82198334    -20.65682983    -46.19851303
Li       -9.83563137     79.36286926      5.28678846
Li       -9.96888828    -53.82170868     12.39403248
Li       11.55817509     -3.86684132     20.72603798
Li       32.40089035    -12.15813637    -17.41053391
Li       58.77038193     -5.47817278     21.32100105
Li       27.99516487    -34.87391281    -42.80672073
Li      -57.56110764     23.68923378    -31.05455589
Li       32.11219025     39.26212692      7.24497318
Li       67.22946167      5.87427711     51.21191025
Li       -1.67659628     -8.68636417     63.21500015
Li      -18.54373932    103.95787811     16.66593170
Li       22.29276848    -34.33129120    -19.27069855
Li       45.62299347     44.36922455     -4.48359919
Li      -35.97293854    -62.39448166    -21.97236252
Li      -66.59693909    -15.22260380     21.23261070
Li      -57.66343307     47.95655823    -21.42910767
Li       68.21255493     82.06782532    -30.54156876
Li       20.30676460     78.29613495     28.26706123
Li      -10.38581753     43.28896332    -55.29067230
Li       37.34124374     17.30820847     12.46117687
Li       34.19416428     69.84691620     14.54432678
Li      -26.81386757    -23.06479645     -0.15610152
Li       28.53782272     25.56864548    -37.88760757
Li       28.56385803    -21.89983368     93.35607147
Li       19.87501335     -4.47905493     93.31663513
Li        2.53719497     -4.22288036     88.46605682
Li      -10.42601681    147.97575378     29.68379784
Li      -41.56958389     15.77908897     58.10844040
Li      -62.18178558      9.20812511      9.06542015
Li       -1.79669797     45.79772949     59.18356705
Li        3.90034246     12.96397209    -38.20594788
Li        4.99570131     74.39560699    -19.06945801
Li       10.27826309   -104.52432251     25.34068298
Li      -35.92021179      0.85026932    -47.11623764
Li       80.20030212    115.77328491     38.28762436
Li       28.80606270     65.76595306    -21.25629807
Li       63.73191452      2.23077226     47.58837128
Li      -14.65922260     77.12893677     17.10036850
Li       -6.07303572    -46.42206955     -4.70559692
Li       27.67495918     10.28592682   -101.63603973
Li       28.96424866      4.51536512    135.51724243
Li       54.55631256    -12.72659969     54.32989120
Li      -31.72362328     20.58093452     12.72391033
Li       84.55139160     17.87967491     -0.47533628
Li      -27.88233757     48.31633377    -12.52987862
Li       24.33167267     24.99814796     41.98687363
Li        7.09728479     37.11942291    113.61772919
Li        2.94990802     22.61080170     25.56576920
Li       -1.74206734     28.04816628     51.51083374
Li       10.70736504    -18.89579773     16.55158424
Li       67.75244904    112.59159851     89.33659363
Li      -19.03595924    -21.54969788     -5.34460402
Li      -31.41896057     26.75993156     38.31405258
Li      -24.07440567      7.64168119     67.09307861
Li      -31.66566467    -60.89734268    -54.61330414
Li       97.10685730    112.54084015     50.08120346
Li       10.92379093     43.62369919     16.48519897
Li       63.07077789     47.10107803     -4.37185955
Li      -41.09222031    -82.62298584     24.73178101
Li        9.73162365     97.40908813     -2.11540771
Li       68.85126495     79.13037872    -77.84577179
Li       83.94699860     14.83924294     67.79656219
Li      -25.45207214     16.18040848     -1.90645134
Li      -10.47048855     27.22517204      8.54635239
Li       -2.34016252     57.05424500     67.09966278
Li       32.45203018     12.58481503     -4.41171026
Li      -20.29069901    -34.32194138    -36.73598862
Li       61.57657623    -15.91965961     -7.51729441
Li      -40.25577164    -51.59970856     41.75161362
Li      -31.79039955     -4.56285620    -42.75075912
Li       41.75267410    -17.89681816     29.06363487
Li       -1.45204353    -37.57192230    -55.30865860
Li       19.72089767    -61.67182922     34.10528183
Li       79.77716827     52.44287872     -8.96769238
Li       24.23444176    -20.05000496     -1.70798659
Li      -11.02820969     66.35762787    -25.87576675
Li       16.92539406     46.35049057    -82.17137909
Li       20.12349510      2.90825891    -12.17675781
Li        6.31976271     -0.46579540    -25.65771866
Li      -51.67369080    109.28345490     -7.62023163
Li       -2.18271685    -14.93212414     41.86176300
Li       32.89655304     70.08008575    -29.69151306
Li      -49.70477295     82.89968109    101.61842346
Li       19.61932755     16.83338928     33.50828171
Li       20.07712173    -22.22236824    -55.59221268
Li       20.13466263     40.41772461     75.95212555
Li       11.84777546     95.81821442    105.17843628
Li      -31.44771957     78.17210388     62.35788727
Li       10.88369751     46.21262741   -144.17431641
Li      -18.37862206    -17.80134392    -47.18561935
Li       15.57411289    -50.50789642    -80.91221619
Li       32.14179230     -0.90998828     -8.66451263
Li      -10.10414314     43.32374573     63.94553757
Li       45.75122070     27.01918411    -21.25413704
Li      -48.63788605    -15.71202660     15.62380123
Li       88.82586670    -69.52642822    109.54334259
Li      -32.10203552    -13.12149429     37.58567810
Li       71.52763367     64.73542786     42.23966599
Li       49.89018250     52.84417725    -17.08639336
Li       49.61078262     98.28848267     16.47761917
Li      -23.99271011     13.06599426      8.23568916
Li        9.56489754     46.78096008    -75.16709137
S         0.44170022      6.18540859     -0.17041504
P         0.40609455      7.16750622      1.64310563
S         2.04309630      8.41400623      1.48099470
S        -1.47093964      8.06237125      1.60455751
S         0.83404171      6.24184847      3.35324717
S         0.15231231      5.56408978      8.76713085
P         0.28453687      6.75275087     10.59770584
S         1.74798071      8.12749767     10.45821762
S        -1.53674281      7.62602568     10.59936428
S         0.51917255      5.64872646     12.35895824
S         0.68547696      5.95608330     20.60258675
S         0.37202844      5.87764215     17.32865715
P         0.48610535      7.04376173     18.92572975
S         2.13793015      8.38359642     18.84353256
S        -1.47207415      7.80934286     19.02758408
S         0.28543711     14.90097809      3.43259954
S         0.04636097     14.84290218      0.03360112
P         0.07016335     15.97301769      1.71166813
S         1.73221326     17.31029892      1.56087065
S        -1.71444786     16.71688271      1.82274675
S         0.26949018     14.89711475     12.07869625
S        -0.02605914     14.85528755      8.45935726
P         0.08879003     16.03583336     10.17551804
S         1.74662149     17.28644753     10.08907223
S        -1.83201110     16.68615150     10.32391930
S         0.34636971     15.35105324     20.49588013
S        -0.18839040     15.16459179     17.25756836
P         0.11232173     16.48189545     18.76897812
S         1.55855834     18.04115105     18.93767929
S        -1.72077954     17.42834663     18.86938858
S         0.73438120     24.10564995      3.73790693
S         0.47549731     24.13059235      0.28665894
P         0.58362532     25.23465919      1.98465705
S         1.99093902     26.59786415      1.78217053
S        -1.48945904     26.21184349      2.03896093
S         0.81224179     24.14073753     12.06708717
S         0.53988600     24.00700951      8.49438572
P         0.66912305     25.16385269     10.24911404
S         2.22529674     26.43512154     10.17862701
S        -1.26695836     25.89694595     10.41639614
S         0.58971733     23.83753204     20.35258293
S         0.30770183     23.83006668     17.00098801
P         0.27406231     24.91779900     18.75317574
S         1.65548563     26.40974426     18.49750710
S        -1.50715232     26.07665443     18.70092964
S         9.19555950      6.04898500      3.68724513
S         8.84642029      5.89937639      0.09847252
P         8.92446136      6.94329882      1.80133164
S        10.53997707      8.23165417      1.83694053
S         7.00554705      7.75945950      1.99889803
S         9.29456425      5.71178293     12.08225250
S         8.91987801      5.73224497      8.77425575
P         8.89620590      7.00196171     10.42922783
S        10.46366310      8.38474369     10.25302792
S         7.02204084      7.99002886     10.38004112
S         9.40851879      6.65767288     20.69227600
S         8.99582958      6.53887224     17.25235939
P         8.92441463      7.62639284     19.00407410
S        10.41263294      9.03015041     18.93643570
S         7.08049393      8.79356384     19.01295280
S         9.00299740     15.01155758      3.30696225
S         8.75536919     14.90860081      0.05023241
P         8.79447174     16.23863602      1.65821517
S        10.36694527     17.49365425      1.55899918
S         6.81543636     17.02844048      1.79885495
S         6.96612263     17.31650543     10.63853073
S         9.04007626     15.30936527     12.20988083
S         8.80864048     15.23162270      8.84962940
P         8.80781269     16.46951294     10.41629028
S        10.40904617     17.83271980     10.37743855
S         7.00856924     16.77903748     18.88005066
S         9.19205475     14.90309906     20.53908539
S         8.93251896     14.79800320     16.96822166
P         8.83546734     15.95471096     18.76160049
S        10.52720261     17.20990753     18.62680244
S         7.35588121     26.28313065      1.89543879
S         9.42611885     24.38788986      3.57068157
S         9.05320358     24.29997063      0.15962733
P         9.13551712     25.45859909      1.80424654
S        10.70167065     26.80617714      1.77476764
S         7.21422291     26.17500877     10.52186871
S         9.30286407     24.13328171     12.23134995
S         9.05727959     24.09560013      8.65469933
P         9.10988331     25.26113510     10.50406456
S        10.68955898     26.71508217     10.24576569
S         7.28504133     26.48883438     18.75634956
S         9.34896088     24.37207031     20.24505043
S         9.17870426     24.22263718     16.86750031
P         9.20690632     25.44702721     18.58628654
S        10.70134258     26.97234917     18.44179916
S        15.79939938      7.74729061      1.91139817
S        17.92711067      5.83921242      3.56492162
S        17.63850975      5.79432964      0.14777993
P        17.65679169      7.01907063      1.88593256
S        19.30568123      8.26742744      1.69192958
S        19.33188820      8.35424709     10.29314995
S        15.73152256      7.72166634     10.61059475
S        17.78970146      5.86381054     12.32251358
S        17.57449341      5.87154865      8.76984978
P        17.73453903      6.99952412     10.56374264
S        19.31921196      8.60721970     18.80747604
S        15.85459042      8.21313572     18.82737923
S        18.15166283      6.25972700     20.49453354
S        17.68066597      6.07849455     17.06066513
P        17.69955635      7.29378414     18.74398994
S        19.40794754     17.64348412      1.51344347
S        15.97148895     17.15251350      1.88708210
S        18.00223351     15.10188198      3.33852983
S        17.89287186     15.02608967      0.07795005
P        17.91862679     16.28916740      1.69294345
S        19.34507751     18.04366493     10.21204185
S        15.93499184     17.50998878     10.45771217
S        18.01450729     15.35053253     12.18095016
S        17.74565887     15.40224934      8.75375462
P        17.79885864     16.65328789     10.43699646
S        19.10913849     17.89823532     18.53969765
S        15.70080471     17.42068863     18.85669899
S        17.76915169     15.38342094     20.52464676
S        17.57426834     15.33172512     16.94972610
P        17.59685898     16.43036652     18.61651993
S        19.06766319     26.54235649      2.20349050
S        15.82426357     26.03187752      2.35889888
S        17.81090355     24.12454605      3.90841222
S        17.49405289     23.84270096      0.39485988
P        17.63891602     25.18987083      2.03026009
S        19.41988945     26.52227974     10.37421513
S        15.85824776     26.05809212     10.50317955
S        18.10978889     24.11795235     12.15468311
S        17.73575211     23.99776649      8.72494030
P        17.81665802     25.27067947     10.39231110
S        19.38728905     26.56653214     18.82666206
S        15.84320545     26.06012154     19.00872231
S        18.01458359     24.20212555     20.61649323
S        17.69810295     24.13238144     17.28841591
P        17.80679893     25.21476173     18.89067268
S        10.77557564      0.14061548      6.25888062
S         8.86852264      2.11691999      4.24215555
S         7.29115725     -0.32496345      6.00831175
S         8.87605190      1.99690926      7.85985184
P         8.91310501      0.89368361      6.21970177
P         9.05154324      1.36585927     14.60265064
S        10.84302330      0.42968711     14.63651943
S         8.93056488      2.49452853     12.94078827
S         7.44409990      0.05772112     14.45049953
S         8.87338448      2.52608609     16.22330666
P         8.87125778      1.30352557     22.90243721
S        10.69490337      0.37654459     23.10346031
S         8.81783867      2.53531575     21.18522263
S         7.31851006     -0.04887550     22.89197159
S         8.79975033      2.40077233     24.62787247
P         8.68552589     10.09464455      6.09128332
S        10.68882942      9.29414272      6.30125856
S         8.71594620     11.32945728      4.39480352
S         7.08907461      8.88899326      6.15672874
S         8.62934208     11.12545395      7.78096342
P         8.68868446     10.52515030     14.28210545
S        10.58358765      9.42313099     14.35726357
S         8.66455650     11.57172298     12.49130344
S         7.24433756      9.16324520     14.26212215
S         8.51742077     11.53299618     16.10549545
P         8.65808392     10.25982571     23.37288284
S        10.54256535      9.32920551     23.31883240
S         8.72375488     11.30441093     21.66579819
S         7.18424559      9.03453732     23.36433220
S         8.42253590     11.39057827     25.21559143
P         8.75868511     18.90928459      6.09692812
S        10.69458961     17.90751076      6.17328167
S         8.71511459     20.05865097      4.32293940
S         7.15991640     17.58376503      6.08487606
S         8.56292820     19.94349480      7.79884338
S         8.92411327     20.68309212     16.58607101
P         8.97336674     19.58593178     14.82635403
S        10.91015816     18.85972214     14.79472256
S         9.05823231     20.69104767     12.91067982
S         7.24420404     18.27610779     14.66327858
S         8.58422375     20.42584991     24.53689575
P         8.68828487     19.26336861     22.78801537
S        10.56207848     18.26052475     22.85176659
S         8.74660492     20.45847511     21.08966446
S         7.18571997     17.83379364     22.77247238
S        17.34636116      2.53415680      8.03190899
P        17.46851540      1.31262147      6.42504597
S        19.37157059      0.37552598      6.38099432
S        17.50456810      2.53782916      4.68733501
S        15.97602749      0.00374579      6.29606438
S        17.07541275      2.29896712     16.67348099
P        17.17938805      1.21619976     14.66906166
S        19.23217583      0.45508277     14.76577091
S        17.40704536      2.27049232     13.04713821
S        15.59262562     -0.01104736     14.83320999
S        17.18051338      2.31420112     24.99558640
P        17.49416542      1.08507752     23.45261192
S        19.36499786      0.14779918     23.25429916
S        17.52640724      2.38546395     21.58369827
S        15.94554710     -0.15670547     23.35724640
S        17.50384712     11.00706387      7.76374435
P        17.43605995      9.80444431      6.08769369
S        19.37468147      9.01279926      6.30352354
S        17.31716347     11.06979656      4.30455732
S        15.91995144      8.63882637      5.87931490
S        17.40106392     11.36850834     16.23238564
P        17.67935181     10.35352039     14.41092491
S        19.49359131      9.39541149     14.52320480
S        17.57466316     11.51506710     12.56596088
S        15.99656200      9.04178047     14.45505428
S        15.62802029      8.90877342     22.70630836
S        17.14480400     11.05861664     24.55577850
P        17.35044670     10.13795567     22.71833420
S        19.22683907      9.30173779     22.82429123
S        17.27850533     11.15018368     20.87098503
S        16.25750160     18.05155182      5.94891453
S        17.74625397     20.25673103      7.70726204
P        17.86471748     19.21113968      5.96176338
S        19.84770203     18.40476036      6.08598804
S        17.85283661     20.36979675      4.18467140
S        16.11867523     18.29917336     14.83414173
S        17.61374855     20.62616730     16.62163734
P        17.67510796     19.57117081     14.82738590
S        19.65682220     18.71788406     14.94314861
S        17.74812126     20.76290894     12.98716640
S        15.80881882     17.69622612     23.08927345
S        17.28150749     20.11499023     24.87846375
P        17.42342758     18.89507484     23.16500092
S        19.36680984     18.02734947     23.29442787
S        17.32264137     20.12981033     21.50309372
S        24.73018646     -0.56183052      6.07406616
S        26.18101501      1.78093660      7.86369562
P        26.31038857      0.71385735      6.15646219
S        28.16998291     -0.11927540      6.13738012
S        26.36804390      1.75927126      4.43488312
S        24.66981697     -0.14161727     14.37977886
S        26.10671616      2.34841132     16.18869972
P        26.37995529      1.03544235     14.60078239
S        28.17101097      0.15583518     14.62609482
S        26.11051559      2.25993252     12.96666622
S        24.53650475     -0.42034090     22.97382355
S        25.95455170      1.99589229     24.87948799
P        26.06209373      0.77306312     23.15635872
S        27.92870712     -0.05902632     23.15665817
S        26.02016830      2.01420951     21.25052643
S        24.86963081      8.23735237      5.99679613
S        26.27164459     10.90941429      7.95946550
P        26.30847931      9.79210281      6.16699648
S        28.14494896      8.68345928      6.15634918
S        26.36524010     10.81809425      4.37668514
S        24.53233719      8.90299797     14.71695042
S        26.01197243     11.28871536     16.30504227
P        26.22772217     10.07101822     14.71652412
S        28.12117958      9.38180733     14.66076183
S        26.31386566     11.35430527     13.04852486
S        24.30560112      9.07005215     22.63467026
S        25.87241936     11.55993080     24.37856483
P        25.93684006     10.31686687     22.88672638
S        27.85678101      9.55578327     22.79390144
S        25.96590614     11.50128841     21.18132401
S        26.14904594     20.17963791      4.16480064
S        24.60918617     17.80413246      5.99988174
S        25.86870193     20.12224770      7.77359819
P        26.19199944     19.20004082      5.94427681
S        27.89326286     18.14983368      5.96067286
S        26.04359055     20.17772293     13.00164986
S        24.41879463     17.67153358     14.57707405
S        25.86825562     20.24322701     16.38871765
P        26.12152672     19.04547501     14.76853752
S        27.93397713     18.09300423     14.65933037
S        26.10298347     20.51962090     21.59908104
S        24.51512718     17.78164673     23.31142807
S        25.76362228     20.46703720     24.92365646
P        26.15079689     19.17615128     23.18855286
S        27.80862045     18.18466759     23.20703125
S         6.03522587      3.86836672      1.74142063
S         4.72404623      1.31417143      3.53931856
S         4.46179152      1.30524874      0.19660583
S         2.65623021      3.37433982      1.92895961
P         4.45102835      2.47593737      1.94895661
S         6.61055708      3.90026069     10.40527916
S         5.20439720      1.56861484     12.09689713
S         4.95377588      1.38720155      8.68907738
S         2.90800118      3.47844315     10.60446262
P         4.93869495      2.51742148     10.39965725
S         6.09365892      3.68801808     18.46150398
S         4.79147911      1.33912146     20.40965462
S         4.71278095      1.32737041     16.90219116
S         2.73379946      3.33042049     18.84004784
P         4.63070250      2.37484670     18.62482643
S         6.18380928     13.10422993      1.75661480
S         4.88505030     10.53004551      3.59490252
S         4.69809484     10.46088791      0.12854134
S         2.84256959     12.64869022      2.01779580
P         4.65512180     11.61130047      1.84868109
S         6.14876556     13.23131847      9.98859119
S         4.75407314     10.86640072     12.08392620
S         4.74521446     10.88586330      8.40906429
S         2.63147926     12.87731457     10.45998383
P         4.57426929     11.97275829     10.12872887
S         5.97369671     13.32169819     18.80875015
S         4.63478708     10.90322304     20.57173538
S         4.37203646     10.88179779     17.27376938
S         2.50748420     12.85361290     18.99405098
P         4.37694073     12.09148788     18.90368843
P         4.65987587     20.61012650      1.83488834
S         6.24266243     21.86503220      1.73207009
S         4.80948353     19.42573929      3.64111495
S         4.60592651     19.37801552      0.08120745
S         2.72474670     21.34393120      1.99667978
P         4.77966833     20.25712395     10.24806118
S         6.38968849     21.53125000     10.17345619
S         4.81778574     19.00680161     11.92708302
S         4.73680925     18.95057869      8.73239517
S         2.92020440     20.89092636     10.52561855
P         4.83122206     20.69518280     18.76096344
S         6.29983044     22.16970253     18.74117851
S         5.06701517     19.74332237     20.61606407
S         4.86544704     19.58666039     16.92659187
S         3.08886147     21.74314880     18.98858643
P        13.28205299      2.60530138      1.73107195
S        14.74324703      4.02570534      1.79701710
S        13.53951454      1.66313469      3.57341743
S        13.14238453      1.53603077     -0.01941780
S        11.40727043      3.58127522      1.85418212
P        13.40675163      2.70011497     10.69029140
S        15.09750843      4.16646242     10.65586376
S        13.76424217      1.74698210     12.55248547
S        13.53161049      1.59715474      8.82300663
S        11.61301517      3.72970080     10.89058876
P        13.47951603      2.94764876     18.85104561
S        15.13205338      4.32386303     18.77525711
S        13.78091526      1.81065094     20.65325737
S        13.37643337      1.84222603     17.13644028
S        11.66148186      3.74630904     18.84529686
P        13.35717964     11.60113716      1.90969920
S        14.80131054     12.93770981      1.89122105
S        13.70846653     10.42363358      3.59774113
S        13.30617905     10.33580112      0.18441936
S        11.45482445     12.60299492      1.93434811
P        13.51326942     12.05685902     10.05408478
S        15.03083515     13.49037838      9.89729404
S        13.67975044     11.20729733     11.82264900
S        13.47334099     11.17574596      8.24641514
S        11.78256607     12.95973396     10.14864731
P        13.14821720     12.06898022     18.55828667
S        14.80998898     13.43946934     18.47506523
S        13.36923790     11.00035763     20.21646309
S        13.26162910     10.91999817     16.97449303
S        11.34209442     12.94341850     18.80113220
P        13.24142742     20.85365486      1.71132052
S        14.77789974     22.18356514      1.48067570
S        13.50237465     19.79780769      3.43139458
S        13.28663063     19.87349701     -0.03337729
S        11.24128914     21.84877586      1.74090171
S        11.60913086     21.97239304     10.24943542
P        13.53222656     21.11918640     10.04702473
S        15.03272820     22.55199432     10.18128967
S        13.67574596     20.09164810     11.85906124
S        13.30181789     19.92337036      8.41251945
S        13.50936890     19.47022629     17.24597549
S        11.67764759     21.51889038     19.02526474
P        13.60354519     20.52485847     18.93325806
S        15.05589581     21.98079300     18.82570076
S        13.75933266     19.50124168     20.62877846
S        21.98792839      1.30749404     -0.11981331
S        20.20042992      3.32182503      1.89235878
P        22.13101387      2.54303217      1.79730070
S        23.75560188      3.80291629      1.89293039
S        22.46075058      1.53095186      3.67412186
S        22.15101624      1.32691491      8.86202812
S        20.18201637      3.56978154     10.80692959
P        21.93772888      2.54622984     10.56635571
S        23.52621269      3.90965080     10.50446033
S        22.28776550      1.44129443     12.30548859
S        21.89780045      1.49685717     17.09624290
S        20.01519585      3.37874365     18.86599350
P        21.91520691      2.58975172     18.79461098
S        23.44477844      3.85721588     18.56738281
S        22.06919670      1.40747094     20.53987503
S        21.79813576     10.34822941     -0.24166949
S        19.91613388     12.34490108      1.61312413
P        21.78083801     11.42596531      1.49468863
S        23.44997215     12.74271965      1.55528057
S        22.20873070     10.44293308      3.36246324
S        22.19574356     10.18797970     11.68693542
S        22.02869987     10.06025505      8.30647755
S        20.05158424     12.17100906     10.21097374
P        21.85727119     11.20514202      9.92803574
S        23.46504402     12.51434422      9.94193077
S        22.17436600     10.58591557     20.31400299
S        21.96109962     10.59845638     17.09402847
S        20.30561829     12.72516727     18.76456261
P        22.05897331     11.86922932     18.67447662
S        23.49666786     13.30955696     18.54630089
S        22.41800499     19.77227974      3.60412312
S        22.08177185     19.71378708      0.30802995
S        20.27520752     21.94547272      2.00867367
P        22.25722694     21.09342766      1.85117567
S        23.71577835     22.45681381      1.90183342
S        22.19570923     19.64431763     12.14966011
S        21.96832466     19.60919952      8.67059326
S        20.28521919     21.70367432     10.50923061
P        22.07847214     20.81336403     10.37919712
S        23.43703079     22.19854164     10.29198837
S        22.21943092     19.50774384     20.69211006
S        22.04782867     19.45119476     17.23351097
S        20.04483223     21.36633492     19.12685776
P        21.99959755     20.48067284     19.01497078
S        23.63098526     21.79439735     18.83625412
S         4.17955732      6.75570202      7.96657801
S         2.86834741      4.32693100      6.21330404
S         6.33477783      4.70395374      6.09152079
S         4.57450294      6.73118496      4.47059059
P         4.39196491      5.68128300      6.19825459
S         4.50106812      7.17781115     16.49391747
S         3.20037985      4.60511827     14.62881184
S         6.66332483      4.83284044     14.75582314
S         4.64868832      7.02504969     13.16980553
P         4.74194241      5.89903784     14.82934761
S         4.42599535      6.45676613     24.55609322
S         2.97046423      4.13657761     22.84885788
S         6.40773392      4.51324797     22.99917030
S         4.52657795      6.56448317     21.16775703
P         4.54341412      5.32805061     22.81922913
S         4.22327995     15.73879337      7.39056683
S         2.84374475     13.28811932      5.84853506
S         6.35889959     13.65651894      5.82181644
S         4.50061131     15.86158848      4.16552401
P         4.49594641     14.57718086      5.75195169
S         4.10530567     15.91415119     16.44963646
S         2.56688118     13.71341419     14.57060623
S         6.11412096     14.13959217     14.71510315
S         4.23699808     15.87188148     12.94821262
P         4.25659847     15.01333427     14.74279785
S         3.95275903     16.19371223     24.76043892
S         2.72131157     13.73547173     23.16980934
S         6.14396334     14.09178734     22.95246696
S         4.43003035     16.26105118     21.36726379
P         4.25248003     15.01553249     23.01935768
S         4.34559631     24.32795143      8.06602573
S         3.10901403     22.06770325      6.19273233
S         6.46852446     22.26745605      6.26326418
S         4.53858900     24.37554550      4.36335611
P         4.78771591     23.37266541      6.17237186
S         4.38693619     24.73361778     16.29459953
S         3.00452852     22.10015869     14.38644791
S         6.42701054     22.52120781     14.40457535
S         4.65294456     24.52513885     12.89247990
P         4.51356888     23.20398712     14.54985809
S         4.63263988     24.87714767     24.93721771
S         3.10249066     22.48736191     22.99288559
S         6.62215996     22.93311119     23.14383507
S         4.75948429     24.82199478     21.33301735
P         4.67533016     23.67881775     23.06759071
S        13.12031364      6.84192085      8.16910744
S        11.82030582      4.36851501      6.38132048
S        15.12872791      4.64975882      6.51554060
S        13.24599171      6.75532103      4.90459299
P        13.41374493      5.70901823      6.49806404
S        12.76185799      7.08250475     16.58888435
S        11.21759892      4.76105642     14.77609634
S        14.67826176      5.19840956     14.99386883
S        12.80136585      7.20042849     13.03454971
P        12.80579472      6.08926964     14.86063385
P        13.15981197      5.72201967     23.07495499
S        13.03311729      6.77915716     24.79574394
S        11.62465000      4.44449615     22.99439812
S        14.90187645      4.80885744     23.20415688
S        13.07409954      6.83291435     21.35205269
S        13.16543007     16.27716827      4.53511047
P        13.20442486     14.95756626      6.13120365
S        13.02066708     16.38942337      7.74711990
S        11.47419930     13.85472012      5.96228170
S        15.21607018     14.23341179      6.09819603
S        13.29223633     16.17502594     12.69938850
P        13.47540569     15.07484436     14.36595535
S        13.17023849     16.21194839     16.01054382
S        11.82430172     13.71978378     14.23506832
S        15.22002506     14.01416016     14.37423897
S        13.16040707     15.85777378     21.53895569
P        13.21712208     14.69355011     23.19862747
S        12.82828140     15.87138462     24.91199875
S        11.58084202     13.31055164     23.20783043
S        14.96953678     13.62486076     23.13929749
S        13.24829483     24.96646118      4.39271832
P        13.15521812     23.77869797      6.07333946
S        12.94482994     24.89263153      7.79913235
S        11.57170868     22.34759712      6.13281059
S        15.04298115     22.75677490      6.08944225
S        13.38046074     24.91266632     12.87762070
P        13.25281906     23.76267624     14.77307320
S        12.96884823     24.87519073     16.57474709
S        11.66971111     22.59417725     14.77674961
S        15.23995686     22.89855003     14.64359379
S        13.20552826     25.11198997     21.18866730
P        13.10629559     23.99456596     22.98459435
S        13.01501751     25.00099754     24.75468254
S        11.55191135     22.63793945     22.99133682
S        14.93275738     23.11288643     23.05806541
S        21.83888054      6.64771795      4.13182497
P        21.92951775      5.50866318      5.96520710
S        21.74560547      6.45568466      7.78927612
S        20.37633705      4.08763885      6.01124668
S        23.97675323      4.28505945      6.17464828
S        22.07411575      6.97988462     13.26046848
P        22.04491615      5.72901058     14.89271450
S        21.67962837      6.79593325     16.68783188
S        20.39447403      4.51295757     15.14284039
S        23.97635460      4.78806448     15.00232506
S        21.84296608      6.65260172     21.29006577
P        21.99710464      5.36560965     22.83456612
S        21.87020302      6.68034744     24.49074554
S        20.48082542      4.03777504     22.71989059
S        23.78996658      4.35343599     22.99679756
S        23.65871239     13.43580246      6.26990414
S        21.74551392     15.37760258      4.29880905
P        21.73928452     14.23994541      6.08392620
S        21.55399895     15.11805439      7.83612347
S        19.98061943     12.99874115      6.20694542
S        23.72184753     13.61158848     14.26470947
S        21.85565186     15.76166153     12.60954380
P        21.84592819     14.53706360     14.26264191
S        21.62366867     15.78685093     15.98995113
S        20.28664970     13.27982330     14.23166561
S        23.59609604     13.44038486     22.79450798
S        21.86403847     15.73052883     20.84298134
P        21.91333389     14.51520538     22.59980392
S        21.74353027     15.52474976     24.36524773
S        20.43479729     13.07295322     22.68011475
S        23.43232727     22.70125389      5.82664061
S        21.82787132     24.91554070      4.04986477
P        21.62547493     23.82729530      5.82844353
S        21.57093048     24.83340073      7.56552219
S        20.35327911     22.31432724      5.83829927
S        23.88569260     22.97607803     14.64587402
S        21.99832344     24.96117592     12.80895901
P        21.98313522     23.71836472     14.56215191
S        21.85112762     24.85842514     16.26242065
S        20.25874138     22.49546432     14.52843380
S        19.98905563     22.38286591     23.02067375
S        23.41753769     22.85808372     23.05644226
S        21.67308044     24.88269234     21.33061790
P        21.58838463     23.80216217     23.10745430
S        21.44358063     24.85880852     24.78292847
