864

Li      -36.24440002    171.56513977    -47.46474075
Li     -191.43159485     96.38421631    148.28228760
Li      157.96614075     67.05728149    -59.90599060
Li      -35.91441345      8.70440769   -170.02757263
Li     -118.02426147    145.83703613     63.04047775
Li       24.01970100    147.17663574    143.07705688
Li       59.41105652    -87.47580719    -13.23120117
Li       -1.74390757     75.17255402    198.12425232
Li       33.05123901      3.83619475   -157.66967773
Li     -126.76303864    -13.43131924    130.57809448
Li      237.31587219     74.09369659    -21.51986313
Li      -36.78658676    267.40219116    152.55357361
Li      -62.39528275   -130.61187744   -136.70869446
Li       -5.81072664    -51.22781372    126.30841064
Li      136.70968628    129.44607544   -148.88304138
Li      -21.69428444     95.52886200    -32.12331009
Li       32.28077316    147.06774902     23.99584770
Li      -45.91156769     29.08632469   -103.27904510
Li      -66.72056580     43.08604050   -170.39936829
Li      102.30812836    114.33839417    207.05468750
Li       20.43672180     19.47543144     12.38552284
Li      106.69205475    -61.73172379   -165.67758179
Li       63.37108612    185.01240540    160.08573914
Li      107.14952087    207.01728821     88.60031128
Li      -84.40017700   -220.30958557     90.93212891
Li     -127.37911224     88.22120667    -94.37371063
Li      158.19825745    -26.43720818     87.51995087
Li       92.69198608    -52.07314301   -153.71815491
Li      -62.27466965     52.95610046     -5.26485109
Li       -6.24943781     93.40583801      3.72351265
Li      123.74764252     55.83022690    207.04031372
Li       41.44656372    -88.08232117    -13.32464600
Li       46.04220581     70.62733459     58.71091843
Li        7.14405441    108.41843414    -30.65528107
Li      -83.22606659    130.99018860    155.59043884
Li      -70.11266327    -36.44036484     88.31912231
Li      -79.70959473    174.06407166    -81.11457062
Li      110.45030975     65.77410126     33.06569672
Li       54.71411514    -25.22854233     66.32485199
Li       15.61988163    285.33502197    138.04742432
Li        2.93146110      1.28252709     83.61446381
Li       84.13946533     53.02829742    -76.92576599
Li      132.70420837    221.59257507    -34.35505295
Li      158.66960144    103.64812469   -124.08325195
Li       -9.97772026     -9.04999065    101.19461823
Li      -83.70075989    160.33149719    -64.49732971
Li      119.16260529     92.86609650   -136.95086670
Li      -62.40679932     47.67461777    134.73352051
Li       86.27909851     78.07978821     56.54155731
Li       46.10300064   -146.07810974     12.30873966
Li      291.86749268     96.06873322   -297.16064453
Li      -39.98740768   -224.41311646    139.65473938
Li       -6.27794647     75.46171570    -60.33727646
Li     -140.04229736     56.64198303     96.38803101
Li       33.13267517    234.76306152     96.47234344
Li       -5.76377487     47.07212830     71.29909515
Li      144.16781616    186.30148315    -83.72796631
Li       50.32891083    250.08801270    122.48683929
Li     -171.21911621     10.27294064     34.61221695
Li       -2.01389933    -52.08552933    252.79331970
Li       36.52182770   -147.73556519    218.31869507
Li      127.32664490     -1.19707942     -9.70030212
Li     -105.07124329   -110.34409332    151.52716064
Li     -148.54623413   -124.00279999    -30.22228813
Li       15.48593044    123.23789978    100.97130585
Li       37.38740158     43.13382339    -64.40796661
Li      127.24761200     35.07983780    -60.02239990
Li      -67.14524078     60.67284393     80.51112366
Li       97.96620941      7.08242178    -47.38834381
Li      -53.64350510     -4.24949741    211.41862488
Li     -127.03434753    116.05961609     12.04364681
Li       71.78098297    126.87070465    -51.02423477
Li      -49.01534271    -28.58289528    223.54679871
Li      -92.75406647   -128.80166626   -195.70011902
Li       26.70280266     60.60558319     48.93719864
Li     -256.68411255    118.27288055    -68.42673492
Li     -101.36962891    -59.69242477    -51.95909882
Li     -114.53004456    -19.73846626     88.18563080
Li      -92.06441498     40.58603668    189.66987610
Li       37.01877975     79.11968994    -72.78681183
Li     -104.47547913    -93.52287292    -20.76703072
Li       45.24323654    337.96902466     -4.73975563
Li      -57.41959763    306.75915527    168.79379272
Li     -234.66064453   -271.30221558    308.03421021
Li      119.56987000    -11.39514637     83.60434723
Li      -92.52587128    130.06745911     -9.23442078
Li       10.84479713    207.99003601    -34.25794220
Li       -6.08192539     15.76774406     54.66656876
Li      119.88584900      3.71397686   -141.00209045
Li      102.87702942    243.86195374    138.18786621
Li       19.64162636   -310.21203613    -51.83850861
Li       71.30356598      9.51703644    -42.40821838
Li      -53.52990723     20.72034645    130.75897217
Li       37.13248062    -38.41772461   -225.36285400
Li       89.22765350     76.60919189   -124.07585144
Li     -105.63584137   -268.91635132   -238.28881836
Li       39.41661835   -158.29557800     35.01863861
Li       62.97760391   -213.22163391     84.27397919
Li      -83.19093323     25.51818657    181.10357666
Li       59.21201324    243.56188965    143.70986938
Li       24.23486900   -253.12167358    -85.14323425
Li      -87.49407196    133.45834351    219.18144226
Li      114.76364136    191.55142212     75.12171936
Li       63.17468643    -47.76160431     37.77454376
Li      140.41540527    -17.21865082     42.11882401
Li       11.38248920    202.90321350     50.61289215
Li       84.61252594    231.52931213     45.30885315
Li      -51.85429001    -53.00695419     26.10112000
Li       54.67885208     64.37762451    -98.38781738
Li      -66.26562500    -89.34494019     79.50979614
Li       93.06304169    140.61869812    254.15895081
Li      -23.12291527     85.41591644    -51.24036026
Li      128.48617554     51.64703369     -5.21813440
Li      -14.43862247   -360.08654785    -81.09943390
Li      -88.10463715      5.40189886     33.15567398
Li     -174.41912842     52.08071518    156.06182861
Li      -31.79603004    -82.54336548     75.40256500
Li       44.54980469    -44.52921677   -134.33949280
Li      -19.64426804     86.42958069    -50.93692780
Li       54.76250458     46.76617050    -81.15318298
Li       45.27410889    -66.04178619    -35.02357483
Li     -282.32516479   -179.25442505    216.25985718
Li     -122.61045837   -181.68421936     20.40981674
Li       50.44649887      8.29768467     50.30902481
Li     -183.25558472     13.39460945    -89.87770844
Li     -122.34002686    -81.44818115    -39.12151337
Li       28.34248924   -182.94491577    -55.94686127
Li      136.43069458     98.37139130     50.30199432
Li     -119.72502136   -270.68951416      9.21452045
Li      205.63685608    276.29031372   -110.88285065
Li        1.27542460    169.27951050   -137.96368408
Li       20.73194504     62.19867706    173.03614807
Li     -161.79710388      0.39575139   -212.56169128
Li       41.33205414     86.66906738     -4.86090565
Li      127.50528717     32.19271469      0.02159831
Li      -14.87784672    184.33018494   -102.45245361
Li       84.82894897    186.57250977    -81.20086670
Li     -140.63984680     98.67335510   -114.90016174
Li      -57.48745346   -160.97177124    -81.23339081
Li      -71.25096130    -52.03226089     66.39138031
Li     -102.08908081     93.50281525     25.09209251
Li      -35.36652756    175.26608276   -221.30299377
Li       37.36817169    109.92453003    215.88359070
Li      -28.00350571    200.67288208    202.10754395
Li      269.94500732    -50.72506714    172.96768188
Li      101.53916168    -67.05830383    119.13108826
Li      -53.47022247    -67.33332825   -194.89443970
Li       80.05217743    -56.88611221     23.23645020
Li       32.43060684    -55.32462311     33.08254242
Li      -35.97497559     27.08501434     87.70132446
Li     -192.42080688   -154.93069458     67.02228546
Li     -105.54074860    138.02281189    164.53967285
Li      144.35078430    327.25863647    192.71659851
Li       32.60376358    -75.62550354    -93.42992401
Li       93.92742157    125.99744415      3.44801259
Li      104.24751282   -180.82353210     69.70113373
Li      158.32830811   -113.28806305     62.97108459
Li       28.67473793    -50.16831589    109.64995575
Li      -26.79437256     21.75616837    176.99668884
Li       84.55284119     29.37113380   -221.96217346
Li     -135.36976624     33.65169907     24.89806747
Li      -23.35340500     54.90552902    130.24211121
Li       97.31646729   -149.98394775     -8.91572475
Li       16.21947289    126.42794037     68.07489014
Li      175.73114014    -85.99184418    -26.26663208
Li      -49.69317245    152.04286194    -17.82981300
Li       59.13369751    105.26761627     12.34932232
Li      177.19699097    109.86521912    -11.50251961
Li        1.86529768   -274.33895874     39.44103241
Li      115.68793488     67.62245178    -56.59620285
Li      -27.01657486    -96.43443298    105.03894806
Li     -140.58724976    282.64077759     24.19896126
Li      -33.77807999     87.52788544     98.97615051
Li      -27.27424431   -120.84865570    -55.70327759
Li       88.07802582     87.76864624    -26.87336349
Li       59.26720047     99.54056549    155.63757324
Li      -70.75197601   -154.21080017    -76.39069366
Li      114.23175812    136.32043457   -211.26550293
Li     -122.61084747   -123.90762329    114.05350494
Li      152.58769226     46.87945938   -206.36654663
Li     -118.69719696   -177.55166626    117.93554688
Li      104.44747925     82.08083344     -7.60658693
Li     -105.62606812    -78.67465210     28.96785927
Li       97.43216705    -20.34746170   -145.31517029
Li       75.96191406     49.99745941     67.01938629
Li      177.79986572    -70.96834564     30.62127686
Li      -68.93569183    108.92991638    102.93331146
Li      110.87429047      5.29117250   -149.10476685
Li      153.87751770    -39.17870331    100.92583466
Li      110.90898895    -21.23597527    -13.16873074
Li      -92.19893646     -4.78366995    121.64009094
Li      -27.76339912     59.14612198    -17.47977448
Li      -61.58626938   -223.37063599    -72.77442169
Li      -65.90313721    -65.00994873     97.16479492
Li      -74.62800598   -118.91012573    -34.72994995
Li      -36.68566132    -45.71717453     24.69990921
Li     -200.30754089   -120.89668274     12.00600624
Li     -130.93855286    -30.27312469     12.13159275
Li      115.90241241    299.74917603     57.15384674
Li      131.75396729    142.75224304    232.96522522
Li      151.64736938    -67.73562622   -252.85763550
Li       10.76295757   -153.45947266    -51.45112228
Li       19.33643150    148.02098083   -229.98042297
Li       28.96834946   -208.66140747    126.60810089
Li       28.31440926    326.29794312     24.59092331
Li      -57.94624710    187.17820740    -44.38697052
Li       54.39661789   -146.79127502    -30.30716705
Li      -80.84013367   -139.51856995     43.32204056
Li      -14.02913857    -22.59633255    203.96676636
Li       44.66098404    226.92718506    178.78361511
Li       25.03860664   -126.80158997    -42.85565186
Li      -92.82406616   -210.39715576     66.80091858
Li       50.38413239    -36.39913559    -51.50762177
Li     -105.32487488   -166.87583923     53.60049438
Li       71.14410400    -80.91709137    -39.78216553
Li      171.40780640    108.33522034      2.86304641
Li      110.96935272    -18.66778564     28.73365974
Li       46.31921387   -116.92011261    180.99960327
Li       93.94425964    134.95776367    109.59107208
Li       77.86268616    150.75996399     14.38387394
Li      -16.41929817   -192.67468262    302.61163330
Li       54.78815460     85.82485962     96.70259857
Li      175.84904480     85.77702332    -48.06639099
Li     -148.72062683    -33.48918915     71.11495972
Li      142.38729858    139.78790283     16.42424011
Li      -83.00775146    -95.30995941   -191.87275696
Li       63.60292816    -68.22731781     54.15277481
Li     -114.36201477    101.73214722    -60.47715378
Li      167.00920105     27.51981163     28.36337090
Li       17.89137077    187.03056335    199.82382202
Li        3.60426569   -131.60192871     11.68289280
Li      -70.92832184    104.58276367     67.44147491
Li     -269.01876831    -26.57830620   -211.45178223
Li      -63.40366364    -60.96297836    -52.40767670
Li      -62.53773499   -121.80068207    -85.43339539
Li       84.40839386    111.03312683    181.65151978
Li      -67.79643250      3.26302624   -136.91893005
Li     -161.70948792    -18.47149086     11.56761742
Li       32.33673096    119.56748962     15.43951416
Li      145.79055786     78.53469086    -64.17041016
Li       -5.86821842    154.11474609    -84.66316986
Li       63.19412994     52.42539597    160.19792175
Li      -10.48674965     65.83373260    173.12046814
Li      205.26008606    -24.96442795    -94.78780365
Li        3.01121354     38.03067017    -80.85754395
Li     -135.59770203    -65.94132996     -4.65545177
Li      -19.09281540    120.10524750    -47.16619492
Li      197.25810242    -30.98112488    -68.15167999
Li        2.51992035    291.04098511     -9.57993126
Li       37.26706314    127.62921143     32.79799271
Li     -113.94249725     -6.32711172    147.75793457
Li       -7.39315224    -48.76885223     90.35883331
Li     -105.21218872   -211.30801392     12.25862026
Li       -1.11726403    171.83836365    -64.91405487
Li      -82.82747650    188.76916504    -30.63632393
Li       14.77323532    -73.71535492    -56.11903000
Li      158.63998413    122.66731262    164.35757446
Li      -62.19283295    -48.58626938     79.92956543
Li      114.65496063    235.86985779     50.98256683
Li        7.89725065    -93.81907654    -46.06927872
Li      -31.45112038   -142.74435425     33.53672409
Li      136.63049316    104.39503479    228.45091248
Li       62.66297531    187.30282593     66.62254333
Li      -70.76877594    264.25256348    151.30923462
Li       -1.30388558    -90.87168884     54.04059982
Li       91.56602478     92.39508057    -70.72176361
Li      131.84635925     15.24297142    100.21488953
Li      -10.14460659    -70.53795624   -242.05743408
Li       63.48130035    275.20111084     28.69048119
Li     -178.55017090    137.29302979     97.37797546
Li        2.30925250   -144.39320374    -25.51107788
Li      141.29258728     13.22122955    109.69155121
Li      105.95437622    -10.49856186    308.51229858
Li      163.76324463     14.65483665    -28.60541153
Li       58.31200027     86.74981689    -84.76758575
Li     -195.86895752    -55.90646362    113.87997437
Li      -44.73271561    -89.83084106     41.33514023
Li      -83.59123993   -104.77977753    -17.70947266
Li      163.18511963     99.27362823    -43.11229324
Li     -131.44078064   -133.28871155     -4.64669228
Li     -126.87328339     79.50058746     57.83032608
Li       54.44014740   -126.29860687     16.50370979
Li      -91.85305023   -113.03284454    113.40043640
Li      -83.92904663      0.84698200      8.33473492
Li      -92.49920654    -44.38271713    207.18074036
Li       33.33352280    -18.02245140     37.19776154
Li       76.40446472     72.14804077     33.41099930
Li      150.09771729    -71.17256927   -155.47631836
Li      124.08766174   -167.32199097   -107.06700897
Li       33.25474930     15.43692398    194.13977051
Li       88.78460693    -47.62946320    249.72686768
Li      107.51657867    188.85873413    -35.06138992
Li      106.74215698     50.27581406   -108.75096893
Li       46.64891434    167.64649963    -40.15786743
Li      103.98257446     -7.69851923    -92.12174988
Li       41.51505280     83.82438660    156.36747742
Li      -23.46711540   -123.05946350    -93.73716736
Li       63.96300125   -218.31402588    -81.22219849
Li      -28.25651550    161.83128357     32.79202652
Li        6.77324009   -100.21374512     92.75692749
Li       93.78720856     67.69979095    181.36363220
Li     -129.23587036     -2.75629854    -19.50715065
Li       47.59667206    -58.38519287   -168.91918945
Li       62.64842224    123.92756653     23.99703789
Li       45.86630630    284.46609497   -119.36948395
Li       23.61922264     65.66611481     83.94738770
Li      -35.68555832    -36.16487503   -183.78160095
Li      -79.72544861     -6.68644190    -13.26138401
Li       58.73149109    144.20776367    160.44793701
Li       83.04034424    -39.93273544    128.45309448
Li       57.11148071    -30.59246063    111.48445129
Li     -191.46411133     78.26414490     80.87717438
Li       45.66228867    275.27679443   -110.95041656
Li      -40.87192154   -152.88893127    -81.45381927
Li      -48.84766769    101.47787476    159.81449890
Li      -53.19530869    117.71494293     28.52313614
Li      -74.79663849    -29.05567551     79.38634491
Li       69.12297821    -90.24192047   -168.86430359
Li      179.52735901    233.65109253     12.21965599
Li       72.99282074    -76.44095612   -108.08869171
Li      -87.63203430   -109.23001862     50.63869095
Li      -96.03105164    157.04843140    135.00068665
Li       24.73173141   -144.63722229     19.96091270
Li       28.89029694     85.82403564    -21.98780251
S         0.39861816      4.88916302     -0.11031842
P         0.62751532      6.27166796      1.39123929
S         2.05440497      7.78653145      1.39111054
S        -1.24208629      7.18114042      1.48783624
S         0.76928777      4.98952150      3.03599763
S         0.56398112      5.50358820      7.96128321
P         0.57385516      6.55580091      9.73707008
S         2.17794108      7.89045286      9.65384483
S        -1.24509811      7.44241142      9.82065296
S         0.90075213      5.62966633     11.49757862
S         0.95509303      5.16845131     19.90182877
S         0.80117404      5.10804033     16.49997902
P         0.77592462      6.30490303     18.17620087
S         2.27999258      7.58150339     18.00712776
S        -1.07983494      7.13982868     18.34599876
S         0.66785979     14.06924725      2.92698646
S         0.42183909     13.95577717     -0.54895413
P         0.28219095     15.24973869      1.13743830
S         1.87735879     16.39371681      1.07690334
S        -1.71516228     16.14634705      1.33494258
S         0.68433982     14.52303505     11.73023224
S         0.59108925     14.51118851      8.27333736
P         0.57610136     15.71625042     10.01046562
S         2.06716323     17.11285782      9.73590946
S        -1.24344742     16.59432602     10.14409065
S         0.81258988     14.22904110     19.88624954
S         0.50770104     14.11122036     16.67730522
P         0.70943272     15.43049240     18.24869347
S         2.07758260     17.06009483     18.19901657
S        -1.17692983     16.49276543     18.36163139
S         0.89192760     23.52982903      2.72039080
S         0.71081138     23.43999863     -0.77341902
P         0.52584279     24.61452293      1.06959581
S         2.13939643     25.99623871      0.81245327
S        -1.26240325     25.63843346      1.13133466
S         0.79428697     23.07965851     11.25258541
S         0.63141567     22.99924278      7.92678595
P         0.67194927     24.28662300      9.56823063
S         2.21591377     25.68547249      9.41232395
S        -1.34744656     25.19192886      9.74561691
S         0.61964411     23.13694191     19.29897690
S         0.48809490     22.96785164     15.95372295
P         0.46155638     24.21432686     17.55216408
S         1.92048848     25.79262733     17.52022171
S        -1.26710272     25.28266525     17.85346794
S         9.47884941      4.71799946      3.16856050
S         9.08034325      4.71383333     -0.13939673
P         9.21720409      6.01746368      1.56765580
S        10.70077705      7.31246758      1.36597288
S         7.25861549      6.85441780      1.46891236
S         9.56534958      5.45180464     11.67872047
S         9.14885521      5.40435648      8.18636608
P         9.24731731      6.46716261      9.98315811
S        10.80863667      7.94045782      9.81831551
S         7.35503483      7.46464396      9.91521835
S         9.15495682      5.19327784     20.06690216
S         9.04019547      5.16251183     16.64883614
P         9.03230190      6.36186695     18.26733398
S        10.58892059      7.58801126     18.11851311
S         7.05619621      7.12390089     18.51014709
S         9.48606014     14.20989227      3.20773721
S         9.31724548     14.01055908     -0.36538950
P         9.21263123     15.24201870      1.59856725
S        10.76529694     16.71325493      1.34226131
S         7.41158438     16.30095291      1.66668737
S         7.48422861     16.44915962      9.82920456
S         9.59333515     14.35099792     11.44634151
S         9.24310589     14.27953720      8.15505981
P         9.34480762     15.49756241      9.82763386
S        10.80082798     16.91370583      9.69585514
S         7.29165888     16.06933403     18.50451088
S         9.53937626     14.05584812     20.11181068
S         9.26191902     14.04562473     16.82116508
P         9.30465698     15.24363899     18.52799988
S        10.88105583     16.50803566     18.27695084
S         7.49966145     25.37312126      1.37376702
S         9.32990837     23.36065102      2.96189022
S         9.19348526     23.29863358     -0.51037425
P         9.32240200     24.50366020      1.16476858
S        10.65875626     25.91856766      1.02120864
S         7.20715094     25.28603363      9.95894909
S         9.41692734     23.30213737     11.62943745
S         9.11767673     23.25577736      8.18007278
P         9.10214996     24.37138557      9.88796329
S        10.66211987     25.67666245      9.75261402
S         7.20985985     25.11398125     18.70567131
S         9.18332767     23.31457520     20.06611061
S         9.23025322     23.13539314     16.62379837
P         9.20128822     24.21691895     18.35022545
S        10.65580750     25.54157257     18.17455292
S        15.61299610      7.00975275      1.41692197
S        17.87519836      5.13958359      2.92720580
S        17.61450768      4.96839046     -0.43863776
P        17.62118340      6.12663507      1.24651468
S        19.19816780      7.39027262      1.18755722
S        19.54482269      7.25425100      9.58909988
S        16.04751778      6.82009506      9.68826485
S        18.29862785      4.89718914     11.39865971
S        17.89218521      4.87704754      8.04370880
P        17.93350410      6.02687168      9.74541187
S        19.33666420      7.19257450     18.19095802
S        15.66002846      6.65944290     18.54137611
S        17.80668068      4.83400488     20.10943222
S        17.64229965      4.75510550     16.64967728
P        17.62707520      6.03532267     18.35338783
S        19.72047043     16.41419792      1.33908963
S        16.29114342     15.91665268      1.60633659
S        18.36681747     13.98254395      3.25579953
S        18.12827492     13.95111465     -0.19192901
P        18.08798981     15.07696819      1.49117362
S        19.65097237     16.76550102      9.87514400
S        16.04505539     16.26461411     10.00644684
S        18.27335167     14.52231884     11.65171051
S        17.89765930     14.33186436      8.12263107
P        17.95913696     15.50032425      9.90018845
S        19.20627594     16.62027359     18.41339111
S        15.82721615     16.24476051     18.65451622
S        17.96846962     14.33947659     20.25970268
S        17.71458435     14.16699982     16.69495392
P        17.82378769     15.29164314     18.37116051
S        19.18564796     25.48534584      1.39039826
S        15.65407372     25.06382561      1.57809842
S        17.91063690     23.06460571      3.35482025
S        17.57312202     23.05342865     -0.21964936
P        17.65308571     24.09658623      1.44580889
S        19.55319595     25.42953491      9.50317097
S        16.16090965     25.19505692      9.90840054
S        18.36180115     23.05357552     11.47491264
S        18.26858521     23.03258514      8.01644611
P        17.95462608     24.08546257      9.64823914
S        19.58680534     25.86592865     18.15698242
S        16.27558136     25.32302094     18.01496315
S        18.45385170     23.25564003     19.68445778
S        17.84014511     23.04592896     16.40938187
P        18.18503189     24.45217133     18.11096573
S        10.84137726     -0.86173469      5.44401169
S         9.07427502      1.39884222      3.69289684
S         7.55567551     -1.17781091      5.52918625
S         8.75895309      1.27087402      7.15700102
P         8.94125271      0.27882272      5.42485666
P         8.88207722      0.13453725     13.97565460
S        10.65876198     -0.91640216     14.15427971
S         8.78531361      1.45054758     12.54030228
S         7.30654287     -1.25914717     14.09494400
S         8.62330818      1.34933054     15.60231495
P         8.91294479      0.26776597     22.56347084
S        10.69997120     -0.66938859     22.49748230
S         8.84169865      1.52168238     20.86402512
S         7.15723753     -1.05285096     22.58085632
S         8.51120281      1.46871507     24.21142578
P         8.88973904      8.98389530      5.79821920
S        10.76220703      7.96979618      5.78797293
S         8.89288235     10.18723392      4.17457724
S         7.37329912      7.56443405      5.65961695
S         8.77511311     10.25470352      7.42139339
P         8.88565350      9.15795994     14.18531895
S        10.85018826      8.34255505     14.12365150
S         9.02220440     10.44622421     12.59708214
S         7.29177570      7.89793444     14.18582344
S         8.71009922     10.45979118     15.81223583
P         8.83323383      9.09492016     22.69048500
S        10.58148956      8.16147232     22.81239510
S         8.83507156     10.27761364     21.02292824
S         7.34089422      7.82999086     22.83470345
S         8.57556820     10.22702503     24.60823441
P         9.32287502     18.29515457      5.54977369
S        11.07022858     17.31400490      5.57324743
S         9.09985352     19.50028038      4.00872707
S         7.57420540     17.02556229      5.52879477
S         8.89782143     19.54277611      7.20828390
S         9.31707859     19.49031830     15.90240955
P         9.46138573     18.27004433     14.24562931
S        11.20579433     17.31765747     14.40464401
S         9.34923458     19.62392616     12.53684616
S         7.90952158     16.92027283     14.21216774
S         9.13047028     19.51533318     24.39607048
P         9.40228844     18.43913078     22.76165199
S        11.14479256     17.39523125     22.74294662
S         9.13189220     19.48573494     20.89978790
S         7.72819948     17.10419273     22.49475288
S        17.59467506      1.10266209      7.22463322
P        17.82842827      0.07328876      5.42398977
S        19.70906448     -0.79746550      5.59045315
S        17.73454666      1.18741357      3.75955200
S        16.08136749     -1.19175613      5.48382378
S        17.52801323      1.59415245     15.60111427
P        17.76174736      0.38485023     13.88167667
S        19.65023994     -0.46970159     13.94908237
S        17.55357361      1.51469672     12.20114136
S        15.98914337     -0.81658459     13.71357727
S        17.53268814      0.84060204     24.30006981
P        17.74821472     -0.26625499     22.51679802
S        19.53286743     -1.21674693     22.49478531
S        17.72494125      0.79948765     20.74611092
S        16.18924904     -1.58987522     22.43600273
S        17.52664185     10.07397652      7.23333836
P        17.63326263      8.99862289      5.48031378
S        19.40901375      7.94964314      5.64194250
S        17.61553383     10.16035175      3.81617332
S        16.18712616      7.57068348      5.50369596
S        17.38340759     10.16511250     15.73134613
P        17.64854813      9.05508518     13.98137569
S        19.51151657      8.12481308     13.80932140
S        17.86763000     10.15216160     12.24799156
S        16.10319138      7.67528677     14.03957176
S        15.90167046      7.80856657     22.57179832
S        17.20286751     10.38356876     24.17322922
P        17.51137733      9.16376877     22.47362328
S        19.29321861      8.20596027     22.48477173
S        17.52893066     10.41167641     20.92049789
S        16.64779663     16.71918488      5.48314238
S        18.15470123     19.29202652      7.38045692
P        18.20364571     18.11946869      5.70248508
S        20.18883514     17.14819336      5.65065098
S        18.25090981     19.14166069      4.02335072
S        16.22211075     17.14301491     14.14748096
S        17.69226074     19.79456520     15.83744812
P        17.70836830     18.58511734     14.19332981
S        19.46295547     17.64137459     14.35747433
S        17.70819473     19.85046959     12.61411667
S        16.44612885     16.78851318     22.35601616
S        17.94041061     19.27180672     24.19798088
P        18.20122719     17.97228622     22.55418587
S        20.06686592     17.09337425     22.61252022
S        17.93924141     19.20479774     20.88528824
S        24.86595345     -1.17921007      5.09260988
S        26.16314697      1.50430787      6.85233831
P        26.28912163      0.31974873      5.16905451
S        28.01364708     -0.74461889      5.15249348
S        26.33909416      1.48723531      3.47778344
S        24.77962685     -0.82344043     13.40636253
S        26.24427032      1.72297513     15.36731625
P        26.29933357      0.34112838     13.70066738
S        28.30512428     -0.51809043     13.69483757
S        26.22056198      1.49809837     12.08823204
S        24.73920059     -0.96243435     22.10749054
S        26.21792221      1.60007346     24.05124283
P        26.30653763      0.31239399     22.27589226
S        28.34817696     -0.55093795     22.19598961
S        26.40357780      1.39891994     20.61375809
S        24.98986053      8.27046299      5.58919001
S        26.31567764     10.78096581      7.43815994
P        26.27378082      9.67545891      5.69592476
S        28.00420189      8.76314449      5.68432951
S        26.45777512     10.70254993      4.01001263
S        24.73467827      8.00650311     14.09717846
S        26.24818039     10.62141228     15.89597225
P        26.26638985      9.44441509     14.29681110
S        28.08604622      8.43242455     14.42448139
S        26.15201378     10.72356892     12.47534943
S        24.80589104      7.76326609     22.55231667
S        26.26431465     10.25432301     24.16646194
P        26.38482857      9.15581512     22.42364120
S        28.24318123      8.23988438     22.59377861
S        26.45225716     10.42684841     20.77307701
S        26.42988396     19.68302155      3.72881794
S        24.84186172     17.33431816      5.49168539
S        26.29961777     19.60214996      7.28438902
P        26.56742859     18.68511391      5.54694128
S        28.30997467     17.73222351      5.60579491
S        26.32699776     19.74166298     12.39788628
S        24.67714310     17.30550766     14.22758293
S        25.93961525     19.60141754     15.77181053
P        26.16902351     18.67700768     14.00662422
S        28.01465034     17.69315529     14.06961727
S        26.40485001     19.64840698     20.58333015
S        24.70893478     17.24276924     22.33734131
S        26.26884460     19.62039375     24.21365166
P        26.33976173     18.68175697     22.33102798
S        28.24340248     17.74680710     22.45512962
S         6.41975784      2.80893898      1.21451056
S         5.01246548      0.57405204      3.10454416
S         4.76046991      0.57248497     -0.38210514
S         2.85916805      2.33433604      1.43392277
P         4.80207968      1.60380185      1.41610384
S         6.50706625      3.33590889      9.21808624
S         5.09786415      0.92264289     11.32361412
S         5.10679340      0.90181297      7.58451939
S         3.13457179      2.90550232      9.70373917
P         5.08179569      2.11437726      9.57770634
S         6.57248402      3.01793337     17.95949936
S         5.23325253      0.88538611     19.80840874
S         5.02074814      0.74252301     16.19020271
S         3.07485008      2.63165212     18.20653725
P         4.95873022      1.85509694     17.97423935
S         6.48336887     12.23666763      1.34887588
S         5.19823027      9.76377487      3.14843154
S         4.86628437      9.78823853     -0.19491208
S         3.03084636     11.77547359      1.47378743
P         4.82004404     10.93162251      1.43573582
S         6.53679180     12.67004681     10.08568859
S         5.14772940     10.19256973     11.90814018
S         4.86815643     10.17569923      8.50182056
S         2.93750525     12.18570328     10.27029419
P         4.81990814     11.36414433     10.18315887
S         6.44699764     12.43121243     18.50137711
S         5.21708345      9.94562435     20.24294090
S         4.77487755      9.88361263     16.79454613
S         3.12437582     11.90845490     18.51194954
P         4.96820354     11.05177212     18.62716866
P         5.31129360     19.86888695      1.04523754
S         6.89630413     21.15013313      1.09118307
S         5.44516182     18.81411171      2.83030558
S         5.14501524     18.71874237     -0.55659395
S         3.38914156     20.56030464      1.24010134
P         5.09103775     19.76117134     10.01443386
S         6.50454760     21.21274185      9.75363445
S         5.35404682     18.69234467     11.77809525
S         5.20587969     18.76361656      8.20374203
S         3.36240721     20.86701775     10.06815338
P         4.80164099     20.00250244     18.14910889
S         6.36001110     21.22768593     18.08622742
S         5.13715601     18.90560341     19.90888596
S         4.88614464     18.80752182     16.37555122
S         2.91107392     20.90484047     18.29149437
P        13.42417431      1.49241650      1.23538947
S        14.98638439      2.81739020      1.28774810
S        13.73933887      0.55285436      3.12629485
S        13.41301918      0.44517767     -0.50075179
S        11.52788925      2.43315887      1.42508316
P        13.45086479      1.30829203      9.88263988
S        14.94487572      2.67414880      9.72120285
S        13.55864811      0.07889160     11.74079227
S        13.62084389      0.04653031      8.17105007
S        11.44753838      2.33227587     10.24758720
P        13.33287716      1.75214410     18.14506149
S        14.75678539      3.18045354     17.94348145
S        13.62710762      0.59802604     19.74956703
S        13.40878487      0.66080683     16.51557732
S        11.56209469      2.83306003     18.16318130
P        13.34090233     10.65357876      1.36737204
S        14.87790298     11.92807961      1.24645853
S        13.42209053      9.62137699      3.14521694
S        13.24783516      9.56520557     -0.38902128
S        11.38789654     11.40254974      1.53576374
P        13.78914928     10.83594131      9.64678383
S        15.43482304     11.96549606      9.72147465
S        13.95611286      9.81908512     11.45820236
S        13.75294590      9.67105770      8.05659580
S        11.78892136     11.48939133      9.96702862
P        13.65178776     10.52032852     18.20896339
S        15.20687866     11.95610142     18.09084511
S        13.83302021      9.67761993     19.99632263
S        13.61817741      9.59726620     16.37586212
S        11.79948044     11.46617031     18.33977699
P        14.02405071     19.58285904      1.30212855
S        15.46033764     20.96943855      1.02077591
S        13.98228931     18.35936165      3.03177834
S        13.81535625     18.39518738     -0.55169821
S        12.06101608     20.34104156      1.32939327
S        11.68404865     21.17505836      9.80610657
P        13.56449223     20.08066750      9.69927216
S        15.09406471     21.52046585      9.68385696
S        13.90978050     19.15656662     11.40298557
S        13.58738613     19.02689362      7.95857859
S        13.49581909     18.53950882     16.57858276
S        11.52974701     20.56181145     18.45520401
P        13.50321007     19.64997101     18.24032593
S        15.11234951     20.99087143     18.25412750
S        13.75552940     18.62452507     20.06629944
S        21.93236542      0.47795856     -0.72440511
S        20.03102684      2.58585024      1.18944299
P        21.81392288      1.40116072      1.10713923
S        23.41703796      2.92759037      1.03283322
S        22.24848557      0.51780552      2.96238613
S        22.32570457      0.68221146      7.89587116
S        20.30363655      2.67480087      9.83458805
P        22.30878067      1.79051816      9.71074677
S        23.85066414      3.03862429      9.56578445
S        22.53381348      0.70932525     11.51870537
S        22.05530739      0.78943700     16.44052315
S        20.32882500      2.75686097     18.34787941
P        22.10092735      1.97858453     18.15423203
S        23.72086525      3.29978681     18.20495796
S        22.34740257      0.99007791     19.88188553
S        22.12229156      9.26317787     -0.24445902
S        20.19446182     11.47318935      1.49352252
P        22.06115532     10.49944019      1.40851092
S        23.63865471     11.82491112      1.38087797
S        22.45696831      9.32087326      3.10878134
S        22.45302773      9.63756466     11.53349495
S        22.19046974      9.60569668      8.15471745
S        20.09991455     11.67480850      9.93784523
P        22.08739471     10.82696342      9.94867611
S        23.75264168     12.00796413      9.73671532
S        22.07730293      9.87177563     20.37001610
S        21.93353271      9.88155937     16.73634338
S        20.06287384     11.51861572     18.68404770
P        22.00454903     10.87863445     18.59552002
S        23.51097107     11.99499989     18.35048866
S        22.67817688     19.05031013      3.00195551
S        22.43579865     18.87089920     -0.40236303
S        20.44795990     20.82533073      1.51098430
P        22.32772255     20.11794090      1.29963541
S        24.02826500     21.20639992      1.31063104
S        22.43149948     18.83370018     11.66890526
S        22.31684875     18.69109917      8.15067387
S        20.42800140     20.71249580     10.16628933
P        22.20332909     19.72336578      9.76034260
S        23.85222435     21.20041275      9.83614922
S        22.32473755     19.13749886     19.78122330
S        22.05812645     19.05337524     16.49085045
S        20.11539841     21.08435440     18.25583458
P        21.97630501     20.15670586     18.12387085
S        23.58915710     21.45280075     18.08273697
S         4.49722528      6.06405401      7.19958353
S         3.02736378      3.55477118      5.57568121
S         6.58537579      4.02746344      5.54086733
S         4.79642963      6.07869291      3.97858262
P         4.71228504      4.80238438      5.57027292
S         4.59339666      6.20330238     16.04670906
S         3.07702470      3.81701279     14.02551365
S         6.72875977      4.21130133     14.14026642
S         4.77242947      6.15493202     12.24840260
P         4.84014702      5.00665617     14.37237263
S         4.11285734      5.94395638     24.35299110
S         2.76591349      3.63170123     22.55181122
S         6.27195358      3.93156338     22.57122803
S         4.36510754      5.93180704     20.85140800
P         4.46490765      4.87339020     22.61292648
S         4.39944410     15.01174164      7.29641533
S         2.98980331     12.71557617      5.50362110
S         6.47359133     12.99151516      5.69228411
S         4.46932173     15.05779552      3.85776329
P         4.60030460     13.93720341      5.50729656
S         4.79235172     15.15396881     15.93260098
S         3.16942024     12.82609749     14.00528622
S         6.81081533     13.18436050     14.36876488
S         4.69851780     15.16804886     12.42362309
P         4.90210199     14.01619339     14.14713478
S         4.46271896     15.25194645     24.13287163
S         3.13328385     12.64059639     22.41835594
S         6.49634504     13.02781296     22.42116356
S         4.71832991     15.26158619     20.76660347
P         4.58837509     14.08275414     22.37597275
S         4.91613531     24.18650818      7.27157688
S         3.30582452     21.57177734      5.40158176
S         6.88919878     22.02761841      5.67864180
S         4.90962553     24.15775299      3.88330150
P         4.93624449     22.87387276      5.60972261
S         4.48379755     23.73037529     15.83018875
S         3.10053158     21.33018494     13.96783829
S         6.49479771     21.58535004     14.22907066
S         4.48076010     23.75321388     12.34920883
P         4.71949196     22.60012436     14.09565544
S         4.50768137     23.95629501     24.12082100
S         2.90773797     21.82785034     22.20414162
S         6.68519258     22.14478302     22.45306587
S         4.53932619     23.96396255     20.54408836
P         4.63051891     22.92351341     22.37981987
S        13.02299309      5.68853855      7.61081457
S        11.53645420      3.22050524      5.64547062
S        14.95133686      3.58303809      5.93744612
S        12.99631500      5.68990707      3.98950267
P        13.21913528      4.54772615      5.70644808
S        13.29213333      6.00278473     15.50175571
S        11.85755062      3.44869184     13.61620998
S        15.43545437      3.79640698     13.72078228
S        13.46750546      5.92121029     12.01498890
P        13.61586094      4.71602917     13.73672962
P        13.21769238      4.69909191     22.72474098
S        13.04044437      5.91578007     24.30326653
S        11.45242214      3.53558612     22.41227722
S        15.30239677      3.85535598     22.62369537
S        13.12034130      5.77078342     20.98736382
S        13.32926369     14.90653419      3.92904711
P        13.37204456     13.72586346      5.64454460
S        13.28469276     14.93606472      7.24417353
S        11.76482010     12.39626789      5.43497896
S        15.24304581     12.81824398      5.65506697
S        13.19388390     14.87791157     12.31914616
P        13.26325798     13.70327759     14.00399876
S        13.07325459     14.88322449     15.54435921
S        11.51416397     12.50983810     13.83056641
S        15.23952007     12.88372898     13.98081589
S        13.38566589     14.79221058     20.76581573
P        13.22665691     13.85726833     22.60749245
S        13.14446640     14.81720257     24.40222168
S        11.68221951     12.60244083     22.51329613
S        15.23066425     13.00433731     22.55167770
S        13.29292393     23.88423920      3.75556421
P        13.16853333     22.74654007      5.45001125
S        13.17447948     23.85314941      7.12671804
S        11.58935452     21.42757988      5.36542416
S        15.19414043     21.89992523      5.51371288
S        13.57448006     24.26419640     12.27265453
P        13.55063248     23.15051079     14.04557323
S        13.27674198     24.26581573     15.84608173
S        12.05398655     21.81653595     14.03779888
S        15.28456402     22.14685059     14.00176620
S        13.27520752     24.07584953     20.74351501
P        13.37892628     23.07094383     22.60017395
S        13.31301117     24.13148880     24.15426064
S        11.74509335     21.72217751     22.24143982
S        15.28870296     22.10576630     22.55184746
S        22.09349060      5.65300894      3.55934787
P        21.77647781      4.61451197      5.30618238
S        21.83310318      5.60232878      7.09428024
S        20.15871811      3.41703224      5.31858873
S        23.97516632      3.95196986      5.33960819
S        22.04597664      6.00696278     12.34661484
P        21.93498993      4.84472609     14.07098103
S        21.75841904      5.90132189     15.77769852
S        20.43602753      3.51508260     14.12237453
S        23.88656235      3.84665036     14.09078789
S        22.22278404      6.25023270     20.73044968
P        22.23871803      4.92543650     22.47936249
S        22.09433746      6.17136574     24.03906441
S        20.74449158      3.63137174     22.36047173
S        24.11001778      3.95693803     22.48175621
S        24.02289772     12.73650455      5.69972658
S        22.17661095     14.95777321      3.83539867
P        22.20310593     13.79842949      5.53060436
S        22.02126312     14.80152321      7.28582478
S        20.64595032     12.37890339      5.60850286
S        24.01532173     13.24925232     14.06933689
S        21.89576912     15.01266670     12.28349113
P        21.96147346     13.89554024     14.15474796
S        21.75976753     15.04589748     15.79214382
S        20.21427155     12.95333481     13.91962051
S        24.05782700     12.72134495     22.61233902
S        22.16273308     14.65326881     20.75978470
P        22.14430618     13.65150547     22.54762650
S        22.01820564     14.64452934     24.37247467
S        20.60908890     12.38757706     22.48828125
S        24.30842400     22.12952232      5.39257908
S        22.41653824     24.09315491      3.65723109
P        22.44380569     22.91953278      5.27227402
S        22.27099609     24.12662888      7.10459137
S        20.80863380     21.74549675      5.26903629
S        23.91542625     22.06621742     13.79133224
S        22.17142677     24.17509079     12.21401501
P        22.16482925     23.07250214     13.85151768
S        21.89478683     24.35985947     15.72680950
S        20.58333778     21.66987610     13.78709793
S        20.79224586     21.51629829     22.18948174
S        24.09240723     21.95030785     22.24079514
S        22.36952782     24.10490608     20.51485825
P        22.36882401     22.97707558     22.17487717
S        22.17110062     24.02867126     23.86542320
