864

Li      196.00508118    -36.62676239    -34.54565811
Li       57.48672485    132.78784180    181.37651062
Li       57.74460220    -45.14075470    -30.89097023
Li       83.71727753    -99.41114044    189.46238708
Li      241.04190063    -52.85532379   -193.65512085
Li      -54.69433975   -111.96215057    -35.11685181
Li       40.24572372    -39.77236176      8.40371132
Li      195.82669067     65.20880890    -43.52807617
Li      -89.62359619    -30.75374603   -144.74957275
Li       14.35093021    201.75679016   -259.14794922
Li      165.71981812   -212.82691956    -31.07166672
Li      -72.43115234     -3.38525891   -152.70228577
Li     -278.98416138     97.17103577     37.91298676
Li      117.73821259    -33.67955780     41.19606018
Li       44.47507095   -152.83795166     24.72339439
Li     -106.92321777   -105.80522156      3.97135258
Li      234.57780457    -17.10777664     24.74552727
Li       13.44678497    -18.92442322     -4.95833302
Li     -279.71456909    -24.47538376   -103.20285797
Li     -166.78042603    235.29110718    215.35473633
Li      -55.33574295   -145.62730408    274.95150757
Li      -20.66469193   -218.36396790    -35.10291672
Li      -97.30156708   -159.11755371    283.22509766
Li      113.57031250   -186.23075867    100.69733429
Li       57.03475952    120.28174591    236.05609131
Li       50.25241089    100.59781647    -49.60044098
Li      -15.51198101    192.52114868     58.15251541
Li      139.12991333     46.18058777    109.34155273
Li       59.38253403    -29.70266342     -3.48364186
Li       96.09707642    350.52908325    125.84171295
Li      217.12153625     36.61949158     84.25983429
Li     -106.70825195     60.09827423    -21.81162453
Li      -67.92604828    260.66918945    -13.02449417
Li     -245.31636047    -57.48146057    138.36082458
Li       -3.41853213   -142.09587097     32.47058868
Li      118.85027313      0.00801180     62.32878494
Li      -59.02958679   -127.89652252     45.87596130
Li        5.68346119    -99.61413574    130.63674927
Li     -210.11442566     42.19654465     11.58175659
Li      325.72381592    108.01107788    -17.88838768
Li      174.15443420    206.88226318    155.99978638
Li       92.61933899    289.00549316    147.58723450
Li      140.38108826     -6.14281416    151.41140747
Li       48.95097351   -139.02803040     96.59348297
Li        1.67655838     58.93584824    109.29998016
Li      113.76639557     34.60822678     -5.13761997
Li      118.25408173    195.66625977     84.39185333
Li      162.05426025     -9.47845650   -144.82080078
Li      -24.29423141    232.65763855    -12.64550400
Li      -20.83484840   -142.39927673    184.79313660
Li      -76.20568848     76.73827362    -93.85301208
Li       36.60685349    135.20295715    134.88519287
Li      -80.57714081   -192.64947510    -27.45837593
Li      183.31292725     98.45667267   -238.35340881
Li      -67.73366547   -139.95283508   -119.07463837
Li      -71.46620178    -14.49228096     96.83182526
Li       -2.39645267     81.64956665    147.32771301
Li      -45.92567062     74.35861969    299.95108032
Li       79.00298309     58.63978577   -153.41697693
Li      194.97071838     87.41824341    551.57385254
Li      114.09165955    145.19769287    -22.14981651
Li       26.62296486    133.62895203   -111.60596466
Li     -163.07583618     24.98056221     83.18209076
Li      -31.41979980    159.18557739   -125.21647644
Li      -93.65869141   -176.82447815   -124.09918213
Li      269.36907959    274.40536499    219.23301697
Li      208.35707092    132.97900391    -96.14369965
Li      -37.69367218    -78.78940582    -86.02581787
Li      -98.38984680    150.63368225    -51.01338577
Li      -11.20280266     92.75482178   -301.95498657
Li      114.02381134    243.47131348    172.76406860
Li      157.12419128    -44.69786835    -14.07707214
Li       -7.54150581    -74.03852844    -94.90144348
Li      152.11613464   -148.81304932     24.96035194
Li       10.56716251     53.66245270     28.57607651
Li       86.38487244    106.61483002   -222.75199890
Li       44.88493347    264.14233398    122.23371887
Li        5.63415384     48.29840469    105.16966248
Li      -28.62913704   -271.06701660     62.22612762
Li      170.32281494     87.18540955    117.05445862
Li       66.77050781    238.66233826    121.79562378
Li       28.32907677    -54.89945984     45.65574265
Li       44.15316391   -181.09129333     28.53016853
Li       19.14613152   -157.98852539     36.69581223
Li      -74.10436249   -133.48939514    132.19911194
Li      139.80508423     23.07611847     67.05175018
Li       61.60225677    128.87619019    232.84019470
Li      161.01866150   -105.61848450     62.31877899
Li      209.15658569     71.30474854     54.22443008
Li       74.46518707     61.69086838     49.52037811
Li      -51.79271317    152.69506836     97.35375214
Li       96.38438416    -83.26995087    320.68246460
Li       31.79730034      2.52661562    159.60554504
Li      -58.96109390    -22.77035332    -76.92838287
Li       23.55279160    -14.71886921   -140.60266113
Li       58.41524887    100.27230072     10.44025040
Li      122.53649139    283.16195679   -162.36840820
Li     -176.35427856   -136.65551758    126.05117035
Li     -154.42254639     -7.13446188    100.29754639
Li     -115.53002167    174.67401123   -140.78442383
Li      -81.48943329    156.14682007    176.73452759
Li      -85.12052155   -219.33619690      3.56527424
Li       -1.37406468    100.84448242    196.09680176
Li      -75.22591400    -16.16037750     39.88265991
Li       -3.43979931    114.35303497    110.21524811
Li      179.05847168    187.64004517    -38.72526932
Li       31.95728302    232.37872314     80.31877899
Li      148.27008057    -64.46356964     32.78588486
Li      148.57592773   -441.18206787     11.89757729
Li     -156.58770752     15.67469120    268.37182617
Li       61.81089020     37.63372421    241.19483948
Li      290.19842529     26.43082047    -43.16677856
Li      -64.22202301     75.02014923    317.33752441
Li      -28.61950493    178.92356873    105.09470367
Li      260.87921143    128.64985657     80.59430695
Li      -80.12702179   -105.31936646   -229.71888733
Li      147.36868286    127.86757660     59.74781418
Li       42.01651764   -138.61380005    -12.20155239
Li        1.36799443   -216.71949768    100.95235443
Li       53.40544128   -157.77304077   -161.98348999
Li     -103.29832458    -26.05179787   -109.33796692
Li       48.67822647     44.54422379   -162.17996216
Li      -25.06234741   -155.60015869      6.71793270
Li      170.45951843    232.13862610    224.15286255
Li     -205.10446167   -100.21511078     -9.30213642
Li       18.63570023    255.29516602     96.48114014
Li      -32.96990204     82.60482788   -123.39105225
Li       53.80059814    149.79512024     78.30665588
Li     -138.52833557   -176.94035339    -19.89084625
Li       44.94899750    104.20688629     -5.61096668
Li      -61.74061966   -135.44723511    -57.08441162
Li      122.33099365    -26.08122444    -42.60609055
Li      113.82742310    237.17890930   -115.14967346
Li      173.67387390    401.33441162      7.31714296
Li       43.37759018    -66.02684021    -79.54892731
Li      264.96606445   -144.78404236   -174.96223450
Li       99.02011108     35.30218506     18.73405647
Li      165.22790527    -11.17424393     49.55013657
Li       -6.94914150     52.94234085     88.06784821
Li      166.19451904     83.49321747    -64.39257812
Li       92.13150024    -33.14239502   -149.10888672
Li       65.66522217     -6.48422098    -18.45885849
Li        9.28528118   -318.22000122    -26.28848457
Li       98.25180054      1.61708117   -104.98348999
Li      114.02816772    -74.84028625   -190.96066284
Li      127.02502441     60.23995590    215.47409058
Li     -158.64154053    -57.97061920     58.92170334
Li      105.62011719    -19.12958717   -132.37184143
Li       18.43944359    290.25064087    151.86965942
Li      -51.07958221    -19.68250656    181.50590515
Li       81.98384094      5.83529329     52.03083038
Li      -40.38373184    155.92922974    122.38323975
Li      -55.01924515     48.29529190    181.47297668
Li     -167.40809631     11.25234699   -314.74301147
Li       31.08059120    277.00296021   -209.66168213
Li      -43.04498672    100.53398895     25.77858353
Li     -167.05751038    -84.29540253    156.20011902
Li      -33.58514786     34.84555054   -136.50425720
Li     -102.51159668    -30.11867714     74.45282745
Li     -134.55313110    -15.85883236    -54.07135773
Li      -50.35993195    146.61772156     20.96105003
Li       35.72319412    -20.22006798      3.95336723
Li     -120.72510529    191.33755493   -126.66218567
Li      156.53224182   -115.16248322     41.05621719
Li     -119.57926178     33.39748383   -119.20563507
Li      107.34011078     14.32933712     94.84352875
Li        0.77093953    115.84305573    151.16915894
Li       48.82222366     11.52122498   -170.69305420
Li      -72.44450378     66.35126495     63.03887939
Li      -54.91447449     -9.05246544     84.04713440
Li      138.88388062    392.38806152    109.01424408
Li      -28.76562881    108.25200653    109.51805115
Li     -166.44409180    193.77958679     53.96509552
Li      -37.27399826    -94.18751526    -47.52438736
Li     -127.41090393    -31.40606117   -107.26761627
Li     -151.32281494     51.30282593     60.72014618
Li      161.68719482    190.07246399    121.61714935
Li      256.54415894      3.00353527    249.34576416
Li       19.30404091   -175.75375366     78.89919281
Li      104.89684296    102.81361389    -64.69431305
Li     -206.17707825    -26.07028580     28.26311111
Li       79.40326691   -188.52949524    -39.87923431
Li       15.52565384     33.27217102    123.79293823
Li       53.37452698    276.07208252     53.81652832
Li      350.19470215    247.68789673    274.46151733
Li       19.58740234    282.43048096      4.16962910
Li      -36.96959686    -83.76828003    -55.37599945
Li       14.37944889   -217.05642700   -153.66833496
Li     -133.49636841     43.85930252   -153.50857544
Li       78.62894440    260.41299438   -128.48480225
Li      126.42639160    183.62811279    147.60725403
Li       88.07290649    -67.48005676   -183.12324524
Li        1.20284188   -152.59062195     33.38589859
Li     -119.06901550   -461.81723022     66.76502991
Li      -84.98175812   -366.81878662    100.96212769
Li      -54.57313919    -45.23128128   -115.68261719
Li      -28.98142052   -155.93843079   -111.31072235
Li      -67.08164215     98.65014648    -73.08236694
Li      170.92277527    148.23699951     50.31608963
Li      -20.31229591   -133.31037903     66.81477356
Li     -148.63510132   -156.52818298   -105.19155884
Li     -128.96920776    -41.07091522    -34.37530136
Li      -45.10277557    158.00428772    113.04485321
Li      135.47799683     41.83935547    337.97854614
Li     -253.26353455     49.41069031     -9.37171841
Li     -175.55543518   -126.62935638    -26.11702919
Li       40.74947357     29.95404625     37.17318344
Li     -187.65374756     94.96006775     84.34536743
Li      139.27786255     10.04991531    194.51602173
Li       74.39466095   -214.14112854    210.92848206
Li      -13.71385860    255.17930603    -45.74182129
Li      -97.83164978      5.82663250   -217.05308533
Li      -67.38146210   -214.19786072    232.33251953
Li      136.32971191    202.98077393     -8.92301941
Li      125.88195038     96.42815399   -109.45544434
Li      209.23255920    257.95593262    -94.05198669
Li       79.63558960   -111.70913696   -226.49214172
Li      101.16154480      0.25830317     50.21189117
Li      -71.29137421   -228.49803162    174.16938782
Li      109.76004028    -11.05480289    168.60493469
Li      -69.38652039    -56.33678055     90.20980072
Li       26.82155228   -240.29107666   -132.37902832
Li      -80.64131927     26.73156738    -59.93029785
Li       23.07321930   -181.09767151    -18.19929886
Li      169.82456970    241.91413879    -60.55064774
Li     -137.23410034    251.02174377    -27.37015915
Li      248.50964355    -47.49377823    -89.81005859
Li      -71.86334229   -117.44807434   -102.00886536
Li       92.43959045    -66.55628204     38.24337769
Li      -54.16510773   -149.84152222   -123.95264435
Li      116.43684387      5.33765888    -92.44092560
Li     -279.39541626    -14.73655224   -124.08912659
Li      -85.48485565    100.63990021     68.10049438
Li       16.90726662    -17.09114075     69.05694580
Li       74.50221252    -24.09433365    117.44632721
Li      187.28820801   -178.32884216    -52.62991714
Li     -192.54797363      6.81366062   -199.70350647
Li      195.44323730      8.34500599   -195.78405762
Li       53.56953049    249.31634521   -141.21070862
Li      -67.05528259   -314.52084351    326.33471680
Li      -57.66030121    -84.98878479    136.63650513
Li      134.78503418   -159.71928406    147.51148987
Li      169.71031189    156.98275757    100.50904846
Li     -141.29959106      2.83951306     57.65174484
Li      237.52389526    128.61512756     39.12977600
Li     -106.29440308   -120.79087830     58.59537888
Li      222.34111023    193.43000793   -153.54614258
Li        7.72145319    -62.39162827   -160.09402466
Li     -144.95941162    104.38146973    189.42507935
Li       96.86474609     13.39979553   -107.34946442
Li      -47.57502365    153.51808167    122.98736572
Li      -85.69203949    -59.90075302   -153.51196289
Li       61.75927734    118.78797913     50.10609436
Li      114.33762360    215.92646790    -51.49852371
Li       92.48720551    208.19065857   -229.33932495
Li     -128.25173950     -6.98581696     45.76040649
Li      113.71556091    148.45558167   -153.24386597
Li       49.60100174   -135.34350586   -200.89041138
Li     -247.18461609      1.68259299    302.04681396
Li       70.80403900    140.36462402   -110.89691925
Li       36.84080124     44.45716095    -30.81423759
Li      158.21620178   -176.21836853    163.53117371
Li      -46.43630600    -72.09760284    -60.20622253
Li      204.19923401     38.26053619     91.90945435
Li      148.45179749      1.13272321     -0.14558478
Li       52.73724747     70.61605072     83.36403656
Li       75.38378906    -98.85202026      2.97755170
Li       57.75035095    -27.03871155    -39.27828979
Li     -145.24485779     94.83235931    -59.74033737
Li       53.35755920    -83.28875732   -191.49269104
Li      -68.97046661    -26.01864052    -33.21912766
Li      -28.32353783     76.24900818    -90.37769318
Li      -46.50520706    132.51066589   -260.46392822
Li      -19.95569611    331.89047241   -263.95309448
Li      -84.57727051   -119.04083252    -38.67335129
Li        1.29842079    -62.37864304    109.28259277
Li      123.22713470    162.03054810     45.66162872
Li      -84.31597137    -31.65113831     -9.12595558
Li     -158.55908203    -90.51140594     87.63472748
Li      173.85241699   -336.86767578   -238.47331238
Li       96.63448334      8.25099754    164.29743958
Li       40.21004868     95.55028534     16.52043724
Li       70.79806519    -60.75481033     80.10408020
Li       40.08258820    -57.28361511    -51.95739746
Li      -67.17221069     40.55182648    -14.56719971
Li       71.12095642    -67.00428772    -65.39307404
Li       -6.82074785    195.55278015    104.35866547
Li       40.24685669    172.14184570   -191.65058899
Li      143.52989197     71.71968079    109.30645752
Li      -75.66618347   -151.68458557    359.47879028
Li     -185.08923340   -142.25468445    -60.55189133
Li     -188.12573242     31.77003479     33.22727966
Li      219.54232788    131.76475525     -6.90929222
Li      122.25247192     66.11139679    139.11618042
Li      -32.38804245    -79.64891815     64.17784119
Li     -209.80897522    -68.15032196     71.09709930
Li      217.65461731    240.29550171    180.59977722
Li     -127.53911591    -31.49016571    143.62724304
Li     -231.66030884   -160.52380371     66.12490082
Li       57.36026001     60.30152893    211.22517395
Li       92.33902740     36.43223190     24.55900955
Li        1.31685603     99.75296021     87.45805359
Li       61.30220413     16.26604080    -18.26297569
Li      135.88844299     27.52856445    180.93067932
Li     -106.16959381   -234.12315369     50.81993484
Li      118.37517548   -162.70739746     28.68494225
Li      -28.60490608     61.35110092     71.06705475
Li      -77.90471649     61.12995529    268.13464355
Li     -169.05158997    168.56661987     51.77006912
Li       35.28763199    315.04132080   -340.14810181
Li       96.73760986    -76.69642639    274.36141968
Li      -77.02204132   -149.82067871     -0.93283075
Li      -50.75516891     55.22092056    -68.65888214
Li      -97.91301727    117.73301697    -68.03546906
Li     -145.18035889    155.64547729     66.37839508
Li      -37.31309509     15.60692978    253.05769348
Li      -11.41528702     99.21862030     53.94813919
Li      -41.79975510    -74.56864929     91.76784515
Li       -2.48921824   -219.44105530    105.13212585
Li       31.66369629     75.22245789    125.74621582
Li       96.35517883    281.61129761    -17.57245445
Li      179.84924316     64.14994049    145.91818237
Li       96.33243561    136.68072510     67.80178070
Li      152.76496887    138.94750977   -115.31542206
S        -0.86852986      5.44107008     -0.68821716
P        -0.75817513      6.76113653      1.07805991
S         0.69553977      8.14657116      0.88760245
S        -2.66073370      7.60750723      1.17970693
S        -0.65779746      5.51512671      2.80902624
S        -0.70250452      5.74285507      7.87286377
P        -0.54997021      6.96696520      9.55989361
S         0.93045926      8.22599792      9.45918179
S        -2.59334373      7.78165770      9.62591743
S        -0.36665475      5.82342196     11.26703262
S        -0.39461055      6.00458956     19.65059662
S        -0.71676034      5.76301956     16.19125748
P        -0.51206326      6.97918844     17.89181328
S         0.95579582      8.33547020     17.93834496
S        -2.51647615      7.82621336     18.10284805
S        -0.54388648     14.79590702      2.92922497
S        -1.00466096     14.69039726     -0.62953228
P        -0.73512512     15.79464245      1.12520063
S         0.69512838     17.23160934      1.09854448
S        -2.60008907     16.67187691      1.14273882
S        -0.23681892     14.49224854     11.09976006
S        -0.27704480     14.63032055      7.90073967
P        -0.26710609     15.75556469      9.54146385
S         1.15187275     17.18017960      9.09952545
S        -2.14522576     16.66478729      9.55478859
S        -0.70304030     15.02771568     19.98711777
S        -1.12699389     14.95085144     16.58440590
P        -0.94913536     16.10198212     18.25219917
S         0.40366533     17.56558609     18.21188545
S        -2.70232391     17.08156013     18.26981926
S        -0.25935349     23.75184631      2.81920886
S        -0.54747009     23.75257874     -0.55762112
P        -0.55575758     24.79967499      1.11107063
S         1.00036263     26.19835472      0.93685895
S        -2.49682760     25.80517578      1.15572190
S        -0.23180340     23.66367531     11.35573196
S        -0.63264447     23.59426117      7.99389458
P        -0.45428896     24.70719910      9.60988045
S         0.98792863     26.14850807      9.58344460
S        -2.41416478     25.68700027      9.67724609
S        -0.35663706     23.52449608     19.67745018
S        -0.60437828     23.41202545     16.39714432
P        -0.65140367     24.60348892     18.06763840
S         0.99103951     25.93325806     17.92667580
S        -2.60991526     25.51738548     18.16970253
S         8.09419250      5.57969093      3.13189745
S         7.69265223      5.43162537     -0.26233551
P         7.73435688      6.56183386      1.42775190
S         9.23169231      8.15970802      1.41274190
S         5.95391607      7.72455072      1.49206364
S         8.12294006      5.38086319     11.62241554
S         7.90366888      5.35517979      8.21685028
P         7.89224005      6.42814589      9.93838024
S         9.39930820      7.78528547      9.72166061
S         5.78324842      7.47284412     10.01399612
S         8.35525799      5.71257877     19.85364151
S         8.13784981      5.67290831     16.34858131
P         8.14150238      6.79408026     18.11280823
S         9.89533234      7.99175310     17.89549446
S         6.22912931      7.41991282     18.20281982
S         8.14418793     14.55624390      3.07402658
S         8.11745262     14.53460598     -0.42599764
P         8.03088760     15.66281033      1.35206664
S         9.58467293     17.06045914      1.03876781
S         6.13649130     16.58781433      1.52218556
S         6.29125929     16.67137527      9.73873043
S         8.30905342     14.77590084     11.33215904
S         8.13851833     14.68500233      7.82445145
P         8.25222874     15.91534901      9.44702721
S         9.77993298     17.23972321      9.40245533
S         6.05828762     16.79164314     18.45153999
S         8.20544624     14.80863667     20.00234222
S         8.05256271     14.81670761     16.70448875
P         7.93883228     15.88858795     18.37967491
S         9.50881290     17.16105270     18.10830879
S         5.93460608     25.89317703      1.27422214
S         8.00725460     23.82217598      2.85680246
S         7.86535025     23.71394920     -0.69835210
P         7.91636753     24.70706177      1.05711532
S         9.26496315     26.27193069      0.91769218
S         6.37608862     26.32688522      9.61975861
S         8.60698128     24.21747589     11.42280579
S         7.91736126     24.07487106      8.06674290
P         8.27078724     25.38457680      9.64316654
S         9.62554932     26.81081772      9.82776737
S         5.82487726     25.85184479     18.01674271
S         8.14158154     23.93681717     19.80119896
S         7.72162008     23.90377998     16.27697563
P         7.75262928     24.94995499     18.04948044
S         9.39150143     26.26473999     17.91402817
S        14.80179596      7.78338385      1.09673321
S        16.98869896      5.68668985      2.73122287
S        16.76991844      5.66103363     -0.71035987
P        16.59678841      6.80776358      0.98514241
S        18.16106224      8.08825779      0.81656402
S        18.50567627      8.17935276      9.17534161
S        15.02147102      7.65737057      9.40876675
S        17.10272217      5.85608721     10.92626572
S        16.85075188      5.71521235      7.60128260
P        16.85763741      6.83949471      9.22439289
S        18.24073792      8.11811256     18.21383858
S        14.67776489      7.77008772     18.31617928
S        17.05931854      5.69755459     20.10253334
S        16.64270782      5.78248405     16.75388145
P        16.55562401      6.78053904     18.39570999
S        18.27552795     17.03056145      1.08124924
S        14.79711819     16.57107925      1.09871542
S        17.02528763     14.80195141      2.67791510
S        16.56283188     14.47167778     -0.81224889
P        16.66256905     15.74417400      0.90673488
S        18.36675072     17.07791519      9.56034851
S        14.93474865     16.58769989      9.79147911
S        17.02293968     14.82267094     11.51401711
S        16.73715019     14.74177170      7.88802385
P        16.75279045     15.72344017      9.67848301
S        18.27518272     16.88147354     17.91091347
S        14.83407211     16.53328705     18.19368362
S        17.03368568     14.39710140     19.71586418
S        16.83231544     14.32162571     16.41274834
P        16.65909958     15.50422955     17.94713974
S        18.06485176     25.77556419      1.10483706
S        14.55548096     25.36235809      1.34280050
S        16.73549080     23.53916550      2.87610245
S        16.48383713     23.37265396     -0.53407389
P        16.35037041     24.53890419      1.15446198
S        18.47929573     26.09499931      9.36156750
S        14.89147091     25.58189964      9.52676201
S        17.11153221     23.58753204     11.16988754
S        16.77188492     23.50631142      7.77884102
P        16.85359764     24.74673080      9.35763168
S        18.00621033     25.87342644     17.99727440
S        14.61722946     25.53732300     18.11643410
S        16.88871574     23.42996025     19.84480095
S        16.50283051     23.34005737     16.31458855
P        16.52882957     24.37936974     18.09614182
S         9.80071640     -0.19932826      5.42818117
S         7.90514135      1.78941309      3.64214087
S         6.29037619     -0.67899138      5.22483444
S         7.85502148      1.81688643      7.08581114
P         7.97399759      0.67380732      5.41419411
P         8.09243202      0.73609358     13.78969002
S         9.80573463     -0.25594026     13.74543190
S         8.03356552      2.01089716     12.18299580
S         6.54505157     -0.58615613     13.77905083
S         7.75958824      2.05032969     15.47054768
P         7.75183392      0.83115649     22.11931801
S         9.56745911     -0.03959268     22.32670212
S         7.70074892      2.14576769     20.35659790
S         6.37205696     -0.41924763     22.00235939
S         7.80103970      2.04582739     23.82029724
P         7.74685812      9.62438869      5.45595503
S         9.59758472      8.62302494      5.51399803
S         7.87876844     10.70605659      3.75196600
S         6.26456690      8.28650379      5.68075085
S         7.47934532     10.55461693      7.29635286
P         7.55662155      9.63068676     13.87952423
S         9.38592434      8.77486134     14.07485962
S         7.46438360     10.67673016     12.21075535
S         5.95843172      8.38468933     13.84031677
S         7.45187855     10.68846035     15.74021721
P         7.77914429      9.74028301     22.39365959
S         9.84510422      8.82064915     22.46438789
S         7.83979177     10.70236588     20.62382507
S         6.17818928      8.44799995     22.35494041
S         7.69022512     10.68970490     24.21556091
P         7.43116474     18.69846535      5.36616516
S         9.30174255     17.94547272      5.37225723
S         7.45920944     19.69982910      3.56199312
S         5.76699972     17.51072502      5.31703043
S         7.25822258     19.69017410      7.16477442
S         7.66470098     20.13045120     15.55734348
P         7.76082039     18.98181152     13.91169643
S         9.79757404     18.13746834     13.97925377
S         7.84501314     20.22953415     12.23721504
S         6.27495384     17.81360245     13.92245865
S         7.68489695     19.76027489     23.99160194
P         8.13292122     18.81280136     22.03261185
S         9.79679966     17.89411926     22.27480507
S         7.99949217     20.00708961     20.33430099
S         6.48695087     17.63324547     22.36659431
S        16.31064224      1.55828524      7.06434155
P        16.41280365      0.61083490      5.42075872
S        18.22954750     -0.41535228      5.49228668
S        16.50467300      1.70049679      3.72894120
S        14.96427250     -0.83454186      5.46230841
S        16.69084930      1.81608164     15.55966568
P        16.74523163      0.49663332     13.97870731
S        18.62960434     -0.22937292     13.79019260
S        16.89342499      1.62674320     12.31576157
S        15.09872532     -0.83651829     13.72451687
S        16.85245514      1.82878804     23.92271423
P        17.06682396      0.82673705     22.12290382
S        18.82601166     -0.06594762     22.35147476
S        16.95962715      1.95687866     20.49506569
S        15.36404800     -0.49723890     22.22476768
S        16.65707779     11.31693554      7.23807621
P        16.61453056     10.06209278      5.60423088
S        18.56436157      9.37422085      5.69933701
S        16.79211617     11.31960487      4.10423517
S        15.03055191      8.77484512      5.59118843
S        16.52208900     10.82319069     15.50301266
P        16.70878601      9.69605637     13.84051132
S        18.50928497      8.91945362     13.88413811
S        16.50666046     10.79563618     12.05080700
S        14.88234329      8.46289062     13.61091518
S        14.92694378      8.45123291     22.30740547
S        16.35450172     10.76659489     24.14091873
P        16.53104591      9.78933811     22.37022209
S        18.33698654      8.80178261     22.49208069
S        16.41212273     10.80934715     20.61773872
S        14.70164585     17.68282509      5.44573259
S        16.06793404     19.81060600      7.17849922
P        16.42715454     18.76469040      5.31532049
S        18.38505363     17.94835854      5.39955330
S        16.36639595     19.91193199      3.56908131
S        15.04979420     17.11414528     14.08205795
S        16.38075829     19.65384483     15.77664375
P        16.71122932     18.42548180     14.14358044
S        18.50177193     17.44482994     14.11281872
S        16.59630585     19.62229156     12.52215862
S        14.78148937     17.21324348     22.61040115
S        16.21127701     19.73182297     24.22499657
P        16.50319672     18.47409630     22.60639191
S        18.30221367     17.52966118     22.79172516
S        16.26158142     19.81689072     21.07038116
S        23.50111580     -0.67326748      5.38382149
S        24.87500191      1.74029636      7.08730221
P        25.14186478      0.55621284      5.41976404
S        26.98896599     -0.29607511      5.37347412
S        25.13319778      1.75749993      3.70714211
S        23.48582458     -0.79828340     14.00926876
S        24.97391891      1.65416563     15.71010303
P        25.15750504      0.46595904     14.07960701
S        27.15176582     -0.38771206     14.04097462
S        25.19422150      1.71515810     12.30449867
S        23.71437073     -0.80473644     22.34834290
S        25.11139679      1.64485264     24.08679199
P        25.31962967      0.46025810     22.34629059
S        27.07424355     -0.42877766     22.48698044
S        25.20656967      1.73674893     20.64247513
S        23.90505791      8.47576714      5.18956614
S        25.14914703     10.86420155      6.92233849
P        25.34487534      9.83827114      5.11996412
S        27.13835526      8.82100964      5.16855383
S        25.40443611     10.94308090      3.37740731
S        24.11264610      8.54398441     13.71941948
S        25.24725533     11.05945683     15.49376678
P        25.52476501     10.03153229     13.71831131
S        27.21275330      8.83168983     13.70603180
S        25.49590492     11.05103016     12.00598717
S        23.52395439      8.36554813     22.22200394
S        25.11732674     10.79792690     24.04437065
P        24.96152878      9.72925282     22.26766586
S        26.86023140      8.95975304     22.41382599
S        25.16352272     10.87280369     20.51541328
S        24.98999214     19.89768982      3.63706040
S        23.17432213     17.48124123      5.31452465
S        24.80697823     19.82476234      7.00349617
P        24.85179901     18.68778419      5.29079819
S        26.79474258     18.05343628      5.37892914
S        24.71500206     19.73868370     11.86490536
S        23.28352547     17.14307404     13.35249805
S        24.75439835     19.79936981     15.23288631
P        24.80966949     18.60699654     13.50471878
S        26.56854248     17.58469582     13.63389206
S        25.09496880     20.20643234     20.95581436
S        23.40262413     18.00584221     22.67465973
S        24.75905800     20.23642349     24.43418312
P        24.84674835     19.19424820     22.67373657
S        26.83055305     18.41726112     22.59194565
S         5.18541813      3.58689141      0.81124997
S         3.70660996      1.01958835      2.83217049
S         3.57069039      1.04901004     -0.76298368
S         1.67247617      3.03225851      1.15366113
P         3.55535555      2.16276145      0.96963161
S         5.50327682      3.91144586      9.36100006
S         3.92300773      1.27363968     11.14553165
S         3.61463666      1.18994939      7.70279360
S         1.64927351      3.28303599      9.52569199
P         3.73173451      2.48398757      9.33691978
S         4.97189283      3.63265514     17.75654793
S         3.78623462      1.23819637     19.71802711
S         3.49926543      1.31631982     16.18101692
S         1.50961757      3.32437134     17.94794846
P         3.36429334      2.22832108     17.94240379
S         5.48978567     12.68892765      0.63442165
S         3.94817638     10.44449329      2.41208482
S         3.80949426     10.28730965     -1.03025067
S         1.98431551     12.10247231      0.93916452
P         3.86049843     11.42906666      0.61266321
S         5.12729359     12.56313133      9.74673653
S         3.88910127     10.27149963     11.39720345
S         3.57359600     10.18688297      8.15989876
S         1.56671500     12.23942852      9.87119770
P         3.48307133     11.42994404      9.72473240
S         5.36114740     12.87008476     18.34198952
S         3.94873977     10.39058113     20.06755447
S         3.63947201     10.23965931     16.60854721
S         1.93759191     12.26277447     18.47684288
P         3.76530790     11.43475437     18.27256393
P         3.43932986     20.41522217      1.22781110
S         5.14073324     21.81448364      1.15465927
S         3.82670808     19.31258202      3.04661202
S         3.57323360     19.22960854     -0.58259773
S         1.75135589     21.33489418      1.36386013
P         3.73640990     20.03005791      9.32821846
S         5.34459829     21.45466805      9.37857723
S         4.00139141     18.84914207     11.18029499
S         3.74250126     18.78159714      7.73982620
S         1.86547315     20.96408844      9.57290840
P         3.32184410     20.34059906     17.87707329
S         4.66810274     21.75673866     17.83671379
S         3.45036745     19.34047699     19.67256927
S         3.11646891     19.25747490     16.08480835
S         1.53303313     21.23659325     17.95178032
P        12.25074577      2.18020606      1.16590106
S        13.64378357      3.58354974      1.01458514
S        12.35260677      1.02119112      2.79565620
S        12.16200066      0.97088802     -0.53703380
S        10.42960358      3.07990813      1.25847638
P        12.80274773      2.11703253      9.44720554
S        14.50492477      3.55589724      9.32478523
S        13.04481030      1.12308514     11.15347481
S        12.82094574      1.05674052      7.69991827
S        11.05734444      2.96037340      9.55513763
P        12.37175179      2.00418663     17.98566628
S        13.83940601      3.45547128     17.92071342
S        12.63631821      1.01440859     19.74065590
S        12.29736900      0.85026377     16.04979706
S        10.50852489      3.03376317     18.03979111
P        12.40852261     11.16915035      1.34153247
S        13.91246891     12.40774059      1.28592670
S        12.68686581      9.85366058      2.94718266
S        12.38281059      9.83778286     -0.19186032
S        10.47432041     12.01480293      1.41669500
P        12.04812431     11.07600307      9.44197655
S        13.86410427     12.17551708      9.26440239
S        12.33232880     10.24465752     11.29077816
S        12.06399822     10.22128773      7.51739359
S        10.11886883     11.67175484      9.49721146
P        12.30534649     11.19131947     18.26834297
S        14.05899429     12.46465969     18.28407097
S        12.55018425     10.08549404     19.99900818
S        12.30050755     10.03754616     16.76969147
S        10.23084641     11.97556400     18.49118233
P        12.30636406     20.17240715      1.03140080
S        13.80105686     21.63027573      1.05444157
S        12.45066261     19.16838074      2.82490087
S        12.19116783     19.01387596     -0.69540548
S        10.43754196     21.09826088      1.23996770
S        10.06318665     21.16199112      9.74534035
P        11.99963760     20.30167389      9.65324497
S        13.67432213     21.66283607      9.63783741
S        12.29514980     19.33880424     11.49148655
S        11.92606735     19.25268745      7.85703707
S        12.45186806     18.80121803     16.35865021
S        10.60425472     21.13741493     17.99983597
P        12.40230942     20.13879585     17.98796463
S        13.92285538     21.56722450     17.83039856
S        12.69931221     18.87182236     19.42718124
S        21.01826859      1.22232568     -0.41731688
S        19.05377007      3.25347662      1.45688260
P        21.11636543      2.41335249      1.22229111
S        22.69451523      3.72993326      1.25657451
S        21.26578522      1.37342060      2.96041989
S        20.66104889      1.44942367      7.86004210
S        18.74933052      3.27268338      9.88843441
P        20.68628883      2.38851833      9.68633270
S        22.44909859      3.76414394      9.76243210
S        21.00339508      1.66659820     11.53847790
S        21.08721542      1.23212063     16.49978638
S        19.11274147      3.15641689     18.18046951
P        21.05966377      2.26853538     18.26125908
S        22.64696312      3.54379272     17.97522545
S        21.36378670      1.10142899     19.93910408
S        21.00930786     10.16013050     -0.58099848
S        19.27394295     12.04546165      1.21643531
P        21.12534714     11.14873505      1.21941698
S        22.60420799     12.54126549      1.05603027
S        21.32065201     10.12732601      2.99914789
S        21.01012611     10.25063324     11.37207508
S        20.90201759     10.17531300      8.09402370
S        19.04500198     12.47020435      9.93210697
P        20.78589439     11.46913719      9.82931232
S        22.28912354     12.91018581      9.61306000
S        21.22104836     10.15907478     19.83767319
S        20.80915260     10.11756611     16.32408714
S        18.87867546     12.00176525     18.09312630
P        20.97246742     11.23005199     18.06951904
S        22.55614853     12.44185543     18.02828979
S        21.15963554     19.11373138      2.98277044
S        20.70366478     19.02886772     -0.28165418
S        19.01559258     21.27176666      1.34722412
P        20.81415176     20.32004356      1.47326255
S        22.34818077     21.77342224      1.36751330
S        20.95710182     19.13819885     11.15515614
S        20.84760857     19.23462868      7.74760056
S        19.06395531     21.15934181      9.52394581
P        20.83327293     20.21187210      9.52864456
S        22.22946739     21.60433960      9.17909336
S        21.10293007     18.96031380     19.86676598
S        20.89252281     18.92821884     16.51152420
S        18.93018913     21.04229546     18.30563545
P        20.94341278     20.11927032     18.13838005
S        22.52923393     21.54411316     18.05854797
S         3.13841701      6.29679632      6.74963570
S         1.75687671      3.66729856      5.07797194
S         5.26897049      3.94314694      5.24276018
S         3.22649598      6.36023760      3.51195860
P         3.39375234      4.99494648      5.12421370
S         3.60085559      6.53279734     15.54006767
S         2.23033023      4.17786407     13.67966080
S         5.47855854      4.53826094     13.85479450
S         3.68194008      6.55026293     12.00695992
P         3.73202467      5.59416771     13.75839615
S         3.22751021      6.47511959     24.10144424
S         1.78403008      4.09314966     22.25728989
S         5.27254772      4.45506334     22.39286232
S         3.35993075      6.46511173     20.61064148
P         3.33759689      5.42857027     22.31436920
S         3.45596933     15.34305191      6.93946314
S         1.95959306     12.97905445      5.03568888
S         5.35971594     13.32927990      5.35604191
S         3.38858438     15.49415493      3.23135877
P         3.41947770     14.28213787      5.09935093
S         3.74343252     15.69439411     15.92995834
S         2.36200404     13.30521107     14.06690884
S         5.84008884     13.64314175     14.13027096
S         3.95961261     15.58607006     12.49347305
P         4.10895061     14.44569492     14.35408783
S         3.27315855     15.66824436     24.05891991
S         1.62196386     13.07082844     22.29426956
S         5.29672861     13.58429527     22.48281479
S         3.35581255     15.66478634     20.77298164
P         3.41904712     14.48830509     22.44775581
S         3.18457198     24.85664558      7.30040646
S         2.00382566     22.31653595      5.69658232
S         5.24529934     22.65645218      5.56036186
S         3.57559443     24.84570122      4.06972456
P         3.49705076     23.63792992      5.75828075
S         3.41739583     24.48060036     15.29807281
S         2.01780534     22.10275459     13.63354111
S         5.43690348     22.51596069     13.64239693
S         3.66461205     24.53497314     11.96500015
P         3.62156701     23.41956711     13.56700706
S         3.38681197     24.48790550     23.89090919
S         2.03436732     22.09142685     22.05862617
S         5.47467279     22.37804413     22.17336273
S         3.54236865     24.38950348     20.53840256
P         3.64231539     23.23716736     22.21032333
S        12.38829899      6.37888432      7.24341726
S        10.64678669      4.19185066      5.42379045
S        14.37429523      4.74348688      5.61375380
S        12.47239685      6.42883253      3.76092768
P        12.38685131      5.30243158      5.49028397
S        12.40572548      6.33537149     15.27515125
S        10.94478416      3.74854803     13.64972687
S        14.35502529      4.20083761     13.75293541
S        12.54640579      6.48208189     11.95959473
P        12.51280785      5.12778282     13.48083496
P        11.93759918      4.86247683     22.31946182
S        11.80104542      6.10011578     23.91400909
S        10.47815800      3.50020123     22.23519897
S        13.82639599      3.89359403     22.22273636
S        12.07175732      6.10385418     20.61643600
S        12.11335373     15.11331272      3.53733850
P        12.29179764     13.91957951      5.22936916
S        12.04246616     15.16763687      6.93423462
S        10.65490150     12.52055931      5.07757187
S        14.06574345     12.84341431      5.27215910
S        12.20540619     15.06180000     12.07080269
P        12.21543694     13.76737118     13.94999504
S        11.84795666     14.87876606     15.59776211
S        10.50486946     12.60833549     13.98248768
S        14.12866592     12.90792751     13.88664341
S        12.25295353     15.39385414     20.63795662
P        12.08631897     14.16640949     22.41545296
S        11.79075241     15.23771572     24.10835457
S        10.58194256     12.87020779     22.54549217
S        13.84505558     13.26157379     22.33184052
S        11.91702366     24.56495285      3.86081910
P        11.72978497     23.57036591      5.59176779
S        11.60571861     24.52845001      7.33465624
S        10.09616661     22.25473022      5.60369015
S        13.65159512     22.76071358      5.56325197
S        12.19674778     24.46529579     12.39334679
P        12.33603382     23.17833138     14.08409119
S        11.94463634     24.40853882     15.88137341
S        10.63001728     21.97012329     14.14390564
S        14.19421577     22.21652985     14.15730762
S        12.27467442     24.71013069     20.22075844
P        12.29447174     23.55801582     21.96359634
S        12.15157032     24.68754768     23.64499283
S        10.75710297     22.32978439     21.85996246
S        14.14777088     22.67205238     21.99610329
S        20.93029594      6.62408543      3.84171104
P        20.71835709      5.33815622      5.46823359
S        20.70894051      6.61011600      7.16854572
S        19.18754387      3.98932076      5.45653439
S        22.79469299      4.46669197      5.50313854
S        20.74045563      6.58486414     12.28580856
P        20.78984451      5.46369410     13.89940357
S        20.61106873      6.60817337     15.60470486
S        19.22382164      4.25102329     13.84001732
S        22.64914703      4.56982279     13.97120571
S        20.88274765      6.38872242     20.66013908
P        20.90705490      5.36432600     22.48023033
S        20.74003601      6.26498127     24.20964622
S        19.32590103      4.09917641     22.45090866
S        22.76294899      4.43640709     22.56420898
S        22.65111923     13.47869301      5.58086061
S        20.85705566     15.61378574      3.75438857
P        20.91169167     14.53702545      5.47856379
S        20.71584320     15.51719570      7.20244694
S        19.40644836     13.15148449      5.47558022
S        23.04220009     13.52472305     13.92555428
S        21.01690674     15.42064857     12.20371437
P        21.04542160     14.31625462     13.92543125
S        20.77614975     15.43446827     15.68691444
S        19.29018402     13.19486427     13.88509178
S        22.78440666     12.95188904     22.52293396
S        20.71362877     15.33806515     20.63661575
P        21.10594559     14.02405357     22.23706818
S        20.68492508     15.11145210     23.87755203
S        19.46812057     12.85172462     22.32559395
S        22.88781929     22.57329750      5.48353434
S        20.96091080     24.88497734      3.84944391
P        21.05956459     23.50058746      5.43167448
S        20.73117828     24.80790138      7.04069233
S        19.47629166     22.33278275      5.46582794
S        22.78532600     22.32860947     13.85331631
S        21.05318069     24.60495758     12.08547974
P        20.87206268     23.31681633     13.80040646
S        20.79119682     24.49115944     15.53496552
S        19.36842918     21.84525299     13.85982132
S        19.05069351     21.87061501     22.30340576
S        22.52021408     22.28602982     22.37750244
S        20.69681168     24.26535606     20.52785301
P        20.62332916     23.15070724     22.40751457
S        20.50997353     24.16092300     24.05166054
