864

Li      266.72000122    165.81445312   -130.63615417
Li      114.95100403   -179.57513428     30.86595726
Li      -92.14926147   -140.82360840     39.64905167
Li      -62.40334320   -211.57504272   -330.17352295
Li       35.70330429    271.29547119   -119.72293091
Li      -39.91666794    -37.44443512    -46.69349289
Li      210.04512024     77.32122803    -36.21931839
Li       42.69562912     47.82781982    -23.90832901
Li       92.88599396    114.24694061     85.10408783
Li       15.84651756    -72.53582001      0.80691206
Li      -23.30351639   -201.31443787   -113.65435791
Li       71.18085480    -29.41482162    -19.79953003
Li      -32.26585388   -170.72926331     56.44232178
Li     -208.54641724   -111.32775879   -104.77065277
Li        3.57386804   -203.36965942    100.00404358
Li       80.40898132     56.77571106    107.13249969
Li      166.15406799   -243.26669312    -24.16312599
Li      106.11004639    -62.46829224    -67.17073822
Li     -111.74015045   -131.67449951    -30.77836227
Li      175.32966614    -66.48591614   -117.80872345
Li      292.24191284    -88.15257263    -32.79362488
Li      -97.19097137     14.15334034    204.23466492
Li       19.50082779   -105.13437653    -65.99225616
Li       20.49894333    -84.45893860     26.55823135
Li     -270.05981445   -105.07180786    175.11744690
Li       76.54798889     45.43331528    -53.04937744
Li      282.88662720   -166.79364014     25.42067146
Li      -79.33048248   -201.57531738    -41.69109726
Li     -205.16381836     13.53177357    145.74734497
Li     -118.29491425    -80.43350220    -53.85811996
Li      140.74211121      4.53752613     22.51496124
Li      -23.66131973      9.98900700    132.65344238
Li       23.71015930    -75.69424438     93.63772583
Li       -1.97356403     77.36135864    -86.66474152
Li      205.98506165     65.75490570    -74.74884033
Li     -106.37940216    210.45585632     13.72488689
Li       88.76040649    204.06307983   -223.19610596
Li      122.07180786     40.84038544     20.38692093
Li      -41.30463791   -228.46459961     43.37545395
Li      145.34928894    -54.68296432    132.35047913
Li      -55.24412537    -52.36867523    -17.78214455
Li      -84.31052399   -174.48660278     26.29882812
Li      361.98059082    280.45968628    -52.94329453
Li       62.94504929   -116.77182770    293.78280640
Li      -32.02749634   -224.26527405   -117.49463654
Li      -58.37040710   -134.65612793    -33.38967896
Li       59.06422043    -44.69391251    -45.13704681
Li       84.91835022     57.36086273   -100.30226898
Li       93.69903564   -150.78337097     81.07932281
Li       58.78820801   -225.12928772     73.37351990
Li        7.21305513   -150.38388062     98.13102722
Li      -44.46171188    -47.88891602    -24.62755585
Li      -58.18585587    -71.58061981    -50.45321655
Li      -23.04674911     85.95800018    -53.52539062
Li     -101.51589203    -68.51939392    107.12946320
Li      -31.62810135     29.31101036   -253.32287598
Li       18.03630447    -58.53372192    190.00784302
Li     -105.24774170    337.56127930    -96.51722717
Li       89.46930695     52.62885666    149.53294373
Li      -89.33495331    325.13854980    163.00727844
Li     -105.30449677    192.91596985   -108.66316223
Li       -7.20048428   -108.31186676    -77.24610138
Li       26.62756538    -77.95153046     62.00314331
Li      -23.38875771     37.88342667    149.77471924
Li      101.59499359    258.91992188     17.84433937
Li      149.84361267     44.05286407   -147.82273865
Li     -114.91334534    -36.83718872     61.19603348
Li        6.70389748     11.19031429    136.60932922
Li     -187.31376648   -202.28335571    119.55658722
Li       55.06835938    -72.82169342    147.90127563
Li       82.07429504     40.52365112     -9.77002335
Li       19.87096786      5.48343182    153.39309692
Li       73.78077698    -96.79638672   -161.48683167
Li      305.00659180    156.11827087   -130.37783813
Li       67.49304199    172.57720947     73.86378479
Li      217.78628540    154.00942993    159.26405334
Li      -73.27186584   -129.90689087    -51.21897125
Li      106.32274628    -55.97978592    -40.88451004
Li       -5.88240671     80.66988373   -138.66563416
Li      -80.19925690     56.11431885   -346.03427124
Li      -62.13924026    193.07040405   -122.32828522
Li       88.41744232   -210.89698792     68.88610077
Li      -36.66410828   -175.20320129     25.92882729
Li      -10.08544540    -45.12295914    -11.16081047
Li       10.63669491    127.49552917    -32.89581299
Li       93.94046783   -222.99955750   -181.35009766
Li       45.80190277   -191.96379089    -83.30663300
Li       63.94918060     50.28607941      5.99016428
Li      -59.43023300   -179.83102417     42.98429489
Li       -6.22791958    236.62986755     64.56851196
Li     -120.22192383     -0.25908598     15.98806667
Li      -24.01491165    223.20274353     81.45317078
Li       80.95433807   -305.41998291    128.16917419
Li      -97.93204498      8.47525215     86.62921143
Li       43.10168076     99.41698456    211.35046387
Li      -54.35162735     59.84766006    187.47674561
Li     -174.93159485     83.48004150    145.04240417
Li     -213.79597473    -41.40755844     78.59058380
Li      102.52384186   -214.08187866    174.48661804
Li      -31.69340134     -1.10863554   -269.53524780
Li       29.10489082    152.36067200   -147.96662903
Li      -45.02296448     47.62182236     77.53402710
Li     -127.30609131   -264.28854370   -159.93238831
Li     -148.45428467     90.90126801   -104.62517548
Li      -32.03523254    310.26013184    111.07510376
Li        6.62171745   -166.23544312   -109.53976440
Li       41.15068436     96.07490540     98.82303619
Li       80.33581543     35.27590561    161.73089600
Li      -70.51322174     -8.76921558    -70.73902893
Li     -126.29091644   -158.30952454    237.32298279
Li     -153.49293518     88.34704590    102.86143494
Li       31.73184395    -18.68473053   -201.47489929
Li       11.01718616   -101.60888672   -168.29368591
Li      274.61553955      6.01141691    208.80836487
Li      -62.72362900    -87.87377167    -15.95996761
Li      128.60322571     79.00908661     56.13016891
Li      -37.41378403   -175.71241760     84.63516998
Li       97.88098145    -21.84364891     82.05577850
Li      140.15469360    -17.04571915    212.51644897
Li     -384.41757202    127.59851837    197.87895203
Li      196.98088074    168.63975525     39.01085663
Li       11.39662647     16.57678604    -75.09210968
Li     -148.67587280     27.35262489   -189.12194824
Li       93.50772858   -107.72796631    149.43157959
Li       63.58141708     86.55805969     64.57604218
Li      -93.42841339     39.72820282     60.59036255
Li       -7.32845354   -216.30287170    -92.73108673
Li       58.85623169    -39.19463348   -231.91018677
Li      183.80572510    -95.27159882    204.85037231
Li      -10.29750824    -69.20027924    -49.04629135
Li      -15.21073246     78.75406647   -151.55722046
Li      -96.98783112   -172.67733765    119.86865997
Li       62.17988205    160.00740051     34.54552078
Li       97.63724518    284.58859253     55.93726349
Li      -69.20742035    293.21578979    156.26948547
Li       79.48935699     24.03671074     25.99099922
Li      -41.03105545    -95.92076111    -32.73093033
Li      -49.48165131     -1.74689615     94.41341400
Li      106.78995514    182.80587769    -45.42392349
Li      -44.43865204    -59.87941742   -165.15560913
Li       16.06226540    115.42193604    -54.40948868
Li     -149.35867310    204.27217102   -169.40164185
Li      -53.26649857    174.92745972    -28.49687767
Li       15.21632481    104.99053192    102.50449371
Li      231.88789368     57.29995728    -37.16735458
Li      144.84068298    -18.31539345   -167.86741638
Li      105.58261108      9.91120148    128.25650024
Li      -49.00461197    140.65554810    -36.36413193
Li       11.21797562    -79.43261719     18.11125183
Li       33.99208832     92.94647980    -58.15332031
Li     -126.33145142    352.25280762   -140.16760254
Li      -12.94571972     34.77593231   -131.09671021
Li      154.02510071    237.91421509     21.93557739
Li       -9.87654591   -117.44987488     73.38439941
Li     -157.37359619   -175.08856201     22.31216812
Li       45.46082687    -24.37029266   -155.97018433
Li       66.92002106   -152.16972351    120.04441833
Li      128.29417419    202.14370728     39.29033279
Li      -54.49801254    -30.20259285   -117.69377136
Li       67.65272522   -216.56427002   -214.18898010
Li       -1.87747085   -195.93199158     30.64816666
Li     -183.04156494     63.51504898   -138.84326172
Li      -40.66070938    164.09124756   -138.46461487
Li       -2.21517515   -127.32729340    -91.47827911
Li      -89.86827850    -97.09756470     91.40804291
Li     -213.18273926   -127.88482666    -32.88741684
Li       19.72939682    197.90364075   -116.93089294
Li       92.89801025    -90.78553772     27.09971046
Li      228.00895691    107.60939026     47.35886383
Li      132.05430603    -77.43930054     43.83387375
Li       24.41151619   -252.81101990    -67.30815887
Li      -59.22879410     37.93877792    141.03327942
Li       71.86128235    -30.84192848     65.44200897
Li       15.92346287    -99.14179993     81.88426971
Li     -226.38542175   -240.30427551    131.35766602
Li       30.53144836     17.33878517     11.64696598
Li       33.49361038     85.09839630    -13.09018898
Li       65.06088257     85.79595947     92.13230896
Li      102.42019653    326.08023071   -231.76864624
Li     -157.55633545   -190.65847778     26.82126617
Li      -88.37088776    135.36413574   -159.13420105
Li      125.26885223    121.77423096    -69.41833496
Li      -66.54340363   -367.70391846    292.93603516
Li       -0.37897974   -162.89244080    159.74751282
Li       14.93231297    110.17594910    -16.00068665
Li     -126.56734467    -37.61738586    -79.49563599
Li     -161.72903442    -86.94843292    -32.42138672
Li      -31.93457603   -212.91064453    -37.31055832
Li      -87.87797546    -19.91163445    145.42399597
Li     -143.50485229    -61.52109146    -54.13352966
Li       55.34968567    300.84310913    -79.74114990
Li       46.34014893     23.30769157     -2.54768062
Li      188.26692200    -64.30581665    357.52807617
Li       93.69554138    102.16856384     94.46739960
Li       83.85051727     -3.30411196    178.51002502
Li      -19.37977982    -39.29540253    -20.09615898
Li       12.01211071    214.98236084     13.93855953
Li      240.28318787    -53.75650406     81.86893463
Li      -14.19917870    -40.50616455   -257.32415771
Li     -174.08749390     45.22535706   -112.88220215
Li       23.76359940    234.81216431      1.41320872
Li       72.25131989    -37.11656952   -130.68484497
Li      -92.13674927     16.14430428     39.17913818
Li      -79.85749054    108.05685425    170.89146423
Li       85.07684326     56.77109528     35.09876633
Li       33.28739548    -31.24881744   -181.76622009
Li      -19.15503883      5.44003773    -36.51931381
Li      140.85070801   -348.42651367      6.00253296
Li      -58.14815140   -172.15362549    -84.53795624
Li       78.96501923     49.40760422    -48.10753250
Li       11.30516052   -100.48632812    103.41942596
Li      235.36186218    109.43388367    -92.11566162
Li        0.10769929    181.07557678   -188.08453369
Li      183.66096497     22.43053627    -32.32434082
Li      117.28853607     35.95624542   -124.05792999
Li      300.13488770   -148.42701721    141.16514587
Li       54.09850311    -51.04407120    102.97003937
Li      -45.36876297     53.56580734    298.80584717
Li      -66.67802429   -207.50190735     68.03836823
Li       38.91875458    125.37962341   -157.59817505
Li      -81.62355804    271.06890869     54.42094421
Li       -9.48888969    -23.49616623     38.21844482
Li     -174.72734070     32.77265167    -58.67393875
Li       40.83337021     78.02024078    161.83197021
Li     -135.49833679     68.45437622     13.64488888
Li     -170.67077637    -14.17731476      1.56129801
Li     -105.39961243    -20.98411179     81.93262482
Li       25.25804329   -147.15925598      4.68523598
Li       63.23183823   -242.46124268   -147.39697266
Li      -40.28713989    -82.90793610    145.66365051
Li        2.61422396    100.43016052    -33.19785690
Li      102.94296265     33.56265259    -37.10646057
Li       -1.35799289   -210.89468384    123.59765625
Li       46.32622147   -248.73373413     59.46771240
Li      127.97455597    -99.48537445    -19.26465607
Li       46.29142761    123.05236816    -79.07740021
Li      304.52218628    172.10456848    -94.78088379
Li      171.36267090   -307.23706055    -61.67428589
Li       42.35768509    214.55276489     98.62360382
Li       19.59975052    273.15014648    -20.05490875
Li      110.73536682    234.86218262     60.14309311
Li      189.38212585     96.82392120    140.56202698
Li      175.62991333   -212.50599670    -84.06859589
Li      140.59197998     49.97442627     43.71480942
Li      175.64875793    198.04377747    -62.89292908
Li     -209.01132202   -334.40194702    -19.68954468
Li       23.63302231   -115.45364380    170.42556763
Li        2.47267580   -119.77159882    289.37759399
Li      -71.00382233     24.16522408    132.53460693
Li     -148.09024048   -128.95297241     72.74362946
Li       58.54040146      0.34426969    127.77760315
Li       18.15472984     -8.57332325     49.85297775
Li      100.63780975      5.15929127     24.82090378
Li       63.02589035     10.41949844   -155.78192139
Li      -23.37756157   -146.04104614     52.44781113
Li       59.39361954   -111.43046570     90.40935516
Li      -18.77765274   -150.11041260    -97.48144531
Li      -18.96551704    256.32638550   -291.75692749
Li      -16.17232704     72.91115570   -179.49482727
Li     -126.28271484   -124.35873413     39.40608215
Li      153.35313416    -33.68574524    -24.16540718
Li       89.10145569    303.80062866      0.71190971
Li       20.16698074     65.41939545    -79.33858490
Li       32.63056183   -386.57995605     35.13643265
Li       84.39037323    340.05343628    -84.23233795
Li     -122.36795044    223.84603882    208.54611206
Li       20.51015282    -45.87782669    -97.68553162
Li       54.14921188   -179.75756836   -134.32662964
Li       58.19707870    -18.42237282     -6.81842756
Li       53.88550949   -189.12277222    -33.32693863
Li       58.45729065     53.54450607     61.00356293
Li      -62.61170959     41.35900116   -109.44681549
Li     -148.78175354     54.06517029     -3.12665462
Li      -77.93203735     48.37570953     36.63189316
Li     -127.03263092     23.17407990    183.74935913
Li       66.71564484    321.90164185     42.58156204
Li       16.20116997    157.41641235     80.75452423
Li     -153.46401978    271.99691772      0.97578943
Li      -84.02426910    -59.60575867    233.97848511
Li      203.53355408    -10.02708530    469.64184570
Li      141.47070312    237.46456909   -126.07360077
Li      123.91129303    143.85557556    149.14370728
Li       41.22386551    -78.83912659     26.93732452
Li     -152.65884399     -0.95736200    106.15338135
Li       11.70489025    -58.73562241     99.37887573
Li      -79.76425934    -30.62541580    -32.74433517
Li      141.41239929    -61.20485306    -16.05349159
Li       87.12336731     64.56377411    -25.60351181
Li      -13.84636974   -142.34976196     55.83621597
Li       37.37450790    382.12646484   -193.73498535
Li     -123.03229523   -130.08966064      9.27471352
Li      106.84611511     -6.92534637    -63.09841537
Li       37.46437454   -227.47579956   -270.24053955
Li      -27.75029373   -154.95657349   -151.54695129
Li      145.02458191    207.49450684    120.01652527
Li      -53.35251999   -322.45330811   -122.47941589
Li       54.89540100    309.53906250      9.46388149
Li        2.57551932    -34.75578308     98.53922272
Li       76.31660461      2.33943915    128.36892700
Li      -88.33010864    -39.30588913     56.06739426
Li     -204.89532471    -58.45941162    -28.44943810
Li     -139.85018921    -27.68092346    204.67294312
Li     -282.45684814    -19.16438675    191.55242920
Li     -153.18963623   -167.23863220     59.95923615
Li       48.65786362    -63.18318939    146.80503845
Li     -261.64422607   -259.78408813   -219.36070251
Li      141.43086243    -99.98689270   -114.57810974
Li     -180.54328918   -122.67095947     11.04619980
Li      -10.06455612   -222.50320435    -12.11569309
Li       97.94068909   -168.79180908     52.16294098
Li     -106.09493256     90.11543274    147.73292542
Li      -28.23056602   -148.44708252    -24.91037941
Li       55.04959488     26.00007439    -28.96652985
Li       58.32825089    186.17706299    136.55250549
Li     -166.09503174     12.36147118    163.06347656
Li      183.70030212      1.45587122    115.79185486
Li      -96.08715057    -17.96824837   -214.81935120
Li       23.84129715    150.70196533   -240.34634399
Li       50.15105438    352.32226562    141.83964539
Li       41.94480133     24.78135300    141.15145874
Li       11.29605579   -163.81927490   -377.38909912
Li       96.17311096    220.85887146   -200.24055481
Li      -61.97369003    193.26794434   -236.15345764
Li      -53.30319214    -45.16887283    -33.38578033
S         0.29867461      8.57736969      1.64370906
P         0.28948316      9.54472065      3.50259519
S         1.91928232     10.74641514      3.21601892
S        -1.72407413     10.29966736      3.60241508
S         0.46287388      8.54151344      5.38060904
S         0.37527832      8.41944027      9.82893085
P         0.33678502      9.55490303     11.45136166
S         1.86532187     10.92224979     11.56651688
S        -1.50812256     10.53948879     11.81035995
S         0.61882669      8.62730408     13.37617874
S         0.98009557      8.71256924     21.98365593
S         0.50341487      8.69775009     18.87332344
P         0.50418520     10.10969734     20.33985138
S         2.14467716     11.48732662     20.33006096
S        -1.19401634     10.97935486     20.32915306
S         0.63332123     17.64119530      5.04736853
S         0.23890869     17.50122070      1.68170154
P         0.32210815     18.74476242      3.32276511
S         1.95951962     20.10594940      3.32523108
S        -1.60131896     19.60219193      3.42648435
S         0.60780162     17.29894257     13.27042294
S         0.51883966     17.35071182      9.97405624
P         0.42005521     18.56502342     11.64579678
S         1.87673986     19.96103859     11.31462860
S        -1.36844361     19.53611183     11.71535683
S         0.94640040     17.64652061     21.48656464
S         0.78878748     17.57211685     18.11404991
P         0.66035330     18.60522652     19.71466446
S         2.12973452     20.01879883     19.63144112
S        -1.05233955     19.66211319     19.94987106
S         0.61273038     26.51038742      5.13688517
S         0.24484685     26.41542244      1.67191064
P         0.21276419     27.59248543      3.45543170
S         1.86548340     28.88769722      3.31615162
S        -1.74327469     28.51639175      3.45960879
S         0.78294790     26.60759735     13.46028805
S         0.63799310     26.43589783     10.13003159
P         0.47870985     27.75452232     11.77657127
S         2.09422278     29.04576302     11.69837570
S        -1.27967346     28.63035202     12.02615738
S         0.82217216     26.54765511     21.85803795
S         0.52698404     26.52800751     18.60347176
P         0.42857742     27.53775215     20.27728462
S         2.17121792     28.94532776     20.05910492
S        -1.31149554     28.44655418     20.25847816
S         8.89898682      8.43296146      4.77501249
S         8.69032383      8.30139446      1.42967069
P         8.68905544      9.47487164      3.09840441
S        10.26814747     10.68775463      2.99165702
S         6.74601269     10.25699997      3.27224064
S         9.54265881      8.42091179     13.24081421
S         9.26255608      8.28711510      9.75583267
P         9.12862873      9.41121101     11.42274952
S        10.76431084     10.53914547     11.41794682
S         7.19306707     10.27518940     11.63931465
S         9.44388676      8.63382149     21.72399521
S         9.19226646      8.50015736     18.26136398
P         9.05656815      9.58636665     19.92943001
S        10.64450836     10.97390175     19.90195084
S         7.25589275     10.63851643     20.14019585
S         9.59951973     17.44019127      4.68807268
S         9.15584564     17.24295998      1.28863752
P         9.26192379     18.57930565      2.85791612
S        10.85965824     19.91389084      3.01785231
S         7.41548634     19.40482521      3.05911946
S         7.31348705     19.39077950     11.83749485
S         9.34912682     17.35262299     13.36535072
S         9.09854889     17.24197197     10.07803154
P         9.14660549     18.52620316     11.54055405
S        10.62160397     19.86588478     11.61446762
S         7.36092710     19.71845245     20.23528671
S         9.30284405     17.43421555     21.91112518
S         8.96479607     17.44125366     18.62758064
P         9.16146755     18.79336166     20.26865387
S        10.52398682     20.30103683     20.08807945
S         7.08581734     28.76453209      3.37820458
S         9.11599064     26.57248688      4.86395454
S         8.94283009     26.53083801      1.67476904
P         8.91842175     27.79397964      3.23663902
S        10.38786316     29.21399689      3.07825541
S         7.27234697     28.33674431     11.91432858
S         9.41524124     26.40288353     13.59215546
S         9.07641506     26.31172752     10.11719704
P         9.16409397     27.49417496     11.73674583
S        10.76480007     28.86507797     11.74720192
S         7.30130863     28.68123627     20.16861916
S         9.43464375     26.48177147     21.75467682
S         8.91703033     26.28103447     18.55153847
P         9.14294338     27.60413742     20.17669678
S        10.45352459     29.11037064     20.23276138
S        15.92014694     10.22747326      3.40508604
S        17.99944496      8.52949524      4.80480289
S        17.96575165      8.33502102      1.34890234
P        17.88930130      9.51121140      3.10678291
S        19.46498299     10.63234329      2.94867277
S        19.39355278     10.87749290     11.55605793
S        15.88014412     10.31419086     11.76491165
S        17.96417427      8.60172749     13.43227673
S        17.66176796      8.38904858      9.73849487
P        17.78168297      9.46069241     11.41459274
S        19.33339691     11.14286804     20.29732704
S        15.91041374     10.61679077     20.51158714
S        17.99938011      8.45850849     22.02702332
S        17.73393631      8.36766243     18.81334877
P        17.77569008      9.76307106     20.45380020
S        19.25811768     20.05543137      3.07404447
S        15.85130215     19.60607910      3.17978978
S        18.04299355     17.50524902      4.80411959
S        17.66252136     17.47529411      1.59491432
P        17.75105476     18.72225571      3.20624113
S        19.43912697     20.60948563     11.63671017
S        15.95637226     20.07267761     11.76124287
S        18.11798859     17.93845177     13.30510426
S        17.76412773     17.85511589     10.15323448
P        17.89876938     19.18762016     11.63023949
S        19.34233093     20.01578712     20.02910233
S        15.92690659     19.55219078     20.27832794
S        18.01305008     17.69347954     21.86421394
S        17.76599503     17.50161934     18.30649185
P        17.80035019     18.74884033     20.09068108
S        19.55962944     28.86446953      3.13607717
S        15.99572563     28.39143372      3.44019771
S        18.14670944     26.50007057      5.02767515
S        17.94568253     26.41649246      1.57068610
P        17.91940308     27.60365868      3.11568761
S        18.87715721     28.71485519     11.71793842
S        15.52947044     28.30656242     11.82517433
S        17.70849419     26.38091660     13.61472797
S        17.30419350     26.31421089     10.02219772
P        17.35479355     27.36969757     11.77432060
S        19.61465454     29.46148300     19.84646797
S        16.22483444     28.78179741     20.09372139
S        18.14712524     26.76884270     21.61860275
S        17.91087723     26.65858459     18.32897377
P        18.13974571     27.89423180     19.92806625
S        10.58875179      2.22889876      7.34678602
S         8.91183472      4.43675613      5.78209496
S         7.21877527      1.74568796      7.45754480
S         8.56823254      4.35213518      8.98221779
P         8.80585766      3.20743155      7.35893965
P         8.92398357      3.30724859     15.65274048
S        10.85500240      2.67825675     15.78018475
S         8.98437881      4.41986275     14.05660629
S         7.26499557      2.12161207     15.56112862
S         8.95071602      4.45592165     17.37105179
P         9.08520412      3.52498698     24.19017601
S        10.88137245      2.68907857     24.54956055
S         8.96788979      4.93229961     22.67695045
S         7.53177214      2.29142666     24.29513359
S         8.99839211      4.81622887     26.00366592
P         8.69316483     12.61737442      7.16442156
S        10.66225243     11.80703545      7.23565817
S         8.72909832     13.82094097      5.33640766
S         7.12039566     11.39034557      7.08250093
S         8.63870907     13.71652985      8.85511208
P         9.10963154     12.46420670     15.76040745
S        10.98845387     11.75625896     15.68767929
S         9.28005695     13.68013763     14.20367050
S         7.50574732     11.17265606     15.66856289
S         9.04006767     13.81415367     17.43355370
P         9.05484676     12.61728477     24.10158539
S        10.89511871     11.73687363     24.17458534
S         9.10065365     13.66365147     22.34370232
S         7.49169254     11.27820683     24.06656265
S         8.95631313     13.67941856     25.96897316
P         9.00526047     21.62687683      7.16479254
S        10.86312771     20.67185974      7.26242113
S         9.06290722     22.82477188      5.66678047
S         7.36740446     20.19886208      7.27834368
S         8.80496025     22.79727745      8.90368652
S         8.80762100     22.73082161     17.55646706
P         8.95456791     21.35642242     15.97072220
S        10.74789619     20.57540131     15.86073017
S         8.98028851     22.62448120     14.30675125
S         7.35817432     20.08861923     15.78086662
S         9.07155895     22.75628662     26.17162895
P         9.13034058     21.58613968     24.49187088
S        11.14178467     20.80292511     24.38913727
S         9.30437088     22.71900940     22.70065689
S         7.47424746     20.24981689     24.35685539
S        17.59910011      4.56413555      8.89181900
P        17.47198296      3.34896779      7.41998339
S        19.33359718      2.55584335      7.52050877
S        17.54537201      4.64004898      5.77488184
S        15.89323330      1.91312861      7.23533201
S        17.50365639      4.82692671     17.61740112
P        17.52435684      3.55654931     15.85905552
S        19.55986977      2.90417671     16.04530334
S        17.45874214      4.86912537     14.11693573
S        15.87016296      2.50798464     15.74829006
S        17.50648117      4.42603827     25.92492294
P        17.62981033      3.39322257     24.20176125
S        19.50002670      2.40193748     24.37038803
S        17.58872986      4.53954887     22.52323151
S        16.06267166      2.01754141     24.21929359
S        17.30159950     13.91122723      8.85531425
P        17.55718613     12.76460743      7.11337614
S        19.42364883     11.75687027      7.04803658
S        17.57448387     13.82111645      5.46251583
S        15.89935303     11.33743477      7.06074667
S        17.47622681     13.71454906     17.56255913
P        17.59031296     12.44552135     15.94403458
S        19.60916710     11.47350979     15.95528793
S        17.57903862     13.64635849     14.33849907
S        16.02047348     11.12214565     15.80515957
S        15.84871769     11.62255669     24.68934631
S        17.40498924     13.58673477     26.39092064
P        17.60800171     12.70483112     24.56114769
S        19.45990562     12.08054161     24.72570992
S        17.61004639     13.77827549     22.78085899
S        16.21692848     20.30760002      7.22657061
S        17.80953598     23.03332710      9.04843330
P        17.81592941     21.74302864      7.36228323
S        19.67027473     20.85717964      7.45381689
S        17.82998085     22.99723244      5.72237873
S        16.05135918     20.23529625     15.98084545
S        17.42810631     22.92724609     17.72736931
P        17.66586876     21.69932938     16.08162117
S        19.41607475     20.71125412     15.96712971
S        17.69304085     22.85191536     14.41207314
S        16.57825279     20.49505615     24.27871323
S        17.95740700     22.93634415     26.11480713
P        18.07581711     21.84330750     24.31934357
S        19.79500198     20.89818954     24.45243835
S        18.01968956     22.95091820     22.62560463
S        24.90742302      2.19835997      7.45717430
S        26.29281807      4.70390797      9.30122948
P        26.24723625      3.65759563      7.68793583
S        27.97760201      2.61500287      7.74670219
S        26.23316765      4.67141390      5.96611691
S        24.58941460      2.11157346     16.07881355
S        26.14673233      4.57315874     17.93020439
P        26.15381432      3.37684298     16.16054916
S        28.12948799      2.60543299     16.21446800
S        26.26630974      4.54860115     14.44559193
S        24.72659874      2.34936547     24.19955063
S        26.21614838      4.67250919     26.12451553
P        26.32546234      3.68283653     24.23506927
S        28.27489090      2.75414324     24.32108498
S        26.35188103      4.68839216     22.41213799
S        24.58458138     11.15693283      7.48570681
S        25.78096008     13.52402020      9.22289467
P        26.20429611     12.43710041      7.58307314
S        27.99439621     11.36508751      7.45629072
S        26.05997658     13.48257351      5.84066439
S        24.43006706     11.31575012     15.97897911
S        25.84621048     13.62218571     17.84038925
P        26.16207314     12.66166115     15.98923779
S        28.17495918     11.67296886     15.88343334
S        26.21066475     13.68417835     14.00448799
S        24.56412888     11.64758110     24.62108803
S        26.05582237     14.12054062     26.35363579
P        26.26730919     12.89239216     24.66053009
S        28.16905022     12.08365059     24.66866493
S        26.26479149     14.04888821     23.10397720
S        25.93045807     22.79505157      5.35580444
S        24.45013618     20.42782593      7.34239483
S        25.80941391     22.63813400      9.24033737
P        26.01803017     21.70853424      7.36020470
S        27.89449310     20.70870972      7.46492290
S        26.19563675     23.01719666     14.03501225
S        24.85066605     20.26806068     15.70800877
S        26.06076050     22.86762238     17.27201653
P        26.34776878     21.68500900     15.62022972
S        28.10129356     20.51664734     15.78976059
S        26.02029419     22.43865585     22.77756500
S        24.50157356     20.27315712     24.28004456
S        25.90264702     22.55965424     26.13871384
P        26.22433472     21.25838470     24.40042686
S        28.06308746     20.54092407     24.42233276
S         6.30676889      6.39015150      2.85944200
S         4.81148005      4.00177622      4.76741743
S         4.61592627      3.94806886      1.21093893
S         2.72843862      5.83542681      3.13473034
P         4.59496069      5.03292084      3.04807663
S         6.60448170      6.35219955     11.85041046
S         5.23750639      3.92617154     13.64861870
S         4.93609810      3.76355243     10.04180050
S         2.95288587      5.91317511     12.01622486
P         4.77382565      5.14189148     11.98945522
S         6.41023159      6.50600338     19.81151199
S         5.06527710      4.02824163     21.63105583
S         4.92538691      3.98699975     18.27661705
S         3.10649800      6.02092123     20.11072159
P         4.75952196      4.98547649     19.92759895
S         6.31355906     15.08926201      3.08959103
S         4.81825495     12.84194946      4.98537922
S         4.76389313     12.74224281      1.46867180
S         2.66252351     14.67030811      3.49726605
P         4.49774504     13.86756420      3.24700403
S         6.21662283     15.48978424     11.15600204
S         4.97145033     12.77829838     12.95387459
S         4.73318291     12.79588127      9.66165257
S         3.04895043     14.96914101     11.35429859
P         4.81268215     13.96616745     11.25967789
S         6.41000509     15.83523178     19.97854614
S         4.89840651     13.40433407     21.84007263
S         4.74218655     13.37478447     18.43258286
S         2.77155685     15.30748177     20.28412819
P         4.65589094     14.60358143     20.01039886
P         4.48964119     23.27291489      3.27682304
S         5.94255686     24.64225197      3.17000747
S         4.69479227     22.09438133      4.92274570
S         4.36822557     22.04737663      1.55437028
S         2.39322162     24.25939941      3.30037498
P         4.59158564     23.15140533     11.72485256
S         6.28034639     24.56096268     11.63934803
S         4.94147587     22.19429588     13.45148468
S         4.59555101     22.12059593      9.92497349
S         2.85261488     24.03257942     11.75332451
P         4.80497885     23.13041878     20.11627769
S         6.36272430     24.53036880     20.05590820
S         5.04565191     22.09428978     21.96949196
S         4.79701757     22.12540054     18.48295403
S         2.90643716     24.08636856     20.27489090
P        13.38817215      4.91937685      3.04221272
S        14.95283890      6.40457916      2.88834453
S        13.63741589      3.82013917      4.63367271
S        13.34902287      3.75833273      1.28683388
S        11.42096996      5.95363188      3.05216670
P        13.57895088      5.18782282     11.70621395
S        15.09560871      6.60142183     11.46813488
S        13.90408134      3.91919088     13.31675053
S        13.70672417      3.98024893     10.02294540
S        11.72944641      6.25931692     11.72212887
P        13.12073803      4.93305683     20.07015419
S        14.49120235      6.48561859     19.90758324
S        13.20057297      3.93429661     21.92725563
S        13.10411263      3.90743208     18.25284195
S        11.32682800      6.01533699     20.27091599
P        13.17985153     14.21982288      3.13537502
S        14.85065651     15.39011860      3.03786230
S        13.51607037     13.16054440      5.00492907
S        13.24386597     13.18908119      1.40215623
S        11.27035809     14.99667549      3.24913716
P        13.05984783     14.10317135     11.52621365
S        14.70151234     15.25401878     11.38173008
S        13.42500973     12.93166637     13.03673267
S        13.00438404     12.87480545      9.77353001
S        11.14886665     14.81664467     11.41057205
P        13.35665894     13.96569157     19.77391624
S        14.96545887     15.39646244     19.88697624
S        13.63112164     12.90083027     21.64917755
S        13.42944050     12.68727684     18.08561325
S        11.57983303     14.92376995     20.12532425
P        13.57492065     23.25845146      3.10558271
S        15.22776699     24.41400337      2.90389919
S        13.89335060     22.19221115      4.76347113
S        13.75983810     22.08863068      1.24180937
S        11.71017551     24.07697487      3.22775555
S        11.43788528     23.97716904     11.97066975
P        13.30191612     23.18088150     11.79143810
S        15.15514851     24.60118675     11.76718903
S        13.59600544     22.09362411     13.60909462
S        13.32758617     21.99575424     10.06146622
S        13.59063148     22.28314781     18.54412460
S        11.75524616     24.18238831     20.35960388
P        13.57903290     23.32302666     20.29249763
S        15.20858479     24.68443108     20.13878822
S        13.83978844     22.26365852     22.06375313
S        21.86836433      3.80939460      1.50322354
S        19.96347618      5.91467094      3.31150770
P        21.83523750      5.02885437      3.26115489
S        23.48074341      6.36162806      3.15262198
S        22.16129875      3.89758039      4.90109158
S        22.01621056      3.78709388     10.07607746
S        20.21105766      5.69332647     11.79277420
P        22.18999290      4.96458817     11.71962357
S        23.87309456      6.27038956     11.76309586
S        22.44924164      3.86423683     13.47789574
S        22.24161720      4.18188143     18.29532051
S        20.34194946      6.16300583     20.15867805
P        22.11913490      5.14742899     20.08272362
S        23.58444405      6.55157137     19.76234055
S        22.31616402      4.06290531     21.84892273
S        22.17720985     13.01109028      1.64515293
S        20.31699753     15.19028473      3.25666952
P        22.27796745     14.23174191      3.20224643
S        23.65855217     15.69724083      2.95289040
S        22.31078148     12.92903709      4.74587727
S        22.55831146     13.21016979     13.19960594
S        22.06198311     13.12441826      9.56396103
S        20.27177238     15.13356113     11.37436962
P        21.99132347     14.22183323     11.32044411
S        23.68661690     15.50396347     11.40395832
S        22.38535309     13.34809780     22.20433235
S        22.07732201     13.36222553     18.63284492
S        20.32733345     15.32438755     20.44146919
P        22.23476410     14.44935799     20.29256630
S        23.74612236     15.88309765     20.27741814
S        22.13763046     22.29693794      5.21748066
S        21.90076256     22.40024948      1.65158117
S        20.01081467     24.40675735      3.43887854
P        21.89854813     23.48910141      3.47420216
S        23.44877815     24.86219978      3.19229507
S        21.92250443     22.42074013     13.86819458
S        21.96676826     22.53847885     10.37521744
S        19.97410202     24.57052422     12.28040123
P        22.00291252     23.64348984     12.12440395
S        23.36301041     25.03858185     11.76329136
S        22.36932564     22.23252869     22.01198959
S        22.14348030     22.06248093     18.54365349
S        20.24611855     24.17575455     20.48940659
P        22.09140015     23.13642693     20.22386932
S        23.68756866     24.60456276     20.27404213
S         4.48710108      9.16328144      8.93749619
S         3.15724182      6.63220739      7.29596329
S         6.48571157      7.00708914      7.32522249
S         4.70622063      9.22961998      5.64878368
P         4.66384983      8.04635334      7.21223211
S         4.42419672      9.22592640     17.92807770
S         3.07549024      7.02950859     15.94070721
S         6.55296421      7.34109545     15.95867252
S         4.68685150      9.23459816     14.02042961
P         4.71547985      8.32290745     15.91081238
S         4.30836964      9.33767319     25.79338837
S         2.88531852      6.81140327     24.14232254
S         6.61388493      7.20531607     24.02210045
S         4.70697212      9.32496166     22.48691559
P         4.57938528      8.11127281     24.18241310
S         4.71311808     18.34576607      9.16096687
S         3.20686531     15.78030968      7.31632566
S         6.75247192     16.19043350      7.48695278
S         4.81451893     18.28785133      5.77806950
P         4.67408276     17.16299629      7.48276281
S         4.59789371     18.28848076     17.29800415
S         3.20923090     15.73674202     15.62321758
S         6.77346706     16.05305481     15.68463230
S         4.80195141     18.23569107     14.14956379
P         4.82519770     16.91310501     15.71408844
S         4.58613968     18.37482071     26.41962624
S         3.15664387     15.88425159     24.58532524
S         6.60358000     16.25199699     24.73258591
S         4.70102310     18.41776657     22.87784767
P         4.82504129     17.27776146     24.54413414
S         4.24731064     27.09116936      9.24983406
S         2.75959969     24.79036903      7.50521517
S         6.49510813     25.14217758      7.53483868
S         4.49272299     27.12964058      5.79376507
P         4.43772459     25.97823524      7.52654743
S         4.40432119     27.79684830     17.71223068
S         3.20425463     25.16160965     15.88502884
S         6.44058228     25.38845825     15.99789524
S         4.54893255     27.77063942     14.25798321
P         4.63812590     26.50452995     16.02507210
S         4.45589590     27.53873253     26.07741547
S         2.94151235     25.11534119     24.16465187
S         6.42514229     25.52050781     24.38119125
S         4.51627398     27.40000153     22.71798897
P         4.54335022     26.25857162     24.46089172
S        12.98446560      9.51417732      8.95211983
S        11.66291428      7.17802763      7.35440159
S        15.17746639      7.47255611      7.31648207
S        13.27474022      9.69206238      5.51580715
P        13.15870190      8.31969833      7.31414413
S        13.12267113      9.10576820     17.81208992
S        11.71617126      6.71978378     15.81179714
S        15.05928707      7.14703703     15.89336205
S        13.31919098      9.03586578     14.06233215
P        13.29415512      8.08883858     15.90413952
P        13.27185154      8.17495251     24.35347748
S        13.05806541      9.33514977     25.87804031
S        11.66268539      6.93274736     24.35304260
S        15.16183758      7.30994129     24.34597206
S        13.31429863      9.45814228     22.70309830
S        13.30414104     18.40149879      5.49484491
P        13.39205933     17.25564003      7.11732578
S        13.27099991     18.37736320      8.95108414
S        11.77876663     15.97863960      7.11300087
S        15.16032314     16.39363670      7.33737230
S        13.32459641     17.96297646     14.29207230
P        13.19314766     16.66862106     15.95268440
S        13.11207962     17.91515350     17.53063202
S        11.73764610     15.35871029     15.89438725
S        15.15279388     15.74183750     15.93546963
S        13.61016083     18.27342224     22.32522202
P        13.32783699     17.18120193     24.08715248
S        13.10840988     18.22820663     25.88922882
S        11.91480350     15.94037914     24.20549393
S        15.26630116     16.28254509     23.96852493
S        13.13717079     27.39048386      5.57889509
P        13.27881718     26.27093315      7.27586603
S        12.81999874     27.41030312      9.07418156
S        11.51791477     25.04649162      7.29677105
S        15.11593628     25.29079247      7.25535297
S        13.30689240     27.45037270     14.21755981
P        13.30425930     26.34443855     16.00269508
S        13.18879318     27.28890610     17.72488213
S        11.81749153     25.04730988     16.01022339
S        15.17660141     25.36610794     16.13883972
S        13.61498165     27.05001068     22.80506325
P        13.60423088     26.00585556     24.63806534
S        13.31882286     27.07391548     26.31687546
S        12.01047230     24.55496407     24.51588440
S        15.40786266     24.91321754     24.49036407
S        21.78427124      9.50504684      6.04594183
P        21.91510582      8.16813087      7.69961643
S        21.64654922      9.46845627      9.32129574
S        20.27188873      7.02234459      7.63002205
S        23.72952652      7.32452297      7.74808502
S        21.79441071      9.45354652     14.10924244
P        21.71377182      8.37225723     15.80634308
S        21.70753670      9.41941833     17.54676247
S        20.26690102      6.98465157     15.74779510
S        23.61830521      7.39102268     15.91701126
S        22.16535759      9.37334538     22.42668533
P        22.14324570      8.18636227     24.16916656
S        21.92764473      9.44056511     25.83049965
S        20.65047646      6.78249693     24.02786255
S        23.88706589      7.16072416     24.05334282
S        23.59177399     16.15803719      7.20683050
S        21.77338791     18.36704445      5.53459883
P        21.86989021     17.21904945      7.31785727
S        21.67012787     18.48521233      8.94457722
S        20.35948181     15.81909752      7.04392529
S        23.71376228     16.37936211     15.96829796
S        21.72208214     18.63947296     13.93867302
P        21.98724365     17.36491203     15.76683998
S        21.67778969     18.43230438     17.50394058
S        20.33912468     16.14876175     15.76918125
S        23.86063194     16.59111977     24.60667801
S        21.85231209     18.79344368     22.85577774
P        22.02505302     17.53306389     24.59327316
S        21.78540421     18.79255486     26.19446945
S        20.35718536     16.28258896     24.41063690
S        23.62070274     25.30426216      7.34731865
S        22.14548111     27.65974617      5.74700880
P        21.80689621     26.37239265      7.40158463
S        21.67892647     27.56530762      9.14473152
S        20.56818962     24.88988495      7.57206964
S        23.68960190     25.42268944     16.36581039
S        21.90367317     27.33904648     14.67133999
P        21.86076736     26.37601852     16.35350800
S        21.79232979     27.45151520     18.12239838
S        20.33385277     24.98201561     16.20555115
S        20.53538132     25.31458092     24.44999886
S        23.95290565     25.49429131     24.51888847
S        21.96306229     27.68364716     22.82410622
P        22.14000130     26.53608131     24.52066231
S        21.77527809     27.65983200     26.15451813
