864

Li      -94.60659027    125.21587372    195.77807617
Li       27.31318092     40.74344635    198.86198425
Li       45.12084579     95.57334900    139.29557800
Li     -140.90989685    349.95712280   -242.20530701
Li      -45.89062119   -141.24977112     46.51382828
Li      108.10370636     -5.88923550    162.61009216
Li     -201.90789795   -199.17941284   -102.85283661
Li       65.25894928    102.42555237   -125.11521912
Li       45.01778793   -159.89950562   -170.86021423
Li      351.46923828    107.41822815     48.69290924
Li     -292.59875488    167.62632751     37.56443024
Li       49.49222946    229.98471069     62.91988754
Li      -54.27975082   -131.19233704     92.11679077
Li     -313.50732422    142.20501709   -530.96923828
Li      152.89648438    -32.81888199    117.10960388
Li       48.88772964    294.14233398   -306.18246460
Li      -11.18251610    -96.62406921     -0.87492520
Li     -171.20526123     10.38564873    185.85942078
Li        1.69562829    502.59060669    -98.36076355
Li       56.84356308   -271.75402832    109.11273193
Li     -274.64706421   -217.59144592   -471.14321899
Li     -176.24189758   -103.34957123    -81.11107635
Li     -171.85659790    429.68103027     63.00198746
Li      320.49554443    166.60728455    108.72640228
Li      109.72851562    -76.64826202    151.60408020
Li      -80.42217255   -176.33296204      3.63148117
Li      227.49543762    204.42248535   -161.73277283
Li      -42.30292892    375.30941772    -77.26475525
Li      377.80529785    123.70227051   -153.19842529
Li      225.16226196   -282.24246216     -7.32004404
Li      153.51324463   -278.22518921    257.46728516
Li     -209.76252747   -484.38723755   -140.32600403
Li       36.13268280    107.26635742    101.19029999
Li      170.04843140     24.41345596      8.08930779
Li      460.30850220    463.25454712   -441.60198975
Li      153.13566589   -204.32780457    278.48278809
Li      -40.71642685    -66.72016907   -199.71417236
Li       79.38370514    363.48583984   -242.46594238
Li      -76.01274109   -158.29342651    -17.93959427
Li      174.82527161     19.53280258    304.57101440
Li       10.52838993   -468.45986938     25.39052963
Li       66.28806305    -81.05384827    215.40364075
Li      580.92687988    225.56373596   -157.40640259
Li     -192.65476990   -262.18063354   -229.51225281
Li      -66.94567871     62.93332291   -390.69186401
Li     -283.27880859    234.07867432    -22.07618141
Li      -41.61471939   -178.91490173     87.86592865
Li      174.26364136    378.23446655    262.47302246
Li      196.79539490    374.74386597    156.95549011
Li     -167.32179260    340.22015381   -110.44905090
Li      -50.62989426     40.84444809    -52.08615494
Li      195.71464539   -147.80270386      3.36287165
Li      -19.47321129     29.19477272    -81.01815796
Li       37.99403381     21.17037201    340.92358398
Li      126.70124054   -238.99082947    224.03007507
Li     -141.19433594    138.34329224   -254.59074402
Li      -71.83975220    300.91592407    -39.49345779
Li      287.11770630     91.00938416    -26.25394058
Li     -205.28839111   -295.80474854     54.20267487
Li      385.27340698    138.70477295    273.25939941
Li      257.16189575     74.03485870    299.65518188
Li      144.85145569    -71.96146393     29.04376602
Li       78.84238434    293.55969238   -136.98463440
Li      -77.95117188     31.30263901     99.07105255
Li     -102.43798828   -441.63482666    355.68829346
Li     -313.62368774   -215.19476318    364.16696167
Li       18.71617508    401.82598877    147.92123413
Li     -159.17503357     -1.04489696    242.58476257
Li      247.20982361    259.55697632   -216.57318115
Li      187.13796997     44.93159103    -29.43146515
Li     -304.80084229   -309.17694092     61.67847443
Li      122.39586639   -136.63255310    126.55303192
Li     -239.78131104   -338.86822510     46.00488663
Li      240.68516541    132.87953186    390.21728516
Li      162.41947937     79.43916321    375.11022949
Li     -339.75994873   -587.82568359    355.10647583
Li      201.10429382    -52.71836090   -123.89981842
Li      163.85629272    387.89236450    323.39407349
Li      134.11425781   -150.62722778    170.82919312
Li     -158.17959595    404.71234131    245.59071350
Li       87.40481567   -155.66333008   -143.87185669
Li      114.83654022    283.52340698     44.29840088
Li       66.93542480   -508.70245361    137.89262390
Li      -11.47335529    -59.59689331   -221.09709167
Li      135.85083008   -298.17022705     29.12208939
Li      113.59995270    137.73532104    253.83117676
Li      226.79454041    496.67990112    199.49172974
Li      -24.26295280     86.50774384     37.29448700
Li      188.20021057   -255.58796692    121.50837708
Li      -30.07762527    265.80398560    -58.10259247
Li       58.40863037    366.05206299   -165.40284729
Li      -67.00593567     61.44810104   -174.49798584
Li      135.46652222   -127.35864258   -365.69485474
Li       38.62742233    321.79992676    -58.28763580
Li      394.35244751     78.19430542   -288.55191040
Li      -11.12236309   -346.26913452   -276.76345825
Li     -180.04809570    345.45422363     53.99119186
Li      218.50346375    -46.06980133    267.51602173
Li       96.13776398    269.36886597     92.80987549
Li      360.82778931    154.46554565   -242.36695862
Li      256.83215332   -199.05491638     92.01705170
Li       27.94792175    506.05130005   -182.86331177
Li      311.48846436     76.09718323   -587.62744141
Li      109.09574890    385.12780762    139.32145691
Li     -171.05229187    230.46255493    -30.04085159
Li        6.35687017    -89.79294586    -68.76928711
Li       45.28681564    264.59323120     59.05402374
Li       31.00835419    -77.90882874    -58.60454178
Li      106.39896393    129.19511414    121.08726501
Li       49.55200195   -324.81973267    401.97705078
Li       96.52879333   -131.14942932    -21.58912086
Li     -132.09651184   -509.43258667   -475.39428711
Li      127.64827728    166.61878967    131.33184814
Li       96.26185608     -8.72379494    -85.79041290
Li      -66.83877563    303.55563354     -4.78796625
Li      -42.05348206    212.62153625   -156.91807556
Li      -76.58518219   -248.50099182    241.16555786
Li      299.01290894   -162.74488831    117.92853546
Li       24.24567795    109.80032349     62.38368225
Li        6.76506138    -16.83831596    333.82098389
Li      -63.09743881     18.58797455    160.21540833
Li     -361.28393555    300.52725220    -51.65764236
Li     -133.04672241    213.00151062     58.81991196
Li     -101.55593872     78.75480652   -178.89952087
Li      -40.55276871    378.92709351   -232.54193115
Li      100.51701355    433.64648438   -119.51712036
Li     -317.71899414   -378.17651367    215.05853271
Li      -45.42692947    285.03048706   -123.54522705
Li       87.95553589     41.10541534    142.81887817
Li     -318.57244873    -31.51503372   -229.71543884
Li     -206.20460510    -13.61590958     58.12751770
Li       45.37304306    -45.76963043     11.98732185
Li      -12.22433662   -212.23921204     33.14374161
Li       14.34996223    252.65469360    -60.65782166
Li      437.42236328    202.22546387    -59.22596741
Li     -241.36618042     49.76413345    465.05371094
Li       15.06999874    145.12379456    -38.76707458
Li     -180.09333801    161.82641602     66.90312195
Li     -123.27386475    296.21118164   -152.59573364
Li     -157.77424622   -143.35733032    177.32511902
Li     -219.35157776    434.04077148    -18.25356293
Li      100.95693970    234.91807556    -72.56156158
Li      210.03962708    390.65228271    172.90391541
Li       29.97989655     38.77498627    137.33593750
Li     -248.55654907   -214.59609985   -166.14535522
Li       23.16497231    165.77883911    355.53607178
Li      -55.10740662    -54.88311386     24.03011131
Li      -45.95596313    220.20347595   -200.00250244
Li     -218.74235535    228.88980103   -170.21768188
Li     -152.92312622   -154.87886047    -63.00322342
Li       70.09858704    330.57205200     -0.85545760
Li     -179.70895386    309.16897583   -271.84194946
Li      109.66026306   -228.26654053     16.21392250
Li       66.49129486    -87.05501556    470.20745850
Li      202.37509155     78.05692291    382.81130981
Li       14.71012402   -575.02972412     15.96189022
Li      -10.74139500   -150.40104675    130.82041931
Li      -83.82278442    -16.03466415     96.54415131
Li      142.68025208     12.39943790   -116.70526886
Li      342.77963257    129.24880981     76.27951050
Li      234.57542419    348.84243774    309.11636353
Li      -50.35756683      7.09786654    -99.10813141
Li     -102.00271606     29.14078522    422.95312500
Li       44.70744705    393.50222778    100.61809540
Li     -275.31994629    -81.15250397    -43.34172821
Li     -118.68167877   -205.88789368    206.49006653
Li      204.32125854   -316.25680542    240.62669373
Li      513.97912598   -211.58792114    496.82974243
Li     -261.37054443     52.02845383     87.20874023
Li      105.18682098    430.73059082   -284.66885376
Li      329.67108154     14.14943314    185.58683777
Li     -287.74172974    211.88394165    165.17881775
Li       79.63983917    197.17787170    274.54705811
Li      157.49662781    -61.37295151   -140.55676270
Li      -15.41149521    559.32263184      8.61105061
Li     -188.21916199    278.30105591    -68.48848724
Li      113.18111420   -375.12860107   -128.47904968
Li      332.61996460     62.80443573   -223.26448059
Li     -270.92318726    126.53353119     41.80661011
Li      135.14662170    -27.66292000    394.07968140
Li     -265.89834595     74.78727722     62.50468445
Li      258.46273804    315.40512085   -176.48547363
Li      174.80651855    174.06253052    -39.72922897
Li       58.00957489     95.32962036    262.06890869
Li      218.38755798     50.91129684    160.01789856
Li      127.92501831   -174.16357422   -345.00897217
Li     -361.66494751   -339.13073730    164.62429810
Li      136.18621826    -74.54223633   -195.13894653
Li       15.17884254    123.70179749    172.90286255
Li     -106.63540649   -145.48507690     21.34657478
Li      182.50952148    121.54177856    472.78454590
Li       84.17460632    -71.15798950    -43.27481842
Li     -231.47424316   -155.10569763   -399.91342163
Li       45.10392380    -46.00862503    381.02078247
Li     -132.45205688   -355.15704346    -81.69405365
Li     -279.84783936    243.13771057    -78.74971771
Li      213.41590881     44.50310516    309.24368286
Li      259.17401123    -74.20336914    492.73953247
Li     -361.05413818    -64.53077698    -90.34483337
Li     -111.66309357     36.99179459    236.43698120
Li      -13.75645256   -106.31671906    288.70608521
Li     -284.40173340   -252.47181702     41.77424240
Li      -32.01184845     92.53759003    228.65617371
Li     -327.09313965     19.25542068    211.13502502
Li       36.72215271     59.33792877    -59.95793533
Li     -119.17259216     72.34738159    131.34706116
Li     -291.87863159    560.58020020    266.72830200
Li      239.26936340     20.87241936   -174.99482727
Li     -161.94309998    364.13305664      3.36424708
Li      -28.25578690    136.87075806    308.64282227
Li      -42.34943390      1.09497714    -56.08999634
Li      170.00103760    -73.29066467      7.28976727
Li      -20.13245773    279.94110107     45.48569107
Li      110.35461426    257.30944824    193.95249939
Li       79.89539337    -91.53404236     24.16836166
Li     -110.76301575     -2.38727260    274.37606812
Li     -378.81744385    -37.77244568    -51.17989731
Li      209.06654358     53.21413422     96.09166718
Li      235.31166077    200.91569519    105.07846069
Li      -88.79590607   -361.51379395   -165.44465637
Li     -286.93664551    169.63612366   -102.29174805
Li      137.52984619    369.14947510   -151.04635620
Li       27.45033264    328.35647583   -387.35446167
Li     -171.11369324     13.37571335    253.17060852
Li       19.18127823   -245.73590088     54.71417618
Li      196.48985291   -116.87057495    101.18689728
Li      133.14138794    301.19110107    -15.83011913
Li      127.70651245   -206.83003235   -123.92685699
Li      362.66705322    170.51239014   -312.65762329
Li       96.63111877   -365.83584595   -352.40142822
Li      -33.38747406    -86.33270264     15.52253246
Li      -57.80474854    318.18710327      3.33493209
Li      -23.91738892    -81.69560242   -216.67849731
Li      -88.94022369    255.71879578     42.08707428
Li       89.11905670    249.75593567     11.84768772
Li      598.33502197    357.97998047    219.80604553
Li       92.05703735   -104.83769226    258.03952026
Li      209.86369324    195.75976562    -51.52379227
Li        5.38450956    191.40771484    -26.30652618
Li     -122.09790802    211.52464294     81.78387451
Li       41.16267014    109.53461456   -462.81524658
Li     -213.83277893     56.02515793     20.14984703
Li     -138.26135254    191.38259888    -86.49777985
Li     -236.10993958    -11.36938858     83.59361267
Li       92.32110596    371.14846802    105.76584625
Li      -26.31993675   -384.62185669    133.63093567
Li       75.00975037    -19.05484962    -54.97740173
Li      178.61254883     63.05642319   -162.42286682
Li      -67.49820709   -176.70021057   -297.79220581
Li      140.35379028     -6.94548368     96.67318726
Li     -326.68215942     20.67209816   -174.51113892
Li      247.46742249    306.45306396     -3.31390619
Li      269.36557007    101.52632141     42.23152161
Li     -456.67083740   -290.36941528    228.41224670
Li       -8.43494701    528.50219727    167.00651550
Li     -102.43540192     54.22454834    -47.23353958
Li      538.02062988    125.47502136    182.02703857
Li     -166.33534241   -246.54974365   -260.23947144
Li       56.57880020    321.19891357    185.11798096
Li      115.04580688   -160.04772949    323.73248291
Li      595.02551270   -164.58187866   -151.24777222
Li       58.42239380    354.24063110     67.02058411
Li      -19.32871819    -68.94171143   -233.43464661
Li       32.74502563   -233.52755737     49.98335648
Li      -84.78256989   -402.12615967    143.10557556
Li       67.13949585    139.14082336     12.18128204
Li     -268.82510376   -282.85974121   -296.51275635
Li     -252.66566467   -264.82653809     29.05058861
Li      -40.51516342   -172.76037598    327.30307007
Li      -42.01073456    -62.40783691   -344.24502563
Li     -218.23362732     31.20948792     97.23738098
Li      490.56521606    151.13026428     50.02743530
Li       70.55752563    262.24777222   -157.64299011
Li      152.81762695   -171.15101624    287.45758057
Li      -84.58153534    152.64633179    151.08876038
Li     -214.49311829   -290.79409790   -327.41384888
Li     -223.03463745    460.34561157     66.89443207
Li       86.79187775   -158.71438599   -316.81137085
Li       66.19699860    -30.84818268   -127.82777405
Li     -192.82182312    533.96527100    147.85795593
Li     -162.15194702    158.08244324    105.45200348
Li      -21.86475754    180.47050476    -62.07001114
Li      139.54179382     95.27673340     88.50666046
Li       82.03060150    198.14915466     31.14815903
Li       14.86862850    141.97557068   -330.92309570
Li       32.55135345    212.57647705    164.90058899
Li      319.64791870     -4.25588655    143.15228271
Li      199.78718567     61.64929199    195.80790710
Li      144.26873779   -461.04379272    105.20719147
Li      114.99861145     17.24237823   -341.68167114
Li       10.36554241     -1.65099311   -200.05526733
Li      281.49191284    437.61322021     86.28415680
Li      -84.68801880   -215.17643738    126.90803528
Li      212.80587769   -223.34490967    -59.31330109
Li      101.18510437   -203.99050903   -374.56915283
Li     -282.92276001     17.13048935    159.93095398
Li     -149.57191467    -24.22266006     83.86721802
Li      234.58105469    405.42349243   -195.36235046
Li      -15.31517982     37.92316818   -178.49743652
Li      -51.38595963    109.43171692    312.16088867
Li      113.20581818    163.84626770    181.21777344
Li     -232.05010986    -11.04511547     17.01931763
Li      -10.66935635    555.10351562    198.75160217
Li      -20.22955322   -328.33261108    -98.48466492
Li      -97.32457733   -155.25790405    279.91760254
Li       -1.98713231    309.87359619   -462.69277954
Li     -131.21153259     69.63823700    121.57440948
Li     -261.32202148   -201.88261414    -59.64656830
Li     -304.84918213      8.83691978   -344.14031982
Li      170.67251587    251.52107239    -57.52241135
Li     -209.23255920   -433.21603394   -161.81413269
Li      276.70101929    136.84738159   -273.39486694
Li      -36.74150085    184.35444641    224.15849304
Li      -82.44391632   -233.01693726    213.15252686
Li     -123.37937164     73.51113129    113.59814453
Li      234.89366150   -115.78238678    338.48925781
Li        5.96764088   -176.53703308   -178.98316956
Li      148.36126709    167.95040894   -157.63023376
Li      -88.48906708   -110.72033691   -226.52613831
Li     -192.58834839    -22.17253494   -289.17352295
Li      330.14495850    533.23083496    -43.22090912
Li      122.29343414   -301.15411377    215.31709290
Li     -231.76736450   -424.29547119     66.86788940
Li      227.45872498    118.99535370    143.74078369
S        -0.60456592      2.60093856     -0.57998496
P        -0.69175744      4.02703524      1.14744771
S         0.87944376      5.20257521      1.05826867
S        -2.66973758      4.88730288      1.30847502
S        -0.35765040      2.74760079      2.86838198
S        -0.14732644      2.90300202      8.23702240
P        -0.33079857      4.04269409      9.87817192
S         1.45080662      5.54729986      9.81431484
S        -2.11100054      5.07033491     10.10899067
S         0.05626199      3.02087545     11.65547943
S        -0.66990250      3.17931104     20.13987350
S        -0.76866251      3.20187068     16.59017944
P        -0.75030166      4.16560841     18.41665459
S         0.74757743      5.64123583     18.06629944
S        -2.47174764      5.05415630     18.47782707
S        -0.11318902     12.18515587      3.12012148
S        -0.05645467     12.18280697     -0.42119139
P        -0.01078257     13.28240585      1.35830390
S         1.26791275     14.83882046      1.01733828
S        -1.86276996     14.32108593      1.57227004
S        -0.21651401     12.13322926     11.12781715
S        -0.56577104     11.95344830      7.80136681
P        -0.36651391     13.24863338      9.35427666
S         1.12604976     14.60093498      9.44509888
S        -2.24713230     14.02226734      9.57265091
S         0.28565499     11.86335087     19.99167633
S        -0.17665042     11.62515831     16.49719238
P         0.21212356     12.81404591     18.13325119
S         1.66388190     14.22990227     18.30487823
S        -1.79745400     13.59472084     18.33545876
S        -0.15756038     21.35177994      3.33050084
S        -0.72198075     21.32449341     -0.58334470
P        -0.62837946     22.27028656      1.28262508
S         0.95803362     23.71689224      1.28078890
S        -2.48556256     23.31040001      1.26849544
S        -0.34727925     21.26121902     11.71135807
S        -0.47334543     20.98884392      8.22343445
P        -0.27632546     22.22106552      9.97510242
S         1.22734463     23.52841568      9.92839146
S        -2.23680353     22.88539886     10.28670120
S        -0.30997080     21.12982368     19.89264488
S        -0.71389538     21.10601997     16.72063255
P        -0.66021031     22.26886940     18.25364304
S         0.89575219     23.70535088     18.18745232
S        -2.51587129     23.25045395     18.26674843
S         8.11598682      3.55303311      3.00701642
S         7.78383875      3.38985085     -0.54512233
P         7.96367168      4.50524044      1.28737462
S         9.42382622      5.90345430      1.18090284
S         5.92732573      5.44324684      1.35508156
S         8.46813583      2.49680877     11.86087418
S         8.18735409      2.46972990      8.29953575
P         8.15366173      3.80417180     10.01218891
S         9.76719189      5.12450504      9.89217663
S         6.33481932      4.64058924     10.12827778
S         8.96467686      3.42264557     19.94182396
S         8.58962345      3.30192590     16.52028656
P         8.54121494      4.64558220     18.14466667
S        10.05136013      5.85699558     18.17925262
S         6.62529659      5.58447170     18.29534912
S         8.88547897     12.32532215      3.26799607
S         8.51977825     12.25814152     -0.25652343
P         8.56165600     13.39820290      1.58358300
S        10.18428230     14.73108673      1.38622117
S         6.75987864     14.22213840      1.53259706
S         6.23397064     14.09899521     10.13422871
S         8.45998669     12.15377998     11.74839687
S         8.09224415     12.11772537      8.52650166
P         8.06787205     13.36710358     10.15871525
S         9.75104046     14.55755997     10.00964832
S         6.49763536     13.91111469     18.51230049
S         8.63244820     11.98692989     20.03216743
S         8.46265888     11.87650585     16.63638687
P         8.49790192     13.10944653     18.29042053
S        10.04566574     14.37601948     18.18478203
S         6.16573811     23.01494026      1.44840240
S         8.38115692     20.94908905      3.16147614
S         8.07475567     21.00556183     -0.20513241
P         8.19093895     22.17332840      1.43971837
S         9.70007038     23.48148727      1.23829389
S         5.98867702     22.91064835      9.78643513
S         8.14623165     20.75754547     11.45454216
S         7.85023022     20.66164398      7.93972397
P         7.91998339     21.92373466      9.54414272
S         9.31384945     23.28846359      9.58579063
S         6.14602566     22.82468224     18.82328606
S         8.17292213     20.87555122     20.39168549
S         8.03764343     20.73094368     16.80450439
P         8.10407066     21.91786194     18.50686836
S         9.64240360     23.37172318     18.45118523
S        14.80944061      4.71975374      1.61588645
S        17.04523087      2.97348309      3.36259937
S        16.73543358      3.03296399     -0.07793500
P        16.82250404      4.08275890      1.59872413
S        18.57627869      5.30006838      1.38808382
S        18.67730904      5.33067369      9.76654243
S        15.16031742      4.73693705      9.92380142
S        17.25109100      2.82613707     11.39819622
S        16.93536186      2.62155008      8.15520954
P        17.03686333      4.03909349      9.61728573
S        18.49515152      5.04559231     18.12730217
S        15.02797604      4.73996115     18.61774635
S        17.16997528      2.75375509     20.22998047
S        17.14124870      2.78413081     16.66902542
P        16.83005905      3.72536564     18.44336319
S        18.61070251     14.22261620      1.25387657
S        14.99604416     13.88308716      1.47154605
S        17.33263969     11.95960617      3.12876844
S        17.03687668     11.92950821     -0.28800118
P        16.88266373     13.02529335      1.49480677
S        18.25801659     14.17181873      9.76523972
S        15.02314949     13.76117802     10.00207329
S        17.06961060     11.83067131     11.80014610
S        16.78951836     11.88167191      8.22208309
P        16.72720528     12.73290443     10.05426979
S        19.02365303     14.21367931     18.26590157
S        15.35516548     13.69048977     18.49032784
S        17.56519699     12.00788498     20.22086334
S        17.25774956     11.91173077     16.56552505
P        17.32599449     12.84607601     18.37052155
S        18.60944557     23.26044655      1.46170330
S        15.08747768     22.78052330      1.73380506
S        17.21301079     20.92593575      3.26275754
S        16.99341011     20.83915710     -0.04831938
P        16.96073532     21.99513245      1.57082605
S        18.38758087     23.39127350      9.82985687
S        14.89014626     22.92176819     10.18630886
S        16.99835587     20.93014145     11.87116337
S        16.83312798     21.07060051      8.51771069
P        16.77346039     22.19265175     10.23935890
S        18.37812614     23.00288773     17.92283249
S        15.15004921     22.55529404     18.35908318
S        17.05129242     20.48855591     19.79330063
S        17.01248169     20.33448792     16.36557579
P        16.95613098     21.51869583     18.08145905
S         9.54298496     -2.91758823      5.44307804
S         7.83804226     -0.83274037      3.65661478
S         6.21405506     -3.40664577      5.41466188
S         7.62759161     -0.89466709      7.16966152
P         7.71290207     -1.98593056      5.31164312
P         7.60949898     -1.85614395     14.22230339
S         9.33669090     -3.00487876     14.36187267
S         7.50738049     -0.75909865     12.46207333
S         6.17776299     -3.27916074     14.23715496
S         7.40772200     -0.87519103     15.99022102
P         8.12589169     -1.67890620     22.59918022
S         9.83124828     -2.71618748     22.80337906
S         7.87068081     -0.44216812     21.04119492
S         6.47549343     -3.05646634     22.55875969
S         7.89035034     -0.52339596     24.21068764
P         8.05045128      7.42477274      5.86977196
S         9.87531185      6.27757645      5.88660860
S         8.09536076      8.52353954      4.23029613
S         6.52659416      5.80271482      5.79346418
S         7.93957520      8.59180546      7.61194944
P         8.54963017      7.25440168     14.08130169
S        10.50266075      6.17457771     14.08454609
S         8.84910679      8.33562469     12.52659035
S         7.22443581      5.78643560     14.27056313
S         8.44031143      8.20034981     15.71571541
P         8.42313290      7.45161629     22.29941559
S        10.30753326      6.73391390     22.43933678
S         8.32548046      8.61098957     20.55874062
S         6.66712809      6.28656578     22.23199654
S         8.27298927      8.62304401     24.15773201
P         8.22506046     16.17913246      5.92190695
S        10.15020561     15.32933331      5.86999607
S         8.26040840     17.40549850      4.07345200
S         6.72749615     14.89841080      5.66487360
S         8.21309376     17.44897842      7.55876398
S         7.74450970     17.64153099     15.84858227
P         7.87329102     16.59978294     14.01718903
S         9.68433857     15.55536079     14.03796387
S         7.91299963     17.53985405     12.35089493
S         6.38485670     15.14827156     13.95402718
S         8.00185966     17.31181717     24.21745682
P         8.02887630     16.06236267     22.69301224
S         9.93444347     15.10758686     22.79436874
S         7.97990131     17.35671806     21.06668854
S         6.48891878     14.68476582     22.53906059
S        16.39896393     -1.07148886      7.44423819
P        16.57456589     -2.05888200      5.73452997
S        18.52017403     -2.89740610      5.70683908
S        16.66196823     -0.96710926      3.88738036
S        14.90988064     -3.34412169      5.71928310
S        16.37856674     -1.17382348     15.84964180
P        16.42805290     -2.11897802     14.05519676
S        18.21676064     -3.01405573     14.11849117
S        16.60268784     -1.10062492     12.32978439
S        14.87416363     -3.60651040     14.10174847
S        16.65564728     -1.21206367     24.09313774
P        16.94929314     -2.38416100     22.53770447
S        18.79788589     -3.32013392     22.41844559
S        16.82110023     -1.20186257     20.68621063
S        15.30453873     -3.60916591     22.33480453
S        16.73160172      7.94349670      7.45120430
P        16.85266495      6.78019667      5.67887640
S        18.60341835      5.83803654      5.79682779
S        16.68889236      7.89169931      3.94345117
S        15.27553558      5.45765591      5.50753784
S        16.56982613      7.91146040     15.68544579
P        16.64544678      6.97639132     13.94118500
S        18.63443375      6.00390434     13.96537495
S        16.76948929      7.95279455     12.18672276
S        15.12937641      5.59793568     13.91675663
S        15.36905956      5.63874865     22.68791389
S        16.76792908      8.05657482     24.45140648
P        16.84795761      6.99024343     22.64185905
S        18.78137970      6.11201620     22.63538933
S        17.06821823      8.10332012     20.87727928
S        15.13213539     14.68452740      5.50711966
S        16.74875641     17.29963875      7.22139978
P        16.61764336     16.20995331      5.43729639
S        18.59682083     15.30544281      5.63386011
S        16.86296463     17.32523727      3.93522811
S        15.23189449     14.52249336     14.27303123
S        16.54954338     16.95397186     16.04585266
P        16.68996811     15.92022419     14.16190720
S        18.51476669     14.92709923     14.27207470
S        16.79034424     16.98451996     12.51578045
S        15.41350555     14.44888401     22.46459770
S        16.78638268     16.62767410     24.30661964
P        16.97144318     15.67592525     22.43901634
S        18.74211311     14.80221844     22.57383156
S        16.91621971     16.72097778     20.62463760
S        23.38905334     -3.17489433      5.41599798
S        24.89746094     -0.70926297      7.38862753
P        24.75204086     -1.73870587      5.52517128
S        26.66074562     -2.69702291      5.69333076
S        24.86377144     -0.71603948      3.74938941
S        23.38361931     -3.53605771     14.28771305
S        25.02332878     -1.15039849     15.99171066
P        25.03320503     -2.31454682     14.30183220
S        27.01859856     -2.97755790     14.38554096
S        25.17271996     -1.06613612     12.60487747
S        23.51054573     -3.35619235     22.34257126
S        25.15300179     -0.91177011     24.19797707
P        25.10740471     -1.95912194     22.52470970
S        27.02428627     -2.87768936     22.68602753
S        25.05207062     -0.84812474     20.73774719
S        23.80975533      5.75528526      5.32273483
S        25.25730324      8.21231842      7.11350632
P        25.40713310      7.00142813      5.33714771
S        27.18132019      6.11104679      5.58522177
S        25.22965813      8.23877335      3.76518416
S        23.74173737      5.65294886     13.85569668
S        25.33668900      8.19544792     15.59470463
P        25.42928886      7.10118198     13.89987946
S        27.18950081      6.13435030     14.16176033
S        25.26222420      8.29103851     12.28778744
S        24.40345764      6.15349960     22.54071617
S        25.60019684      8.70879936     24.30609894
P        25.84255600      7.55992174     22.61989212
S        27.50344276      6.47593164     22.59701538
S        25.77980614      8.64099789     20.98719788
S        25.76869965     17.54573250      3.66822433
S        24.22496414     14.95230484      5.39766312
S        25.57524490     17.55237770      7.25007010
P        25.81412506     16.37657738      5.49985504
S        27.51460648     15.38146591      5.45176411
S        25.52297020     17.03799629     12.22061062
S        23.81532669     14.62686348     13.93652153
S        25.37638283     16.91406059     15.60161781
P        25.54773140     15.78345680     13.87784576
S        27.49960899     15.05394745     14.03333282
S        25.57392883     17.20565224     20.81049919
S        24.26520538     14.82216072     22.34937286
S        25.54479027     17.31515312     24.29266930
P        25.72747040     16.16015816     22.55512238
S        27.45422935     15.10107327     22.56630707
S         5.55315113      1.49547327      1.35430050
S         4.08840179     -0.88978928      3.27359748
S         3.93880320     -0.85116440     -0.12889656
S         1.93881035      1.01896453      1.67580879
P         3.82046390      0.20071118      1.70820653
S         5.29141998      0.67550528      9.79040051
S         3.93432379     -1.89044571     11.64929485
S         3.60695863     -1.94839716      8.07859898
S         1.85591090      0.11380515      9.92970276
P         3.70288301     -0.79237312      9.94147301
S         5.52095032      1.16077733     18.22308540
S         4.16185522     -1.40272355     19.98561287
S         3.72135568     -1.41604149     16.58682823
S         1.90334702      0.61120760     18.25037766
P         3.80618763     -0.32369903     18.26153374
S         5.39688540      9.98954201      1.32306147
S         4.00358295      7.49007177      3.34640503
S         3.72360182      7.56151772     -0.28721857
S         1.80281198      9.49365902      1.53702867
P         3.77708316      8.68809319      1.55443335
S         5.57194376      9.86597252      9.74394798
S         4.28996563      7.43916082     11.42806911
S         4.10207558      7.25173521      8.05436707
S         2.13294816      9.49366951      9.98747921
P         3.97198558      8.44645691      9.76930904
S         5.55261421      9.55870342     18.00337601
S         4.05250788      7.14812183     19.86382294
S         3.99638796      7.04089308     16.39945221
S         1.99377763      9.06815815     18.39985847
P         3.86696744      8.08659172     18.12383270
P         3.99926591     17.43379593      1.31132805
S         5.52134180     18.77678490      1.28637993
S         4.16802740     16.35910034      2.97335768
S         4.01154470     16.18541718     -0.35591665
S         2.10548663     18.33246422      1.55824661
P         4.23092890     17.78394318      9.76788235
S         5.57728577     19.11582184      9.56293774
S         4.28441238     16.68564224     11.70284462
S         4.32348824     16.78284645      8.09133530
S         2.19988894     18.83365250     10.07870770
P         3.87484431     17.52202797     18.30217743
S         5.26692677     18.92726326     18.43591881
S         4.32239342     16.39742851     20.14735222
S         3.63935566     16.38613129     16.64687347
S         2.07717776     18.52408218     18.20971489
P        12.85145760     -0.33584401      1.23435163
S        14.43506908      0.83822173      1.05277014
S        12.93240547     -1.53754032      2.79358959
S        12.78707695     -1.64688575     -0.50850457
S        10.75774384      0.35206544      1.35640061
P        12.49075794     -0.17221650      9.84700108
S        14.01175690      1.19027877      9.67301750
S        12.69187069     -1.37779379     11.37753296
S        12.40291786     -1.41524363      8.14524841
S        10.62865257      0.67094356      9.82274055
P        12.55575657     -0.48239449     18.63466454
S        13.98749924      0.91544777     18.53234482
S        12.84530354     -1.74107194     20.10314369
S        12.36182022     -1.77614462     16.97705841
S        10.67457962      0.44202983     18.47877502
P        12.73098660      8.81995296      1.72446334
S        14.35859680     10.07338142      1.44561577
S        12.95514870      7.90632534      3.46993232
S        12.68316174      7.93644238     -0.22678797
S        10.83364773      9.58350754      1.66475189
P        12.67347145      8.68162155      9.84685040
S        14.29148102      9.81884480      9.81075859
S        12.96473408      7.42266941     11.51466179
S        12.49955463      7.40981722      8.20623302
S        10.64324570      9.33018780      9.80863857
P        12.78315449      8.57742405     18.41742897
S        14.33372593      9.84310913     18.47383690
S        13.01305294      7.38276911     20.06105614
S        12.70157146      7.20150757     16.79945755
S        11.01136112      9.29917908     18.58208466
P        12.37867641     17.73777008      1.51272523
S        14.09567642     19.07549477      1.43613577
S        12.66196728     16.85234833      3.37398195
S        12.44582558     16.79285431     -0.26929873
S        10.56302071     18.58043861      1.69339240
S        10.88129997     19.00593185     10.14505768
P        12.86813736     18.16200066      9.95194340
S        14.35846233     19.49734688      9.84460735
S        12.92117405     17.28624725     11.74563313
S        12.75879860     17.20727730      8.17574024
S        12.33216000     16.54762268     16.81735420
S        10.58668518     18.55652046     18.51793671
P        12.42697239     17.74988365     18.52518082
S        13.89710712     18.96697235     18.47534752
S        12.73990822     16.58040810     20.23016167
S        21.12168694     -1.76993358     -0.47951096
S        19.03260040      0.25111195      1.31232214
P        21.06959152     -0.64520919      1.13849080
S        22.75777435      0.66775292      1.06731820
S        21.35097885     -1.78481209      2.94524574
S        21.23088837     -2.17949176      8.25622654
S        19.46885872      0.12573317      9.90308952
P        21.18163490     -1.00549769      9.89499569
S        22.79230309      0.61771536      9.80508137
S        21.56363297     -2.12737346     11.46072674
S        21.06869316     -1.61084938     16.64202881
S        18.93176651      0.33684334     18.50159264
P        20.90137863     -0.49951264     18.34337807
S        22.59676743      0.73118645     18.10726929
S        21.13965416     -1.62352669     20.01421547
S        21.25568962      7.58167553     -0.29254577
S        19.41008186      9.63254166      1.60981905
P        21.29041862      8.66721153      1.39264321
S        22.72318459     10.10926437      1.27594376
S        21.38492203      7.56167078      3.26065707
S        21.61288261      7.32444048     11.14116764
S        21.38770294      7.32335329      7.61765337
S        19.32913208      9.39608765      9.47530842
P        21.22773170      8.42821217      9.43482018
S        22.82871056      9.67839909      9.23093796
S        21.41381645      7.54343414     20.07240677
S        21.27335739      7.49786186     16.71719170
S        19.42471313      9.51107025     18.55591774
P        21.26696396      8.71261692     18.36014175
S        22.79957581     10.00807285     18.25317192
S        21.59222984     16.21422577      3.05110097
S        21.27450752     16.18791962     -0.33076116
S        19.53602982     18.41387749      1.39912224
P        21.27868080     17.43125153      1.32446814
S        22.76947975     18.86460114      1.27421689
S        21.77334023     16.83499908     11.77958393
S        21.31106758     16.88469696      8.26132774
S        19.54253769     18.87257957      9.92725945
P        21.35074997     17.83934784     10.07816887
S        22.85826111     19.23417473      9.91959667
S        21.88274193     15.93876457     19.95508003
S        21.73136711     16.09168243     16.53901482
S        19.78820419     18.18942261     18.26048279
P        21.65672874     17.22859573     18.27167702
S        23.15150642     18.59087753     17.94013023
S         3.82314181      4.03078365      7.42539454
S         2.57238483      1.35775733      5.60337925
S         5.70186186      1.64823020      5.79905510
S         3.87681651      3.99506474      4.06817818
P         3.94687080      2.74875283      5.74252224
S         3.46409202      3.53975487     15.62039661
S         2.28672504      1.23170257     14.00118351
S         5.66503334      1.47547829     13.86621284
S         3.85410142      3.63041878     12.19290924
P         3.81514692      2.43928552     13.91518402
S         3.15534806      3.81509829     24.06801796
S         1.80167830      1.19993198     22.19833374
S         5.15772581      1.58005285     22.27371788
S         3.34802485      3.80051661     20.48915672
P         3.34014225      2.55065274     22.31633759
S         3.59094596     12.88174248      7.26556158
S         2.36309123     10.19123936      5.51590443
S         5.57714462     10.54166317      5.51046896
S         3.85163832     12.89777470      3.81247020
P         3.90610909     11.72830963      5.52067327
S         3.91783929     12.76035786     15.86486244
S         2.50020385     10.23040771     13.87604237
S         5.92812443     10.58096313     14.06029320
S         4.01328707     12.61859322     12.33069706
P         4.17159319     11.58456230     14.08210754
S         3.72016072     12.88311768     24.25285721
S         2.38078117     10.53652477     22.53688622
S         5.70117378     10.88477421     22.60490799
S         3.90121102     12.99884892     20.76681900
P         3.91599727     11.90827560     22.44801712
S         2.91695499     21.35951614      7.24904871
S         1.77245569     19.15645218      5.54151344
S         5.23148632     19.34023285      5.36796856
S         3.35738158     21.44422340      3.61887121
P         3.42984986     20.43590736      5.50303268
S         3.44991851     21.88403893     15.92001247
S         2.11803532     19.36628723     14.25496483
S         5.50240088     19.62950516     14.42126656
S         3.53046727     21.93691635     12.71078587
P         3.60142303     20.70246887     14.30299568
S         3.33305383     21.91560173     24.17553711
S         1.90808475     19.53338623     22.65575600
S         5.37431288     19.86611176     22.79581261
S         3.42802882     22.15643692     20.94664001
P         3.61888146     20.86983299     22.58984947
S        11.77842236      3.58675337      7.22679138
S        10.51028347      1.05446017      5.61365318
S        13.86676121      1.34529662      5.63278913
S        12.00801849      3.62239099      4.02829552
P        12.07562351      2.37930155      5.52694845
S        12.57756615      3.45569706     16.12621880
S        11.20037460      0.84788954     14.34114170
S        14.51346302      1.26617312     14.42489624
S        12.75426483      3.42226505     12.75331211
P        12.71430111      2.14217019     14.39829063
P        12.39016533      2.26543927     22.88100624
S        12.27999783      3.41180515     24.46509552
S        10.67704391      1.17636800     22.59175110
S        14.37907028      1.58345950     22.77729797
S        12.37686157      3.35268354     21.03363991
S        12.59591484     12.67852402      3.75354314
P        12.71706772     11.39539051      5.43207932
S        12.61156368     12.64810944      7.21051073
S        11.08254051     10.29076195      5.35735893
S        14.52985382     10.68165112      5.63240576
S        12.45963001     13.02724361     12.85986710
P        12.77654362     11.70001221     14.56440735
S        12.42231941     12.97053337     16.05783844
S        11.18005848     10.55073738     14.38916016
S        14.54085827     10.67791653     14.59679222
S        12.66439915     12.48915482     20.76893425
P        12.60279655     11.19485283     22.30276489
S        12.37213898     12.29271126     24.05986786
S        11.07387829      9.91110420     22.55469131
S        14.49912643     10.22965813     22.50242615
S        12.47194672     21.88111115      4.12603235
P        12.44037628     20.75087547      5.79501009
S        12.19579983     22.00587082      7.49025011
S        10.73186111     19.69344902      5.67326641
S        14.44907188     20.03995323      5.68445635
S        12.24489307     21.94426155     12.76901531
P        12.44694901     20.76425362     14.38483620
S        12.32244015     21.96890450     15.93557644
S        10.71711349     19.37492752     14.15579224
S        14.21973515     19.82011223     14.49216175
S        12.26595783     21.98192406     21.01144981
P        12.29060650     20.77801704     22.63775826
S        12.04821682     21.88106728     24.29598236
S        10.67817879     19.53040314     22.68418884
S        14.11327839     19.87939262     22.71663857
S        21.34932899      3.75487471      3.99498582
P        21.51731682      2.57896972      5.69672966
S        21.21327019      3.73018646      7.44671202
S        19.77501869      1.27240336      5.65138149
S        23.32034874      1.60960972      5.78171825
S        21.19635582      3.43358254     12.30186653
P        21.16718864      2.13927984     14.00024891
S        20.97227859      3.52821851     15.49703598
S        19.51731873      0.94088221     13.76750946
S        23.14496422      1.32103765     13.81973457
S        20.86828232      3.58067131     20.65207481
P        20.74041939      2.58143473     22.59112549
S        20.63846397      3.50690484     24.39246368
S        19.13586617      1.34227788     22.52442741
S        22.65281105      1.79799283     22.56795883
S        22.84834099     10.54789257      5.58750582
S        20.90486717     12.94382381      4.05094194
P        21.03552055     11.73593998      5.72916746
S        20.68643379     13.07407475      7.33455515
S        19.53287125     10.36626911      5.53979158
S        23.37587547     10.69692421     13.67111588
S        21.24631882     12.39256668     11.77380371
P        21.33882713     11.51294231     13.61637306
S        21.12301064     12.38126373     15.42085743
S        19.66544724     10.48891354     13.51505375
S        23.29685402     10.83537483     22.68917656
S        21.57415581     12.90097523     21.00905800
P        21.48722267     11.58927155     22.71895981
S        21.21492004     12.77725983     24.37426567
S        19.80743217     10.37735558     22.79133797
S        23.15477371     19.57110786      5.41741228
S        21.52793312     21.65830231      3.89332223
P        21.33784103     20.51799965      5.51641607
S        21.17275238     21.60568810      7.06253910
S        19.89637375     19.15267754      5.52557087
S        22.93682480     19.42704964     14.00004101
S        21.05204391     21.53607559     12.60256386
P        21.08014870     20.30605698     14.14893341
S        20.70199966     21.65584183     15.74250984
S        19.39934921     19.11591721     14.07724190
S        19.27303123     18.89610291     22.35490608
S        22.83887291     19.26071739     22.48676109
S        20.88895416     21.20822144     20.79963493
P        20.83689117     20.25802994     22.50860214
S        20.73091698     21.38633919     24.36687851
